# Time-averaged data for fix Re_Primary
Step Lx Ly Lz StrainY StressYY
200 60.2424 130.147 55.7198 5.025e-05 -0.00605035
400 60.2424 130.16 55.7198 0.00015025 0.0410228
600 60.2424 130.173 55.7198 0.00025025 0.0554697
800 60.2424 130.186 55.7198 0.00035025 0.0610846
1000 60.2424 130.199 55.7198 0.00045025 0.0383542
1200 60.2424 130.212 55.7198 0.00055025 0.0905195
1400 60.2424 130.225 55.7198 0.00065025 0.0906197
1600 60.2424 130.238 55.7198 0.00075025 0.0919823
1800 60.2424 130.251 55.7198 0.00085025 0.106351
2000 60.2424 130.264 55.7198 0.00095025 0.120698
2200 60.2424 130.277 55.7198 0.00105025 0.0736163
2400 60.2424 130.29 55.7198 0.00115025 0.165869
2600 60.2424 130.303 55.7198 0.00125025 0.128518
2800 60.2424 130.316 55.7198 0.00135025 0.144699
3000 60.2424 130.329 55.7198 0.00145025 0.187042
3200 60.2424 130.342 55.7198 0.00155025 0.1531
3400 60.2424 130.355 55.7198 0.00165025 0.184043
3600 60.2424 130.368 55.7198 0.00175025 0.18135
3800 60.2424 130.381 55.7198 0.00185025 0.215628
4000 60.2424 130.394 55.7198 0.00195025 0.198223
4200 60.2424 130.407 55.7198 0.00205025 0.21894
4400 60.2424 130.42 55.7198 0.00215025 0.223718
4600 60.2424 130.433 55.7198 0.00225025 0.270154
4800 60.2424 130.446 55.7198 0.00235025 0.249802
5000 60.2424 130.459 55.7198 0.00245025 0.242063
5200 60.2424 130.472 55.7198 0.00255025 0.282127
5400 60.2424 130.485 55.7198 0.00265025 0.297089
5600 60.2424 130.498 55.7198 0.00275025 0.293944
5800 60.2424 130.511 55.7198 0.00285025 0.306869
6000 60.2424 130.524 55.7198 0.00295025 0.316554
6200 60.2424 130.537 55.7198 0.00305025 0.328196
6400 60.2424 130.55 55.7198 0.00315025 0.334028
6600 60.2424 130.563 55.7198 0.00325025 0.362892
6800 60.2424 130.576 55.7198 0.00335025 0.362963
7000 60.2424 130.59 55.7198 0.00345025 0.357095
7200 60.2424 130.603 55.7198 0.00355025 0.379105
7400 60.2424 130.616 55.7198 0.00365025 0.403804
7600 60.2424 130.629 55.7198 0.00375025 0.411154
7800 60.2424 130.642 55.7198 0.00385025 0.422567
8000 60.2424 130.655 55.7198 0.00395025 0.413052
8200 60.2424 130.668 55.7198 0.00405025 0.43989
8400 60.2424 130.681 55.7198 0.00415025 0.42869
8600 60.2424 130.694 55.7198 0.00425025 0.454946
8800 60.2424 130.707 55.7198 0.00435025 0.500341
9000 60.2424 130.72 55.7198 0.00445025 0.451237
9200 60.2424 130.733 55.7198 0.00455025 0.483683
9400 60.2424 130.746 55.7198 0.00465025 0.515298
9600 60.2424 130.759 55.7198 0.00475025 0.504712
9800 60.2424 130.772 55.7198 0.00485025 0.534831
10000 60.2424 130.785 55.7198 0.00495025 0.526711
10200 60.2424 130.798 55.7198 0.00505025 0.538296
10400 60.2424 130.811 55.7198 0.00515025 0.553269
10600 60.2424 130.824 55.7198 0.00525025 0.56884
10800 60.2424 130.837 55.7198 0.00535025 0.56754
11000 60.2424 130.85 55.7198 0.00545025 0.598934
11200 60.2424 130.863 55.7198 0.00555025 0.591081
11400 60.2424 130.876 55.7198 0.00565025 0.603907
11600 60.2424 130.889 55.7198 0.00575025 0.618484
11800 60.2424 130.902 55.7198 0.00585025 0.645128
12000 60.2424 130.915 55.7198 0.00595025 0.622886
12200 60.2424 130.928 55.7198 0.00605025 0.660633
12400 60.2424 130.941 55.7198 0.00615025 0.67316
12600 60.2424 130.954 55.7198 0.00625025 0.658053
12800 60.2424 130.967 55.7198 0.00635025 0.688007
13000 60.2424 130.98 55.7198 0.00645025 0.697852
13200 60.2424 130.993 55.7198 0.00655025 0.682316
13400 60.2424 131.006 55.7198 0.00665025 0.745391
13600 60.2424 131.019 55.7198 0.00675025 0.724032
13800 60.2424 131.032 55.7198 0.00685025 0.710058
14000 60.2424 131.045 55.7198 0.00695025 0.777896
14200 60.2424 131.058 55.7198 0.00705025 0.769603
14400 60.2424 131.071 55.7198 0.00715025 0.744065
14600 60.2424 131.084 55.7198 0.00725025 0.7971
14800 60.2424 131.097 55.7198 0.00735025 0.77286
15000 60.2424 131.11 55.7198 0.00745025 0.804051
15200 60.2424 131.123 55.7198 0.00755025 0.82488
15400 60.2424 131.136 55.7198 0.00765025 0.806433
15600 60.2424 131.149 55.7198 0.00775025 0.858334
15800 60.2424 131.162 55.7198 0.00785025 0.818886
16000 60.2424 131.175 55.7198 0.00795025 0.870916
16200 60.2424 131.188 55.7198 0.00805025 0.86252
16400 60.2424 131.201 55.7198 0.00815025 0.900379
16600 60.2424 131.214 55.7198 0.00825025 0.882825
16800 60.2424 131.227 55.7198 0.00835025 0.902207
17000 60.2424 131.24 55.7198 0.00845025 0.912558
17200 60.2424 131.253 55.7198 0.00855025 0.911228
17400 60.2424 131.266 55.7198 0.00865025 0.946197
17600 60.2424 131.279 55.7198 0.00875025 0.941421
17800 60.2424 131.292 55.7198 0.00885025 0.943642
18000 60.2424 131.305 55.7198 0.00895025 0.974417
18200 60.2424 131.318 55.7198 0.00905025 0.988381
18400 60.2424 131.331 55.7198 0.00915025 0.996304
18600 60.2424 131.344 55.7198 0.00925025 0.991187
18800 60.2424 131.357 55.7198 0.00935025 1.01661
19000 60.2424 131.37 55.7198 0.00945025 1.04096
19200 60.2424 131.383 55.7198 0.00955025 1.03043
19400 60.2424 131.396 55.7198 0.00965025 1.03716
19600 60.2424 131.409 55.7198 0.00975025 1.07436
19800 60.2424 131.422 55.7198 0.00985025 1.05588
20000 60.2424 131.435 55.7198 0.00995025 1.10005
20200 60.2424 131.448 55.7198 0.0100503 1.06271
20400 60.2424 131.461 55.7198 0.0101503 1.11448
20600 60.2424 131.474 55.7198 0.0102503 1.09777
20800 60.2424 131.487 55.7198 0.0103503 1.12704
21000 60.2424 131.5 55.7198 0.0104503 1.15276
21200 60.2424 131.514 55.7198 0.0105503 1.14336
21400 60.2424 131.527 55.7198 0.0106503 1.14761
21600 60.2424 131.54 55.7198 0.0107503 1.17455
21800 60.2424 131.553 55.7198 0.0108503 1.15214
22000 60.2424 131.566 55.7198 0.0109503 1.2108
22200 60.2424 131.579 55.7198 0.0110503 1.19276
22400 60.2424 131.592 55.7198 0.0111503 1.22252
22600 60.2424 131.605 55.7198 0.0112503 1.22002
22800 60.2424 131.618 55.7198 0.0113503 1.21259
23000 60.2424 131.631 55.7198 0.0114503 1.2638
23200 60.2424 131.644 55.7198 0.0115503 1.23329
23400 60.2424 131.657 55.7198 0.0116503 1.28669
23600 60.2424 131.67 55.7198 0.0117503 1.26024
23800 60.2424 131.683 55.7198 0.0118503 1.27673
24000 60.2424 131.696 55.7198 0.0119503 1.29708
24200 60.2424 131.709 55.7198 0.0120503 1.32365
24400 60.2424 131.722 55.7198 0.0121503 1.3337
24600 60.2424 131.735 55.7198 0.0122503 1.32072
24800 60.2424 131.748 55.7198 0.0123503 1.34663
25000 60.2424 131.761 55.7198 0.0124503 1.36031
25200 60.2424 131.774 55.7198 0.0125503 1.35692
25400 60.2424 131.787 55.7198 0.0126503 1.36836
25600 60.2424 131.8 55.7198 0.0127503 1.40497
25800 60.2424 131.813 55.7198 0.0128503 1.3976
26000 60.2424 131.826 55.7198 0.0129503 1.4198
26200 60.2424 131.839 55.7198 0.0130503 1.43161
26400 60.2424 131.852 55.7198 0.0131503 1.41321
26600 60.2424 131.865 55.7198 0.0132503 1.45746
26800 60.2424 131.878 55.7198 0.0133503 1.45058
27000 60.2424 131.891 55.7198 0.0134503 1.46693
27200 60.2424 131.904 55.7198 0.0135503 1.46587
27400 60.2424 131.917 55.7198 0.0136503 1.48668
27600 60.2424 131.93 55.7198 0.0137503 1.51355
27800 60.2424 131.943 55.7198 0.0138503 1.49654
28000 60.2424 131.956 55.7198 0.0139503 1.51847
28200 60.2424 131.969 55.7198 0.0140503 1.54815
28400 60.2424 131.982 55.7198 0.0141503 1.5551
28600 60.2424 131.995 55.7198 0.0142503 1.5441
28800 60.2424 132.008 55.7198 0.0143503 1.55227
29000 60.2424 132.021 55.7198 0.0144503 1.58996
29200 60.2424 132.034 55.7198 0.0145503 1.58878
29400 60.2424 132.047 55.7198 0.0146503 1.59255
29600 60.2424 132.06 55.7198 0.0147503 1.61209
29800 60.2424 132.073 55.7198 0.0148503 1.61953
30000 60.2424 132.086 55.7198 0.0149503 1.64208
30200 60.2424 132.099 55.7198 0.0150503 1.65616
30400 60.2424 132.112 55.7198 0.0151503 1.64558
30600 60.2424 132.125 55.7198 0.0152503 1.66041
30800 60.2424 132.138 55.7198 0.0153503 1.69074
31000 60.2424 132.151 55.7198 0.0154503 1.68504
31200 60.2424 132.164 55.7198 0.0155503 1.71539
31400 60.2424 132.177 55.7198 0.0156503 1.70788
31600 60.2424 132.19 55.7198 0.0157503 1.76132
31800 60.2424 132.203 55.7198 0.0158503 1.70968
32000 60.2424 132.216 55.7198 0.0159503 1.7473
32200 60.2424 132.229 55.7198 0.0160503 1.75259
32400 60.2424 132.242 55.7198 0.0161503 1.78547
32600 60.2424 132.255 55.7198 0.0162503 1.79201
32800 60.2424 132.268 55.7198 0.0163503 1.77161
33000 60.2424 132.281 55.7198 0.0164503 1.82137
33200 60.2424 132.294 55.7198 0.0165503 1.8159
33400 60.2424 132.307 55.7198 0.0166503 1.82649
33600 60.2424 132.32 55.7198 0.0167503 1.8329
33800 60.2424 132.333 55.7198 0.0168503 1.8559
34000 60.2424 132.346 55.7198 0.0169503 1.85424
34200 60.2424 132.359 55.7198 0.0170503 1.88908
34400 60.2424 132.372 55.7198 0.0171503 1.87995
34600 60.2424 132.385 55.7198 0.0172503 1.88337
34800 60.2424 132.398 55.7198 0.0173503 1.897
35000 60.2424 132.411 55.7198 0.0174503 1.93392
35200 60.2424 132.424 55.7198 0.0175503 1.92805
35400 60.2424 132.437 55.7198 0.0176503 1.93652
35600 60.2424 132.451 55.7198 0.0177503 1.96307
35800 60.2424 132.464 55.7198 0.0178503 1.94462
36000 60.2424 132.477 55.7198 0.0179503 1.98785
36200 60.2424 132.49 55.7198 0.0180503 1.99841
36400 60.2424 132.503 55.7198 0.0181503 1.99235
36600 60.2424 132.516 55.7198 0.0182503 2.00987
36800 60.2424 132.529 55.7198 0.0183503 2.03453
37000 60.2424 132.542 55.7198 0.0184503 2.02942
37200 60.2424 132.555 55.7198 0.0185503 2.03894
37400 60.2424 132.568 55.7198 0.0186503 2.06318
37600 60.2424 132.581 55.7198 0.0187503 2.06441
37800 60.2424 132.594 55.7198 0.0188503 2.08621
38000 60.2424 132.607 55.7198 0.0189503 2.11165
38200 60.2424 132.62 55.7198 0.0190503 2.09439
38400 60.2424 132.633 55.7198 0.0191503 2.11833
38600 60.2424 132.646 55.7198 0.0192503 2.12748
38800 60.2424 132.659 55.7198 0.0193503 2.12923
39000 60.2424 132.672 55.7198 0.0194503 2.16896
39200 60.2424 132.685 55.7198 0.0195503 2.15366
39400 60.2424 132.698 55.7198 0.0196503 2.16889
39600 60.2424 132.711 55.7198 0.0197503 2.18331
39800 60.2424 132.724 55.7198 0.0198503 2.21615
40000 60.2424 132.737 55.7198 0.0199503 2.19345
40200 60.2424 132.75 55.7198 0.0200503 2.18939
40400 60.2424 132.763 55.7198 0.0201503 2.25354
40600 60.2424 132.776 55.7198 0.0202503 2.23103
40800 60.2424 132.789 55.7198 0.0203503 2.25128
41000 60.2424 132.802 55.7198 0.0204503 2.26648
41200 60.2424 132.815 55.7198 0.0205503 2.29613
41400 60.2424 132.828 55.7198 0.0206503 2.27844
41600 60.2424 132.841 55.7198 0.0207503 2.30446
41800 60.2424 132.854 55.7198 0.0208503 2.31132
42000 60.2424 132.867 55.7198 0.0209503 2.31267
42200 60.2424 132.88 55.7198 0.0210503 2.3604
42400 60.2424 132.893 55.7198 0.0211503 2.33016
42600 60.2424 132.906 55.7198 0.0212503 2.35705
42800 60.2424 132.919 55.7198 0.0213503 2.36391
43000 60.2424 132.932 55.7198 0.0214503 2.3937
43200 60.2424 132.945 55.7198 0.0215503 2.38821
43400 60.2424 132.958 55.7198 0.0216503 2.38053
43600 60.2424 132.971 55.7198 0.0217503 2.42924
43800 60.2424 132.984 55.7198 0.0218503 2.41265
44000 60.2424 132.997 55.7198 0.0219503 2.46206
44200 60.2424 133.01 55.7198 0.0220503 2.41607
44400 60.2424 133.023 55.7198 0.0221503 2.46222
44600 60.2424 133.036 55.7198 0.0222503 2.46999
44800 60.2424 133.049 55.7198 0.0223503 2.48808
45000 60.2424 133.062 55.7198 0.0224503 2.48207
45200 60.2424 133.075 55.7198 0.0225503 2.51263
45400 60.2424 133.088 55.7198 0.0226503 2.49264
45600 60.2424 133.101 55.7198 0.0227503 2.54182
45800 60.2424 133.114 55.7198 0.0228503 2.54453
46000 60.2424 133.127 55.7198 0.0229503 2.52832
46200 60.2424 133.14 55.7198 0.0230503 2.59717
46400 60.2424 133.153 55.7198 0.0231503 2.56343
46600 60.2424 133.166 55.7198 0.0232503 2.57875
46800 60.2424 133.179 55.7198 0.0233503 2.6125
47000 60.2424 133.192 55.7198 0.0234503 2.60832
47200 60.2424 133.205 55.7198 0.0235503 2.6248
47400 60.2424 133.218 55.7198 0.0236503 2.62668
47600 60.2424 133.231 55.7198 0.0237503 2.649
47800 60.2424 133.244 55.7198 0.0238503 2.66673
48000 60.2424 133.257 55.7198 0.0239503 2.68047
48200 60.2424 133.27 55.7198 0.0240503 2.67347
48400 60.2424 133.283 55.7198 0.0241503 2.69639
48600 60.2424 133.296 55.7198 0.0242503 2.71463
48800 60.2424 133.309 55.7198 0.0243503 2.71377
49000 60.2424 133.322 55.7198 0.0244503 2.72164
49200 60.2424 133.335 55.7198 0.0245503 2.73972
49400 60.2424 133.348 55.7198 0.0246503 2.76533
49600 60.2424 133.361 55.7198 0.0247503 2.75452
49800 60.2424 133.375 55.7198 0.0248503 2.77921
50000 60.2424 133.388 55.7198 0.0249503 2.79424
50200 60.2424 133.401 55.7198 0.0250503 2.79935
50400 60.2424 133.414 55.7198 0.0251503 2.82201
50600 60.2424 133.427 55.7198 0.0252503 2.82221
50800 60.2424 133.44 55.7198 0.0253503 2.83179
51000 60.2424 133.453 55.7198 0.0254503 2.85356
51200 60.2424 133.466 55.7198 0.0255503 2.85678
51400 60.2424 133.479 55.7198 0.0256503 2.87042
51600 60.2424 133.492 55.7198 0.0257503 2.88691
51800 60.2424 133.505 55.7198 0.0258503 2.88264
52000 60.2424 133.518 55.7198 0.0259503 2.90196
52200 60.2424 133.531 55.7198 0.0260503 2.92108
52400 60.2424 133.544 55.7198 0.0261503 2.95312
52600 60.2424 133.557 55.7198 0.0262503 2.92812
52800 60.2424 133.57 55.7198 0.0263503 2.95893
53000 60.2424 133.583 55.7198 0.0264503 2.9802
53200 60.2424 133.596 55.7198 0.0265503 2.96604
53400 60.2424 133.609 55.7198 0.0266503 2.97766
53600 60.2424 133.622 55.7198 0.0267503 3.01925
53800 60.2424 133.635 55.7198 0.0268503 3.00784
54000 60.2424 133.648 55.7198 0.0269503 3.04044
54200 60.2424 133.661 55.7198 0.0270503 3.02528
54400 60.2424 133.674 55.7198 0.0271503 3.04413
54600 60.2424 133.687 55.7198 0.0272503 3.08851
54800 60.2424 133.7 55.7198 0.0273503 3.0567
55000 60.2424 133.713 55.7198 0.0274503 3.09059
55200 60.2424 133.726 55.7198 0.0275503 3.08772
55400 60.2424 133.739 55.7198 0.0276503 3.10707
55600 60.2424 133.752 55.7198 0.0277503 3.12
55800 60.2424 133.765 55.7198 0.0278503 3.13633
56000 60.2424 133.778 55.7198 0.0279503 3.15025
56200 60.2424 133.791 55.7198 0.0280503 3.14883
56400 60.2424 133.804 55.7198 0.0281503 3.18265
56600 60.2424 133.817 55.7198 0.0282503 3.18238
56800 60.2424 133.83 55.7198 0.0283503 3.19658
57000 60.2424 133.843 55.7198 0.0284503 3.18135
57200 60.2424 133.856 55.7198 0.0285503 3.24295
57400 60.2424 133.869 55.7198 0.0286503 3.21216
57600 60.2424 133.882 55.7198 0.0287503 3.25904
57800 60.2424 133.895 55.7198 0.0288503 3.24456
58000 60.2424 133.908 55.7198 0.0289503 3.26573
58200 60.2424 133.921 55.7198 0.0290503 3.27972
58400 60.2424 133.934 55.7198 0.0291503 3.29702
58600 60.2424 133.947 55.7198 0.0292503 3.29218
58800 60.2424 133.96 55.7198 0.0293503 3.31395
59000 60.2424 133.973 55.7198 0.0294503 3.32916
59200 60.2424 133.986 55.7198 0.0295503 3.35283
59400 60.2424 133.999 55.7198 0.0296503 3.3356
59600 60.2424 134.012 55.7198 0.0297503 3.36241
59800 60.2424 134.025 55.7198 0.0298503 3.39162
60000 60.2424 134.038 55.7198 0.0299503 3.36689
60200 60.2424 134.051 55.7198 0.0300503 3.40023
60400 60.2424 134.064 55.7198 0.0301503 3.43054
60600 60.2424 134.077 55.7198 0.0302503 3.39874
60800 60.2424 134.09 55.7198 0.0303503 3.4354
61000 60.2424 134.103 55.7198 0.0304503 3.4606
61200 60.2424 134.116 55.7198 0.0305503 3.4315
61400 60.2424 134.129 55.7198 0.0306503 3.49218
61600 60.2424 134.142 55.7198 0.0307503 3.48222
61800 60.2424 134.155 55.7198 0.0308503 3.48304
62000 60.2424 134.168 55.7198 0.0309503 3.50343
62200 60.2424 134.181 55.7198 0.0310503 3.5072
62400 60.2424 134.194 55.7198 0.0311503 3.54223
62600 60.2424 134.207 55.7198 0.0312503 3.55277
62800 60.2424 134.22 55.7198 0.0313503 3.5602
63000 60.2424 134.233 55.7198 0.0314503 3.55979
63200 60.2424 134.246 55.7198 0.0315503 3.59341
63400 60.2424 134.259 55.7198 0.0316503 3.58911
63600 60.2424 134.272 55.7198 0.0317503 3.59168
63800 60.2424 134.285 55.7198 0.0318503 3.63643
64000 60.2424 134.299 55.7198 0.0319503 3.61799
64200 60.2424 134.312 55.7198 0.0320503 3.6381
64400 60.2424 134.325 55.7198 0.0321503 3.65408
64600 60.2424 134.338 55.7198 0.0322503 3.65618
64800 60.2424 134.351 55.7198 0.0323503 3.67132
65000 60.2424 134.364 55.7198 0.0324503 3.67902
65200 60.2424 134.377 55.7198 0.0325503 3.70286
65400 60.2424 134.39 55.7198 0.0326503 3.71293
65600 60.2424 134.403 55.7198 0.0327503 3.71447
65800 60.2424 134.416 55.7198 0.0328503 3.74179
66000 60.2424 134.429 55.7198 0.0329503 3.75463
66200 60.2424 134.442 55.7198 0.0330503 3.75604
66400 60.2424 134.455 55.7198 0.0331503 3.77146
66600 60.2424 134.468 55.7198 0.0332503 3.76638
66800 60.2424 134.481 55.7198 0.0333503 3.79263
67000 60.2424 134.494 55.7198 0.0334503 3.8139
67200 60.2424 134.507 55.7198 0.0335503 3.80684
67400 60.2424 134.52 55.7198 0.0336503 3.82933
67600 60.2424 134.533 55.7198 0.0337503 3.82867
67800 60.2424 134.546 55.7198 0.0338503 3.86653
68000 60.2424 134.559 55.7198 0.0339503 3.87535
68200 60.2424 134.572 55.7198 0.0340503 3.86942
68400 60.2424 134.585 55.7198 0.0341503 3.88496
68600 60.2424 134.598 55.7198 0.0342503 3.91376
68800 60.2424 134.611 55.7198 0.0343503 3.9013
69000 60.2424 134.624 55.7198 0.0344503 3.94897
69200 60.2424 134.637 55.7198 0.0345503 3.92258
69400 60.2424 134.65 55.7198 0.0346503 3.94139
69600 60.2424 134.663 55.7198 0.0347503 3.98964
69800 60.2424 134.676 55.7198 0.0348503 3.95149
70000 60.2424 134.689 55.7198 0.0349503 3.99865
70200 60.2424 134.702 55.7198 0.0350503 3.99516
70400 60.2424 134.715 55.7198 0.0351503 4.01231
70600 60.2424 134.728 55.7198 0.0352503 4.04648
70800 60.2424 134.741 55.7198 0.0353503 4.01883
71000 60.2424 134.754 55.7198 0.0354503 4.04381
71200 60.2424 134.767 55.7198 0.0355503 4.06683
71400 60.2424 134.78 55.7198 0.0356503 4.07795
71600 60.2424 134.793 55.7198 0.0357503 4.08596
71800 60.2424 134.806 55.7198 0.0358503 4.10148
72000 60.2424 134.819 55.7198 0.0359503 4.10587
72200 60.2424 134.832 55.7198 0.0360503 4.11094
72400 60.2424 134.845 55.7198 0.0361503 4.1512
72600 60.2424 134.858 55.7198 0.0362503 4.15602
72800 60.2424 134.871 55.7198 0.0363503 4.17048
73000 60.2424 134.884 55.7198 0.0364503 4.14124
73200 60.2424 134.897 55.7198 0.0365503 4.1934
73400 60.2424 134.91 55.7198 0.0366503 4.20271
73600 60.2424 134.923 55.7198 0.0367503 4.19295
73800 60.2424 134.936 55.7198 0.0368503 4.25827
74000 60.2424 134.949 55.7198 0.0369503 4.23589
74200 60.2424 134.962 55.7198 0.0370503 4.26027
74400 60.2424 134.975 55.7198 0.0371503 4.26387
74600 60.2424 134.988 55.7198 0.0372503 4.28175
74800 60.2424 135.001 55.7198 0.0373503 4.28988
75000 60.2424 135.014 55.7198 0.0374503 4.31304
75200 60.2424 135.027 55.7198 0.0375503 4.30663
75400 60.2424 135.04 55.7198 0.0376503 4.33076
75600 60.2424 135.053 55.7198 0.0377503 4.33332
75800 60.2424 135.066 55.7198 0.0378503 4.35453
76000 60.2424 135.079 55.7198 0.0379503 4.3625
76200 60.2424 135.092 55.7198 0.0380503 4.37409
76400 60.2424 135.105 55.7198 0.0381503 4.38628
76600 60.2424 135.118 55.7198 0.0382503 4.41365
76800 60.2424 135.131 55.7198 0.0383503 4.40147
77000 60.2424 135.144 55.7198 0.0384503 4.41712
77200 60.2424 135.157 55.7198 0.0385503 4.43549
77400 60.2424 135.17 55.7198 0.0386503 4.45745
77600 60.2424 135.183 55.7198 0.0387503 4.46519
77800 60.2424 135.196 55.7198 0.0388503 4.46811
78000 60.2424 135.209 55.7198 0.0389503 4.49424
78200 60.2424 135.223 55.7198 0.0390503 4.49233
78400 60.2424 135.236 55.7198 0.0391503 4.50462
78600 60.2424 135.249 55.7198 0.0392503 4.5289
78800 60.2424 135.262 55.7198 0.0393503 4.53228
79000 60.2424 135.275 55.7198 0.0394503 4.5514
79200 60.2424 135.288 55.7198 0.0395503 4.5727
79400 60.2424 135.301 55.7198 0.0396503 4.56349
79600 60.2424 135.314 55.7198 0.0397503 4.56875
79800 60.2424 135.327 55.7198 0.0398503 4.59638
80000 60.2424 135.34 55.7198 0.0399503 4.61747
80200 60.2424 135.353 55.7198 0.0400503 4.61964
80400 60.2424 135.366 55.7198 0.0401503 4.65383
80600 60.2424 135.379 55.7198 0.0402503 4.62287
80800 60.2424 135.392 55.7198 0.0403503 4.67454
81000 60.2424 135.405 55.7198 0.0404503 4.67752
81200 60.2424 135.418 55.7198 0.0405503 4.66422
81400 60.2424 135.431 55.7198 0.0406503 4.70608
81600 60.2424 135.444 55.7198 0.0407503 4.7141
81800 60.2424 135.457 55.7198 0.0408503 4.69637
82000 60.2424 135.47 55.7198 0.0409503 4.75944
82200 60.2424 135.483 55.7198 0.0410503 4.73384
82400 60.2424 135.496 55.7198 0.0411503 4.74986
82600 60.2424 135.509 55.7198 0.0412503 4.77777
82800 60.2424 135.522 55.7198 0.0413503 4.78278
83000 60.2424 135.535 55.7198 0.0414503 4.79558
83200 60.2424 135.548 55.7198 0.0415503 4.80788
83400 60.2424 135.561 55.7198 0.0416503 4.83756
83600 60.2424 135.574 55.7198 0.0417503 4.80196
83800 60.2424 135.587 55.7198 0.0418503 4.85586
84000 60.2424 135.6 55.7198 0.0419503 4.84408
84200 60.2424 135.613 55.7198 0.0420503 4.88791
84400 60.2424 135.626 55.7198 0.0421503 4.8651
84600 60.2424 135.639 55.7198 0.0422503 4.89628
84800 60.2424 135.652 55.7198 0.0423503 4.92056
85000 60.2424 135.665 55.7198 0.0424503 4.91065
85200 60.2424 135.678 55.7198 0.0425503 4.94212
85400 60.2424 135.691 55.7198 0.0426503 4.94797
85600 60.2424 135.704 55.7198 0.0427503 4.95932
85800 60.2424 135.717 55.7198 0.0428503 4.96137
86000 60.2424 135.73 55.7198 0.0429503 4.98275
86200 60.2424 135.743 55.7198 0.0430503 5.02411
86400 60.2424 135.756 55.7198 0.0431503 5.00564
86600 60.2424 135.769 55.7198 0.0432503 5.02457
86800 60.2424 135.782 55.7198 0.0433503 5.04609
87000 60.2424 135.795 55.7198 0.0434503 5.05223
87200 60.2424 135.808 55.7198 0.0435503 5.05677
87400 60.2424 135.821 55.7198 0.0436503 5.08592
87600 60.2424 135.834 55.7198 0.0437503 5.08621
87800 60.2424 135.847 55.7198 0.0438503 5.09151
88000 60.2424 135.86 55.7198 0.0439503 5.12363
88200 60.2424 135.873 55.7198 0.0440503 5.11023
88400 60.2424 135.886 55.7198 0.0441503 5.16346
88600 60.2424 135.899 55.7198 0.0442503 5.1413
88800 60.2424 135.912 55.7198 0.0443503 5.17023
89000 60.2424 135.925 55.7198 0.0444503 5.18048
89200 60.2424 135.938 55.7198 0.0445503 5.19222
89400 60.2424 135.951 55.7198 0.0446503 5.21016
89600 60.2424 135.964 55.7198 0.0447503 5.20748
89800 60.2424 135.977 55.7198 0.0448503 5.22914
90000 60.2424 135.99 55.7198 0.0449503 5.2504
90200 60.2424 136.003 55.7198 0.0450503 5.22682
90400 60.2424 136.016 55.7198 0.0451503 5.28382
90600 60.2424 136.029 55.7198 0.0452503 5.25829
90800 60.2424 136.042 55.7198 0.0453503 5.28764
91000 60.2424 136.055 55.7198 0.0454503 5.31109
91200 60.2424 136.068 55.7198 0.0455503 5.29892
91400 60.2424 136.081 55.7198 0.0456503 5.32317
91600 60.2424 136.094 55.7198 0.0457503 5.34591
91800 60.2424 136.107 55.7198 0.0458503 5.33728
92000 60.2424 136.12 55.7198 0.0459503 5.35726
92200 60.2424 136.133 55.7198 0.0460503 5.40002
92400 60.2424 136.147 55.7198 0.0461503 5.37866
92600 60.2424 136.16 55.7198 0.0462503 5.40858
92800 60.2424 136.173 55.7198 0.0463503 5.42077
93000 60.2424 136.186 55.7198 0.0464503 5.43778
93200 60.2424 136.199 55.7198 0.0465503 5.43605
93400 60.2424 136.212 55.7198 0.0466503 5.47218
93600 60.2424 136.225 55.7198 0.0467503 5.45525
93800 60.2424 136.238 55.7198 0.0468503 5.47108
94000 60.2424 136.251 55.7198 0.0469503 5.4997
94200 60.2424 136.264 55.7198 0.0470503 5.5102
94400 60.2424 136.277 55.7198 0.0471503 5.52902
94600 60.2424 136.29 55.7198 0.0472503 5.53003
94800 60.2424 136.303 55.7198 0.0473503 5.55632
95000 60.2424 136.316 55.7198 0.0474503 5.55133
95200 60.2424 136.329 55.7198 0.0475503 5.57747
95400 60.2424 136.342 55.7198 0.0476503 5.58907
95600 60.2424 136.355 55.7198 0.0477503 5.61169
95800 60.2424 136.368 55.7198 0.0478503 5.60603
96000 60.2424 136.381 55.7198 0.0479503 5.62897
96200 60.2424 136.394 55.7198 0.0480503 5.65893
96400 60.2424 136.407 55.7198 0.0481503 5.65315
96600 60.2424 136.42 55.7198 0.0482503 5.67891
96800 60.2424 136.433 55.7198 0.0483503 5.65775
97000 60.2424 136.446 55.7198 0.0484503 5.69679
97200 60.2424 136.459 55.7198 0.0485503 5.69916
97400 60.2424 136.472 55.7198 0.0486503 5.7026
97600 60.2424 136.485 55.7198 0.0487503 5.73446
97800 60.2424 136.498 55.7198 0.0488503 5.747
98000 60.2424 136.511 55.7198 0.0489503 5.75476
98200 60.2424 136.524 55.7198 0.0490503 5.75696
98400 60.2424 136.537 55.7198 0.0491503 5.77159
98600 60.2424 136.55 55.7198 0.0492503 5.79357
98800 60.2424 136.563 55.7198 0.0493503 5.79811
99000 60.2424 136.576 55.7198 0.0494503 5.82594
99200 60.2424 136.589 55.7198 0.0495503 5.82135
99400 60.2424 136.602 55.7198 0.0496503 5.85462
99600 60.2424 136.615 55.7198 0.0497503 5.84171
99800 60.2424 136.628 55.7198 0.0498503 5.8785
100000 60.2424 136.641 55.7198 0.0499503 5.87472
100200 60.2424 136.654 55.7198 0.0500503 5.89176
100400 60.2424 136.667 55.7198 0.0501503 5.90414
100600 60.2424 136.68 55.7198 0.0502503 5.93492
100800 60.2424 136.693 55.7198 0.0503503 5.91821
101000 60.2424 136.706 55.7198 0.0504503 5.93804
101200 60.2424 136.719 55.7198 0.0505503 5.95545
101400 60.2424 136.732 55.7198 0.0506503 5.98152
101600 60.2424 136.745 55.7198 0.0507503 5.99235
101800 60.2424 136.758 55.7198 0.0508503 5.98702
102000 60.2424 136.771 55.7198 0.0509503 6.02413
102200 60.2424 136.784 55.7198 0.0510503 6.02158
102400 60.2424 136.797 55.7198 0.0511503 6.0232
102600 60.2424 136.81 55.7198 0.0512503 6.06466
102800 60.2424 136.823 55.7198 0.0513503 6.08043
103000 60.2424 136.836 55.7198 0.0514503 6.06289
103200 60.2424 136.849 55.7198 0.0515503 6.09626
103400 60.2424 136.862 55.7198 0.0516503 6.11038
103600 60.2424 136.875 55.7198 0.0517503 6.11555
103800 60.2424 136.888 55.7198 0.0518503 6.12548
104000 60.2424 136.901 55.7198 0.0519503 6.14914
104200 60.2424 136.914 55.7198 0.0520503 6.15721
104400 60.2424 136.927 55.7198 0.0521503 6.16907
104600 60.2424 136.94 55.7198 0.0522503 6.1877
104800 60.2424 136.953 55.7198 0.0523503 6.21234
105000 60.2424 136.966 55.7198 0.0524503 6.19498
105200 60.2424 136.979 55.7198 0.0525503 6.22459
105400 60.2424 136.992 55.7198 0.0526503 6.22015
105600 60.2424 137.005 55.7198 0.0527503 6.24753
105800 60.2424 137.018 55.7198 0.0528503 6.25188
106000 60.2424 137.031 55.7198 0.0529503 6.26496
106200 60.2424 137.044 55.7198 0.0530503 6.27287
106400 60.2424 137.057 55.7198 0.0531503 6.28312
106600 60.2424 137.071 55.7198 0.0532503 6.30019
106800 60.2424 137.084 55.7198 0.0533503 6.31357
107000 60.2424 137.097 55.7198 0.0534503 6.35379
107200 60.2424 137.11 55.7198 0.0535503 6.33182
107400 60.2424 137.123 55.7198 0.0536503 6.34979
107600 60.2424 137.136 55.7198 0.0537503 6.36447
107800 60.2424 137.149 55.7198 0.0538503 6.39389
108000 60.2424 137.162 55.7198 0.0539503 6.38212
108200 60.2424 137.175 55.7198 0.0540503 6.41077
108400 60.2424 137.188 55.7198 0.0541503 6.43468
108600 60.2424 137.201 55.7198 0.0542503 6.4192
108800 60.2424 137.214 55.7198 0.0543503 6.43612
109000 60.2424 137.227 55.7198 0.0544503 6.46547
109200 60.2424 137.24 55.7198 0.0545503 6.4824
109400 60.2424 137.253 55.7198 0.0546503 6.47031
109600 60.2424 137.266 55.7198 0.0547503 6.51036
109800 60.2424 137.279 55.7198 0.0548503 6.52224
110000 60.2424 137.292 55.7198 0.0549503 6.52452
110200 60.2424 137.305 55.7198 0.0550503 6.53672
110400 60.2424 137.318 55.7198 0.0551503 6.56008
110600 60.2424 137.331 55.7198 0.0552503 6.54654
110800 60.2424 137.344 55.7198 0.0553503 6.59748
111000 60.2424 137.357 55.7198 0.0554503 6.58503
111200 60.2424 137.37 55.7198 0.0555503 6.60144
111400 60.2424 137.383 55.7198 0.0556503 6.6261
111600 60.2424 137.396 55.7198 0.0557503 6.63948
111800 60.2424 137.409 55.7198 0.0558503 6.63965
112000 60.2424 137.422 55.7198 0.0559503 6.67645
112200 60.2424 137.435 55.7198 0.0560503 6.67688
112400 60.2424 137.448 55.7198 0.0561503 6.67502
112600 60.2424 137.461 55.7198 0.0562503 6.72987
112800 60.2424 137.474 55.7198 0.0563503 6.69148
113000 60.2424 137.487 55.7198 0.0564503 6.73098
113200 60.2424 137.5 55.7198 0.0565503 6.74433
113400 60.2424 137.513 55.7198 0.0566503 6.75521
113600 60.2424 137.526 55.7198 0.0567503 6.77404
113800 60.2424 137.539 55.7198 0.0568503 6.77194
114000 60.2424 137.552 55.7198 0.0569503 6.8027
114200 60.2424 137.565 55.7198 0.0570503 6.80146
114400 60.2424 137.578 55.7198 0.0571503 6.84756
114600 60.2424 137.591 55.7198 0.0572503 6.82616
114800 60.2424 137.604 55.7198 0.0573503 6.84927
115000 60.2424 137.617 55.7198 0.0574503 6.87214
115200 60.2424 137.63 55.7198 0.0575503 6.87947
115400 60.2424 137.643 55.7198 0.0576503 6.88099
115600 60.2424 137.656 55.7198 0.0577503 6.9151
115800 60.2424 137.669 55.7198 0.0578503 6.89236
116000 60.2424 137.682 55.7198 0.0579503 6.95204
116200 60.2424 137.695 55.7198 0.0580503 6.9432
116400 60.2424 137.708 55.7198 0.0581503 6.94755
116600 60.2424 137.721 55.7198 0.0582503 6.99016
116800 60.2424 137.734 55.7198 0.0583503 6.97626
117000 60.2424 137.747 55.7198 0.0584503 6.99877
117200 60.2424 137.76 55.7198 0.0585503 6.99763
117400 60.2424 137.773 55.7198 0.0586503 7.03183
117600 60.2424 137.786 55.7198 0.0587503 7.04564
117800 60.2424 137.799 55.7198 0.0588503 7.0617
118000 60.2424 137.812 55.7198 0.0589503 7.0607
118200 60.2424 137.825 55.7198 0.0590503 7.07087
118400 60.2424 137.838 55.7198 0.0591503 7.10555
118600 60.2424 137.851 55.7198 0.0592503 7.11553
118800 60.2424 137.864 55.7198 0.0593503 7.11302
119000 60.2424 137.877 55.7198 0.0594503 7.13984
119200 60.2424 137.89 55.7198 0.0595503 7.14549
119400 60.2424 137.903 55.7198 0.0596503 7.17988
119600 60.2424 137.916 55.7198 0.0597503 7.16334
119800 60.2424 137.929 55.7198 0.0598503 7.19438
120000 60.2424 137.942 55.7198 0.0599503 7.19452
120200 60.2424 137.955 55.7198 0.0600503 7.20631
120400 60.2424 137.968 55.7198 0.0601503 7.22518
120600 60.2424 137.981 55.7198 0.0602503 7.23973
120800 60.2424 137.994 55.7198 0.0603503 7.26088
121000 60.2424 138.008 55.7198 0.0604503 7.25567
121200 60.2424 138.021 55.7198 0.0605503 7.27803
121400 60.2424 138.034 55.7198 0.0606503 7.28837
121600 60.2424 138.047 55.7198 0.0607503 7.28953
121800 60.2424 138.06 55.7198 0.0608503 7.34729
122000 60.2424 138.073 55.7198 0.0609503 7.31569
122200 60.2424 138.086 55.7198 0.0610503 7.34718
122400 60.2424 138.099 55.7198 0.0611503 7.37101
122600 60.2424 138.112 55.7198 0.0612503 7.36385
122800 60.2424 138.125 55.7198 0.0613503 7.37608
123000 60.2424 138.138 55.7198 0.0614503 7.41183
123200 60.2424 138.151 55.7198 0.0615503 7.40337
123400 60.2424 138.164 55.7198 0.0616503 7.43342
123600 60.2424 138.177 55.7198 0.0617503 7.42844
123800 60.2424 138.19 55.7198 0.0618503 7.46003
124000 60.2424 138.203 55.7198 0.0619503 7.4615
124200 60.2424 138.216 55.7198 0.0620503 7.47028
124400 60.2424 138.229 55.7198 0.0621503 7.49922
124600 60.2424 138.242 55.7198 0.0622503 7.49081
124800 60.2424 138.255 55.7198 0.0623503 7.51745
125000 60.2424 138.268 55.7198 0.0624503 7.53401
125200 60.2424 138.281 55.7198 0.0625503 7.54287
125400 60.2424 138.294 55.7198 0.0626503 7.55652
125600 60.2424 138.307 55.7198 0.0627503 7.56329
125800 60.2424 138.32 55.7198 0.0628503 7.58392
126000 60.2424 138.333 55.7198 0.0629503 7.58948
126200 60.2424 138.346 55.7198 0.0630503 7.6227
126400 60.2424 138.359 55.7198 0.0631503 7.62731
126600 60.2424 138.372 55.7198 0.0632503 7.62629
126800 60.2424 138.385 55.7198 0.0633503 7.64652
127000 60.2424 138.398 55.7198 0.0634503 7.6605
127200 60.2424 138.411 55.7198 0.0635503 7.68184
127400 60.2424 138.424 55.7198 0.0636503 7.69053
127600 60.2424 138.437 55.7198 0.0637503 7.68543
127800 60.2424 138.45 55.7198 0.0638503 7.71752
128000 60.2424 138.463 55.7198 0.0639503 7.73067
128200 60.2424 138.476 55.7198 0.0640503 7.74455
128400 60.2424 138.489 55.7198 0.0641503 7.74987
128600 60.2424 138.502 55.7198 0.0642503 7.77676
128800 60.2424 138.515 55.7198 0.0643503 7.77776
129000 60.2424 138.528 55.7198 0.0644503 7.80005
129200 60.2424 138.541 55.7198 0.0645503 7.81018
129400 60.2424 138.554 55.7198 0.0646503 7.82781
129600 60.2424 138.567 55.7198 0.0647503 7.84086
129800 60.2424 138.58 55.7198 0.0648503 7.85308
130000 60.2424 138.593 55.7198 0.0649503 7.87151
130200 60.2424 138.606 55.7198 0.0650503 7.87695
130400 60.2424 138.619 55.7198 0.0651503 7.89913
130600 60.2424 138.632 55.7198 0.0652503 7.90214
130800 60.2424 138.645 55.7198 0.0653503 7.92761
131000 60.2424 138.658 55.7198 0.0654503 7.91041
131200 60.2424 138.671 55.7198 0.0655503 7.96135
131400 60.2424 138.684 55.7198 0.0656503 7.95739
131600 60.2424 138.697 55.7198 0.0657503 7.98376
131800 60.2424 138.71 55.7198 0.0658503 7.9825
132000 60.2424 138.723 55.7198 0.0659503 8.00715
132200 60.2424 138.736 55.7198 0.0660503 8.01799
132400 60.2424 138.749 55.7198 0.0661503 8.02283
132600 60.2424 138.762 55.7198 0.0662503 8.04548
132800 60.2424 138.775 55.7198 0.0663503 8.05856
133000 60.2424 138.788 55.7198 0.0664503 8.06651
133200 60.2424 138.801 55.7198 0.0665503 8.07768
133400 60.2424 138.814 55.7198 0.0666503 8.06616
133600 60.2424 138.827 55.7198 0.0667503 8.10643
133800 60.2424 138.84 55.7198 0.0668503 8.11667
134000 60.2424 138.853 55.7198 0.0669503 8.12481
134200 60.2424 138.866 55.7198 0.0670503 8.13648
134400 60.2424 138.879 55.7198 0.0671503 8.16795
134600 60.2424 138.892 55.7198 0.0672503 8.16395
134800 60.2424 138.905 55.7198 0.0673503 8.17808
135000 60.2424 138.918 55.7198 0.0674503 8.18969
135200 60.2424 138.932 55.7198 0.0675503 8.21616
135400 60.2424 138.945 55.7198 0.0676503 8.20989
135600 60.2424 138.958 55.7198 0.0677503 8.24846
135800 60.2424 138.971 55.7198 0.0678503 8.2518
136000 60.2424 138.984 55.7198 0.0679503 8.26093
136200 60.2424 138.997 55.7198 0.0680503 8.26769
136400 60.2424 139.01 55.7198 0.0681503 8.29776
136600 60.2424 139.023 55.7198 0.0682503 8.28979
136800 60.2424 139.036 55.7198 0.0683503 8.32956
137000 60.2424 139.049 55.7198 0.0684503 8.33074
137200 60.2424 139.062 55.7198 0.0685503 8.33341
137400 60.2424 139.075 55.7198 0.0686503 8.37174
137600 60.2424 139.088 55.7198 0.0687503 8.36861
137800 60.2424 139.101 55.7198 0.0688503 8.40267
138000 60.2424 139.114 55.7198 0.0689503 8.38792
138200 60.2424 139.127 55.7198 0.0690503 8.42225
138400 60.2424 139.14 55.7198 0.0691503 8.4389
138600 60.2424 139.153 55.7198 0.0692503 8.42943
138800 60.2424 139.166 55.7198 0.0693503 8.44895
139000 60.2424 139.179 55.7198 0.0694503 8.47775
139200 60.2424 139.192 55.7198 0.0695503 8.49144
139400 60.2424 139.205 55.7198 0.0696503 8.48644
139600 60.2424 139.218 55.7198 0.0697503 8.51074
139800 60.2424 139.231 55.7198 0.0698503 8.51821
140000 60.2424 139.244 55.7198 0.0699503 8.5458
140200 60.2424 139.257 55.7198 0.0700503 8.55273
140400 60.2424 139.27 55.7198 0.0701503 8.55846
140600 60.2424 139.283 55.7198 0.0702503 8.58548
140800 60.2424 139.296 55.7198 0.0703503 8.579
141000 60.2424 139.309 55.7198 0.0704503 8.60362
141200 60.2424 139.322 55.7198 0.0705503 8.61892
141400 60.2424 139.335 55.7198 0.0706503 8.63099
141600 60.2424 139.348 55.7198 0.0707503 8.63247
141800 60.2424 139.361 55.7198 0.0708503 8.66485
142000 60.2424 139.374 55.7198 0.0709503 8.66544
142200 60.2424 139.387 55.7198 0.0710503 8.67717
142400 60.2424 139.4 55.7198 0.0711503 8.70106
142600 60.2424 139.413 55.7198 0.0712503 8.69562
142800 60.2424 139.426 55.7198 0.0713503 8.75166
143000 60.2424 139.439 55.7198 0.0714503 8.7212
143200 60.2424 139.452 55.7198 0.0715503 8.77176
143400 60.2424 139.465 55.7198 0.0716503 8.7581
143600 60.2424 139.478 55.7198 0.0717503 8.77496
143800 60.2424 139.491 55.7198 0.0718503 8.80297
144000 60.2424 139.504 55.7198 0.0719503 8.81015
144200 60.2424 139.517 55.7198 0.0720503 8.80493
144400 60.2424 139.53 55.7198 0.0721503 8.84064
144600 60.2424 139.543 55.7198 0.0722503 8.85278
144800 60.2424 139.556 55.7198 0.0723503 8.85771
145000 60.2424 139.569 55.7198 0.0724503 8.86943
145200 60.2424 139.582 55.7198 0.0725503 8.90707
145400 60.2424 139.595 55.7198 0.0726503 8.89891
145600 60.2424 139.608 55.7198 0.0727503 8.8944
145800 60.2424 139.621 55.7198 0.0728503 8.94504
146000 60.2424 139.634 55.7198 0.0729503 8.94314
146200 60.2424 139.647 55.7198 0.0730503 8.94929
146400 60.2424 139.66 55.7198 0.0731503 8.98331
146600 60.2424 139.673 55.7198 0.0732503 8.97635
146800 60.2424 139.686 55.7198 0.0733503 9.0183
147000 60.2424 139.699 55.7198 0.0734503 8.99463
147200 60.2424 139.712 55.7198 0.0735503 9.02946
147400 60.2424 139.725 55.7198 0.0736503 9.04043
147600 60.2424 139.738 55.7198 0.0737503 9.05111
147800 60.2424 139.751 55.7198 0.0738503 9.07694
148000 60.2424 139.764 55.7198 0.0739503 9.06494
148200 60.2424 139.777 55.7198 0.0740503 9.09157
148400 60.2424 139.79 55.7198 0.0741503 9.11618
148600 60.2424 139.803 55.7198 0.0742503 9.10202
148800 60.2424 139.816 55.7198 0.0743503 9.14391
149000 60.2424 139.829 55.7198 0.0744503 9.15165
149200 60.2424 139.842 55.7198 0.0745503 9.15562
149400 60.2424 139.856 55.7198 0.0746503 9.18458
149600 60.2424 139.869 55.7198 0.0747503 9.18285
149800 60.2424 139.882 55.7198 0.0748503 9.19668
150000 60.2424 139.895 55.7198 0.0749503 9.2077
150200 60.2424 139.908 55.7198 0.0750503 9.22662
150400 60.2424 139.921 55.7198 0.0751503 9.23789
150600 60.2424 139.934 55.7198 0.0752503 9.24304
150800 60.2424 139.947 55.7198 0.0753503 9.26831
151000 60.2424 139.96 55.7198 0.0754503 9.2713
151200 60.2424 139.973 55.7198 0.0755503 9.29053
151400 60.2424 139.986 55.7198 0.0756503 9.31013
151600 60.2424 139.999 55.7198 0.0757503 9.32387
151800 60.2424 140.012 55.7198 0.0758503 9.31851
152000 60.2424 140.025 55.7198 0.0759503 9.35452
152200 60.2424 140.038 55.7198 0.0760503 9.34316
152400 60.2424 140.051 55.7198 0.0761503 9.37663
152600 60.2424 140.064 55.7198 0.0762503 9.37812
152800 60.2424 140.077 55.7198 0.0763503 9.41414
153000 60.2424 140.09 55.7198 0.0764503 9.38947
153200 60.2424 140.103 55.7198 0.0765503 9.43056
153400 60.2424 140.116 55.7198 0.0766503 9.44394
153600 60.2424 140.129 55.7198 0.0767503 9.44627
153800 60.2424 140.142 55.7198 0.0768503 9.47301
154000 60.2424 140.155 55.7198 0.0769503 9.47193
154200 60.2424 140.168 55.7198 0.0770503 9.49519
154400 60.2424 140.181 55.7198 0.0771503 9.49723
154600 60.2424 140.194 55.7198 0.0772503 9.51404
154800 60.2424 140.207 55.7198 0.0773503 9.53186
155000 60.2424 140.22 55.7198 0.0774503 9.53874
155200 60.2424 140.233 55.7198 0.0775503 9.56696
155400 60.2424 140.246 55.7198 0.0776503 9.57001
155600 60.2424 140.259 55.7198 0.0777503 9.59966
155800 60.2424 140.272 55.7198 0.0778503 9.60299
156000 60.2424 140.285 55.7198 0.0779503 9.61547
156200 60.2424 140.298 55.7198 0.0780503 9.62579
156400 60.2424 140.311 55.7198 0.0781503 9.62139
156600 60.2424 140.324 55.7198 0.0782503 9.66035
156800 60.2424 140.337 55.7198 0.0783503 9.65848
157000 60.2424 140.35 55.7198 0.0784503 9.68894
157200 60.2424 140.363 55.7198 0.0785503 9.6797
157400 60.2424 140.376 55.7198 0.0786503 9.6887
157600 60.2424 140.389 55.7198 0.0787503 9.72937
157800 60.2424 140.402 55.7198 0.0788503 9.71629
158000 60.2424 140.415 55.7198 0.0789503 9.73587
158200 60.2424 140.428 55.7198 0.0790503 9.75903
158400 60.2424 140.441 55.7198 0.0791503 9.77051
158600 60.2424 140.454 55.7198 0.0792503 9.77148
158800 60.2424 140.467 55.7198 0.0793503 9.80587
159000 60.2424 140.48 55.7198 0.0794503 9.79161
159200 60.2424 140.493 55.7198 0.0795503 9.82113
159400 60.2424 140.506 55.7198 0.0796503 9.83461
159600 60.2424 140.519 55.7198 0.0797503 9.85518
159800 60.2424 140.532 55.7198 0.0798503 9.85737
160000 60.2424 140.545 55.7198 0.0799503 9.87782
160200 60.2424 140.558 55.7198 0.0800503 9.88377
160400 60.2424 140.571 55.7198 0.0801503 9.89469
160600 60.2424 140.584 55.7198 0.0802503 9.93213
160800 60.2424 140.597 55.7198 0.0803503 9.92234
161000 60.2424 140.61 55.7198 0.0804503 9.94022
161200 60.2424 140.623 55.7198 0.0805503 9.95523
161400 60.2424 140.636 55.7198 0.0806503 9.9865
161600 60.2424 140.649 55.7198 0.0807503 9.98063
161800 60.2424 140.662 55.7198 0.0808503 10.0066
162000 60.2424 140.675 55.7198 0.0809503 10.0161
162200 60.2424 140.688 55.7198 0.0810503 10.0385
162400 60.2424 140.701 55.7198 0.0811503 10.0329
162600 60.2424 140.714 55.7198 0.0812503 10.0608
162800 60.2424 140.727 55.7198 0.0813503 10.0785
163000 60.2424 140.74 55.7198 0.0814503 10.0855
163200 60.2424 140.753 55.7198 0.0815503 10.1038
163400 60.2424 140.766 55.7198 0.0816503 10.1139
163600 60.2424 140.78 55.7198 0.0817503 10.1294
163800 60.2424 140.793 55.7198 0.0818503 10.1474
164000 60.2424 140.806 55.7198 0.0819503 10.1493
164200 60.2424 140.819 55.7198 0.0820503 10.1532
164400 60.2424 140.832 55.7198 0.0821503 10.1864
164600 60.2424 140.845 55.7198 0.0822503 10.1601
164800 60.2424 140.858 55.7198 0.0823503 10.2123
165000 60.2424 140.871 55.7198 0.0824503 10.2198
165200 60.2424 140.884 55.7198 0.0825503 10.2257
165400 60.2424 140.897 55.7198 0.0826503 10.2272
165600 60.2424 140.91 55.7198 0.0827503 10.2667
165800 60.2424 140.923 55.7198 0.0828503 10.2577
166000 60.2424 140.936 55.7198 0.0829503 10.293
166200 60.2424 140.949 55.7198 0.0830503 10.3096
166400 60.2424 140.962 55.7198 0.0831503 10.3151
166600 60.2424 140.975 55.7198 0.0832503 10.3094
166800 60.2424 140.988 55.7198 0.0833503 10.347
167000 60.2424 141.001 55.7198 0.0834503 10.3509
167200 60.2424 141.014 55.7198 0.0835503 10.3908
167400 60.2424 141.027 55.7198 0.0836503 10.3789
167600 60.2424 141.04 55.7198 0.0837503 10.3925
167800 60.2424 141.053 55.7198 0.0838503 10.4183
168000 60.2424 141.066 55.7198 0.0839503 10.4179
168200 60.2424 141.079 55.7198 0.0840503 10.4162
168400 60.2424 141.092 55.7198 0.0841503 10.4353
168600 60.2424 141.105 55.7198 0.0842503 10.4589
168800 60.2424 141.118 55.7198 0.0843503 10.4529
169000 60.2424 141.131 55.7198 0.0844503 10.4933
169200 60.2424 141.144 55.7198 0.0845503 10.5039
169400 60.2424 141.157 55.7198 0.0846503 10.4956
169600 60.2424 141.17 55.7198 0.0847503 10.5334
169800 60.2424 141.183 55.7198 0.0848503 10.5521
170000 60.2424 141.196 55.7198 0.0849503 10.5489
170200 60.2424 141.209 55.7198 0.0850503 10.5782
170400 60.2424 141.222 55.7198 0.0851503 10.5684
170600 60.2424 141.235 55.7198 0.0852503 10.6008
170800 60.2424 141.248 55.7198 0.0853503 10.5997
171000 60.2424 141.261 55.7198 0.0854503 10.6232
171200 60.2424 141.274 55.7198 0.0855503 10.6302
171400 60.2424 141.287 55.7198 0.0856503 10.6461
171600 60.2424 141.3 55.7198 0.0857503 10.6735
171800 60.2424 141.313 55.7198 0.0858503 10.6687
172000 60.2424 141.326 55.7198 0.0859503 10.6899
172200 60.2424 141.339 55.7198 0.0860503 10.7074
172400 60.2424 141.352 55.7198 0.0861503 10.7085
172600 60.2424 141.365 55.7198 0.0862503 10.7361
172800 60.2424 141.378 55.7198 0.0863503 10.7427
173000 60.2424 141.391 55.7198 0.0864503 10.752
173200 60.2424 141.404 55.7198 0.0865503 10.7855
173400 60.2424 141.417 55.7198 0.0866503 10.7788
173600 60.2424 141.43 55.7198 0.0867503 10.8084
173800 60.2424 141.443 55.7198 0.0868503 10.8178
174000 60.2424 141.456 55.7198 0.0869503 10.8274
174200 60.2424 141.469 55.7198 0.0870503 10.841
174400 60.2424 141.482 55.7198 0.0871503 10.8444
174600 60.2424 141.495 55.7198 0.0872503 10.8638
174800 60.2424 141.508 55.7198 0.0873503 10.873
175000 60.2424 141.521 55.7198 0.0874503 10.8829
175200 60.2424 141.534 55.7198 0.0875503 10.9125
175400 60.2424 141.547 55.7198 0.0876503 10.9125
175600 60.2424 141.56 55.7198 0.0877503 10.9271
175800 60.2424 141.573 55.7198 0.0878503 10.9325
176000 60.2424 141.586 55.7198 0.0879503 10.9516
176200 60.2424 141.599 55.7198 0.0880503 10.9885
176400 60.2424 141.612 55.7198 0.0881503 10.9748
176600 60.2424 141.625 55.7198 0.0882503 11.0091
176800 60.2424 141.638 55.7198 0.0883503 11.0162
177000 60.2424 141.651 55.7198 0.0884503 11.0083
177200 60.2424 141.664 55.7198 0.0885503 11.0492
177400 60.2424 141.677 55.7198 0.0886503 11.0392
177600 60.2424 141.69 55.7198 0.0887503 11.0683
177800 60.2424 141.704 55.7198 0.0888503 11.0762
178000 60.2424 141.717 55.7198 0.0889503 11.1082
178200 60.2424 141.73 55.7198 0.0890503 11.0874
178400 60.2424 141.743 55.7198 0.0891503 11.1243
178600 60.2424 141.756 55.7198 0.0892503 11.1306
178800 60.2424 141.769 55.7198 0.0893503 11.1389
179000 60.2424 141.782 55.7198 0.0894503 11.1522
179200 60.2424 141.795 55.7198 0.0895503 11.1662
179400 60.2424 141.808 55.7198 0.0896503 11.1797
179600 60.2424 141.821 55.7198 0.0897503 11.1868
179800 60.2424 141.834 55.7198 0.0898503 11.2309
180000 60.2424 141.847 55.7198 0.0899503 11.2234
180200 60.2424 141.86 55.7198 0.0900503 11.2304
180400 60.2424 141.873 55.7198 0.0901503 11.2586
180600 60.2424 141.886 55.7198 0.0902503 11.2723
180800 60.2424 141.899 55.7198 0.0903503 11.2698
181000 60.2424 141.912 55.7198 0.0904503 11.3005
181200 60.2424 141.925 55.7198 0.0905503 11.2962
181400 60.2424 141.938 55.7198 0.0906503 11.333
181600 60.2424 141.951 55.7198 0.0907503 11.3213
181800 60.2424 141.964 55.7198 0.0908503 11.3581
182000 60.2424 141.977 55.7198 0.0909503 11.3542
182200 60.2424 141.99 55.7198 0.0910503 11.3562
182400 60.2424 142.003 55.7198 0.0911503 11.3922
182600 60.2424 142.016 55.7198 0.0912503 11.3783
182800 60.2424 142.029 55.7198 0.0913503 11.4224
183000 60.2424 142.042 55.7198 0.0914503 11.4236
183200 60.2424 142.055 55.7198 0.0915503 11.4345
183400 60.2424 142.068 55.7198 0.0916503 11.4499
183600 60.2424 142.081 55.7198 0.0917503 11.4482
183800 60.2424 142.094 55.7198 0.0918503 11.437
184000 60.2424 142.107 55.7198 0.0919503 11.4612
184200 60.2424 142.12 55.7198 0.0920503 11.4609
184400 60.2424 142.133 55.7198 0.0921503 11.475
184600 60.2424 142.146 55.7198 0.0922503 11.4999
184800 60.2424 142.159 55.7198 0.0923503 11.516
185000 60.2424 142.172 55.7198 0.0924503 11.5093
185200 60.2424 142.185 55.7198 0.0925503 11.5443
185400 60.2424 142.198 55.7198 0.0926503 11.5442
185600 60.2424 142.211 55.7198 0.0927503 11.5731
185800 60.2424 142.224 55.7198 0.0928503 11.5848
186000 60.2424 142.237 55.7198 0.0929503 11.5935
186200 60.2424 142.25 55.7198 0.0930503 11.6005
186400 60.2424 142.263 55.7198 0.0931503 11.622
186600 60.2424 142.276 55.7198 0.0932503 11.6332
186800 60.2424 142.289 55.7198 0.0933503 11.6541
187000 60.2424 142.302 55.7198 0.0934503 11.6586
187200 60.2424 142.315 55.7198 0.0935503 11.68
187400 60.2424 142.328 55.7198 0.0936503 11.6909
187600 60.2424 142.341 55.7198 0.0937503 11.6954
187800 60.2424 142.354 55.7198 0.0938503 11.7086
188000 60.2424 142.367 55.7198 0.0939503 11.7428
188200 60.2424 142.38 55.7198 0.0940503 11.7235
188400 60.2424 142.393 55.7198 0.0941503 11.7567
188600 60.2424 142.406 55.7198 0.0942503 11.7881
188800 60.2424 142.419 55.7198 0.0943503 11.7744
189000 60.2424 142.432 55.7198 0.0944503 11.8051
189200 60.2424 142.445 55.7198 0.0945503 11.801
189400 60.2424 142.458 55.7198 0.0946503 11.8315
189600 60.2424 142.471 55.7198 0.0947503 11.8449
189800 60.2424 142.484 55.7198 0.0948503 11.8508
190000 60.2424 142.497 55.7198 0.0949503 11.8701
190200 60.2424 142.51 55.7198 0.0950503 11.8849
190400 60.2424 142.523 55.7198 0.0951503 11.8849
190600 60.2424 142.536 55.7198 0.0952503 11.9069
190800 60.2424 142.549 55.7198 0.0953503 11.9288
191000 60.2424 142.562 55.7198 0.0954503 11.9312
191200 60.2424 142.575 55.7198 0.0955503 11.9532
191400 60.2424 142.588 55.7198 0.0956503 11.973
191600 60.2424 142.601 55.7198 0.0957503 11.9652
191800 60.2424 142.614 55.7198 0.0958503 12.0013
192000 60.2424 142.627 55.7198 0.0959503 11.9937
192200 60.2424 142.641 55.7198 0.0960503 12.0296
192400 60.2424 142.654 55.7198 0.0961503 12.0332
192600 60.2424 142.667 55.7198 0.0962503 12.0373
192800 60.2424 142.68 55.7198 0.0963503 12.0643
193000 60.2424 142.693 55.7198 0.0964503 12.067
193200 60.2424 142.706 55.7198 0.0965503 12.0693
193400 60.2424 142.719 55.7198 0.0966503 12.1005
193600 60.2424 142.732 55.7198 0.0967503 12.0909
193800 60.2424 142.745 55.7198 0.0968503 12.0966
194000 60.2424 142.758 55.7198 0.0969503 12.1263
194200 60.2424 142.771 55.7198 0.0970503 12.1396
194400 60.2424 142.784 55.7198 0.0971503 12.1486
194600 60.2424 142.797 55.7198 0.0972503 12.1794
194800 60.2424 142.81 55.7198 0.0973503 12.1643
195000 60.2424 142.823 55.7198 0.0974503 12.1945
195200 60.2424 142.836 55.7198 0.0975503 12.2112
195400 60.2424 142.849 55.7198 0.0976503 12.2282
195600 60.2424 142.862 55.7198 0.0977503 12.2178
195800 60.2424 142.875 55.7198 0.0978503 12.2594
196000 60.2424 142.888 55.7198 0.0979503 12.2608
196200 60.2424 142.901 55.7198 0.0980503 12.272
196400 60.2424 142.914 55.7198 0.0981503 12.3038
196600 60.2424 142.927 55.7198 0.0982503 12.3001
196800 60.2424 142.94 55.7198 0.0983503 12.3289
197000 60.2424 142.953 55.7198 0.0984503 12.3369
197200 60.2424 142.966 55.7198 0.0985503 12.3447
197400 60.2424 142.979 55.7198 0.0986503 12.3492
197600 60.2424 142.992 55.7198 0.0987503 12.355
197800 60.2424 143.005 55.7198 0.0988503 12.3771
198000 60.2424 143.018 55.7198 0.0989503 12.3784
198200 60.2424 143.031 55.7198 0.0990503 12.4057
198400 60.2424 143.044 55.7198 0.0991503 12.4091
198600 60.2424 143.057 55.7198 0.0992503 12.4324
198800 60.2424 143.07 55.7198 0.0993503 12.4325
199000 60.2424 143.083 55.7198 0.0994503 12.4332
199200 60.2424 143.096 55.7198 0.0995503 12.4621
199400 60.2424 143.109 55.7198 0.0996503 12.4323
199600 60.2424 143.122 55.7198 0.0997503 12.4734
199800 60.2424 143.135 55.7198 0.0998503 12.4843
200000 60.2424 143.148 55.7198 0.0999503 12.5017
200200 60.2424 143.161 55.7198 0.10005 12.4968
200400 60.2424 143.174 55.7198 0.10015 12.5175
200600 60.2424 143.187 55.7198 0.10025 12.5504
200800 60.2424 143.2 55.7198 0.10035 12.5414
201000 60.2424 143.213 55.7198 0.10045 12.5589
201200 60.2424 143.226 55.7198 0.10055 12.5821
201400 60.2424 143.239 55.7198 0.10065 12.5889
201600 60.2424 143.252 55.7198 0.10075 12.5987
201800 60.2424 143.265 55.7198 0.10085 12.6164
202000 60.2424 143.278 55.7198 0.10095 12.6442
202200 60.2424 143.291 55.7198 0.10105 12.6332
202400 60.2424 143.304 55.7198 0.10115 12.6723
202600 60.2424 143.317 55.7198 0.10125 12.6797
202800 60.2424 143.33 55.7198 0.10135 12.6823
203000 60.2424 143.343 55.7198 0.10145 12.7188
203200 60.2424 143.356 55.7198 0.10155 12.7135
203400 60.2424 143.369 55.7198 0.10165 12.7236
203600 60.2424 143.382 55.7198 0.10175 12.7322
203800 60.2424 143.395 55.7198 0.10185 12.7393
204000 60.2424 143.408 55.7198 0.10195 12.7491
204200 60.2424 143.421 55.7198 0.10205 12.7717
204400 60.2424 143.434 55.7198 0.10215 12.7708
204600 60.2424 143.447 55.7198 0.10225 12.7941
204800 60.2424 143.46 55.7198 0.10235 12.8082
205000 60.2424 143.473 55.7198 0.10245 12.8232
205200 60.2424 143.486 55.7198 0.10255 12.837
205400 60.2424 143.499 55.7198 0.10265 12.823
205600 60.2424 143.512 55.7198 0.10275 12.8403
205800 60.2424 143.525 55.7198 0.10285 12.8733
206000 60.2424 143.538 55.7198 0.10295 12.8729
206200 60.2424 143.551 55.7198 0.10305 12.8862
206400 60.2424 143.565 55.7198 0.10315 12.9076
206600 60.2424 143.578 55.7198 0.10325 12.9133
206800 60.2424 143.591 55.7198 0.10335 12.9209
207000 60.2424 143.604 55.7198 0.10345 12.9464
207200 60.2424 143.617 55.7198 0.10355 12.9569
207400 60.2424 143.63 55.7198 0.10365 12.9512
207600 60.2424 143.643 55.7198 0.10375 12.988
207800 60.2424 143.656 55.7198 0.10385 12.9922
208000 60.2424 143.669 55.7198 0.10395 12.9971
208200 60.2424 143.682 55.7198 0.10405 13.0191
208400 60.2424 143.695 55.7198 0.10415 13.0378
208600 60.2424 143.708 55.7198 0.10425 13.0381
208800 60.2424 143.721 55.7198 0.10435 13.0567
209000 60.2424 143.734 55.7198 0.10445 13.0501
209200 60.2424 143.747 55.7198 0.10455 13.0638
209400 60.2424 143.76 55.7198 0.10465 13.0812
209600 60.2424 143.773 55.7198 0.10475 13.0844
209800 60.2424 143.786 55.7198 0.10485 13.1214
210000 60.2424 143.799 55.7198 0.10495 13.1138
210200 60.2424 143.812 55.7198 0.10505 13.1193
210400 60.2424 143.825 55.7198 0.10515 13.1235
210600 60.2424 143.838 55.7198 0.10525 13.1328
210800 60.2424 143.851 55.7198 0.10535 13.1197
211000 60.2424 143.864 55.7198 0.10545 13.1502
211200 60.2424 143.877 55.7198 0.10555 13.1686
211400 60.2424 143.89 55.7198 0.10565 13.1583
211600 60.2424 143.903 55.7198 0.10575 13.188
211800 60.2424 143.916 55.7198 0.10585 13.2021
212000 60.2424 143.929 55.7198 0.10595 13.1966
212200 60.2424 143.942 55.7198 0.10605 13.2308
212400 60.2424 143.955 55.7198 0.10615 13.2474
212600 60.2424 143.968 55.7198 0.10625 13.2294
212800 60.2424 143.981 55.7198 0.10635 13.2801
213000 60.2424 143.994 55.7198 0.10645 13.2817
213200 60.2424 144.007 55.7198 0.10655 13.2914
213400 60.2424 144.02 55.7198 0.10665 13.3267
213600 60.2424 144.033 55.7198 0.10675 13.3115
213800 60.2424 144.046 55.7198 0.10685 13.3416
214000 60.2424 144.059 55.7198 0.10695 13.3563
214200 60.2424 144.072 55.7198 0.10705 13.3649
214400 60.2424 144.085 55.7198 0.10715 13.3844
214600 60.2424 144.098 55.7198 0.10725 13.4003
214800 60.2424 144.111 55.7198 0.10735 13.397
215000 60.2424 144.124 55.7198 0.10745 13.4362
215200 60.2424 144.137 55.7198 0.10755 13.4334
215400 60.2424 144.15 55.7198 0.10765 13.4433
215600 60.2424 144.163 55.7198 0.10775 13.4791
215800 60.2424 144.176 55.7198 0.10785 13.4684
216000 60.2424 144.189 55.7198 0.10795 13.4949
216200 60.2424 144.202 55.7198 0.10805 13.5216
216400 60.2424 144.215 55.7198 0.10815 13.5099
216600 60.2424 144.228 55.7198 0.10825 13.5454
216800 60.2424 144.241 55.7198 0.10835 13.525
217000 60.2424 144.254 55.7198 0.10845 13.5468
217200 60.2424 144.267 55.7198 0.10855 13.5516
217400 60.2424 144.28 55.7198 0.10865 13.5422
217600 60.2424 144.293 55.7198 0.10875 13.5537
217800 60.2424 144.306 55.7198 0.10885 13.5802
218000 60.2424 144.319 55.7198 0.10895 13.5897
218200 60.2424 144.332 55.7198 0.10905 13.5961
218400 60.2424 144.345 55.7198 0.10915 13.6191
218600 60.2424 144.358 55.7198 0.10925 13.6299
218800 60.2424 144.371 55.7198 0.10935 13.6486
219000 60.2424 144.384 55.7198 0.10945 13.6663
219200 60.2424 144.397 55.7198 0.10955 13.6638
219400 60.2424 144.41 55.7198 0.10965 13.6964
219600 60.2424 144.423 55.7198 0.10975 13.6939
219800 60.2424 144.436 55.7198 0.10985 13.7223
220000 60.2424 144.449 55.7198 0.10995 13.7163
220200 60.2424 144.462 55.7198 0.11005 13.7492
220400 60.2424 144.475 55.7198 0.11015 13.7598
220600 60.2424 144.489 55.7198 0.11025 13.7677
220800 60.2424 144.502 55.7198 0.11035 13.7868
221000 60.2424 144.515 55.7198 0.11045 13.8096
221200 60.2424 144.528 55.7198 0.11055 13.8055
221400 60.2424 144.541 55.7198 0.11065 13.8265
221600 60.2424 144.554 55.7198 0.11075 13.8361
221800 60.2424 144.567 55.7198 0.11085 13.8404
222000 60.2424 144.58 55.7198 0.11095 13.864
222200 60.2424 144.593 55.7198 0.11105 13.8739
222400 60.2424 144.606 55.7198 0.11115 13.862
222600 60.2424 144.619 55.7198 0.11125 13.8722
222800 60.2424 144.632 55.7198 0.11135 13.9
223000 60.2424 144.645 55.7198 0.11145 13.9026
223200 60.2424 144.658 55.7198 0.11155 13.9161
223400 60.2424 144.671 55.7198 0.11165 13.9334
223600 60.2424 144.684 55.7198 0.11175 13.9455
223800 60.2424 144.697 55.7198 0.11185 13.9552
224000 60.2424 144.71 55.7198 0.11195 13.9596
224200 60.2424 144.723 55.7198 0.11205 13.9876
224400 60.2424 144.736 55.7198 0.11215 13.9922
224600 60.2424 144.749 55.7198 0.11225 13.9698
224800 60.2424 144.762 55.7198 0.11235 13.9839
225000 60.2424 144.775 55.7198 0.11245 14.0097
225200 60.2424 144.788 55.7198 0.11255 14.0189
225400 60.2424 144.801 55.7198 0.11265 14.0146
225600 60.2424 144.814 55.7198 0.11275 14.0206
225800 60.2424 144.827 55.7198 0.11285 14.0212
226000 60.2424 144.84 55.7198 0.11295 14.0244
226200 60.2424 144.853 55.7198 0.11305 14.0263
226400 60.2424 144.866 55.7198 0.11315 14.0751
226600 60.2424 144.879 55.7198 0.11325 14.0714
226800 60.2424 144.892 55.7198 0.11335 14.0819
227000 60.2424 144.905 55.7198 0.11345 14.1087
227200 60.2424 144.918 55.7198 0.11355 14.1062
227400 60.2424 144.931 55.7198 0.11365 14.1343
227600 60.2424 144.944 55.7198 0.11375 14.1451
227800 60.2424 144.957 55.7198 0.11385 14.1577
228000 60.2424 144.97 55.7198 0.11395 14.169
228200 60.2424 144.983 55.7198 0.11405 14.1924
228400 60.2424 144.996 55.7198 0.11415 14.1867
228600 60.2424 145.009 55.7198 0.11425 14.2207
228800 60.2424 145.022 55.7198 0.11435 14.2347
229000 60.2424 145.035 55.7198 0.11445 14.2402
229200 60.2424 145.048 55.7198 0.11455 14.2218
229400 60.2424 145.061 55.7198 0.11465 14.2527
229600 60.2424 145.074 55.7198 0.11475 14.2673
229800 60.2424 145.087 55.7198 0.11485 14.2637
230000 60.2424 145.1 55.7198 0.11495 14.2677
230200 60.2424 145.113 55.7198 0.11505 14.2896
230400 60.2424 145.126 55.7198 0.11515 14.2921
230600 60.2424 145.139 55.7198 0.11525 14.3068
230800 60.2424 145.152 55.7198 0.11535 14.299
231000 60.2424 145.165 55.7198 0.11545 14.3139
231200 60.2424 145.178 55.7198 0.11555 14.3133
231400 60.2424 145.191 55.7198 0.11565 14.3164
231600 60.2424 145.204 55.7198 0.11575 14.3202
231800 60.2424 145.217 55.7198 0.11585 14.3192
232000 60.2424 145.23 55.7198 0.11595 14.3406
232200 60.2424 145.243 55.7198 0.11605 14.3396
232400 60.2424 145.256 55.7198 0.11615 14.3369
232600 60.2424 145.269 55.7198 0.11625 14.33
232800 60.2424 145.282 55.7198 0.11635 14.3581
233000 60.2424 145.295 55.7198 0.11645 14.3619
233200 60.2424 145.308 55.7198 0.11655 14.3745
233400 60.2424 145.321 55.7198 0.11665 14.3867
233600 60.2424 145.334 55.7198 0.11675 14.3968
233800 60.2424 145.347 55.7198 0.11685 14.4257
234000 60.2424 145.36 55.7198 0.11695 14.4358
234200 60.2424 145.373 55.7198 0.11705 14.4321
234400 60.2424 145.386 55.7198 0.11715 14.4632
234600 60.2424 145.399 55.7198 0.11725 14.4587
234800 60.2424 145.413 55.7198 0.11735 14.49
235000 60.2424 145.426 55.7198 0.11745 14.5011
235200 60.2424 145.439 55.7198 0.11755 14.502
235400 60.2424 145.452 55.7198 0.11765 14.5316
235600 60.2424 145.465 55.7198 0.11775 14.5457
235800 60.2424 145.478 55.7198 0.11785 14.5534
236000 60.2424 145.491 55.7198 0.11795 14.5648
236200 60.2424 145.504 55.7198 0.11805 14.5544
236400 60.2424 145.517 55.7198 0.11815 14.5729
236600 60.2424 145.53 55.7198 0.11825 14.577
236800 60.2424 145.543 55.7198 0.11835 14.5987
237000 60.2424 145.556 55.7198 0.11845 14.6239
237200 60.2424 145.569 55.7198 0.11855 14.6261
237400 60.2424 145.582 55.7198 0.11865 14.6444
237600 60.2424 145.595 55.7198 0.11875 14.6449
237800 60.2424 145.608 55.7198 0.11885 14.67
238000 60.2424 145.621 55.7198 0.11895 14.686
238200 60.2424 145.634 55.7198 0.11905 14.6982
238400 60.2424 145.647 55.7198 0.11915 14.7115
238600 60.2424 145.66 55.7198 0.11925 14.7295
238800 60.2424 145.673 55.7198 0.11935 14.7349
239000 60.2424 145.686 55.7198 0.11945 14.7654
239200 60.2424 145.699 55.7198 0.11955 14.7713
239400 60.2424 145.712 55.7198 0.11965 14.7748
239600 60.2424 145.725 55.7198 0.11975 14.7992
239800 60.2424 145.738 55.7198 0.11985 14.8041
240000 60.2424 145.751 55.7198 0.11995 14.828
240200 60.2424 145.764 55.7198 0.12005 14.8248
240400 60.2424 145.777 55.7198 0.12015 14.8624
240600 60.2424 145.79 55.7198 0.12025 14.846
240800 60.2424 145.803 55.7198 0.12035 14.8662
241000 60.2424 145.816 55.7198 0.12045 14.8592
241200 60.2424 145.829 55.7198 0.12055 14.8922
241400 60.2424 145.842 55.7198 0.12065 14.8791
241600 60.2424 145.855 55.7198 0.12075 14.8865
241800 60.2424 145.868 55.7198 0.12085 14.9135
242000 60.2424 145.881 55.7198 0.12095 14.9138
242200 60.2424 145.894 55.7198 0.12105 14.9244
242400 60.2424 145.907 55.7198 0.12115 14.9466
242600 60.2424 145.92 55.7198 0.12125 14.9572
242800 60.2424 145.933 55.7198 0.12135 14.9831
243000 60.2424 145.946 55.7198 0.12145 14.9744
243200 60.2424 145.959 55.7198 0.12155 14.9995
243400 60.2424 145.972 55.7198 0.12165 15.0132
243600 60.2424 145.985 55.7198 0.12175 15.0058
243800 60.2424 145.998 55.7198 0.12185 15.0424
244000 60.2424 146.011 55.7198 0.12195 15.0263
244200 60.2424 146.024 55.7198 0.12205 15.057
244400 60.2424 146.037 55.7198 0.12215 15.0608
244600 60.2424 146.05 55.7198 0.12225 15.0726
244800 60.2424 146.063 55.7198 0.12235 15.1002
245000 60.2424 146.076 55.7198 0.12245 15.0994
245200 60.2424 146.089 55.7198 0.12255 15.1263
245400 60.2424 146.102 55.7198 0.12265 15.1228
245600 60.2424 146.115 55.7198 0.12275 15.154
245800 60.2424 146.128 55.7198 0.12285 15.146
246000 60.2424 146.141 55.7198 0.12295 15.1817
246200 60.2424 146.154 55.7198 0.12305 15.1876
246400 60.2424 146.167 55.7198 0.12315 15.2011
246600 60.2424 146.18 55.7198 0.12325 15.2138
246800 60.2424 146.193 55.7198 0.12335 15.23
247000 60.2424 146.206 55.7198 0.12345 15.2325
247200 60.2424 146.219 55.7198 0.12355 15.2385
247400 60.2424 146.232 55.7198 0.12365 15.2475
247600 60.2424 146.245 55.7198 0.12375 15.266
247800 60.2424 146.258 55.7198 0.12385 15.2405
248000 60.2424 146.271 55.7198 0.12395 15.2692
248200 60.2424 146.284 55.7198 0.12405 15.2833
248400 60.2424 146.297 55.7198 0.12415 15.2829
248600 60.2424 146.31 55.7198 0.12425 15.3005
248800 60.2424 146.323 55.7198 0.12435 15.2815
249000 60.2424 146.337 55.7198 0.12445 15.31
249200 60.2424 146.35 55.7198 0.12455 15.3002
249400 60.2424 146.363 55.7198 0.12465 15.3261
249600 60.2424 146.376 55.7198 0.12475 15.3327
249800 60.2424 146.389 55.7198 0.12485 15.3535
250000 60.2424 146.402 55.7198 0.12495 15.3583
250200 60.2424 146.415 55.7198 0.12505 15.3911
250400 60.2424 146.428 55.7198 0.12515 15.3833
250600 60.2424 146.441 55.7198 0.12525 15.4015
250800 60.2424 146.454 55.7198 0.12535 15.4183
251000 60.2424 146.467 55.7198 0.12545 15.4125
251200 60.2424 146.48 55.7198 0.12555 15.4306
251400 60.2424 146.493 55.7198 0.12565 15.4065
251600 60.2424 146.506 55.7198 0.12575 15.4502
251800 60.2424 146.519 55.7198 0.12585 15.4591
252000 60.2424 146.532 55.7198 0.12595 15.4737
252200 60.2424 146.545 55.7198 0.12605 15.4884
252400 60.2424 146.558 55.7198 0.12615 15.4886
252600 60.2424 146.571 55.7198 0.12625 15.4952
252800 60.2424 146.584 55.7198 0.12635 15.5251
253000 60.2424 146.597 55.7198 0.12645 15.5358
253200 60.2424 146.61 55.7198 0.12655 15.5372
253400 60.2424 146.623 55.7198 0.12665 15.5308
253600 60.2424 146.636 55.7198 0.12675 15.5254
253800 60.2424 146.649 55.7198 0.12685 15.5421
254000 60.2424 146.662 55.7198 0.12695 15.5275
254200 60.2424 146.675 55.7198 0.12705 15.5462
254400 60.2424 146.688 55.7198 0.12715 15.5521
254600 60.2424 146.701 55.7198 0.12725 15.5685
254800 60.2424 146.714 55.7198 0.12735 15.5634
255000 60.2424 146.727 55.7198 0.12745 15.5857
255200 60.2424 146.74 55.7198 0.12755 15.5829
255400 60.2424 146.753 55.7198 0.12765 15.5838
255600 60.2424 146.766 55.7198 0.12775 15.5866
255800 60.2424 146.779 55.7198 0.12785 15.6022
256000 60.2424 146.792 55.7198 0.12795 15.5954
256200 60.2424 146.805 55.7198 0.12805 15.6162
256400 60.2424 146.818 55.7198 0.12815 15.6269
256600 60.2424 146.831 55.7198 0.12825 15.6287
256800 60.2424 146.844 55.7198 0.12835 15.6548
257000 60.2424 146.857 55.7198 0.12845 15.6635
257200 60.2424 146.87 55.7198 0.12855 15.6814
257400 60.2424 146.883 55.7198 0.12865 15.6844
257600 60.2424 146.896 55.7198 0.12875 15.6934
257800 60.2424 146.909 55.7198 0.12885 15.7092
258000 60.2424 146.922 55.7198 0.12895 15.6948
258200 60.2424 146.935 55.7198 0.12905 15.7108
258400 60.2424 146.948 55.7198 0.12915 15.7231
258600 60.2424 146.961 55.7198 0.12925 15.7373
258800 60.2424 146.974 55.7198 0.12935 15.7325
259000 60.2424 146.987 55.7198 0.12945 15.7169
259200 60.2424 147 55.7198 0.12955 15.6934
259400 60.2424 147.013 55.7198 0.12965 15.6801
259600 60.2424 147.026 55.7198 0.12975 15.6455
259800 60.2424 147.039 55.7198 0.12985 15.6296
260000 60.2424 147.052 55.7198 0.12995 15.6653
260200 60.2424 147.065 55.7198 0.13005 15.6669
260400 60.2424 147.078 55.7198 0.13015 15.6842
260600 60.2424 147.091 55.7198 0.13025 15.6916
260800 60.2424 147.104 55.7198 0.13035 15.7147
261000 60.2424 147.117 55.7198 0.13045 15.7139
261200 60.2424 147.13 55.7198 0.13055 15.7123
261400 60.2424 147.143 55.7198 0.13065 15.7068
261600 60.2424 147.156 55.7198 0.13075 15.7126
261800 60.2424 147.169 55.7198 0.13085 15.7016
262000 60.2424 147.182 55.7198 0.13095 15.7362
262200 60.2424 147.195 55.7198 0.13105 15.7445
262400 60.2424 147.208 55.7198 0.13115 15.7576
262600 60.2424 147.221 55.7198 0.13125 15.768
262800 60.2424 147.234 55.7198 0.13135 15.747
263000 60.2424 147.247 55.7198 0.13145 15.7636
263200 60.2424 147.261 55.7198 0.13155 15.7933
263400 60.2424 147.274 55.7198 0.13165 15.7793
263600 60.2424 147.287 55.7198 0.13175 15.7969
263800 60.2424 147.3 55.7198 0.13185 15.795
264000 60.2424 147.313 55.7198 0.13195 15.7921
264200 60.2424 147.326 55.7198 0.13205 15.8137
264400 60.2424 147.339 55.7198 0.13215 15.8372
264600 60.2424 147.352 55.7198 0.13225 15.827
264800 60.2424 147.365 55.7198 0.13235 15.8547
265000 60.2424 147.378 55.7198 0.13245 15.8687
265200 60.2424 147.391 55.7198 0.13255 15.8593
265400 60.2424 147.404 55.7198 0.13265 15.8497
265600 60.2424 147.417 55.7198 0.13275 15.8401
265800 60.2424 147.43 55.7198 0.13285 15.8706
266000 60.2424 147.443 55.7198 0.13295 15.8888
266200 60.2424 147.456 55.7198 0.13305 15.8865
266400 60.2424 147.469 55.7198 0.13315 15.916
266600 60.2424 147.482 55.7198 0.13325 15.9094
266800 60.2424 147.495 55.7198 0.13335 15.941
267000 60.2424 147.508 55.7198 0.13345 15.9469
267200 60.2424 147.521 55.7198 0.13355 15.9404
267400 60.2424 147.534 55.7198 0.13365 15.9464
267600 60.2424 147.547 55.7198 0.13375 15.9636
267800 60.2424 147.56 55.7198 0.13385 15.9605
268000 60.2424 147.573 55.7198 0.13395 15.9897
268200 60.2424 147.586 55.7198 0.13405 15.9765
268400 60.2424 147.599 55.7198 0.13415 15.9955
268600 60.2424 147.612 55.7198 0.13425 16
268800 60.2424 147.625 55.7198 0.13435 16.0115
269000 60.2424 147.638 55.7198 0.13445 16.018
269200 60.2424 147.651 55.7198 0.13455 16.0157
269400 60.2424 147.664 55.7198 0.13465 16.0138
269600 60.2424 147.677 55.7198 0.13475 16.0302
269800 60.2424 147.69 55.7198 0.13485 16.027
270000 60.2424 147.703 55.7198 0.13495 16.0582
270200 60.2424 147.716 55.7198 0.13505 16.0645
270400 60.2424 147.729 55.7198 0.13515 16.0857
270600 60.2424 147.742 55.7198 0.13525 16.0856
270800 60.2424 147.755 55.7198 0.13535 16.0725
271000 60.2424 147.768 55.7198 0.13545 16.0843
271200 60.2424 147.781 55.7198 0.13555 16.0851
271400 60.2424 147.794 55.7198 0.13565 16.1052
271600 60.2424 147.807 55.7198 0.13575 16.116
271800 60.2424 147.82 55.7198 0.13585 16.1229
272000 60.2424 147.833 55.7198 0.13595 16.0909
272200 60.2424 147.846 55.7198 0.13605 16.1068
272400 60.2424 147.859 55.7198 0.13615 16.1289
272600 60.2424 147.872 55.7198 0.13625 16.1361
272800 60.2424 147.885 55.7198 0.13635 16.1491
273000 60.2424 147.898 55.7198 0.13645 16.1372
273200 60.2424 147.911 55.7198 0.13655 16.1138
273400 60.2424 147.924 55.7198 0.13665 16.1253
273600 60.2424 147.937 55.7198 0.13675 16.1182
273800 60.2424 147.95 55.7198 0.13685 16.0855
274000 60.2424 147.963 55.7198 0.13695 16.0602
274200 60.2424 147.976 55.7198 0.13705 16.0824
274400 60.2424 147.989 55.7198 0.13715 16.0693
274600 60.2424 148.002 55.7198 0.13725 16.0593
274800 60.2424 148.015 55.7198 0.13735 16.0492
275000 60.2424 148.028 55.7198 0.13745 16.0624
275200 60.2424 148.041 55.7198 0.13755 16.0621
275400 60.2424 148.054 55.7198 0.13765 16.0935
275600 60.2424 148.067 55.7198 0.13775 16.0655
275800 60.2424 148.08 55.7198 0.13785 16.1009
276000 60.2424 148.093 55.7198 0.13795 16.0793
276200 60.2424 148.106 55.7198 0.13805 16.0819
276400 60.2424 148.119 55.7198 0.13815 16.0762
276600 60.2424 148.132 55.7198 0.13825 16.0454
276800 60.2424 148.145 55.7198 0.13835 16.0634
277000 60.2424 148.158 55.7198 0.13845 15.971
277200 60.2424 148.171 55.7198 0.13855 15.9805
277400 60.2424 148.184 55.7198 0.13865 15.981
277600 60.2424 148.198 55.7198 0.13875 15.9751
277800 60.2424 148.211 55.7198 0.13885 15.9676
278000 60.2424 148.224 55.7198 0.13895 15.9874
278200 60.2424 148.237 55.7198 0.13905 15.9839
278400 60.2424 148.25 55.7198 0.13915 15.9887
278600 60.2424 148.263 55.7198 0.13925 16.014
278800 60.2424 148.276 55.7198 0.13935 16.0421
279000 60.2424 148.289 55.7198 0.13945 16.0242
279200 60.2424 148.302 55.7198 0.13955 16.0515
279400 60.2424 148.315 55.7198 0.13965 16.0346
279600 60.2424 148.328 55.7198 0.13975 16.054
279800 60.2424 148.341 55.7198 0.13985 16.0537
280000 60.2424 148.354 55.7198 0.13995 16.0723
280200 60.2424 148.367 55.7198 0.14005 16.0878
280400 60.2424 148.38 55.7198 0.14015 16.0991
280600 60.2424 148.393 55.7198 0.14025 16.0993
280800 60.2424 148.406 55.7198 0.14035 16.1385
281000 60.2424 148.419 55.7198 0.14045 16.1359
281200 60.2424 148.432 55.7198 0.14055 16.1385
281400 60.2424 148.445 55.7198 0.14065 16.1442
281600 60.2424 148.458 55.7198 0.14075 16.1598
281800 60.2424 148.471 55.7198 0.14085 16.1363
282000 60.2424 148.484 55.7198 0.14095 16.165
282200 60.2424 148.497 55.7198 0.14105 16.1435
282400 60.2424 148.51 55.7198 0.14115 16.157
282600 60.2424 148.523 55.7198 0.14125 16.1983
282800 60.2424 148.536 55.7198 0.14135 16.1837
283000 60.2424 148.549 55.7198 0.14145 16.193
283200 60.2424 148.562 55.7198 0.14155 16.1854
283400 60.2424 148.575 55.7198 0.14165 16.1957
283600 60.2424 148.588 55.7198 0.14175 16.2176
283800 60.2424 148.601 55.7198 0.14185 16.2345
284000 60.2424 148.614 55.7198 0.14195 16.245
284200 60.2424 148.627 55.7198 0.14205 16.2569
284400 60.2424 148.64 55.7198 0.14215 16.2756
284600 60.2424 148.653 55.7198 0.14225 16.2831
284800 60.2424 148.666 55.7198 0.14235 16.3013
285000 60.2424 148.679 55.7198 0.14245 16.2839
285200 60.2424 148.692 55.7198 0.14255 16.3173
285400 60.2424 148.705 55.7198 0.14265 16.2977
285600 60.2424 148.718 55.7198 0.14275 16.3167
285800 60.2424 148.731 55.7198 0.14285 16.3163
286000 60.2424 148.744 55.7198 0.14295 16.3259
286200 60.2424 148.757 55.7198 0.14305 16.3404
286400 60.2424 148.77 55.7198 0.14315 16.3217
286600 60.2424 148.783 55.7198 0.14325 16.3574
286800 60.2424 148.796 55.7198 0.14335 16.3493
287000 60.2424 148.809 55.7198 0.14345 16.3672
287200 60.2424 148.822 55.7198 0.14355 16.3828
287400 60.2424 148.835 55.7198 0.14365 16.3871
287600 60.2424 148.848 55.7198 0.14375 16.3743
287800 60.2424 148.861 55.7198 0.14385 16.382
288000 60.2424 148.874 55.7198 0.14395 16.3533
288200 60.2424 148.887 55.7198 0.14405 16.3595
288400 60.2424 148.9 55.7198 0.14415 16.2972
288600 60.2424 148.913 55.7198 0.14425 16.3098
288800 60.2424 148.926 55.7198 0.14435 16.3212
289000 60.2424 148.939 55.7198 0.14445 16.3366
289200 60.2424 148.952 55.7198 0.14455 16.34
289400 60.2424 148.965 55.7198 0.14465 16.3324
289600 60.2424 148.978 55.7198 0.14475 16.3047
289800 60.2424 148.991 55.7198 0.14485 16.3319
290000 60.2424 149.004 55.7198 0.14495 16.2767
290200 60.2424 149.017 55.7198 0.14505 16.2387
290400 60.2424 149.03 55.7198 0.14515 16.2174
290600 60.2424 149.043 55.7198 0.14525 16.1787
290800 60.2424 149.056 55.7198 0.14535 16.2231
291000 60.2424 149.069 55.7198 0.14545 16.21
291200 60.2424 149.082 55.7198 0.14555 16.2293
291400 60.2424 149.095 55.7198 0.14565 16.2084
291600 60.2424 149.108 55.7198 0.14575 16.2311
291800 60.2424 149.122 55.7198 0.14585 16.1933
292000 60.2424 149.135 55.7198 0.14595 16.1561
292200 60.2424 149.148 55.7198 0.14605 16.1367
292400 60.2424 149.161 55.7198 0.14615 16.1246
292600 60.2424 149.174 55.7198 0.14625 16.1555
292800 60.2424 149.187 55.7198 0.14635 16.1414
293000 60.2424 149.2 55.7198 0.14645 16.1581
293200 60.2424 149.213 55.7198 0.14655 16.1464
293400 60.2424 149.226 55.7198 0.14665 16.1598
293600 60.2424 149.239 55.7198 0.14675 16.1642
293800 60.2424 149.252 55.7198 0.14685 16.1494
294000 60.2424 149.265 55.7198 0.14695 16.119
294200 60.2424 149.278 55.7198 0.14705 16.1493
294400 60.2424 149.291 55.7198 0.14715 16.1429
294600 60.2424 149.304 55.7198 0.14725 16.1405
294800 60.2424 149.317 55.7198 0.14735 16.1522
295000 60.2424 149.33 55.7198 0.14745 16.1747
295200 60.2424 149.343 55.7198 0.14755 16.1938
295400 60.2424 149.356 55.7198 0.14765 16.1651
295600 60.2424 149.369 55.7198 0.14775 16.14
295800 60.2424 149.382 55.7198 0.14785 16.1697
296000 60.2424 149.395 55.7198 0.14795 16.1982
296200 60.2424 149.408 55.7198 0.14805 16.1677
296400 60.2424 149.421 55.7198 0.14815 16.1648
296600 60.2424 149.434 55.7198 0.14825 16.1837
296800 60.2424 149.447 55.7198 0.14835 16.1571
297000 60.2424 149.46 55.7198 0.14845 16.1828
297200 60.2424 149.473 55.7198 0.14855 16.193
297400 60.2424 149.486 55.7198 0.14865 16.2038
297600 60.2424 149.499 55.7198 0.14875 16.2005
297800 60.2424 149.512 55.7198 0.14885 16.2181
298000 60.2424 149.525 55.7198 0.14895 16.2355
298200 60.2424 149.538 55.7198 0.14905 16.2479
298400 60.2424 149.551 55.7198 0.14915 16.2627
298600 60.2424 149.564 55.7198 0.14925 16.2687
298800 60.2424 149.577 55.7198 0.14935 16.2906
299000 60.2424 149.59 55.7198 0.14945 16.2577
299200 60.2424 149.603 55.7198 0.14955 16.2719
299400 60.2424 149.616 55.7198 0.14965 16.268
299600 60.2424 149.629 55.7198 0.14975 16.2654
299800 60.2424 149.642 55.7198 0.14985 16.2725
300000 60.2424 149.655 55.7198 0.14995 16.2777
300200 60.2424 149.668 55.7198 0.15005 16.3164
300400 60.2424 149.681 55.7198 0.15015 16.2648
300600 60.2424 149.694 55.7198 0.15025 16.2699
300800 60.2424 149.707 55.7198 0.15035 16.2929
301000 60.2424 149.72 55.7198 0.15045 16.2922
301200 60.2424 149.733 55.7198 0.15055 16.2696
301400 60.2424 149.746 55.7198 0.15065 16.2499
301600 60.2424 149.759 55.7198 0.15075 16.2415
301800 60.2424 149.772 55.7198 0.15085 16.2221
302000 60.2424 149.785 55.7198 0.15095 16.202
302200 60.2424 149.798 55.7198 0.15105 16.2365
302400 60.2424 149.811 55.7198 0.15115 16.2256
302600 60.2424 149.824 55.7198 0.15125 16.2357
302800 60.2424 149.837 55.7198 0.15135 16.23
303000 60.2424 149.85 55.7198 0.15145 16.2407
303200 60.2424 149.863 55.7198 0.15155 16.2474
303400 60.2424 149.876 55.7198 0.15165 16.2647
303600 60.2424 149.889 55.7198 0.15175 16.2673
303800 60.2424 149.902 55.7198 0.15185 16.234
304000 60.2424 149.915 55.7198 0.15195 16.277
304200 60.2424 149.928 55.7198 0.15205 16.2834
304400 60.2424 149.941 55.7198 0.15215 16.2963
304600 60.2424 149.954 55.7198 0.15225 16.3096
304800 60.2424 149.967 55.7198 0.15235 16.2966
305000 60.2424 149.98 55.7198 0.15245 16.3022
305200 60.2424 149.993 55.7198 0.15255 16.3077
305400 60.2424 150.006 55.7198 0.15265 16.3077
305600 60.2424 150.019 55.7198 0.15275 16.2863
305800 60.2424 150.032 55.7198 0.15285 16.2572
306000 60.2424 150.046 55.7198 0.15295 16.2477
306200 60.2424 150.059 55.7198 0.15305 16.2375
306400 60.2424 150.072 55.7198 0.15315 16.2237
306600 60.2424 150.085 55.7198 0.15325 16.2344
306800 60.2424 150.098 55.7198 0.15335 16.2152
307000 60.2424 150.111 55.7198 0.15345 16.2246
307200 60.2424 150.124 55.7198 0.15355 16.2167
307400 60.2424 150.137 55.7198 0.15365 16.2332
307600 60.2424 150.15 55.7198 0.15375 16.2379
307800 60.2424 150.163 55.7198 0.15385 16.2636
308000 60.2424 150.176 55.7198 0.15395 16.2445
308200 60.2424 150.189 55.7198 0.15405 16.248
308400 60.2424 150.202 55.7198 0.15415 16.2604
308600 60.2424 150.215 55.7198 0.15425 16.2323
308800 60.2424 150.228 55.7198 0.15435 16.1694
309000 60.2424 150.241 55.7198 0.15445 16.1515
309200 60.2424 150.254 55.7198 0.15455 16.1455
309400 60.2424 150.267 55.7198 0.15465 16.1263
309600 60.2424 150.28 55.7198 0.15475 16.0978
309800 60.2424 150.293 55.7198 0.15485 16.0167
310000 60.2424 150.306 55.7198 0.15495 15.9948
310200 60.2424 150.319 55.7198 0.15505 15.9671
310400 60.2424 150.332 55.7198 0.15515 15.9062
310600 60.2424 150.345 55.7198 0.15525 15.8516
310800 60.2424 150.358 55.7198 0.15535 15.7281
311000 60.2424 150.371 55.7198 0.15545 15.599
311200 60.2424 150.384 55.7198 0.15555 15.4347
311400 60.2424 150.397 55.7198 0.15565 15.2561
311600 60.2424 150.41 55.7198 0.15575 15.0139
311800 60.2424 150.423 55.7198 0.15585 14.7848
312000 60.2424 150.436 55.7198 0.15595 14.475
312200 60.2424 150.449 55.7198 0.15605 14.0398
312400 60.2424 150.462 55.7198 0.15615 13.542
312600 60.2424 150.475 55.7198 0.15625 12.8171
312800 60.2424 150.488 55.7198 0.15635 12.0913
313000 60.2424 150.501 55.7198 0.15645 11.1716
313200 60.2424 150.514 55.7198 0.15655 10.0706
313400 60.2424 150.527 55.7198 0.15665 8.80229
313600 60.2424 150.54 55.7198 0.15675 7.23241
313800 60.2424 150.553 55.7198 0.15685 5.5819
314000 60.2424 150.566 55.7198 0.15695 3.97028
314200 60.2424 150.579 55.7198 0.15705 2.31873
314400 60.2424 150.592 55.7198 0.15715 0.983008
314600 60.2424 150.605 55.7198 0.15725 -0.144237
314800 60.2424 150.618 55.7198 0.15735 -1.07502
315000 60.2424 150.631 55.7198 0.15745 -1.74978
315200 60.2424 150.644 55.7198 0.15755 -2.23916
315400 60.2424 150.657 55.7198 0.15765 -2.64357
315600 60.2424 150.67 55.7198 0.15775 -2.778
315800 60.2424 150.683 55.7198 0.15785 -2.77209
316000 60.2424 150.696 55.7198 0.15795 -2.61359
316200 60.2424 150.709 55.7198 0.15805 -2.25461
316400 60.2424 150.722 55.7198 0.15815 -1.72048
316600 60.2424 150.735 55.7198 0.15825 -1.00422
316800 60.2424 150.748 55.7198 0.15835 -0.129944
317000 60.2424 150.761 55.7198 0.15845 0.810068
317200 60.2424 150.774 55.7198 0.15855 1.8103
317400 60.2424 150.787 55.7198 0.15865 2.62969
317600 60.2424 150.8 55.7198 0.15875 3.17341
317800 60.2424 150.813 55.7198 0.15885 3.33289
318000 60.2424 150.826 55.7198 0.15895 3.05754
318200 60.2424 150.839 55.7198 0.15905 2.50015
318400 60.2424 150.852 55.7198 0.15915 1.59426
318600 60.2424 150.865 55.7198 0.15925 0.634338
318800 60.2424 150.878 55.7198 0.15935 -0.270522
319000 60.2424 150.891 55.7198 0.15945 -1.03637
319200 60.2424 150.904 55.7198 0.15955 -1.64518
319400 60.2424 150.917 55.7198 0.15965 -2.13781
319600 60.2424 150.93 55.7198 0.15975 -2.39961
319800 60.2424 150.943 55.7198 0.15985 -2.50356
320000 60.2424 150.956 55.7198 0.15995 -2.43241
320200 60.2424 150.97 55.7198 0.16005 -2.20209
320400 60.2424 150.983 55.7198 0.16015 -1.82765
320600 60.2424 150.996 55.7198 0.16025 -1.2502
320800 60.2424 151.009 55.7198 0.16035 -0.568767
321000 60.2424 151.022 55.7198 0.16045 0.250703
321200 60.2424 151.035 55.7198 0.16055 1.09547
321400 60.2424 151.048 55.7198 0.16065 1.88559
321600 60.2424 151.061 55.7198 0.16075 2.5617
321800 60.2424 151.074 55.7198 0.16085 2.94857
322000 60.2424 151.087 55.7198 0.16095 2.92609
322200 60.2424 151.1 55.7198 0.16105 2.57196
322400 60.2424 151.113 55.7198 0.16115 1.89854
322600 60.2424 151.126 55.7198 0.16125 1.04477
322800 60.2424 151.139 55.7198 0.16135 0.185227
323000 60.2424 151.152 55.7198 0.16145 -0.587536
323200 60.2424 151.165 55.7198 0.16155 -1.21389
323400 60.2424 151.178 55.7198 0.16165 -1.73169
323600 60.2424 151.191 55.7198 0.16175 -2.10223
323800 60.2424 151.204 55.7198 0.16185 -2.24459
324000 60.2424 151.217 55.7198 0.16195 -2.27412
324200 60.2424 151.23 55.7198 0.16205 -2.13604
324400 60.2424 151.243 55.7198 0.16215 -1.8731
324600 60.2424 151.256 55.7198 0.16225 -1.39054
324800 60.2424 151.269 55.7198 0.16235 -0.811026
325000 60.2424 151.282 55.7198 0.16245 -0.0673898
325200 60.2424 151.295 55.7198 0.16255 0.695313
325400 60.2424 151.308 55.7198 0.16265 1.4623
325600 60.2424 151.321 55.7198 0.16275 2.1383
325800 60.2424 151.334 55.7198 0.16285 2.57894
326000 60.2424 151.347 55.7198 0.16295 2.69891
326200 60.2424 151.36 55.7198 0.16305 2.46636
326400 60.2424 151.373 55.7198 0.16315 1.96939
326600 60.2424 151.386 55.7198 0.16325 1.28242
326800 60.2424 151.399 55.7198 0.16335 0.504753
327000 60.2424 151.412 55.7198 0.16345 -0.291406
327200 60.2424 151.425 55.7198 0.16355 -0.920861
327400 60.2424 151.438 55.7198 0.16365 -1.44891
327600 60.2424 151.451 55.7198 0.16375 -1.83751
327800 60.2424 151.464 55.7198 0.16385 -2.08278
328000 60.2424 151.477 55.7198 0.16395 -2.12103
328200 60.2424 151.49 55.7198 0.16405 -2.00633
328400 60.2424 151.503 55.7198 0.16415 -1.77117
328600 60.2424 151.516 55.7198 0.16425 -1.42876
328800 60.2424 151.529 55.7198 0.16435 -0.908027
329000 60.2424 151.542 55.7198 0.16445 -0.261561
329200 60.2424 151.555 55.7198 0.16455 0.495004
329400 60.2424 151.568 55.7198 0.16465 1.21018
329600 60.2424 151.581 55.7198 0.16475 1.84019
329800 60.2424 151.594 55.7198 0.16485 2.28506
330000 60.2424 151.607 55.7198 0.16495 2.43772
330200 60.2424 151.62 55.7198 0.16505 2.30584
330400 60.2424 151.633 55.7198 0.16515 1.89646
330600 60.2424 151.646 55.7198 0.16525 1.30283
330800 60.2424 151.659 55.7198 0.16535 0.598031
331000 60.2424 151.672 55.7198 0.16545 -0.110278
331200 60.2424 151.685 55.7198 0.16555 -0.719549
331400 60.2424 151.698 55.7198 0.16565 -1.25144
331600 60.2424 151.711 55.7198 0.16575 -1.62837
331800 60.2424 151.724 55.7198 0.16585 -1.85216
332000 60.2424 151.737 55.7198 0.16595 -1.96494
332200 60.2424 151.75 55.7198 0.16605 -1.89259
332400 60.2424 151.763 55.7198 0.16615 -1.68544
332600 60.2424 151.776 55.7198 0.16625 -1.33263
332800 60.2424 151.789 55.7198 0.16635 -0.864552
333000 60.2424 151.802 55.7198 0.16645 -0.268917
333200 60.2424 151.815 55.7198 0.16655 0.376778
333400 60.2424 151.828 55.7198 0.16665 1.02518
333600 60.2424 151.841 55.7198 0.16675 1.60099
333800 60.2424 151.854 55.7198 0.16685 2.05669
334000 60.2424 151.867 55.7198 0.16695 2.26233
334200 60.2424 151.88 55.7198 0.16705 2.13983
334400 60.2424 151.894 55.7198 0.16715 1.78531
334600 60.2424 151.907 55.7198 0.16725 1.21943
334800 60.2424 151.92 55.7198 0.16735 0.587624
335000 60.2424 151.933 55.7198 0.16745 -0.0398444
335200 60.2424 151.946 55.7198 0.16755 -0.642654
335400 60.2424 151.959 55.7198 0.16765 -1.11314
335600 60.2424 151.972 55.7198 0.16775 -1.48201
335800 60.2424 151.985 55.7198 0.16785 -1.71605
336000 60.2424 151.998 55.7198 0.16795 -1.80638
336200 60.2424 152.011 55.7198 0.16805 -1.77989
336400 60.2424 152.024 55.7198 0.16815 -1.56586
336600 60.2424 152.037 55.7198 0.16825 -1.21826
336800 60.2424 152.05 55.7198 0.16835 -0.773263
337000 60.2424 152.063 55.7198 0.16845 -0.208668
337200 60.2424 152.076 55.7198 0.16855 0.361174
337400 60.2424 152.089 55.7198 0.16865 0.914429
337600 60.2424 152.102 55.7198 0.16875 1.46618
337800 60.2424 152.115 55.7198 0.16885 1.86737
338000 60.2424 152.128 55.7198 0.16895 2.04096
338200 60.2424 152.141 55.7198 0.16905 1.92086
338400 60.2424 152.154 55.7198 0.16915 1.63048
338600 60.2424 152.167 55.7198 0.16925 1.12204
338800 60.2424 152.18 55.7198 0.16935 0.564816
339000 60.2424 152.193 55.7198 0.16945 -0.0718139
339200 60.2424 152.206 55.7198 0.16955 -0.59615
339400 60.2424 152.219 55.7198 0.16965 -1.01227
339600 60.2424 152.232 55.7198 0.16975 -1.38694
339800 60.2424 152.245 55.7198 0.16985 -1.54708
340000 60.2424 152.258 55.7198 0.16995 -1.65836
340200 60.2424 152.271 55.7198 0.17005 -1.62741
340400 60.2424 152.284 55.7198 0.17015 -1.41737
340600 60.2424 152.297 55.7198 0.17025 -1.12617
340800 60.2424 152.31 55.7198 0.17035 -0.701052
341000 60.2424 152.323 55.7198 0.17045 -0.234102
341200 60.2424 152.336 55.7198 0.17055 0.36028
341400 60.2424 152.349 55.7198 0.17065 0.89869
341600 60.2424 152.362 55.7198 0.17075 1.41274
341800 60.2424 152.375 55.7198 0.17085 1.74676
342000 60.2424 152.388 55.7198 0.17095 1.87863
342200 60.2424 152.401 55.7198 0.17105 1.76813
342400 60.2424 152.414 55.7198 0.17115 1.4463
342600 60.2424 152.427 55.7198 0.17125 1.00173
342800 60.2424 152.44 55.7198 0.17135 0.491731
343000 60.2424 152.453 55.7198 0.17145 -0.0455873
343200 60.2424 152.466 55.7198 0.17155 -0.558611
343400 60.2424 152.479 55.7198 0.17165 -0.978081
343600 60.2424 152.492 55.7198 0.17175 -1.31268
343800 60.2424 152.505 55.7198 0.17185 -1.49803
344000 60.2424 152.518 55.7198 0.17195 -1.57854
344200 60.2424 152.531 55.7198 0.17205 -1.50652
344400 60.2424 152.544 55.7198 0.17215 -1.30718
344600 60.2424 152.557 55.7198 0.17225 -1.01214
344800 60.2424 152.57 55.7198 0.17235 -0.59369
345000 60.2424 152.583 55.7198 0.17245 -0.131041
345200 60.2424 152.596 55.7198 0.17255 0.370032
345400 60.2424 152.609 55.7198 0.17265 0.899466
345600 60.2424 152.622 55.7198 0.17275 1.34646
345800 60.2424 152.635 55.7198 0.17285 1.65437
346000 60.2424 152.648 55.7198 0.17295 1.72756
346200 60.2424 152.661 55.7198 0.17305 1.63924
346400 60.2424 152.674 55.7198 0.17315 1.31042
346600 60.2424 152.687 55.7198 0.17325 0.865751
346800 60.2424 152.7 55.7198 0.17335 0.383213
347000 60.2424 152.713 55.7198 0.17345 -0.12843
347200 60.2424 152.726 55.7198 0.17355 -0.560485
347400 60.2424 152.739 55.7198 0.17365 -0.94631
347600 60.2424 152.752 55.7198 0.17375 -1.22282
347800 60.2424 152.765 55.7198 0.17385 -1.4245
348000 60.2424 152.778 55.7198 0.17395 -1.46734
348200 60.2424 152.791 55.7198 0.17405 -1.38301
348400 60.2424 152.804 55.7198 0.17415 -1.20949
348600 60.2424 152.817 55.7198 0.17425 -0.888723
348800 60.2424 152.831 55.7198 0.17435 -0.50262
349000 60.2424 152.844 55.7198 0.17445 -0.0252689
349200 60.2424 152.857 55.7198 0.17455 0.442764
349400 60.2424 152.87 55.7198 0.17465 0.918874
349600 60.2424 152.883 55.7198 0.17475 1.29408
349800 60.2424 152.896 55.7198 0.17485 1.50845
350000 60.2424 152.909 55.7198 0.17495 1.61375
350200 60.2424 152.922 55.7198 0.17505 1.48825
350400 60.2424 152.935 55.7198 0.17515 1.17696
350600 60.2424 152.948 55.7198 0.17525 0.786254
350800 60.2424 152.961 55.7198 0.17535 0.263258
351000 60.2424 152.974 55.7198 0.17545 -0.181859
351200 60.2424 152.987 55.7198 0.17555 -0.611924
351400 60.2424 153 55.7198 0.17565 -0.947857
351600 60.2424 153.013 55.7198 0.17575 -1.2064
351800 60.2424 153.026 55.7198 0.17585 -1.31403
352000 60.2424 153.039 55.7198 0.17595 -1.37402
352200 60.2424 153.052 55.7198 0.17605 -1.28556
352400 60.2424 153.065 55.7198 0.17615 -1.08248
352600 60.2424 153.078 55.7198 0.17625 -0.765032
352800 60.2424 153.091 55.7198 0.17635 -0.391451
353000 60.2424 153.104 55.7198 0.17645 0.0679031
353200 60.2424 153.117 55.7198 0.17655 0.509281
353400 60.2424 153.13 55.7198 0.17665 0.923533
353600 60.2424 153.143 55.7198 0.17675 1.27032
353800 60.2424 153.156 55.7198 0.17685 1.45388
354000 60.2424 153.169 55.7198 0.17695 1.47255
354200 60.2424 153.182 55.7198 0.17705 1.3429
354400 60.2424 153.195 55.7198 0.17715 1.06448
354600 60.2424 153.208 55.7198 0.17725 0.643414
354800 60.2424 153.221 55.7198 0.17735 0.192887
355000 60.2424 153.234 55.7198 0.17745 -0.23893
355200 60.2424 153.247 55.7198 0.17755 -0.641872
355400 60.2424 153.26 55.7198 0.17765 -0.948613
355600 60.2424 153.273 55.7198 0.17775 -1.17016
355800 60.2424 153.286 55.7198 0.17785 -1.26457
356000 60.2424 153.299 55.7198 0.17795 -1.25633
356200 60.2424 153.312 55.7198 0.17805 -1.16829
356400 60.2424 153.325 55.7198 0.17815 -0.974157
356600 60.2424 153.338 55.7198 0.17825 -0.650012
356800 60.2424 153.351 55.7198 0.17835 -0.278295
357000 60.2424 153.364 55.7198 0.17845 0.137159
357200 60.2424 153.377 55.7198 0.17855 0.55017
357400 60.2424 153.39 55.7198 0.17865 0.977605
357600 60.2424 153.403 55.7198 0.17875 1.22255
357800 60.2424 153.416 55.7198 0.17885 1.39359
358000 60.2424 153.429 55.7198 0.17895 1.39418
358200 60.2424 153.442 55.7198 0.17905 1.20293
358400 60.2424 153.455 55.7198 0.17915 0.905046
358600 60.2424 153.468 55.7198 0.17925 0.517186
358800 60.2424 153.481 55.7198 0.17935 0.0803338
359000 60.2424 153.494 55.7198 0.17945 -0.298979
359200 60.2424 153.507 55.7198 0.17955 -0.669624
359400 60.2424 153.52 55.7198 0.17965 -0.960133
359600 60.2424 153.533 55.7198 0.17975 -1.12884
359800 60.2424 153.546 55.7198 0.17985 -1.22891
360000 60.2424 153.559 55.7198 0.17995 -1.21827
360200 60.2424 153.572 55.7198 0.18005 -1.05995
360400 60.2424 153.585 55.7198 0.18015 -0.861068
360600 60.2424 153.598 55.7198 0.18025 -0.539452
360800 60.2424 153.611 55.7198 0.18035 -0.155207
361000 60.2424 153.624 55.7198 0.18045 0.214386
361200 60.2424 153.637 55.7198 0.18055 0.658888
361400 60.2424 153.65 55.7198 0.18065 0.980246
361600 60.2424 153.663 55.7198 0.18075 1.22423
361800 60.2424 153.676 55.7198 0.18085 1.34505
362000 60.2424 153.689 55.7198 0.18095 1.29126
362200 60.2424 153.702 55.7198 0.18105 1.09821
362400 60.2424 153.715 55.7198 0.18115 0.776873
362600 60.2424 153.728 55.7198 0.18125 0.40479
362800 60.2424 153.741 55.7198 0.18135 -0.0137555
363000 60.2424 153.755 55.7198 0.18145 -0.407013
363200 60.2424 153.768 55.7198 0.18155 -0.735069
363400 60.2424 153.781 55.7198 0.18165 -0.992708
363600 60.2424 153.794 55.7198 0.18175 -1.13079
363800 60.2424 153.807 55.7198 0.18185 -1.14398
364000 60.2424 153.82 55.7198 0.18195 -1.11905
364200 60.2424 153.833 55.7198 0.18205 -0.969918
364400 60.2424 153.846 55.7198 0.18215 -0.792045
364600 60.2424 153.859 55.7198 0.18225 -0.439961
364800 60.2424 153.872 55.7198 0.18235 -0.0572239
365000 60.2424 153.885 55.7198 0.18245 0.345959
365200 60.2424 153.898 55.7198 0.18255 0.722062
365400 60.2424 153.911 55.7198 0.18265 1.03442
365600 60.2424 153.924 55.7198 0.18275 1.22736
365800 60.2424 153.937 55.7198 0.18285 1.30009
366000 60.2424 153.95 55.7198 0.18295 1.1948
366200 60.2424 153.963 55.7198 0.18305 0.96632
366400 60.2424 153.976 55.7198 0.18315 0.660283
366600 60.2424 153.989 55.7198 0.18325 0.2446
366800 60.2424 154.002 55.7198 0.18335 -0.122316
367000 60.2424 154.015 55.7198 0.18345 -0.491676
367200 60.2424 154.028 55.7198 0.18355 -0.76917
367400 60.2424 154.041 55.7198 0.18365 -0.990459
367600 60.2424 154.054 55.7198 0.18375 -1.0915
367800 60.2424 154.067 55.7198 0.18385 -1.12059
368000 60.2424 154.08 55.7198 0.18395 -1.02949
368200 60.2424 154.093 55.7198 0.18405 -0.877564
368400 60.2424 154.106 55.7198 0.18415 -0.639488
368600 60.2424 154.119 55.7198 0.18425 -0.304535
368800 60.2424 154.132 55.7198 0.18435 0.0566276
369000 60.2424 154.145 55.7198 0.18445 0.433834
369200 60.2424 154.158 55.7198 0.18455 0.75069
369400 60.2424 154.171 55.7198 0.18465 1.04741
369600 60.2424 154.184 55.7198 0.18475 1.21864
369800 60.2424 154.197 55.7198 0.18485 1.19557
370000 60.2424 154.21 55.7198 0.18495 1.07041
370200 60.2424 154.223 55.7198 0.18505 0.846729
370400 60.2424 154.236 55.7198 0.18515 0.518166
370600 60.2424 154.249 55.7198 0.18525 0.153275
370800 60.2424 154.262 55.7198 0.18535 -0.222521
371000 60.2424 154.275 55.7198 0.18545 -0.540772
371200 60.2424 154.288 55.7198 0.18555 -0.793794
371400 60.2424 154.301 55.7198 0.18565 -0.980715
371600 60.2424 154.314 55.7198 0.18575 -1.08246
371800 60.2424 154.327 55.7198 0.18585 -1.06139
372000 60.2424 154.34 55.7198 0.18595 -0.966
372200 60.2424 154.353 55.7198 0.18605 -0.772659
372400 60.2424 154.366 55.7198 0.18615 -0.522642
372600 60.2424 154.379 55.7198 0.18625 -0.20081
372800 60.2424 154.392 55.7198 0.18635 0.181551
373000 60.2424 154.405 55.7198 0.18645 0.515195
373200 60.2424 154.418 55.7198 0.18655 0.800771
373400 60.2424 154.431 55.7198 0.18665 1.04751
373600 60.2424 154.444 55.7198 0.18675 1.17315
373800 60.2424 154.457 55.7198 0.18685 1.16529
374000 60.2424 154.47 55.7198 0.18695 0.985655
374200 60.2424 154.483 55.7198 0.18705 0.724122
374400 60.2424 154.496 55.7198 0.18715 0.418165
374600 60.2424 154.509 55.7198 0.18725 0.0236879
374800 60.2424 154.522 55.7198 0.18735 -0.308668
375000 60.2424 154.535 55.7198 0.18745 -0.620501
375200 60.2424 154.548 55.7198 0.18755 -0.82507
375400 60.2424 154.561 55.7198 0.18765 -0.978821
375600 60.2424 154.574 55.7198 0.18775 -1.02949
375800 60.2424 154.587 55.7198 0.18785 -1.01231
376000 60.2424 154.6 55.7198 0.18795 -0.902263
376200 60.2424 154.613 55.7198 0.18805 -0.693095
376400 60.2424 154.626 55.7198 0.18815 -0.418952
376600 60.2424 154.639 55.7198 0.18825 -0.0884134
376800 60.2424 154.652 55.7198 0.18835 0.293499
377000 60.2424 154.665 55.7198 0.18845 0.609414
377200 60.2424 154.679 55.7198 0.18855 0.862785
377400 60.2424 154.692 55.7198 0.18865 1.08339
377600 60.2424 154.705 55.7198 0.18875 1.13757
377800 60.2424 154.718 55.7198 0.18885 1.07067
378000 60.2424 154.731 55.7198 0.18895 0.892732
378200 60.2424 154.744 55.7198 0.18905 0.619515
378400 60.2424 154.757 55.7198 0.18915 0.276422
378600 60.2424 154.77 55.7198 0.18925 -0.0723759
378800 60.2424 154.783 55.7198 0.18935 -0.403239
379000 60.2424 154.796 55.7198 0.18945 -0.668164
379200 60.2424 154.809 55.7198 0.18955 -0.903241
379400 60.2424 154.822 55.7198 0.18965 -0.958787
379600 60.2424 154.835 55.7198 0.18975 -1.00441
379800 60.2424 154.848 55.7198 0.18985 -0.957417
380000 60.2424 154.861 55.7198 0.18995 -0.79313
380200 60.2424 154.874 55.7198 0.19005 -0.604224
380400 60.2424 154.887 55.7198 0.19015 -0.312392
380600 60.2424 154.9 55.7198 0.19025 0.0316858
380800 60.2424 154.913 55.7198 0.19035 0.394916
381000 60.2424 154.926 55.7198 0.19045 0.687721
381200 60.2424 154.939 55.7198 0.19055 0.9266
381400 60.2424 154.952 55.7198 0.19065 1.06101
381600 60.2424 154.965 55.7198 0.19075 1.07695
381800 60.2424 154.978 55.7198 0.19085 1.00038
382000 60.2424 154.991 55.7198 0.19095 0.790723
382200 60.2424 155.004 55.7198 0.19105 0.493805
382400 60.2424 155.017 55.7198 0.19115 0.147302
382600 60.2424 155.03 55.7198 0.19125 -0.151113
382800 60.2424 155.043 55.7198 0.19135 -0.458472
383000 60.2424 155.056 55.7198 0.19145 -0.732591
383200 60.2424 155.069 55.7198 0.19155 -0.892653
383400 60.2424 155.082 55.7198 0.19165 -0.967691
383600 60.2424 155.095 55.7198 0.19175 -0.947136
383800 60.2424 155.108 55.7198 0.19185 -0.884119
384000 60.2424 155.121 55.7198 0.19195 -0.694774
384200 60.2424 155.134 55.7198 0.19205 -0.511878
384400 60.2424 155.147 55.7198 0.19215 -0.20014
384600 60.2424 155.16 55.7198 0.19225 0.137035
384800 60.2424 155.173 55.7198 0.19235 0.45895
385000 60.2424 155.186 55.7198 0.19245 0.723765
385200 60.2424 155.199 55.7198 0.19255 0.944698
385400 60.2424 155.212 55.7198 0.19265 1.02419
385600 60.2424 155.225 55.7198 0.19275 1.03846
385800 60.2424 155.238 55.7198 0.19285 0.871974
386000 60.2424 155.251 55.7198 0.19295 0.675738
386200 60.2424 155.264 55.7198 0.19305 0.373847
386400 60.2424 155.277 55.7198 0.19315 0.0829046
386600 60.2424 155.29 55.7198 0.19325 -0.232216
386800 60.2424 155.303 55.7198 0.19335 -0.538289
387000 60.2424 155.316 55.7198 0.19345 -0.729535
387200 60.2424 155.329 55.7198 0.19355 -0.886032
387400 60.2424 155.342 55.7198 0.19365 -0.948794
387600 60.2424 155.355 55.7198 0.19375 -0.900837
387800 60.2424 155.368 55.7198 0.19385 -0.789324
388000 60.2424 155.381 55.7198 0.19395 -0.644242
388200 60.2424 155.394 55.7198 0.19405 -0.38058
388400 60.2424 155.407 55.7198 0.19415 -0.0938277
388600 60.2424 155.42 55.7198 0.19425 0.182092
388800 60.2424 155.433 55.7198 0.19435 0.508457
389000 60.2424 155.446 55.7198 0.19445 0.774929
389200 60.2424 155.459 55.7198 0.19455 0.94529
389400 60.2424 155.472 55.7198 0.19465 1.01241
389600 60.2424 155.485 55.7198 0.19475 0.969106
389800 60.2424 155.498 55.7198 0.19485 0.787482
390000 60.2424 155.511 55.7198 0.19495 0.574011
390200 60.2424 155.524 55.7198 0.19505 0.273172
390400 60.2424 155.537 55.7198 0.19515 -0.0176777
390600 60.2424 155.55 55.7198 0.19525 -0.326336
390800 60.2424 155.563 55.7198 0.19535 -0.557293
391000 60.2424 155.576 55.7198 0.19545 -0.753625
391200 60.2424 155.589 55.7198 0.19555 -0.877438
391400 60.2424 155.603 55.7198 0.19565 -0.902242
391600 60.2424 155.616 55.7198 0.19575 -0.860499
391800 60.2424 155.629 55.7198 0.19585 -0.757941
392000 60.2424 155.642 55.7198 0.19595 -0.560301
392200 60.2424 155.655 55.7198 0.19605 -0.288228
392400 60.2424 155.668 55.7198 0.19615 0.0201189
392600 60.2424 155.681 55.7198 0.19625 0.323914
392800 60.2424 155.694 55.7198 0.19635 0.581997
393000 60.2424 155.707 55.7198 0.19645 0.792467
393200 60.2424 155.72 55.7198 0.19655 0.924852
393400 60.2424 155.733 55.7198 0.19665 0.96104
393600 60.2424 155.746 55.7198 0.19675 0.904769
393800 60.2424 155.759 55.7198 0.19685 0.738022
394000 60.2424 155.772 55.7198 0.19695 0.441584
394200 60.2424 155.785 55.7198 0.19705 0.197712
394400 60.2424 155.798 55.7198 0.19715 -0.123585
394600 60.2424 155.811 55.7198 0.19725 -0.407979
394800 60.2424 155.824 55.7198 0.19735 -0.632602
395000 60.2424 155.837 55.7198 0.19745 -0.766031
395200 60.2424 155.85 55.7198 0.19755 -0.852433
395400 60.2424 155.863 55.7198 0.19765 -0.86391
395600 60.2424 155.876 55.7198 0.19775 -0.797478
395800 60.2424 155.889 55.7198 0.19785 -0.643581
396000 60.2424 155.902 55.7198 0.19795 -0.474701
396200 60.2424 155.915 55.7198 0.19805 -0.189463
396400 60.2424 155.928 55.7198 0.19815 0.0910907
396600 60.2424 155.941 55.7198 0.19825 0.386955
396800 60.2424 155.954 55.7198 0.19835 0.634391
397000 60.2424 155.967 55.7198 0.19845 0.863464
397200 60.2424 155.98 55.7198 0.19855 0.927259
397400 60.2424 155.993 55.7198 0.19865 0.903361
397600 60.2424 156.006 55.7198 0.19875 0.780189
397800 60.2424 156.019 55.7198 0.19885 0.634302
398000 60.2424 156.032 55.7198 0.19895 0.390384
398200 60.2424 156.045 55.7198 0.19905 0.0817937
398400 60.2424 156.058 55.7198 0.19915 -0.209646
398600 60.2424 156.071 55.7198 0.19925 -0.463035
398800 60.2424 156.084 55.7198 0.19935 -0.672422
399000 60.2424 156.097 55.7198 0.19945 -0.823001
399200 60.2424 156.11 55.7198 0.19955 -0.840685
399400 60.2424 156.123 55.7198 0.19965 -0.832876
399600 60.2424 156.136 55.7198 0.19975 -0.717764
399800 60.2424 156.149 55.7198 0.19985 -0.543494
400000 60.2424 156.162 55.7198 0.19995 -0.355192
400200 60.2424 156.175 55.7198 0.20005 -0.0772631
400400 60.2424 156.188 55.7198 0.20015 0.19521
400600 60.2424 156.201 55.7198 0.20025 0.457857
400800 60.2424 156.214 55.7198 0.20035 0.718719
401000 60.2424 156.227 55.7198 0.20045 0.844768
401200 60.2424 156.24 55.7198 0.20055 0.907184
401400 60.2424 156.253 55.7198 0.20065 0.844536
401600 60.2424 156.266 55.7198 0.20075 0.698536
401800 60.2424 156.279 55.7198 0.20085 0.499058
402000 60.2424 156.292 55.7198 0.20095 0.232673
402200 60.2424 156.305 55.7198 0.20105 -0.0183259
402400 60.2424 156.318 55.7198 0.20115 -0.297767
402600 60.2424 156.331 55.7198 0.20125 -0.491348
402800 60.2424 156.344 55.7198 0.20135 -0.709617
403000 60.2424 156.357 55.7198 0.20145 -0.803041
403200 60.2424 156.37 55.7198 0.20155 -0.831658
403400 60.2424 156.383 55.7198 0.20165 -0.761127
403600 60.2424 156.396 55.7198 0.20175 -0.637212
403800 60.2424 156.409 55.7198 0.20185 -0.453678
404000 60.2424 156.422 55.7198 0.20195 -0.225477
404200 60.2424 156.435 55.7198 0.20205 0.0189584
404400 60.2424 156.448 55.7198 0.20215 0.283489
404600 60.2424 156.461 55.7198 0.20225 0.508863
404800 60.2424 156.474 55.7198 0.20235 0.711646
405000 60.2424 156.487 55.7198 0.20245 0.819151
405200 60.2424 156.5 55.7198 0.20255 0.882641
405400 60.2424 156.513 55.7198 0.20265 0.810679
405600 60.2424 156.527 55.7198 0.20275 0.623802
405800 60.2424 156.54 55.7198 0.20285 0.384096
406000 60.2424 156.553 55.7198 0.20295 0.112855
406200 60.2424 156.566 55.7198 0.20305 -0.115609
406400 60.2424 156.579 55.7198 0.20315 -0.350174
406600 60.2424 156.592 55.7198 0.20325 -0.536206
406800 60.2424 156.605 55.7198 0.20335 -0.682571
407000 60.2424 156.618 55.7198 0.20345 -0.776941
407200 60.2424 156.631 55.7198 0.20355 -0.779048
407400 60.2424 156.644 55.7198 0.20365 -0.70767
407600 60.2424 156.657 55.7198 0.20375 -0.57332
407800 60.2424 156.67 55.7198 0.20385 -0.377179
408000 60.2424 156.683 55.7198 0.20395 -0.171217
408200 60.2424 156.696 55.7198 0.20405 0.125139
408400 60.2424 156.709 55.7198 0.20415 0.391027
408600 60.2424 156.722 55.7198 0.20425 0.576686
408800 60.2424 156.735 55.7198 0.20435 0.719646
409000 60.2424 156.748 55.7198 0.20445 0.805376
409200 60.2424 156.761 55.7198 0.20455 0.813932
409400 60.2424 156.774 55.7198 0.20465 0.722501
409600 60.2424 156.787 55.7198 0.20475 0.5221
409800 60.2424 156.8 55.7198 0.20485 0.307642
410000 60.2424 156.813 55.7198 0.20495 0.0444943
410200 60.2424 156.826 55.7198 0.20505 -0.225229
410400 60.2424 156.839 55.7198 0.20515 -0.417331
410600 60.2424 156.852 55.7198 0.20525 -0.598042
410800 60.2424 156.865 55.7198 0.20535 -0.711949
411000 60.2424 156.878 55.7198 0.20545 -0.772409
411200 60.2424 156.891 55.7198 0.20555 -0.711142
411400 60.2424 156.904 55.7198 0.20565 -0.650569
411600 60.2424 156.917 55.7198 0.20575 -0.4962
411800 60.2424 156.93 55.7198 0.20585 -0.279837
412000 60.2424 156.943 55.7198 0.20595 -0.039955
412200 60.2424 156.956 55.7198 0.20605 0.202525
412400 60.2424 156.969 55.7198 0.20615 0.414987
412600 60.2424 156.982 55.7198 0.20625 0.639436
412800 60.2424 156.995 55.7198 0.20635 0.77808
413000 60.2424 157.008 55.7198 0.20645 0.799322
413200 60.2424 157.021 55.7198 0.20655 0.739735
413400 60.2424 157.034 55.7198 0.20665 0.636148
413600 60.2424 157.047 55.7198 0.20675 0.446014
413800 60.2424 157.06 55.7198 0.20685 0.191476
414000 60.2424 157.073 55.7198 0.20695 -0.0371738
414200 60.2424 157.086 55.7198 0.20705 -0.28541
414400 60.2424 157.099 55.7198 0.20715 -0.490056
414600 60.2424 157.112 55.7198 0.20725 -0.628031
414800 60.2424 157.125 55.7198 0.20735 -0.725497
415000 60.2424 157.138 55.7198 0.20745 -0.730269
415200 60.2424 157.151 55.7198 0.20755 -0.681284
415400 60.2424 157.164 55.7198 0.20765 -0.569342
415600 60.2424 157.177 55.7198 0.20775 -0.411479
415800 60.2424 157.19 55.7198 0.20785 -0.18055
416000 60.2424 157.203 55.7198 0.20795 0.0709595
416200 60.2424 157.216 55.7198 0.20805 0.268795
416400 60.2424 157.229 55.7198 0.20815 0.478923
416600 60.2424 157.242 55.7198 0.20825 0.693444
416800 60.2424 157.255 55.7198 0.20835 0.779814
417000 60.2424 157.268 55.7198 0.20845 0.7708
417200 60.2424 157.281 55.7198 0.20855 0.694453
417400 60.2424 157.294 55.7198 0.20865 0.532067
417600 60.2424 157.307 55.7198 0.20875 0.325524
417800 60.2424 157.32 55.7198 0.20885 0.0861788
418000 60.2424 157.333 55.7198 0.20895 -0.144893
418200 60.2424 157.346 55.7198 0.20905 -0.33315
418400 60.2424 157.359 55.7198 0.20915 -0.540135
418600 60.2424 157.372 55.7198 0.20925 -0.644033
418800 60.2424 157.385 55.7198 0.20935 -0.715485
419000 60.2424 157.398 55.7198 0.20945 -0.731115
419200 60.2424 157.411 55.7198 0.20955 -0.636712
419400 60.2424 157.424 55.7198 0.20965 -0.471389
419600 60.2424 157.437 55.7198 0.20975 -0.308075
419800 60.2424 157.451 55.7198 0.20985 -0.0745305
420000 60.2424 157.464 55.7198 0.20995 0.127768
420200 60.2424 157.477 55.7198 0.21005 0.381493
420400 60.2424 157.49 55.7198 0.21015 0.544957
420600 60.2424 157.503 55.7198 0.21025 0.703194
420800 60.2424 157.516 55.7198 0.21035 0.765939
421000 60.2424 157.529 55.7198 0.21045 0.719397
421200 60.2424 157.542 55.7198 0.21055 0.647391
421400 60.2424 157.555 55.7198 0.21065 0.45064
421600 60.2424 157.568 55.7198 0.21075 0.232117
421800 60.2424 157.581 55.7198 0.21085 -0.0132883
422000 60.2424 157.594 55.7198 0.21095 -0.25794
422200 60.2424 157.607 55.7198 0.21105 -0.437813
422400 60.2424 157.62 55.7198 0.21115 -0.550271
422600 60.2424 157.633 55.7198 0.21125 -0.66435
422800 60.2424 157.646 55.7198 0.21135 -0.682736
423000 60.2424 157.659 55.7198 0.21145 -0.684328
423200 60.2424 157.672 55.7198 0.21155 -0.554724
423400 60.2424 157.685 55.7198 0.21165 -0.430614
423600 60.2424 157.698 55.7198 0.21175 -0.230777
423800 60.2424 157.711 55.7198 0.21185 0.0182614
424000 60.2424 157.724 55.7198 0.21195 0.257842
424200 60.2424 157.737 55.7198 0.21205 0.462209
424400 60.2424 157.75 55.7198 0.21215 0.626926
424600 60.2424 157.763 55.7198 0.21225 0.702319
424800 60.2424 157.776 55.7198 0.21235 0.732149
425000 60.2424 157.789 55.7198 0.21245 0.671652
425200 60.2424 157.802 55.7198 0.21255 0.537453
425400 60.2424 157.815 55.7198 0.21265 0.379584
425600 60.2424 157.828 55.7198 0.21275 0.121282
425800 60.2424 157.841 55.7198 0.21285 -0.100744
426000 60.2424 157.854 55.7198 0.21295 -0.338248
426200 60.2424 157.867 55.7198 0.21305 -0.5007
426400 60.2424 157.88 55.7198 0.21315 -0.611761
426600 60.2424 157.893 55.7198 0.21325 -0.658201
426800 60.2424 157.906 55.7198 0.21335 -0.67419
427000 60.2424 157.919 55.7198 0.21345 -0.628213
427200 60.2424 157.932 55.7198 0.21355 -0.469482
427400 60.2424 157.945 55.7198 0.21365 -0.326777
427600 60.2424 157.958 55.7198 0.21375 -0.122779
427800 60.2424 157.971 55.7198 0.21385 0.106556
428000 60.2424 157.984 55.7198 0.21395 0.333578
428200 60.2424 157.997 55.7198 0.21405 0.517958
428400 60.2424 158.01 55.7198 0.21415 0.640808
428600 60.2424 158.023 55.7198 0.21425 0.72962
428800 60.2424 158.036 55.7198 0.21435 0.706218
429000 60.2424 158.049 55.7198 0.21445 0.600103
429200 60.2424 158.062 55.7198 0.21455 0.458061
429400 60.2424 158.075 55.7198 0.21465 0.265765
429600 60.2424 158.088 55.7198 0.21475 0.0401684
429800 60.2424 158.101 55.7198 0.21485 -0.215072
430000 60.2424 158.114 55.7198 0.21495 -0.380478
430200 60.2424 158.127 55.7198 0.21505 -0.528736
430400 60.2424 158.14 55.7198 0.21515 -0.613954
430600 60.2424 158.153 55.7198 0.21525 -0.644564
430800 60.2424 158.166 55.7198 0.21535 -0.646601
431000 60.2424 158.179 55.7198 0.21545 -0.580349
431200 60.2424 158.192 55.7198 0.21555 -0.417697
431400 60.2424 158.205 55.7198 0.21565 -0.227272
431600 60.2424 158.218 55.7198 0.21575 -0.0455536
431800 60.2424 158.231 55.7198 0.21585 0.201435
432000 60.2424 158.244 55.7198 0.21595 0.406728
432200 60.2424 158.257 55.7198 0.21605 0.562898
432400 60.2424 158.27 55.7198 0.21615 0.63353
432600 60.2424 158.283 55.7198 0.21625 0.691967
432800 60.2424 158.296 55.7198 0.21635 0.641238
433000 60.2424 158.309 55.7198 0.21645 0.55469
433200 60.2424 158.322 55.7198 0.21655 0.376727
433400 60.2424 158.335 55.7198 0.21665 0.18009
433600 60.2424 158.348 55.7198 0.21675 -0.0521015
433800 60.2424 158.361 55.7198 0.21685 -0.276289
434000 60.2424 158.374 55.7198 0.21695 -0.42831
434200 60.2424 158.388 55.7198 0.21705 -0.572448
434400 60.2424 158.401 55.7198 0.21715 -0.614955
434600 60.2424 158.414 55.7198 0.21725 -0.629637
434800 60.2424 158.427 55.7198 0.21735 -0.591769
435000 60.2424 158.44 55.7198 0.21745 -0.487446
435200 60.2424 158.453 55.7198 0.21755 -0.37139
435400 60.2424 158.466 55.7198 0.21765 -0.136863
435600 60.2424 158.479 55.7198 0.21775 0.0535717
435800 60.2424 158.492 55.7198 0.21785 0.28002
436000 60.2424 158.505 55.7198 0.21795 0.486018
436200 60.2424 158.518 55.7198 0.21805 0.605734
436400 60.2424 158.531 55.7198 0.21815 0.621494
436600 60.2424 158.544 55.7198 0.21825 0.660343
436800 60.2424 158.557 55.7198 0.21835 0.576457
437000 60.2424 158.57 55.7198 0.21845 0.466662
437200 60.2424 158.583 55.7198 0.21855 0.297296
437400 60.2424 158.596 55.7198 0.21865 0.0633944
437600 60.2424 158.609 55.7198 0.21875 -0.157825
437800 60.2424 158.622 55.7198 0.21885 -0.322043
438000 60.2424 158.635 55.7198 0.21895 -0.476863
438200 60.2424 158.648 55.7198 0.21905 -0.585508
438400 60.2424 158.661 55.7198 0.21915 -0.614443
438600 60.2424 158.674 55.7198 0.21925 -0.604631
438800 60.2424 158.687 55.7198 0.21935 -0.513223
439000 60.2424 158.7 55.7198 0.21945 -0.426388
439200 60.2424 158.713 55.7198 0.21955 -0.271673
439400 60.2424 158.726 55.7198 0.21965 -0.029282
439600 60.2424 158.739 55.7198 0.21975 0.160729
439800 60.2424 158.752 55.7198 0.21985 0.323415
440000 60.2424 158.765 55.7198 0.21995 0.491423
440200 60.2424 158.778 55.7198 0.22005 0.618852
440400 60.2424 158.791 55.7198 0.22015 0.641324
440600 60.2424 158.804 55.7198 0.22025 0.624587
440800 60.2424 158.817 55.7198 0.22035 0.513472
441000 60.2424 158.83 55.7198 0.22045 0.362763
441200 60.2424 158.843 55.7198 0.22055 0.190681
441400 60.2424 158.856 55.7198 0.22065 -0.0178431
441600 60.2424 158.869 55.7198 0.22075 -0.227048
441800 60.2424 158.882 55.7198 0.22085 -0.369182
442000 60.2424 158.895 55.7198 0.22095 -0.506303
442200 60.2424 158.908 55.7198 0.22105 -0.569834
442400 60.2424 158.921 55.7198 0.22115 -0.602121
442600 60.2424 158.934 55.7198 0.22125 -0.563851
442800 60.2424 158.947 55.7198 0.22135 -0.488898
443000 60.2424 158.96 55.7198 0.22145 -0.321489
443200 60.2424 158.973 55.7198 0.22155 -0.163461
443400 60.2424 158.986 55.7198 0.22165 0.0168357
443600 60.2424 158.999 55.7198 0.22175 0.224531
443800 60.2424 159.012 55.7198 0.22185 0.387643
444000 60.2424 159.025 55.7198 0.22195 0.565767
444200 60.2424 159.038 55.7198 0.22205 0.619382
444400 60.2424 159.051 55.7198 0.22215 0.645408
444600 60.2424 159.064 55.7198 0.22225 0.556041
444800 60.2424 159.077 55.7198 0.22235 0.431071
445000 60.2424 159.09 55.7198 0.22245 0.287066
445200 60.2424 159.103 55.7198 0.22255 0.104504
445400 60.2424 159.116 55.7198 0.22265 -0.107358
445600 60.2424 159.129 55.7198 0.22275 -0.282028
445800 60.2424 159.142 55.7198 0.22285 -0.432182
446000 60.2424 159.155 55.7198 0.22295 -0.52939
446200 60.2424 159.168 55.7198 0.22305 -0.590313
446400 60.2424 159.181 55.7198 0.22315 -0.601582
446600 60.2424 159.194 55.7198 0.22325 -0.498682
446800 60.2424 159.207 55.7198 0.22335 -0.398883
447000 60.2424 159.22 55.7198 0.22345 -0.250209
447200 60.2424 159.233 55.7198 0.22355 -0.0813608
447400 60.2424 159.246 55.7198 0.22365 0.107862
447600 60.2424 159.259 55.7198 0.22375 0.299108
447800 60.2424 159.272 55.7198 0.22385 0.464501
448000 60.2424 159.285 55.7198 0.22395 0.593528
448200 60.2424 159.298 55.7198 0.22405 0.610218
448400 60.2424 159.312 55.7198 0.22415 0.564245
448600 60.2424 159.325 55.7198 0.22425 0.498261
448800 60.2424 159.338 55.7198 0.22435 0.385128
449000 60.2424 159.351 55.7198 0.22445 0.188285
449200 60.2424 159.364 55.7198 0.22455 -0.00583692
449400 60.2424 159.377 55.7198 0.22465 -0.172223
449600 60.2424 159.39 55.7198 0.22475 -0.344087
449800 60.2424 159.403 55.7198 0.22485 -0.454032
450000 60.2424 159.416 55.7198 0.22495 -0.55673
450200 60.2424 159.429 55.7198 0.22505 -0.598521
450400 60.2424 159.442 55.7198 0.22515 -0.530133
450600 60.2424 159.455 55.7198 0.22525 -0.438203
450800 60.2424 159.468 55.7198 0.22535 -0.332697
451000 60.2424 159.481 55.7198 0.22545 -0.170147
451200 60.2424 159.494 55.7198 0.22555 0.00800485
451400 60.2424 159.507 55.7198 0.22565 0.21656
451600 60.2424 159.52 55.7198 0.22575 0.349674
451800 60.2424 159.533 55.7198 0.22585 0.475168
452000 60.2424 159.546 55.7198 0.22595 0.577779
452200 60.2424 159.559 55.7198 0.22605 0.599029
452400 60.2424 159.572 55.7198 0.22615 0.524255
452600 60.2424 159.585 55.7198 0.22625 0.432377
452800 60.2424 159.598 55.7198 0.22635 0.289899
453000 60.2424 159.611 55.7198 0.22645 0.0944712
453200 60.2424 159.624 55.7198 0.22655 -0.0746092
453400 60.2424 159.637 55.7198 0.22665 -0.26362
453600 60.2424 159.65 55.7198 0.22675 -0.35224
453800 60.2424 159.663 55.7198 0.22685 -0.50859
454000 60.2424 159.676 55.7198 0.22695 -0.540173
454200 60.2424 159.689 55.7198 0.22705 -0.540609
454400 60.2424 159.702 55.7198 0.22715 -0.475483
454600 60.2424 159.715 55.7198 0.22725 -0.40596
454800 60.2424 159.728 55.7198 0.22735 -0.250736
455000 60.2424 159.741 55.7198 0.22745 -0.0758388
455200 60.2424 159.754 55.7198 0.22755 0.0675556
455400 60.2424 159.767 55.7198 0.22765 0.280688
455600 60.2424 159.78 55.7198 0.22775 0.409163
455800 60.2424 159.793 55.7198 0.22785 0.523086
456000 60.2424 159.806 55.7198 0.22795 0.556395
456200 60.2424 159.819 55.7198 0.22805 0.545048
456400 60.2424 159.832 55.7198 0.22815 0.488914
456600 60.2424 159.845 55.7198 0.22825 0.339366
456800 60.2424 159.858 55.7198 0.22835 0.195224
457000 60.2424 159.871 55.7198 0.22845 0.0080639
457200 60.2424 159.884 55.7198 0.22855 -0.143887
457400 60.2424 159.897 55.7198 0.22865 -0.29935
457600 60.2424 159.91 55.7198 0.22875 -0.414671
457800 60.2424 159.923 55.7198 0.22885 -0.495611
458000 60.2424 159.936 55.7198 0.22895 -0.5137
458200 60.2424 159.949 55.7198 0.22905 -0.490723
458400 60.2424 159.962 55.7198 0.22915 -0.466472
458600 60.2424 159.975 55.7198 0.22925 -0.322388
458800 60.2424 159.988 55.7198 0.22935 -0.201257
459000 60.2424 160.001 55.7198 0.22945 0.00708704
459200 60.2424 160.014 55.7198 0.22955 0.175421
459400 60.2424 160.027 55.7198 0.22965 0.316772
459600 60.2424 160.04 55.7198 0.22975 0.447667
459800 60.2424 160.053 55.7198 0.22985 0.524029
460000 60.2424 160.066 55.7198 0.22995 0.561274
460200 60.2424 160.079 55.7198 0.23005 0.47873
460400 60.2424 160.092 55.7198 0.23015 0.416114
460600 60.2424 160.105 55.7198 0.23025 0.300668
460800 60.2424 160.118 55.7198 0.23035 0.109294
461000 60.2424 160.131 55.7198 0.23045 -0.0308972
461200 60.2424 160.144 55.7198 0.23055 -0.224929
461400 60.2424 160.157 55.7198 0.23065 -0.354737
461600 60.2424 160.17 55.7198 0.23075 -0.436858
461800 60.2424 160.183 55.7198 0.23085 -0.522737
462000 60.2424 160.196 55.7198 0.23095 -0.489612
462200 60.2424 160.209 55.7198 0.23105 -0.464293
462400 60.2424 160.222 55.7198 0.23115 -0.389711
462600 60.2424 160.236 55.7198 0.23125 -0.244571
462800 60.2424 160.249 55.7198 0.23135 -0.113023
463000 60.2424 160.262 55.7198 0.23145 0.0526185
463200 60.2424 160.275 55.7198 0.23155 0.217678
463400 60.2424 160.288 55.7198 0.23165 0.386161
463600 60.2424 160.301 55.7198 0.23175 0.487435
463800 60.2424 160.314 55.7198 0.23185 0.531752
464000 60.2424 160.327 55.7198 0.23195 0.532428
464200 60.2424 160.34 55.7198 0.23205 0.457603
464400 60.2424 160.353 55.7198 0.23215 0.363137
464600 60.2424 160.366 55.7198 0.23225 0.201901
464800 60.2424 160.379 55.7198 0.23235 0.035401
465000 60.2424 160.392 55.7198 0.23245 -0.112211
465200 60.2424 160.405 55.7198 0.23255 -0.257331
465400 60.2424 160.418 55.7198 0.23265 -0.406378
465600 60.2424 160.431 55.7198 0.23275 -0.467143
465800 60.2424 160.444 55.7198 0.23285 -0.528144
466000 60.2424 160.457 55.7198 0.23295 -0.470451
466200 60.2424 160.47 55.7198 0.23305 -0.439955
466400 60.2424 160.483 55.7198 0.23315 -0.337724
466600 60.2424 160.496 55.7198 0.23325 -0.171565
466800 60.2424 160.509 55.7198 0.23335 -0.012151
467000 60.2424 160.522 55.7198 0.23345 0.137028
467200 60.2424 160.535 55.7198 0.23355 0.314677
467400 60.2424 160.548 55.7198 0.23365 0.401141
467600 60.2424 160.561 55.7198 0.23375 0.513679
467800 60.2424 160.574 55.7198 0.23385 0.513147
468000 60.2424 160.587 55.7198 0.23395 0.507704
468200 60.2424 160.6 55.7198 0.23405 0.415363
468400 60.2424 160.613 55.7198 0.23415 0.306981
468600 60.2424 160.626 55.7198 0.23425 0.0949113
468800 60.2424 160.639 55.7198 0.23435 -0.0345496
469000 60.2424 160.652 55.7198 0.23445 -0.212319
469200 60.2424 160.665 55.7198 0.23455 -0.323551
469400 60.2424 160.678 55.7198 0.23465 -0.398976
469600 60.2424 160.691 55.7198 0.23475 -0.502371
469800 60.2424 160.704 55.7198 0.23485 -0.493491
470000 60.2424 160.717 55.7198 0.23495 -0.448975
470200 60.2424 160.73 55.7198 0.23505 -0.380327
470400 60.2424 160.743 55.7198 0.23515 -0.278279
470600 60.2424 160.756 55.7198 0.23525 -0.0727758
470800 60.2424 160.769 55.7198 0.23535 0.0504897
471000 60.2424 160.782 55.7198 0.23545 0.211747
471200 60.2424 160.795 55.7198 0.23555 0.346612
471400 60.2424 160.808 55.7198 0.23565 0.44848
471600 60.2424 160.821 55.7198 0.23575 0.521895
471800 60.2424 160.834 55.7198 0.23585 0.492989
472000 60.2424 160.847 55.7198 0.23595 0.451175
472200 60.2424 160.86 55.7198 0.23605 0.380532
472400 60.2424 160.873 55.7198 0.23615 0.198391
472600 60.2424 160.886 55.7198 0.23625 0.0243193
472800 60.2424 160.899 55.7198 0.23635 -0.0988839
473000 60.2424 160.912 55.7198 0.23645 -0.229734
473200 60.2424 160.925 55.7198 0.23655 -0.391503
473400 60.2424 160.938 55.7198 0.23665 -0.438348
473600 60.2424 160.951 55.7198 0.23675 -0.49019
473800 60.2424 160.964 55.7198 0.23685 -0.4578
474000 60.2424 160.977 55.7198 0.23695 -0.428955
474200 60.2424 160.99 55.7198 0.23705 -0.320285
474400 60.2424 161.003 55.7198 0.23715 -0.167463
474600 60.2424 161.016 55.7198 0.23725 -0.0308669
474800 60.2424 161.029 55.7198 0.23735 0.0995386
475000 60.2424 161.042 55.7198 0.23745 0.271576
475200 60.2424 161.055 55.7198 0.23755 0.405397
475400 60.2424 161.068 55.7198 0.23765 0.462303
475600 60.2424 161.081 55.7198 0.23775 0.501742
475800 60.2424 161.094 55.7198 0.23785 0.457935
476000 60.2424 161.107 55.7198 0.23795 0.390463
476200 60.2424 161.12 55.7198 0.23805 0.298104
476400 60.2424 161.133 55.7198 0.23815 0.139547
476600 60.2424 161.146 55.7198 0.23825 -0.0114569
476800 60.2424 161.16 55.7198 0.23835 -0.149305
477000 60.2424 161.173 55.7198 0.23845 -0.313678
477200 60.2424 161.186 55.7198 0.23855 -0.377483
477400 60.2424 161.199 55.7198 0.23865 -0.474918
477600 60.2424 161.212 55.7198 0.23875 -0.456981
477800 60.2424 161.225 55.7198 0.23885 -0.441375
478000 60.2424 161.238 55.7198 0.23895 -0.336689
478200 60.2424 161.251 55.7198 0.23905 -0.268935
478400 60.2424 161.264 55.7198 0.23915 -0.113518
478600 60.2424 161.277 55.7198 0.23925 0.0157684
478800 60.2424 161.29 55.7198 0.23935 0.189968
479000 60.2424 161.303 55.7198 0.23945 0.300807
479200 60.2424 161.316 55.7198 0.23955 0.403203
479400 60.2424 161.329 55.7198 0.23965 0.464756
479600 60.2424 161.342 55.7198 0.23975 0.481234
479800 60.2424 161.355 55.7198 0.23985 0.422912
480000 60.2424 161.368 55.7198 0.23995 0.342693
480200 60.2424 161.381 55.7198 0.24005 0.213986
480400 60.2424 161.394 55.7198 0.24015 0.0787915
480600 60.2424 161.407 55.7198 0.24025 -0.0559604
480800 60.2424 161.42 55.7198 0.24035 -0.202539
481000 60.2424 161.433 55.7198 0.24045 -0.318457
481200 60.2424 161.446 55.7198 0.24055 -0.427753
481400 60.2424 161.459 55.7198 0.24065 -0.431458
481600 60.2424 161.472 55.7198 0.24075 -0.44892
481800 60.2424 161.485 55.7198 0.24085 -0.410543
482000 60.2424 161.498 55.7198 0.24095 -0.32
482200 60.2424 161.511 55.7198 0.24105 -0.209847
482400 60.2424 161.524 55.7198 0.24115 -0.0694211
482600 60.2424 161.537 55.7198 0.24125 0.0965625
482800 60.2424 161.55 55.7198 0.24135 0.229325
483000 60.2424 161.563 55.7198 0.24145 0.340069
483200 60.2424 161.576 55.7198 0.24155 0.433059
483400 60.2424 161.589 55.7198 0.24165 0.473243
483600 60.2424 161.602 55.7198 0.24175 0.448856
483800 60.2424 161.615 55.7198 0.24185 0.384615
484000 60.2424 161.628 55.7198 0.24195 0.292754
484200 60.2424 161.641 55.7198 0.24205 0.160597
484400 60.2424 161.654 55.7198 0.24215 0.0144328
484600 60.2424 161.667 55.7198 0.24225 -0.117798
484800 60.2424 161.68 55.7198 0.24235 -0.255859
485000 60.2424 161.693 55.7198 0.24245 -0.383628
485200 60.2424 161.706 55.7198 0.24255 -0.419641
485400 60.2424 161.719 55.7198 0.24265 -0.426434
485600 60.2424 161.732 55.7198 0.24275 -0.42019
485800 60.2424 161.745 55.7198 0.24285 -0.358857
486000 60.2424 161.758 55.7198 0.24295 -0.261568
486200 60.2424 161.771 55.7198 0.24305 -0.136883
486400 60.2424 161.784 55.7198 0.24315 0.00037884
486600 60.2424 161.797 55.7198 0.24325 0.15258
486800 60.2424 161.81 55.7198 0.24335 0.257806
487000 60.2424 161.823 55.7198 0.24345 0.39744
487200 60.2424 161.836 55.7198 0.24355 0.431182
487400 60.2424 161.849 55.7198 0.24365 0.446991
487600 60.2424 161.862 55.7198 0.24375 0.42386
487800 60.2424 161.875 55.7198 0.24385 0.349835
488000 60.2424 161.888 55.7198 0.24395 0.251611
488200 60.2424 161.901 55.7198 0.24405 0.0909031
488400 60.2424 161.914 55.7198 0.24415 -0.0499618
488600 60.2424 161.927 55.7198 0.24425 -0.19766
488800 60.2424 161.94 55.7198 0.24435 -0.280331
489000 60.2424 161.953 55.7198 0.24445 -0.388771
489200 60.2424 161.966 55.7198 0.24455 -0.424572
489400 60.2424 161.979 55.7198 0.24465 -0.437997
489600 60.2424 161.992 55.7198 0.24475 -0.387337
489800 60.2424 162.005 55.7198 0.24485 -0.314074
490000 60.2424 162.018 55.7198 0.24495 -0.227956
490200 60.2424 162.031 55.7198 0.24505 -0.0810026
490400 60.2424 162.044 55.7198 0.24515 0.0643336
490600 60.2424 162.057 55.7198 0.24525 0.202022
490800 60.2424 162.07 55.7198 0.24535 0.313118
491000 60.2424 162.084 55.7198 0.24545 0.423253
491200 60.2424 162.097 55.7198 0.24555 0.462294
491400 60.2424 162.11 55.7198 0.24565 0.445904
491600 60.2424 162.123 55.7198 0.24575 0.39871
491800 60.2424 162.136 55.7198 0.24585 0.277449
492000 60.2424 162.149 55.7198 0.24595 0.169169
492200 60.2424 162.162 55.7198 0.24605 0.0216353
492400 60.2424 162.175 55.7198 0.24615 -0.0709408
492600 60.2424 162.188 55.7198 0.24625 -0.24992
492800 60.2424 162.201 55.7198 0.24635 -0.351549
493000 60.2424 162.214 55.7198 0.24645 -0.409583
493200 60.2424 162.227 55.7198 0.24655 -0.428006
493400 60.2424 162.24 55.7198 0.24665 -0.399689
493600 60.2424 162.253 55.7198 0.24675 -0.361
493800 60.2424 162.266 55.7198 0.24685 -0.262304
494000 60.2424 162.279 55.7198 0.24695 -0.144381
494200 60.2424 162.292 55.7198 0.24705 -0.0294632
494400 60.2424 162.305 55.7198 0.24715 0.13803
494600 60.2424 162.318 55.7198 0.24725 0.273256
494800 60.2424 162.331 55.7198 0.24735 0.336196
495000 60.2424 162.344 55.7198 0.24745 0.411838
495200 60.2424 162.357 55.7198 0.24755 0.447571
495400 60.2424 162.37 55.7198 0.24765 0.423622
495600 60.2424 162.383 55.7198 0.24775 0.343243
495800 60.2424 162.396 55.7198 0.24785 0.245674
496000 60.2424 162.409 55.7198 0.24795 0.0949425
496200 60.2424 162.422 55.7198 0.24805 -0.0429512
496400 60.2424 162.435 55.7198 0.24815 -0.171499
496600 60.2424 162.448 55.7198 0.24825 -0.285582
496800 60.2424 162.461 55.7198 0.24835 -0.351065
497000 60.2424 162.474 55.7198 0.24845 -0.411629
497200 60.2424 162.487 55.7198 0.24855 -0.435761
497400 60.2424 162.5 55.7198 0.24865 -0.390063
497600 60.2424 162.513 55.7198 0.24875 -0.306369
497800 60.2424 162.526 55.7198 0.24885 -0.210378
498000 60.2424 162.539 55.7198 0.24895 -0.0681239
498200 60.2424 162.552 55.7198 0.24905 0.0201597
498400 60.2424 162.565 55.7198 0.24915 0.206636
498600 60.2424 162.578 55.7198 0.24925 0.319207
498800 60.2424 162.591 55.7198 0.24935 0.397017
499000 60.2424 162.604 55.7198 0.24945 0.419851
499200 60.2424 162.617 55.7198 0.24955 0.430962
499400 60.2424 162.63 55.7198 0.24965 0.36509
499600 60.2424 162.643 55.7198 0.24975 0.289374
499800 60.2424 162.656 55.7198 0.24985 0.190099
500000 60.2424 162.669 55.7198 0.24995 0.0206166
500200 60.2424 162.682 55.7198 0.25005 -0.100311
500400 60.2424 162.695 55.7198 0.25015 -0.222202
500600 60.2424 162.708 55.7198 0.25025 -0.317396
500800 60.2424 162.721 55.7198 0.25035 -0.404048
501000 60.2424 162.734 55.7198 0.25045 -0.41929
501200 60.2424 162.747 55.7198 0.25055 -0.399491
501400 60.2424 162.76 55.7198 0.25065 -0.336461
501600 60.2424 162.773 55.7198 0.25075 -0.260233
501800 60.2424 162.786 55.7198 0.25085 -0.150348
502000 60.2424 162.799 55.7198 0.25095 -0.00336839
502200 60.2424 162.812 55.7198 0.25105 0.114983
502400 60.2424 162.825 55.7198 0.25115 0.25855
502600 60.2424 162.838 55.7198 0.25125 0.350196
502800 60.2424 162.851 55.7198 0.25135 0.419778
503000 60.2424 162.864 55.7198 0.25145 0.418622
503200 60.2424 162.877 55.7198 0.25155 0.389145
503400 60.2424 162.89 55.7198 0.25165 0.328463
503600 60.2424 162.903 55.7198 0.25175 0.241085
503800 60.2424 162.916 55.7198 0.25185 0.100529
504000 60.2424 162.929 55.7198 0.25195 -0.0292065
504200 60.2424 162.942 55.7198 0.25205 -0.196965
504400 60.2424 162.955 55.7198 0.25215 -0.256717
504600 60.2424 162.968 55.7198 0.25225 -0.352461
504800 60.2424 162.981 55.7198 0.25235 -0.399467
505000 60.2424 162.994 55.7198 0.25245 -0.403955
505200 60.2424 163.007 55.7198 0.25255 -0.372782
505400 60.2424 163.021 55.7198 0.25265 -0.30478
505600 60.2424 163.034 55.7198 0.25275 -0.190668
505800 60.2424 163.047 55.7198 0.25285 -0.0914062
506000 60.2424 163.06 55.7198 0.25295 0.0457469
506200 60.2424 163.073 55.7198 0.25305 0.181865
506400 60.2424 163.086 55.7198 0.25315 0.303594
506600 60.2424 163.099 55.7198 0.25325 0.374364
506800 60.2424 163.112 55.7198 0.25335 0.404493
507000 60.2424 163.125 55.7198 0.25345 0.414905
507200 60.2424 163.138 55.7198 0.25355 0.36518
507400 60.2424 163.151 55.7198 0.25365 0.287932
507600 60.2424 163.164 55.7198 0.25375 0.177603
507800 60.2424 163.177 55.7198 0.25385 0.0469586
508000 60.2424 163.19 55.7198 0.25395 -0.0860908
508200 60.2424 163.203 55.7198 0.25405 -0.24094
508400 60.2424 163.216 55.7198 0.25415 -0.320486
508600 60.2424 163.229 55.7198 0.25425 -0.363647
508800 60.2424 163.242 55.7198 0.25435 -0.397701
509000 60.2424 163.255 55.7198 0.25445 -0.378089
509200 60.2424 163.268 55.7198 0.25455 -0.343461
509400 60.2424 163.281 55.7198 0.25465 -0.252234
509600 60.2424 163.294 55.7198 0.25475 -0.155531
509800 60.2424 163.307 55.7198 0.25485 -0.0152268
510000 60.2424 163.32 55.7198 0.25495 0.122659
510200 60.2424 163.333 55.7198 0.25505 0.245286
510400 60.2424 163.346 55.7198 0.25515 0.321683
510600 60.2424 163.359 55.7198 0.25525 0.381517
510800 60.2424 163.372 55.7198 0.25535 0.404745
511000 60.2424 163.385 55.7198 0.25545 0.389128
511200 60.2424 163.398 55.7198 0.25555 0.326233
511400 60.2424 163.411 55.7198 0.25565 0.222343
511600 60.2424 163.424 55.7198 0.25575 0.0908995
511800 60.2424 163.437 55.7198 0.25585 -0.0134278
512000 60.2424 163.45 55.7198 0.25595 -0.143945
512200 60.2424 163.463 55.7198 0.25605 -0.261843
512400 60.2424 163.476 55.7198 0.25615 -0.322636
512600 60.2424 163.489 55.7198 0.25625 -0.369831
512800 60.2424 163.502 55.7198 0.25635 -0.369743
513000 60.2424 163.515 55.7198 0.25645 -0.352816
513200 60.2424 163.528 55.7198 0.25655 -0.319249
513400 60.2424 163.541 55.7198 0.25665 -0.185185
513600 60.2424 163.554 55.7198 0.25675 -0.0806677
513800 60.2424 163.567 55.7198 0.25685 0.0343542
514000 60.2424 163.58 55.7198 0.25695 0.151365
514200 60.2424 163.593 55.7198 0.25705 0.260702
514400 60.2424 163.606 55.7198 0.25715 0.347441
514600 60.2424 163.619 55.7198 0.25725 0.367336
514800 60.2424 163.632 55.7198 0.25735 0.403586
515000 60.2424 163.645 55.7198 0.25745 0.344574
515200 60.2424 163.658 55.7198 0.25755 0.278848
515400 60.2424 163.671 55.7198 0.25765 0.170264
515600 60.2424 163.684 55.7198 0.25775 0.0632168
515800 60.2424 163.697 55.7198 0.25785 -0.0989919
516000 60.2424 163.71 55.7198 0.25795 -0.181467
516200 60.2424 163.723 55.7198 0.25805 -0.269344
516400 60.2424 163.736 55.7198 0.25815 -0.343874
516600 60.2424 163.749 55.7198 0.25825 -0.368011
516800 60.2424 163.762 55.7198 0.25835 -0.379585
517000 60.2424 163.775 55.7198 0.25845 -0.314506
517200 60.2424 163.788 55.7198 0.25855 -0.240357
517400 60.2424 163.801 55.7198 0.25865 -0.174049
517600 60.2424 163.814 55.7198 0.25875 -0.0216936
517800 60.2424 163.827 55.7198 0.25885 0.100598
518000 60.2424 163.84 55.7198 0.25895 0.21302
518200 60.2424 163.853 55.7198 0.25905 0.311352
518400 60.2424 163.866 55.7198 0.25915 0.364585
518600 60.2424 163.879 55.7198 0.25925 0.379279
518800 60.2424 163.892 55.7198 0.25935 0.355861
519000 60.2424 163.905 55.7198 0.25945 0.317666
519200 60.2424 163.918 55.7198 0.25955 0.237771
519400 60.2424 163.931 55.7198 0.25965 0.0877822
519600 60.2424 163.945 55.7198 0.25975 -0.0206827
519800 60.2424 163.958 55.7198 0.25985 -0.104608
520000 60.2424 163.971 55.7198 0.25995 -0.246014
520200 60.2424 163.984 55.7198 0.26005 -0.303634
520400 60.2424 163.997 55.7198 0.26015 -0.357452
520600 60.2424 164.01 55.7198 0.26025 -0.38606
520800 60.2424 164.023 55.7198 0.26035 -0.337879
521000 60.2424 164.036 55.7198 0.26045 -0.286152
521200 60.2424 164.049 55.7198 0.26055 -0.200389
521400 60.2424 164.062 55.7198 0.26065 -0.0791696
521600 60.2424 164.075 55.7198 0.26075 0.0342959
521800 60.2424 164.088 55.7198 0.26085 0.162002
522000 60.2424 164.101 55.7198 0.26095 0.23494
522200 60.2424 164.114 55.7198 0.26105 0.328854
522400 60.2424 164.127 55.7198 0.26115 0.372527
522600 60.2424 164.14 55.7198 0.26125 0.415013
522800 60.2424 164.153 55.7198 0.26135 0.333554
523000 60.2424 164.166 55.7198 0.26145 0.275776
523200 60.2424 164.179 55.7198 0.26155 0.173961
523400 60.2424 164.192 55.7198 0.26165 0.0165909
523600 60.2424 164.205 55.7198 0.26175 -0.0735814
523800 60.2424 164.218 55.7198 0.26185 -0.179064
524000 60.2424 164.231 55.7198 0.26195 -0.268343
524200 60.2424 164.244 55.7198 0.26205 -0.338574
524400 60.2424 164.257 55.7198 0.26215 -0.342912
524600 60.2424 164.27 55.7198 0.26225 -0.384274
524800 60.2424 164.283 55.7198 0.26235 -0.345441
525000 60.2424 164.296 55.7198 0.26245 -0.263001
525200 60.2424 164.309 55.7198 0.26255 -0.126682
525400 60.2424 164.322 55.7198 0.26265 -0.0101746
525600 60.2424 164.335 55.7198 0.26275 0.0905148
525800 60.2424 164.348 55.7198 0.26285 0.227354
526000 60.2424 164.361 55.7198 0.26295 0.281454
526200 60.2424 164.374 55.7198 0.26305 0.356552
526400 60.2424 164.387 55.7198 0.26315 0.382896
526600 60.2424 164.4 55.7198 0.26325 0.358848
526800 60.2424 164.413 55.7198 0.26335 0.319452
527000 60.2424 164.426 55.7198 0.26345 0.231303
527200 60.2424 164.439 55.7198 0.26355 0.101311
527400 60.2424 164.452 55.7198 0.26365 -0.0154819
527600 60.2424 164.465 55.7198 0.26375 -0.165689
527800 60.2424 164.478 55.7198 0.26385 -0.227875
528000 60.2424 164.491 55.7198 0.26395 -0.299772
528200 60.2424 164.504 55.7198 0.26405 -0.331059
528400 60.2424 164.517 55.7198 0.26415 -0.342686
528600 60.2424 164.53 55.7198 0.26425 -0.347065
528800 60.2424 164.543 55.7198 0.26435 -0.305629
529000 60.2424 164.556 55.7198 0.26445 -0.199701
529200 60.2424 164.569 55.7198 0.26455 -0.0739528
529400 60.2424 164.582 55.7198 0.26465 0.0330661
529600 60.2424 164.595 55.7198 0.26475 0.16603
529800 60.2424 164.608 55.7198 0.26485 0.245387
530000 60.2424 164.621 55.7198 0.26495 0.32063
530200 60.2424 164.634 55.7198 0.26505 0.353066
530400 60.2424 164.647 55.7198 0.26515 0.352155
530600 60.2424 164.66 55.7198 0.26525 0.343918
530800 60.2424 164.673 55.7198 0.26535 0.25144
531000 60.2424 164.686 55.7198 0.26545 0.201694
531200 60.2424 164.699 55.7198 0.26555 0.0472272
531400 60.2424 164.712 55.7198 0.26565 -0.0824755
531600 60.2424 164.725 55.7198 0.26575 -0.169072
531800 60.2424 164.738 55.7198 0.26585 -0.272701
532000 60.2424 164.751 55.7198 0.26595 -0.320413
532200 60.2424 164.764 55.7198 0.26605 -0.343477
532400 60.2424 164.777 55.7198 0.26615 -0.332565
532600 60.2424 164.79 55.7198 0.26625 -0.325933
532800 60.2424 164.803 55.7198 0.26635 -0.220108
533000 60.2424 164.816 55.7198 0.26645 -0.153944
533200 60.2424 164.829 55.7198 0.26655 -0.0423777
533400 60.2424 164.842 55.7198 0.26665 0.0825961
533600 60.2424 164.855 55.7198 0.26675 0.187666
533800 60.2424 164.869 55.7198 0.26685 0.285165
534000 60.2424 164.882 55.7198 0.26695 0.339053
534200 60.2424 164.895 55.7198 0.26705 0.35145
534400 60.2424 164.908 55.7198 0.26715 0.368091
534600 60.2424 164.921 55.7198 0.26725 0.291437
534800 60.2424 164.934 55.7198 0.26735 0.234547
535000 60.2424 164.947 55.7198 0.26745 0.131362
535200 60.2424 164.96 55.7198 0.26755 0.000946792
535400 60.2424 164.973 55.7198 0.26765 -0.140318
535600 60.2424 164.986 55.7198 0.26775 -0.217834
535800 60.2424 164.999 55.7198 0.26785 -0.294777
536000 60.2424 165.012 55.7198 0.26795 -0.329302
536200 60.2424 165.025 55.7198 0.26805 -0.325349
536400 60.2424 165.038 55.7198 0.26815 -0.34059
536600 60.2424 165.051 55.7198 0.26825 -0.294176
536800 60.2424 165.064 55.7198 0.26835 -0.206474
537000 60.2424 165.077 55.7198 0.26845 -0.101374
537200 60.2424 165.09 55.7198 0.26855 0.0316821
537400 60.2424 165.103 55.7198 0.26865 0.15039
537600 60.2424 165.116 55.7198 0.26875 0.235903
537800 60.2424 165.129 55.7198 0.26885 0.30826
538000 60.2424 165.142 55.7198 0.26895 0.339054
538200 60.2424 165.155 55.7198 0.26905 0.355864
538400 60.2424 165.168 55.7198 0.26915 0.327624
538600 60.2424 165.181 55.7198 0.26925 0.265021
538800 60.2424 165.194 55.7198 0.26935 0.178395
539000 60.2424 165.207 55.7198 0.26945 0.0680825
539200 60.2424 165.22 55.7198 0.26955 -0.0461465
539400 60.2424 165.233 55.7198 0.26965 -0.188012
539600 60.2424 165.246 55.7198 0.26975 -0.254034
539800 60.2424 165.259 55.7198 0.26985 -0.312523
540000 60.2424 165.272 55.7198 0.26995 -0.347735
540200 60.2424 165.285 55.7198 0.27005 -0.337525
540400 60.2424 165.298 55.7198 0.27015 -0.302586
540600 60.2424 165.311 55.7198 0.27025 -0.242452
540800 60.2424 165.324 55.7198 0.27035 -0.139099
541000 60.2424 165.337 55.7198 0.27045 -0.0440306
541200 60.2424 165.35 55.7198 0.27055 0.0688301
541400 60.2424 165.363 55.7198 0.27065 0.184046
541600 60.2424 165.376 55.7198 0.27075 0.273693
541800 60.2424 165.389 55.7198 0.27085 0.319038
542000 60.2424 165.402 55.7198 0.27095 0.348494
542200 60.2424 165.415 55.7198 0.27105 0.358051
542400 60.2424 165.428 55.7198 0.27115 0.308585
542600 60.2424 165.441 55.7198 0.27125 0.223196
542800 60.2424 165.454 55.7198 0.27135 0.103249
543000 60.2424 165.467 55.7198 0.27145 0.00743616
543200 60.2424 165.48 55.7198 0.27155 -0.115336
543400 60.2424 165.493 55.7198 0.27165 -0.19992
543600 60.2424 165.506 55.7198 0.27175 -0.270012
543800 60.2424 165.519 55.7198 0.27185 -0.337937
544000 60.2424 165.532 55.7198 0.27195 -0.346786
544200 60.2424 165.545 55.7198 0.27205 -0.325458
544400 60.2424 165.558 55.7198 0.27215 -0.284434
544600 60.2424 165.571 55.7198 0.27225 -0.193845
544800 60.2424 165.584 55.7198 0.27235 -0.103476
545000 60.2424 165.597 55.7198 0.27245 0.0376172
545200 60.2424 165.61 55.7198 0.27255 0.108865
545400 60.2424 165.623 55.7198 0.27265 0.243856
545600 60.2424 165.636 55.7198 0.27275 0.302634
545800 60.2424 165.649 55.7198 0.27285 0.314456
546000 60.2424 165.662 55.7198 0.27295 0.359749
546200 60.2424 165.675 55.7198 0.27305 0.313976
546400 60.2424 165.688 55.7198 0.27315 0.291184
546600 60.2424 165.701 55.7198 0.27325 0.178999
546800 60.2424 165.714 55.7198 0.27335 0.0515799
547000 60.2424 165.727 55.7198 0.27345 -0.0718501
547200 60.2424 165.74 55.7198 0.27355 -0.143717
547400 60.2424 165.753 55.7198 0.27365 -0.226535
547600 60.2424 165.766 55.7198 0.27375 -0.297211
547800 60.2424 165.779 55.7198 0.27385 -0.339144
548000 60.2424 165.793 55.7198 0.27395 -0.334584
548200 60.2424 165.806 55.7198 0.27405 -0.305748
548400 60.2424 165.819 55.7198 0.27415 -0.255472
548600 60.2424 165.832 55.7198 0.27425 -0.144452
548800 60.2424 165.845 55.7198 0.27435 -0.0287769
549000 60.2424 165.858 55.7198 0.27445 0.0494536
549200 60.2424 165.871 55.7198 0.27455 0.165811
549400 60.2424 165.884 55.7198 0.27465 0.269935
549600 60.2424 165.897 55.7198 0.27475 0.31176
549800 60.2424 165.91 55.7198 0.27485 0.341633
550000 60.2424 165.923 55.7198 0.27495 0.340596
550200 60.2424 165.936 55.7198 0.27505 0.297091
550400 60.2424 165.949 55.7198 0.27515 0.221632
550600 60.2424 165.962 55.7198 0.27525 0.130218
550800 60.2424 165.975 55.7198 0.27535 0.00745987
551000 60.2424 165.988 55.7198 0.27545 -0.0957358
551200 60.2424 166.001 55.7198 0.27555 -0.19349
551400 60.2424 166.014 55.7198 0.27565 -0.257457
551600 60.2424 166.027 55.7198 0.27575 -0.341755
551800 60.2424 166.04 55.7198 0.27585 -0.321363
552000 60.2424 166.053 55.7198 0.27595 -0.324558
552200 60.2424 166.066 55.7198 0.27605 -0.26077
552400 60.2424 166.079 55.7198 0.27615 -0.20549
552600 60.2424 166.092 55.7198 0.27625 -0.0905565
552800 60.2424 166.105 55.7198 0.27635 -0.00911162
553000 60.2424 166.118 55.7198 0.27645 0.120012
553200 60.2424 166.131 55.7198 0.27655 0.199648
553400 60.2424 166.144 55.7198 0.27665 0.299275
553600 60.2424 166.157 55.7198 0.27675 0.331308
553800 60.2424 166.17 55.7198 0.27685 0.332839
554000 60.2424 166.183 55.7198 0.27695 0.319762
554200 60.2424 166.196 55.7198 0.27705 0.231924
554400 60.2424 166.209 55.7198 0.27715 0.193625
554600 60.2424 166.222 55.7198 0.27725 0.0517398
554800 60.2424 166.235 55.7198 0.27735 -0.0347832
555000 60.2424 166.248 55.7198 0.27745 -0.125729
555200 60.2424 166.261 55.7198 0.27755 -0.216255
555400 60.2424 166.274 55.7198 0.27765 -0.281412
555600 60.2424 166.287 55.7198 0.27775 -0.323729
555800 60.2424 166.3 55.7198 0.27785 -0.332241
556000 60.2424 166.313 55.7198 0.27795 -0.303946
556200 60.2424 166.326 55.7198 0.27805 -0.229897
556400 60.2424 166.339 55.7198 0.27815 -0.152071
556600 60.2424 166.352 55.7198 0.27825 -0.0506056
556800 60.2424 166.365 55.7198 0.27835 0.0492567
557000 60.2424 166.378 55.7198 0.27845 0.145826
557200 60.2424 166.391 55.7198 0.27855 0.248987
557400 60.2424 166.404 55.7198 0.27865 0.297433
557600 60.2424 166.417 55.7198 0.27875 0.367644
557800 60.2424 166.43 55.7198 0.27885 0.337315
558000 60.2424 166.443 55.7198 0.27895 0.286408
558200 60.2424 166.456 55.7198 0.27905 0.218623
558400 60.2424 166.469 55.7198 0.27915 0.105473
558600 60.2424 166.482 55.7198 0.27925 0.0302123
558800 60.2424 166.495 55.7198 0.27935 -0.0967324
559000 60.2424 166.508 55.7198 0.27945 -0.176967
559200 60.2424 166.521 55.7198 0.27955 -0.263395
559400 60.2424 166.534 55.7198 0.27965 -0.313736
559600 60.2424 166.547 55.7198 0.27975 -0.311055
559800 60.2424 166.56 55.7198 0.27985 -0.326397
560000 60.2424 166.573 55.7198 0.27995 -0.280429
560200 60.2424 166.586 55.7198 0.28005 -0.187252
560400 60.2424 166.599 55.7198 0.28015 -0.0936411
560600 60.2424 166.612 55.7198 0.28025 0.0120664
560800 60.2424 166.625 55.7198 0.28035 0.119793
561000 60.2424 166.638 55.7198 0.28045 0.187435
561200 60.2424 166.651 55.7198 0.28055 0.274693
561400 60.2424 166.664 55.7198 0.28065 0.336684
561600 60.2424 166.677 55.7198 0.28075 0.328015
561800 60.2424 166.69 55.7198 0.28085 0.296112
562000 60.2424 166.703 55.7198 0.28095 0.251645
562200 60.2424 166.717 55.7198 0.28105 0.175668
562400 60.2424 166.73 55.7198 0.28115 0.065612
562600 60.2424 166.743 55.7198 0.28125 -0.0620767
562800 60.2424 166.756 55.7198 0.28135 -0.123524
563000 60.2424 166.769 55.7198 0.28145 -0.211192
563200 60.2424 166.782 55.7198 0.28155 -0.282155
563400 60.2424 166.795 55.7198 0.28165 -0.302374
563600 60.2424 166.808 55.7198 0.28175 -0.306193
563800 60.2424 166.821 55.7198 0.28185 -0.285891
564000 60.2424 166.834 55.7198 0.28195 -0.209582
564200 60.2424 166.847 55.7198 0.28205 -0.16691
564400 60.2424 166.86 55.7198 0.28215 -0.0468212
564600 60.2424 166.873 55.7198 0.28225 0.0296108
564800 60.2424 166.886 55.7198 0.28235 0.157134
565000 60.2424 166.899 55.7198 0.28245 0.242341
565200 60.2424 166.912 55.7198 0.28255 0.287178
565400 60.2424 166.925 55.7198 0.28265 0.307714
565600 60.2424 166.938 55.7198 0.28275 0.317994
565800 60.2424 166.951 55.7198 0.28285 0.284221
566000 60.2424 166.964 55.7198 0.28295 0.193672
566200 60.2424 166.977 55.7198 0.28305 0.1175
566400 60.2424 166.99 55.7198 0.28315 0.031152
566600 60.2424 167.003 55.7198 0.28325 -0.0633069
566800 60.2424 167.016 55.7198 0.28335 -0.174539
567000 60.2424 167.029 55.7198 0.28345 -0.234742
567200 60.2424 167.042 55.7198 0.28355 -0.300536
567400 60.2424 167.055 55.7198 0.28365 -0.290786
567600 60.2424 167.068 55.7198 0.28375 -0.297903
567800 60.2424 167.081 55.7198 0.28385 -0.262275
568000 60.2424 167.094 55.7198 0.28395 -0.188084
568200 60.2424 167.107 55.7198 0.28405 -0.100891
568400 60.2424 167.12 55.7198 0.28415 -0.00696132
568600 60.2424 167.133 55.7198 0.28425 0.0973135
568800 60.2424 167.146 55.7198 0.28435 0.175275
569000 60.2424 167.159 55.7198 0.28445 0.247201
569200 60.2424 167.172 55.7198 0.28455 0.300678
569400 60.2424 167.185 55.7198 0.28465 0.335638
569600 60.2424 167.198 55.7198 0.28475 0.287707
569800 60.2424 167.211 55.7198 0.28485 0.254828
570000 60.2424 167.224 55.7198 0.28495 0.1704
570200 60.2424 167.237 55.7198 0.28505 0.0737742
570400 60.2424 167.25 55.7198 0.28515 -0.0242901
570600 60.2424 167.263 55.7198 0.28525 -0.128111
570800 60.2424 167.276 55.7198 0.28535 -0.187452
571000 60.2424 167.289 55.7198 0.28545 -0.274328
571200 60.2424 167.302 55.7198 0.28555 -0.294211
571400 60.2424 167.315 55.7198 0.28565 -0.322584
571600 60.2424 167.328 55.7198 0.28575 -0.282106
571800 60.2424 167.341 55.7198 0.28585 -0.229936
572000 60.2424 167.354 55.7198 0.28595 -0.131234
572200 60.2424 167.367 55.7198 0.28605 -0.0810256
572400 60.2424 167.38 55.7198 0.28615 0.0499159
572600 60.2424 167.393 55.7198 0.28625 0.135716
572800 60.2424 167.406 55.7198 0.28635 0.225857
573000 60.2424 167.419 55.7198 0.28645 0.279498
573200 60.2424 167.432 55.7198 0.28655 0.327316
573400 60.2424 167.445 55.7198 0.28665 0.306186
573600 60.2424 167.458 55.7198 0.28675 0.281287
573800 60.2424 167.471 55.7198 0.28685 0.219707
574000 60.2424 167.484 55.7198 0.28695 0.118285
574200 60.2424 167.497 55.7198 0.28705 0.0247841
574400 60.2424 167.51 55.7198 0.28715 -0.0543526
574600 60.2424 167.523 55.7198 0.28725 -0.174076
574800 60.2424 167.536 55.7198 0.28735 -0.22667
575000 60.2424 167.549 55.7198 0.28745 -0.299185
575200 60.2424 167.562 55.7198 0.28755 -0.292076
575400 60.2424 167.575 55.7198 0.28765 -0.310687
575600 60.2424 167.588 55.7198 0.28775 -0.272546
575800 60.2424 167.601 55.7198 0.28785 -0.177659
576000 60.2424 167.614 55.7198 0.28795 -0.106203
576200 60.2424 167.627 55.7198 0.28805 -0.0139391
576400 60.2424 167.641 55.7198 0.28815 0.0880364
576600 60.2424 167.654 55.7198 0.28825 0.184465
576800 60.2424 167.667 55.7198 0.28835 0.257783
577000 60.2424 167.68 55.7198 0.28845 0.306433
577200 60.2424 167.693 55.7198 0.28855 0.322532
577400 60.2424 167.706 55.7198 0.28865 0.31004
577600 60.2424 167.719 55.7198 0.28875 0.23343
577800 60.2424 167.732 55.7198 0.28885 0.159742
578000 60.2424 167.745 55.7198 0.28895 0.10356
578200 60.2424 167.758 55.7198 0.28905 -0.0324904
578400 60.2424 167.771 55.7198 0.28915 -0.120235
578600 60.2424 167.784 55.7198 0.28925 -0.21945
578800 60.2424 167.797 55.7198 0.28935 -0.273229
579000 60.2424 167.81 55.7198 0.28945 -0.291966
579200 60.2424 167.823 55.7198 0.28955 -0.297237
579400 60.2424 167.836 55.7198 0.28965 -0.280559
579600 60.2424 167.849 55.7198 0.28975 -0.208672
579800 60.2424 167.862 55.7198 0.28985 -0.145863
580000 60.2424 167.875 55.7198 0.28995 -0.0536882
580200 60.2424 167.888 55.7198 0.29005 0.000509333
580400 60.2424 167.901 55.7198 0.29015 0.153865
580600 60.2424 167.914 55.7198 0.29025 0.224055
580800 60.2424 167.927 55.7198 0.29035 0.275574
581000 60.2424 167.94 55.7198 0.29045 0.309739
581200 60.2424 167.953 55.7198 0.29055 0.302169
581400 60.2424 167.966 55.7198 0.29065 0.279506
581600 60.2424 167.979 55.7198 0.29075 0.206794
581800 60.2424 167.992 55.7198 0.29085 0.12497
582000 60.2424 168.005 55.7198 0.29095 0.0251249
582200 60.2424 168.018 55.7198 0.29105 -0.0498969
582400 60.2424 168.031 55.7198 0.29115 -0.172915
582600 60.2424 168.044 55.7198 0.29125 -0.226351
582800 60.2424 168.057 55.7198 0.29135 -0.276012
583000 60.2424 168.07 55.7198 0.29145 -0.296558
583200 60.2424 168.083 55.7198 0.29155 -0.296104
583400 60.2424 168.096 55.7198 0.29165 -0.235785
583600 60.2424 168.109 55.7198 0.29175 -0.187752
583800 60.2424 168.122 55.7198 0.29185 -0.113353
584000 60.2424 168.135 55.7198 0.29195 -0.000475766
584200 60.2424 168.148 55.7198 0.29205 0.0644539
584400 60.2424 168.161 55.7198 0.29215 0.150067
584600 60.2424 168.174 55.7198 0.29225 0.266169
584800 60.2424 168.187 55.7198 0.29235 0.281114
585000 60.2424 168.2 55.7198 0.29245 0.29973
585200 60.2424 168.213 55.7198 0.29255 0.287762
585400 60.2424 168.226 55.7198 0.29265 0.238739
585600 60.2424 168.239 55.7198 0.29275 0.166294
585800 60.2424 168.252 55.7198 0.29285 0.0854262
586000 60.2424 168.265 55.7198 0.29295 -0.0127732
586200 60.2424 168.278 55.7198 0.29305 -0.0932333
586400 60.2424 168.291 55.7198 0.29315 -0.179998
586600 60.2424 168.304 55.7198 0.29325 -0.254732
586800 60.2424 168.317 55.7198 0.29335 -0.309741
587000 60.2424 168.33 55.7198 0.29345 -0.285276
587200 60.2424 168.343 55.7198 0.29355 -0.26847
587400 60.2424 168.356 55.7198 0.29365 -0.188873
587600 60.2424 168.369 55.7198 0.29375 -0.156402
587800 60.2424 168.382 55.7198 0.29385 -0.0707574
588000 60.2424 168.395 55.7198 0.29395 0.0341621
588200 60.2424 168.408 55.7198 0.29405 0.123574
588400 60.2424 168.421 55.7198 0.29415 0.191477
588600 60.2424 168.434 55.7198 0.29425 0.2513
588800 60.2424 168.447 55.7198 0.29435 0.31382
589000 60.2424 168.46 55.7198 0.29445 0.307725
589200 60.2424 168.473 55.7198 0.29455 0.272453
589400 60.2424 168.486 55.7198 0.29465 0.20315
589600 60.2424 168.499 55.7198 0.29475 0.103985
589800 60.2424 168.512 55.7198 0.29485 0.0361079
590000 60.2424 168.525 55.7198 0.29495 -0.0673578
590200 60.2424 168.538 55.7198 0.29505 -0.153731
590400 60.2424 168.551 55.7198 0.29515 -0.20331
590600 60.2424 168.564 55.7198 0.29525 -0.256876
590800 60.2424 168.578 55.7198 0.29535 -0.307958
591000 60.2424 168.591 55.7198 0.29545 -0.27649
591200 60.2424 168.604 55.7198 0.29555 -0.251634
591400 60.2424 168.617 55.7198 0.29565 -0.175275
591600 60.2424 168.63 55.7198 0.29575 -0.104383
591800 60.2424 168.643 55.7198 0.29585 -0.00424589
592000 60.2424 168.656 55.7198 0.29595 0.0862202
592200 60.2424 168.669 55.7198 0.29605 0.162708
592400 60.2424 168.682 55.7198 0.29615 0.220414
592600 60.2424 168.695 55.7198 0.29625 0.273264
592800 60.2424 168.708 55.7198 0.29635 0.281983
593000 60.2424 168.721 55.7198 0.29645 0.281778
593200 60.2424 168.734 55.7198 0.29655 0.259444
593400 60.2424 168.747 55.7198 0.29665 0.162268
593600 60.2424 168.76 55.7198 0.29675 0.0796282
593800 60.2424 168.773 55.7198 0.29685 -0.0243032
594000 60.2424 168.786 55.7198 0.29695 -0.113611
594200 60.2424 168.799 55.7198 0.29705 -0.175054
594400 60.2424 168.812 55.7198 0.29715 -0.229029
594600 60.2424 168.825 55.7198 0.29725 -0.286939
594800 60.2424 168.838 55.7198 0.29735 -0.250731
595000 60.2424 168.851 55.7198 0.29745 -0.27399
595200 60.2424 168.864 55.7198 0.29755 -0.224582
595400 60.2424 168.877 55.7198 0.29765 -0.140883
595600 60.2424 168.89 55.7198 0.29775 -0.0676215
595800 60.2424 168.903 55.7198 0.29785 0.0292902
596000 60.2424 168.916 55.7198 0.29795 0.125523
596200 60.2424 168.929 55.7198 0.29805 0.193874
596400 60.2424 168.942 55.7198 0.29815 0.252506
596600 60.2424 168.955 55.7198 0.29825 0.281246
596800 60.2424 168.968 55.7198 0.29835 0.285203
597000 60.2424 168.981 55.7198 0.29845 0.254523
597200 60.2424 168.994 55.7198 0.29855 0.184331
597400 60.2424 169.007 55.7198 0.29865 0.137862
597600 60.2424 169.02 55.7198 0.29875 0.0519
597800 60.2424 169.033 55.7198 0.29885 -0.0508623
598000 60.2424 169.046 55.7198 0.29895 -0.135412
598200 60.2424 169.059 55.7198 0.29905 -0.217946
598400 60.2424 169.072 55.7198 0.29915 -0.256692
598600 60.2424 169.085 55.7198 0.29925 -0.269969
598800 60.2424 169.098 55.7198 0.29935 -0.274352
599000 60.2424 169.111 55.7198 0.29945 -0.236269
599200 60.2424 169.124 55.7198 0.29955 -0.179425
599400 60.2424 169.137 55.7198 0.29965 -0.105472
599600 60.2424 169.15 55.7198 0.29975 -0.0148367
599800 60.2424 169.163 55.7198 0.29985 0.0551865
600000 60.2424 169.176 55.7198 0.29995 0.153673
600200 60.2424 169.189 55.7198 0.30005 0.215593
600400 60.2424 169.202 55.7198 0.30015 0.273743
600600 60.2424 169.215 55.7198 0.30025 0.286799
600800 60.2424 169.228 55.7198 0.30035 0.28818
601000 60.2424 169.241 55.7198 0.30045 0.21672
601200 60.2424 169.254 55.7198 0.30055 0.15192
601400 60.2424 169.267 55.7198 0.30065 0.0685827
601600 60.2424 169.28 55.7198 0.30075 0.00761956
601800 60.2424 169.293 55.7198 0.30085 -0.0914156
602000 60.2424 169.306 55.7198 0.30095 -0.151062
602200 60.2424 169.319 55.7198 0.30105 -0.224035
602400 60.2424 169.332 55.7198 0.30115 -0.263901
602600 60.2424 169.345 55.7198 0.30125 -0.282653
602800 60.2424 169.358 55.7198 0.30135 -0.255646
603000 60.2424 169.371 55.7198 0.30145 -0.212637
603200 60.2424 169.384 55.7198 0.30155 -0.12324
603400 60.2424 169.397 55.7198 0.30165 -0.065164
603600 60.2424 169.41 55.7198 0.30175 0.0414999
603800 60.2424 169.423 55.7198 0.30185 0.0766836
604000 60.2424 169.436 55.7198 0.30195 0.146764
604200 60.2424 169.449 55.7198 0.30205 0.237212
604400 60.2424 169.462 55.7198 0.30215 0.278782
604600 60.2424 169.475 55.7198 0.30225 0.266575
604800 60.2424 169.488 55.7198 0.30235 0.260461
605000 60.2424 169.502 55.7198 0.30245 0.216726
605200 60.2424 169.515 55.7198 0.30255 0.113704
605400 60.2424 169.528 55.7198 0.30265 0.0416549
605600 60.2424 169.541 55.7198 0.30275 -0.0452505
605800 60.2424 169.554 55.7198 0.30285 -0.120041
606000 60.2424 169.567 55.7198 0.30295 -0.173254
606200 60.2424 169.58 55.7198 0.30305 -0.244392
606400 60.2424 169.593 55.7198 0.30315 -0.262176
606600 60.2424 169.606 55.7198 0.30325 -0.234234
606800 60.2424 169.619 55.7198 0.30335 -0.241337
607000 60.2424 169.632 55.7198 0.30345 -0.183681
607200 60.2424 169.645 55.7198 0.30355 -0.118192
607400 60.2424 169.658 55.7198 0.30365 -0.00377167
607600 60.2424 169.671 55.7198 0.30375 0.0283605
607800 60.2424 169.684 55.7198 0.30385 0.144371
608000 60.2424 169.697 55.7198 0.30395 0.214095
608200 60.2424 169.71 55.7198 0.30405 0.245053
608400 60.2424 169.723 55.7198 0.30415 0.262982
608600 60.2424 169.736 55.7198 0.30425 0.293716
608800 60.2424 169.749 55.7198 0.30435 0.205844
609000 60.2424 169.762 55.7198 0.30445 0.142233
609200 60.2424 169.775 55.7198 0.30455 0.0750242
609400 60.2424 169.788 55.7198 0.30465 0.0114942
609600 60.2424 169.801 55.7198 0.30475 -0.0761677
609800 60.2424 169.814 55.7198 0.30485 -0.155917
610000 60.2424 169.827 55.7198 0.30495 -0.202804
610200 60.2424 169.84 55.7198 0.30505 -0.261577
610400 60.2424 169.853 55.7198 0.30515 -0.265813
610600 60.2424 169.866 55.7198 0.30525 -0.240122
610800 60.2424 169.879 55.7198 0.30535 -0.204963
611000 60.2424 169.892 55.7198 0.30545 -0.128341
611200 60.2424 169.905 55.7198 0.30555 -0.0530898
611400 60.2424 169.918 55.7198 0.30565 0.0103559
611600 60.2424 169.931 55.7198 0.30575 0.076721
611800 60.2424 169.944 55.7198 0.30585 0.173374
612000 60.2424 169.957 55.7198 0.30595 0.22587
612200 60.2424 169.97 55.7198 0.30605 0.268953
612400 60.2424 169.983 55.7198 0.30615 0.234975
612600 60.2424 169.996 55.7198 0.30625 0.249247
612800 60.2424 170.009 55.7198 0.30635 0.180483
613000 60.2424 170.022 55.7198 0.30645 0.121658
613200 60.2424 170.035 55.7198 0.30655 0.0472457
613400 60.2424 170.048 55.7198 0.30665 -0.0300457
613600 60.2424 170.061 55.7198 0.30675 -0.0962718
613800 60.2424 170.074 55.7198 0.30685 -0.194703
614000 60.2424 170.087 55.7198 0.30695 -0.234673
614200 60.2424 170.1 55.7198 0.30705 -0.244663
614400 60.2424 170.113 55.7198 0.30715 -0.228468
614600 60.2424 170.126 55.7198 0.30725 -0.220943
614800 60.2424 170.139 55.7198 0.30735 -0.156463
615000 60.2424 170.152 55.7198 0.30745 -0.0992411
615200 60.2424 170.165 55.7198 0.30755 -0.0323759
615400 60.2424 170.178 55.7198 0.30765 0.0381567
615600 60.2424 170.191 55.7198 0.30775 0.10042
615800 60.2424 170.204 55.7198 0.30785 0.205855
616000 60.2424 170.217 55.7198 0.30795 0.24572
616200 60.2424 170.23 55.7198 0.30805 0.239464
616400 60.2424 170.243 55.7198 0.30815 0.229184
616600 60.2424 170.256 55.7198 0.30825 0.222677
616800 60.2424 170.269 55.7198 0.30835 0.153029
617000 60.2424 170.282 55.7198 0.30845 0.0730581
617200 60.2424 170.295 55.7198 0.30855 -0.00108865
617400 60.2424 170.308 55.7198 0.30865 -0.0499873
617600 60.2424 170.321 55.7198 0.30875 -0.118939
617800 60.2424 170.334 55.7198 0.30885 -0.212537
618000 60.2424 170.347 55.7198 0.30895 -0.244135
618200 60.2424 170.36 55.7198 0.30905 -0.246497
618400 60.2424 170.373 55.7198 0.30915 -0.2157
618600 60.2424 170.386 55.7198 0.30925 -0.192536
618800 60.2424 170.399 55.7198 0.30935 -0.124146
619000 60.2424 170.412 55.7198 0.30945 -0.0644944
619200 60.2424 170.426 55.7198 0.30955 0.00462674
619400 60.2424 170.439 55.7198 0.30965 0.0584937
619600 60.2424 170.452 55.7198 0.30975 0.147446
619800 60.2424 170.465 55.7198 0.30985 0.228386
620000 60.2424 170.478 55.7198 0.30995 0.244123
620200 60.2424 170.491 55.7198 0.31005 0.276062
620400 60.2424 170.504 55.7198 0.31015 0.21721
620600 60.2424 170.517 55.7198 0.31025 0.176651
620800 60.2424 170.53 55.7198 0.31035 0.110197
621000 60.2424 170.543 55.7198 0.31045 0.023465
621200 60.2424 170.556 55.7198 0.31055 -0.010115
621400 60.2424 170.569 55.7198 0.31065 -0.118878
621600 60.2424 170.582 55.7198 0.31075 -0.137596
621800 60.2424 170.595 55.7198 0.31085 -0.214065
622000 60.2424 170.608 55.7198 0.31095 -0.254366
622200 60.2424 170.621 55.7198 0.31105 -0.228962
622400 60.2424 170.634 55.7198 0.31115 -0.223754
622600 60.2424 170.647 55.7198 0.31125 -0.193242
622800 60.2424 170.66 55.7198 0.31135 -0.0749333
623000 60.2424 170.673 55.7198 0.31145 -0.0197876
623200 60.2424 170.686 55.7198 0.31155 0.0716417
623400 60.2424 170.699 55.7198 0.31165 0.0918402
623600 60.2424 170.712 55.7198 0.31175 0.162597
623800 60.2424 170.725 55.7198 0.31185 0.236475
624000 60.2424 170.738 55.7198 0.31195 0.258522
624200 60.2424 170.751 55.7198 0.31205 0.243152
624400 60.2424 170.764 55.7198 0.31215 0.228153
624600 60.2424 170.777 55.7198 0.31225 0.139316
624800 60.2424 170.79 55.7198 0.31235 0.0748019
625000 60.2424 170.803 55.7198 0.31245 0.0023501
625200 60.2424 170.816 55.7198 0.31255 -0.0897994
625400 60.2424 170.829 55.7198 0.31265 -0.137762
625600 60.2424 170.842 55.7198 0.31275 -0.191613
625800 60.2424 170.855 55.7198 0.31285 -0.199117
626000 60.2424 170.868 55.7198 0.31295 -0.242296
626200 60.2424 170.881 55.7198 0.31305 -0.230751
626400 60.2424 170.894 55.7198 0.31315 -0.183519
626600 60.2424 170.907 55.7198 0.31325 -0.134828
626800 60.2424 170.92 55.7198 0.31335 -0.090236
627000 60.2424 170.933 55.7198 0.31345 0.0203431
627200 60.2424 170.946 55.7198 0.31355 0.101814
627400 60.2424 170.959 55.7198 0.31365 0.154385
627600 60.2424 170.972 55.7198 0.31375 0.227947
627800 60.2424 170.985 55.7198 0.31385 0.200412
628000 60.2424 170.998 55.7198 0.31395 0.260117
628200 60.2424 171.011 55.7198 0.31405 0.197879
628400 60.2424 171.024 55.7198 0.31415 0.18661
628600 60.2424 171.037 55.7198 0.31425 0.115513
628800 60.2424 171.05 55.7198 0.31435 0.0535174
629000 60.2424 171.063 55.7198 0.31445 -0.0330458
629200 60.2424 171.076 55.7198 0.31455 -0.102065
629400 60.2424 171.089 55.7198 0.31465 -0.174015
629600 60.2424 171.102 55.7198 0.31475 -0.219253
629800 60.2424 171.115 55.7198 0.31485 -0.233317
630000 60.2424 171.128 55.7198 0.31495 -0.237528
630200 60.2424 171.141 55.7198 0.31505 -0.19221
630400 60.2424 171.154 55.7198 0.31515 -0.144148
630600 60.2424 171.167 55.7198 0.31525 -0.111197
630800 60.2424 171.18 55.7198 0.31535 -0.0372559
631000 60.2424 171.193 55.7198 0.31545 0.0700096
631200 60.2424 171.206 55.7198 0.31555 0.124971
631400 60.2424 171.219 55.7198 0.31565 0.178003
631600 60.2424 171.232 55.7198 0.31575 0.227394
631800 60.2424 171.245 55.7198 0.31585 0.223761
632000 60.2424 171.258 55.7198 0.31595 0.226766
632200 60.2424 171.271 55.7198 0.31605 0.196418
632400 60.2424 171.284 55.7198 0.31615 0.145198
632600 60.2424 171.297 55.7198 0.31625 0.0792379
632800 60.2424 171.31 55.7198 0.31635 0.00901627
633000 60.2424 171.323 55.7198 0.31645 -0.0758192
633200 60.2424 171.336 55.7198 0.31655 -0.146043
633400 60.2424 171.35 55.7198 0.31665 -0.210065
633600 60.2424 171.363 55.7198 0.31675 -0.20558
633800 60.2424 171.376 55.7198 0.31685 -0.210956
634000 60.2424 171.389 55.7198 0.31695 -0.205765
634200 60.2424 171.402 55.7198 0.31705 -0.187717
634400 60.2424 171.415 55.7198 0.31715 -0.131449
634600 60.2424 171.428 55.7198 0.31725 -0.058886
634800 60.2424 171.441 55.7198 0.31735 0.0239328
635000 60.2424 171.454 55.7198 0.31745 0.0723769
635200 60.2424 171.467 55.7198 0.31755 0.178117
635400 60.2424 171.48 55.7198 0.31765 0.185738
635600 60.2424 171.493 55.7198 0.31775 0.221244
635800 60.2424 171.506 55.7198 0.31785 0.227019
636000 60.2424 171.519 55.7198 0.31795 0.207364
636200 60.2424 171.532 55.7198 0.31805 0.153114
636400 60.2424 171.545 55.7198 0.31815 0.125778
636600 60.2424 171.558 55.7198 0.31825 0.0283904
636800 60.2424 171.571 55.7198 0.31835 -0.0357903
637000 60.2424 171.584 55.7198 0.31845 -0.0837507
637200 60.2424 171.597 55.7198 0.31855 -0.172534
637400 60.2424 171.61 55.7198 0.31865 -0.183953
637600 60.2424 171.623 55.7198 0.31875 -0.227113
637800 60.2424 171.636 55.7198 0.31885 -0.21197
638000 60.2424 171.649 55.7198 0.31895 -0.193811
638200 60.2424 171.662 55.7198 0.31905 -0.15673
638400 60.2424 171.675 55.7198 0.31915 -0.0847069
638600 60.2424 171.688 55.7198 0.31925 -0.031054
638800 60.2424 171.701 55.7198 0.31935 0.0566416
639000 60.2424 171.714 55.7198 0.31945 0.114351
639200 60.2424 171.727 55.7198 0.31955 0.151954
639400 60.2424 171.74 55.7198 0.31965 0.208767
639600 60.2424 171.753 55.7198 0.31975 0.223566
639800 60.2424 171.766 55.7198 0.31985 0.213087
640000 60.2424 171.779 55.7198 0.31995 0.187098
640200 60.2424 171.792 55.7198 0.32005 0.148798
640400 60.2424 171.805 55.7198 0.32015 0.0728633
640600 60.2424 171.818 55.7198 0.32025 0.00806426
640800 60.2424 171.831 55.7198 0.32035 -0.0660693
641000 60.2424 171.844 55.7198 0.32045 -0.133671
641200 60.2424 171.857 55.7198 0.32055 -0.187964
641400 60.2424 171.87 55.7198 0.32065 -0.207771
641600 60.2424 171.883 55.7198 0.32075 -0.230859
641800 60.2424 171.896 55.7198 0.32085 -0.183563
642000 60.2424 171.909 55.7198 0.32095 -0.150927
642200 60.2424 171.922 55.7198 0.32105 -0.13291
642400 60.2424 171.935 55.7198 0.32115 -0.0507016
642600 60.2424 171.948 55.7198 0.32125 0.00782126
642800 60.2424 171.961 55.7198 0.32135 0.0775737
643000 60.2424 171.974 55.7198 0.32145 0.147841
643200 60.2424 171.987 55.7198 0.32155 0.211697
643400 60.2424 172 55.7198 0.32165 0.19565
643600 60.2424 172.013 55.7198 0.32175 0.234357
643800 60.2424 172.026 55.7198 0.32185 0.180941
644000 60.2424 172.039 55.7198 0.32195 0.147272
644200 60.2424 172.052 55.7198 0.32205 0.103676
644400 60.2424 172.065 55.7198 0.32215 0.0232992
644600 60.2424 172.078 55.7198 0.32225 -0.0311176
644800 60.2424 172.091 55.7198 0.32235 -0.104258
645000 60.2424 172.104 55.7198 0.32245 -0.137406
645200 60.2424 172.117 55.7198 0.32255 -0.200205
645400 60.2424 172.13 55.7198 0.32265 -0.227359
645600 60.2424 172.143 55.7198 0.32275 -0.184543
645800 60.2424 172.156 55.7198 0.32285 -0.178124
646000 60.2424 172.169 55.7198 0.32295 -0.122838
646200 60.2424 172.182 55.7198 0.32305 -0.0759587
646400 60.2424 172.195 55.7198 0.32315 -0.0231074
646600 60.2424 172.208 55.7198 0.32325 0.0527244
646800 60.2424 172.221 55.7198 0.32335 0.102355
647000 60.2424 172.234 55.7198 0.32345 0.169573
647200 60.2424 172.247 55.7198 0.32355 0.219655
647400 60.2424 172.26 55.7198 0.32365 0.205151
647600 60.2424 172.274 55.7198 0.32375 0.181428
647800 60.2424 172.287 55.7198 0.32385 0.15257
648000 60.2424 172.3 55.7198 0.32395 0.12948
648200 60.2424 172.313 55.7198 0.32405 0.066688
648400 60.2424 172.326 55.7198 0.32415 -0.000261389
648600 60.2424 172.339 55.7198 0.32425 -0.0623091
648800 60.2424 172.352 55.7198 0.32435 -0.132741
649000 60.2424 172.365 55.7198 0.32445 -0.152772
649200 60.2424 172.378 55.7198 0.32455 -0.203644
649400 60.2424 172.391 55.7198 0.32465 -0.216011
649600 60.2424 172.404 55.7198 0.32475 -0.170572
649800 60.2424 172.417 55.7198 0.32485 -0.158973
650000 60.2424 172.43 55.7198 0.32495 -0.0888019
650200 60.2424 172.443 55.7198 0.32505 -0.0479523
650400 60.2424 172.456 55.7198 0.32515 0.0144201
650600 60.2424 172.469 55.7198 0.32525 0.0583011
650800 60.2424 172.482 55.7198 0.32535 0.127645
651000 60.2424 172.495 55.7198 0.32545 0.188541
651200 60.2424 172.508 55.7198 0.32555 0.206271
651400 60.2424 172.521 55.7198 0.32565 0.21129
651600 60.2424 172.534 55.7198 0.32575 0.19606
651800 60.2424 172.547 55.7198 0.32585 0.127629
652000 60.2424 172.56 55.7198 0.32595 0.0849712
652200 60.2424 172.573 55.7198 0.32605 0.00294174
652400 60.2424 172.586 55.7198 0.32615 -0.0192302
652600 60.2424 172.599 55.7198 0.32625 -0.0679852
652800 60.2424 172.612 55.7198 0.32635 -0.161051
653000 60.2424 172.625 55.7198 0.32645 -0.162556
653200 60.2424 172.638 55.7198 0.32655 -0.184558
653400 60.2424 172.651 55.7198 0.32665 -0.210072
653600 60.2424 172.664 55.7198 0.32675 -0.168476
653800 60.2424 172.677 55.7198 0.32685 -0.132092
654000 60.2424 172.69 55.7198 0.32695 -0.0728788
654200 60.2424 172.703 55.7198 0.32705 -0.00408749
654400 60.2424 172.716 55.7198 0.32715 0.0527822
654600 60.2424 172.729 55.7198 0.32725 0.0917079
654800 60.2424 172.742 55.7198 0.32735 0.154695
655000 60.2424 172.755 55.7198 0.32745 0.182966
655200 60.2424 172.768 55.7198 0.32755 0.203301
655400 60.2424 172.781 55.7198 0.32765 0.189541
655600 60.2424 172.794 55.7198 0.32775 0.171566
655800 60.2424 172.807 55.7198 0.32785 0.111034
656000 60.2424 172.82 55.7198 0.32795 0.0550063
656200 60.2424 172.833 55.7198 0.32805 -0.00830274
656400 60.2424 172.846 55.7198 0.32815 -0.0724513
656600 60.2424 172.859 55.7198 0.32825 -0.112666
656800 60.2424 172.872 55.7198 0.32835 -0.158567
657000 60.2424 172.885 55.7198 0.32845 -0.162169
657200 60.2424 172.898 55.7198 0.32855 -0.193128
657400 60.2424 172.911 55.7198 0.32865 -0.177593
657600 60.2424 172.924 55.7198 0.32875 -0.158726
657800 60.2424 172.937 55.7198 0.32885 -0.111333
658000 60.2424 172.95 55.7198 0.32895 -0.0310283
658200 60.2424 172.963 55.7198 0.32905 0.0379832
658400 60.2424 172.976 55.7198 0.32915 0.0624
658600 60.2424 172.989 55.7198 0.32925 0.120426
658800 60.2424 173.002 55.7198 0.32935 0.15884
659000 60.2424 173.015 55.7198 0.32945 0.191197
659200 60.2424 173.028 55.7198 0.32955 0.182337
659400 60.2424 173.041 55.7198 0.32965 0.180435
659600 60.2424 173.054 55.7198 0.32975 0.145023
659800 60.2424 173.067 55.7198 0.32985 0.0945772
660000 60.2424 173.08 55.7198 0.32995 0.039708
660200 60.2424 173.093 55.7198 0.33005 -0.0467111
660400 60.2424 173.106 55.7198 0.33015 -0.0969522
660600 60.2424 173.119 55.7198 0.33025 -0.12829
660800 60.2424 173.132 55.7198 0.33035 -0.175214
661000 60.2424 173.145 55.7198 0.33045 -0.163449
661200 60.2424 173.158 55.7198 0.33055 -0.184476
661400 60.2424 173.171 55.7198 0.33065 -0.164633
661600 60.2424 173.184 55.7198 0.33075 -0.132048
661800 60.2424 173.197 55.7198 0.33085 -0.0773881
662000 60.2424 173.211 55.7198 0.33095 -0.0168043
662200 60.2424 173.224 55.7198 0.33105 0.0586367
662400 60.2424 173.237 55.7198 0.33115 0.100657
662600 60.2424 173.25 55.7198 0.33125 0.142785
662800 60.2424 173.263 55.7198 0.33135 0.166662
663000 60.2424 173.276 55.7198 0.33145 0.204939
663200 60.2424 173.289 55.7198 0.33155 0.174002
663400 60.2424 173.302 55.7198 0.33165 0.139017
663600 60.2424 173.315 55.7198 0.33175 0.118879
663800 60.2424 173.328 55.7198 0.33185 0.0484849
664000 60.2424 173.341 55.7198 0.33195 0.016896
664200 60.2424 173.354 55.7198 0.33205 -0.0613946
664400 60.2424 173.367 55.7198 0.33215 -0.1198
664600 60.2424 173.38 55.7198 0.33225 -0.158363
664800 60.2424 173.393 55.7198 0.33235 -0.159281
665000 60.2424 173.406 55.7198 0.33245 -0.189029
665200 60.2424 173.419 55.7198 0.33255 -0.170177
665400 60.2424 173.432 55.7198 0.33265 -0.143661
665600 60.2424 173.445 55.7198 0.33275 -0.0836625
665800 60.2424 173.458 55.7198 0.33285 -0.0374069
666000 60.2424 173.471 55.7198 0.33295 0.00182495
666200 60.2424 173.484 55.7198 0.33305 0.0565673
666400 60.2424 173.497 55.7198 0.33315 0.123491
666600 60.2424 173.51 55.7198 0.33325 0.171952
666800 60.2424 173.523 55.7198 0.33335 0.195069
667000 60.2424 173.536 55.7198 0.33345 0.186596
667200 60.2424 173.549 55.7198 0.33355 0.157599
667400 60.2424 173.562 55.7198 0.33365 0.146644
667600 60.2424 173.575 55.7198 0.33375 0.0908182
667800 60.2424 173.588 55.7198 0.33385 0.0167968
668000 60.2424 173.601 55.7198 0.33395 -0.0427785
668200 60.2424 173.614 55.7198 0.33405 -0.0567312
668400 60.2424 173.627 55.7198 0.33415 -0.139852
668600 60.2424 173.64 55.7198 0.33425 -0.162892
668800 60.2424 173.653 55.7198 0.33435 -0.198438
669000 60.2424 173.666 55.7198 0.33445 -0.168084
669200 60.2424 173.679 55.7198 0.33455 -0.178651
669400 60.2424 173.692 55.7198 0.33465 -0.103297
669600 60.2424 173.705 55.7198 0.33475 -0.06827
669800 60.2424 173.718 55.7198 0.33485 -0.0279706
670000 60.2424 173.731 55.7198 0.33495 0.039875
670200 60.2424 173.744 55.7198 0.33505 0.0861972
670400 60.2424 173.757 55.7198 0.33515 0.148147
670600 60.2424 173.77 55.7198 0.33525 0.175966
670800 60.2424 173.783 55.7198 0.33535 0.194396
671000 60.2424 173.796 55.7198 0.33545 0.195498
671200 60.2424 173.809 55.7198 0.33555 0.1286
671400 60.2424 173.822 55.7198 0.33565 0.114392
671600 60.2424 173.835 55.7198 0.33575 0.0770918
671800 60.2424 173.848 55.7198 0.33585 -0.00237818
672000 60.2424 173.861 55.7198 0.33595 -0.0343645
672200 60.2424 173.874 55.7198 0.33605 -0.121626
672400 60.2424 173.887 55.7198 0.33615 -0.15434
672600 60.2424 173.9 55.7198 0.33625 -0.187182
672800 60.2424 173.913 55.7198 0.33635 -0.164509
673000 60.2424 173.926 55.7198 0.33645 -0.199988
673200 60.2424 173.939 55.7198 0.33655 -0.135478
673400 60.2424 173.952 55.7198 0.33665 -0.103301
673600 60.2424 173.965 55.7198 0.33675 -0.0365136
673800 60.2424 173.978 55.7198 0.33685 0.00842921
674000 60.2424 173.991 55.7198 0.33695 0.0462101
674200 60.2424 174.004 55.7198 0.33705 0.137026
674400 60.2424 174.017 55.7198 0.33715 0.163004
674600 60.2424 174.03 55.7198 0.33725 0.185775
674800 60.2424 174.043 55.7198 0.33735 0.216477
675000 60.2424 174.056 55.7198 0.33745 0.168201
675200 60.2424 174.069 55.7198 0.33755 0.10963
675400 60.2424 174.082 55.7198 0.33765 0.0891163
675600 60.2424 174.095 55.7198 0.33775 0.0439116
675800 60.2424 174.108 55.7198 0.33785 -0.0169317
676000 60.2424 174.121 55.7198 0.33795 -0.0832173
676200 60.2424 174.135 55.7198 0.33805 -0.125469
676400 60.2424 174.148 55.7198 0.33815 -0.185179
676600 60.2424 174.161 55.7198 0.33825 -0.18719
676800 60.2424 174.174 55.7198 0.33835 -0.206003
677000 60.2424 174.187 55.7198 0.33845 -0.146298
677200 60.2424 174.2 55.7198 0.33855 -0.114324
677400 60.2424 174.213 55.7198 0.33865 -0.0674901
677600 60.2424 174.226 55.7198 0.33875 -0.0231985
677800 60.2424 174.239 55.7198 0.33885 0.0426185
678000 60.2424 174.252 55.7198 0.33895 0.0925294
678200 60.2424 174.265 55.7198 0.33905 0.123479
678400 60.2424 174.278 55.7198 0.33915 0.181704
678600 60.2424 174.291 55.7198 0.33925 0.195849
678800 60.2424 174.304 55.7198 0.33935 0.203862
679000 60.2424 174.317 55.7198 0.33945 0.157239
679200 60.2424 174.33 55.7198 0.33955 0.120333
679400 60.2424 174.343 55.7198 0.33965 0.0351921
679600 60.2424 174.356 55.7198 0.33975 0.00135409
679800 60.2424 174.369 55.7198 0.33985 -0.0446068
680000 60.2424 174.382 55.7198 0.33995 -0.100781
680200 60.2424 174.395 55.7198 0.34005 -0.134753
680400 60.2424 174.408 55.7198 0.34015 -0.206831
680600 60.2424 174.421 55.7198 0.34025 -0.174448
680800 60.2424 174.434 55.7198 0.34035 -0.171749
681000 60.2424 174.447 55.7198 0.34045 -0.160731
681200 60.2424 174.46 55.7198 0.34055 -0.0939447
681400 60.2424 174.473 55.7198 0.34065 -0.0333956
681600 60.2424 174.486 55.7198 0.34075 -5.2998e-05
681800 60.2424 174.499 55.7198 0.34085 0.0530816
682000 60.2424 174.512 55.7198 0.34095 0.14039
682200 60.2424 174.525 55.7198 0.34105 0.16134
682400 60.2424 174.538 55.7198 0.34115 0.186106
682600 60.2424 174.551 55.7198 0.34125 0.204481
682800 60.2424 174.564 55.7198 0.34135 0.160011
683000 60.2424 174.577 55.7198 0.34145 0.122564
683200 60.2424 174.59 55.7198 0.34155 0.0846667
683400 60.2424 174.603 55.7198 0.34165 0.0318685
683600 60.2424 174.616 55.7198 0.34175 -0.0319212
683800 60.2424 174.629 55.7198 0.34185 -0.0894539
684000 60.2424 174.642 55.7198 0.34195 -0.125243
684200 60.2424 174.655 55.7198 0.34205 -0.164861
684400 60.2424 174.668 55.7198 0.34215 -0.177218
684600 60.2424 174.681 55.7198 0.34225 -0.182438
684800 60.2424 174.694 55.7198 0.34235 -0.14417
685000 60.2424 174.707 55.7198 0.34245 -0.120006
685200 60.2424 174.72 55.7198 0.34255 -0.0792477
685400 60.2424 174.733 55.7198 0.34265 0.00462605
685600 60.2424 174.746 55.7198 0.34275 0.0389891
685800 60.2424 174.759 55.7198 0.34285 0.0917257
686000 60.2424 174.772 55.7198 0.34295 0.15891
686200 60.2424 174.785 55.7198 0.34305 0.164976
686400 60.2424 174.798 55.7198 0.34315 0.192316
686600 60.2424 174.811 55.7198 0.34325 0.179993
686800 60.2424 174.824 55.7198 0.34335 0.151559
687000 60.2424 174.837 55.7198 0.34345 0.098008
687200 60.2424 174.85 55.7198 0.34355 0.0454359
687400 60.2424 174.863 55.7198 0.34365 -0.00123342
687600 60.2424 174.876 55.7198 0.34375 -0.0751997
687800 60.2424 174.889 55.7198 0.34385 -0.0986957
688000 60.2424 174.902 55.7198 0.34395 -0.147397
688200 60.2424 174.915 55.7198 0.34405 -0.171839
688400 60.2424 174.928 55.7198 0.34415 -0.192013
688600 60.2424 174.941 55.7198 0.34425 -0.15952
688800 60.2424 174.954 55.7198 0.34435 -0.153897
689000 60.2424 174.967 55.7198 0.34445 -0.0677255
689200 60.2424 174.98 55.7198 0.34455 -0.0451439
689400 60.2424 174.993 55.7198 0.34465 0.0226057
689600 60.2424 175.006 55.7198 0.34475 0.0770675
689800 60.2424 175.019 55.7198 0.34485 0.127547
690000 60.2424 175.032 55.7198 0.34495 0.152133
690200 60.2424 175.045 55.7198 0.34505 0.164558
690400 60.2424 175.059 55.7198 0.34515 0.181916
690600 60.2424 175.072 55.7198 0.34525 0.167277
690800 60.2424 175.085 55.7198 0.34535 0.142201
691000 60.2424 175.098 55.7198 0.34545 0.0825936
691200 60.2424 175.111 55.7198 0.34555 0.0167746
691400 60.2424 175.124 55.7198 0.34565 -0.0389905
691600 60.2424 175.137 55.7198 0.34575 -0.0952189
691800 60.2424 175.15 55.7198 0.34585 -0.141875
692000 60.2424 175.163 55.7198 0.34595 -0.158024
692200 60.2424 175.176 55.7198 0.34605 -0.166994
692400 60.2424 175.189 55.7198 0.34615 -0.173306
692600 60.2424 175.202 55.7198 0.34625 -0.127072
692800 60.2424 175.215 55.7198 0.34635 -0.117113
693000 60.2424 175.228 55.7198 0.34645 -0.0766737
693200 60.2424 175.241 55.7198 0.34655 0.00187539
693400 60.2424 175.254 55.7198 0.34665 0.0277316
693600 60.2424 175.267 55.7198 0.34675 0.0945801
693800 60.2424 175.28 55.7198 0.34685 0.150916
694000 60.2424 175.293 55.7198 0.34695 0.185405
694200 60.2424 175.306 55.7198 0.34705 0.164444
694400 60.2424 175.319 55.7198 0.34715 0.164146
694600 60.2424 175.332 55.7198 0.34725 0.150793
694800 60.2424 175.345 55.7198 0.34735 0.105128
695000 60.2424 175.358 55.7198 0.34745 0.030791
695200 60.2424 175.371 55.7198 0.34755 0.00616585
695400 60.2424 175.384 55.7198 0.34765 -0.0664506
695600 60.2424 175.397 55.7198 0.34775 -0.0923553
695800 60.2424 175.41 55.7198 0.34785 -0.138922
696000 60.2424 175.423 55.7198 0.34795 -0.176037
696200 60.2424 175.436 55.7198 0.34805 -0.14742
696400 60.2424 175.449 55.7198 0.34815 -0.184627
696600 60.2424 175.462 55.7198 0.34825 -0.114334
696800 60.2424 175.475 55.7198 0.34835 -0.0933303
697000 60.2424 175.488 55.7198 0.34845 -0.0363655
697200 60.2424 175.501 55.7198 0.34855 0.00526259
697400 60.2424 175.514 55.7198 0.34865 0.0795785
697600 60.2424 175.527 55.7198 0.34875 0.0898238
697800 60.2424 175.54 55.7198 0.34885 0.155021
698000 60.2424 175.553 55.7198 0.34895 0.168292
698200 60.2424 175.566 55.7198 0.34905 0.172075
698400 60.2424 175.579 55.7198 0.34915 0.175649
698600 60.2424 175.592 55.7198 0.34925 0.134701
698800 60.2424 175.605 55.7198 0.34935 0.0683845
699000 60.2424 175.618 55.7198 0.34945 0.00886361
699200 60.2424 175.631 55.7198 0.34955 -0.0226954
699400 60.2424 175.644 55.7198 0.34965 -0.0618908
699600 60.2424 175.657 55.7198 0.34975 -0.131684
699800 60.2424 175.67 55.7198 0.34985 -0.153804
700000 60.2424 175.683 55.7198 0.34995 -0.165889
700200 60.2424 175.696 55.7198 0.35005 -0.158696
700400 60.2424 175.709 55.7198 0.35015 -0.17224
700600 60.2424 175.722 55.7198 0.35025 -0.10858
700800 60.2424 175.735 55.7198 0.35035 -0.0511413
701000 60.2424 175.748 55.7198 0.35045 -0.00978953
701200 60.2424 175.761 55.7198 0.35055 0.0470556
701400 60.2424 175.774 55.7198 0.35065 0.0894943
701600 60.2424 175.787 55.7198 0.35075 0.149521
701800 60.2424 175.8 55.7198 0.35085 0.14189
702000 60.2424 175.813 55.7198 0.35095 0.154748
702200 60.2424 175.826 55.7198 0.35105 0.177251
702400 60.2424 175.839 55.7198 0.35115 0.127737
702600 60.2424 175.852 55.7198 0.35125 0.0973333
702800 60.2424 175.865 55.7198 0.35135 0.0815252
703000 60.2424 175.878 55.7198 0.35145 -0.0259878
703200 60.2424 175.891 55.7198 0.35155 -0.0675035
703400 60.2424 175.904 55.7198 0.35165 -0.104715
703600 60.2424 175.917 55.7198 0.35175 -0.123313
703800 60.2424 175.93 55.7198 0.35185 -0.156056
704000 60.2424 175.943 55.7198 0.35195 -0.157864
704200 60.2424 175.956 55.7198 0.35205 -0.14083
704400 60.2424 175.969 55.7198 0.35215 -0.138629
704600 60.2424 175.983 55.7198 0.35225 -0.0925771
704800 60.2424 175.996 55.7198 0.35235 -0.0448456
705000 60.2424 176.009 55.7198 0.35245 0.00378349
705200 60.2424 176.022 55.7198 0.35255 0.0722696
705400 60.2424 176.035 55.7198 0.35265 0.11978
705600 60.2424 176.048 55.7198 0.35275 0.153199
705800 60.2424 176.061 55.7198 0.35285 0.171752
706000 60.2424 176.074 55.7198 0.35295 0.166038
706200 60.2424 176.087 55.7198 0.35305 0.134374
706400 60.2424 176.1 55.7198 0.35315 0.123216
706600 60.2424 176.113 55.7198 0.35325 0.0639527
706800 60.2424 176.126 55.7198 0.35335 0.0471393
707000 60.2424 176.139 55.7198 0.35345 -0.0157767
707200 60.2424 176.152 55.7198 0.35355 -0.0778163
707400 60.2424 176.165 55.7198 0.35365 -0.13396
707600 60.2424 176.178 55.7198 0.35375 -0.15756
707800 60.2424 176.191 55.7198 0.35385 -0.164188
708000 60.2424 176.204 55.7198 0.35395 -0.158026
708200 60.2424 176.217 55.7198 0.35405 -0.130329
708400 60.2424 176.23 55.7198 0.35415 -0.0895031
708600 60.2424 176.243 55.7198 0.35425 -0.0777107
708800 60.2424 176.256 55.7198 0.35435 -0.0199676
709000 60.2424 176.269 55.7198 0.35445 0.0473777
709200 60.2424 176.282 55.7198 0.35455 0.0807865
709400 60.2424 176.295 55.7198 0.35465 0.129248
709600 60.2424 176.308 55.7198 0.35475 0.168968
709800 60.2424 176.321 55.7198 0.35485 0.171945
710000 60.2424 176.334 55.7198 0.35495 0.170447
710200 60.2424 176.347 55.7198 0.35505 0.119729
710400 60.2424 176.36 55.7198 0.35515 0.0927634
710600 60.2424 176.373 55.7198 0.35525 0.0467979
710800 60.2424 176.386 55.7198 0.35535 -0.00797862
711000 60.2424 176.399 55.7198 0.35545 -0.0648729
711200 60.2424 176.412 55.7198 0.35555 -0.0893559
711400 60.2424 176.425 55.7198 0.35565 -0.137256
711600 60.2424 176.438 55.7198 0.35575 -0.135504
711800 60.2424 176.451 55.7198 0.35585 -0.155793
712000 60.2424 176.464 55.7198 0.35595 -0.170495
712200 60.2424 176.477 55.7198 0.35605 -0.136147
712400 60.2424 176.49 55.7198 0.35615 -0.0789326
712600 60.2424 176.503 55.7198 0.35625 -0.0625758
712800 60.2424 176.516 55.7198 0.35635 0.036352
713000 60.2424 176.529 55.7198 0.35645 0.0717528
713200 60.2424 176.542 55.7198 0.35655 0.118996
713400 60.2424 176.555 55.7198 0.35665 0.15619
713600 60.2424 176.568 55.7198 0.35675 0.14903
713800 60.2424 176.581 55.7198 0.35685 0.177299
714000 60.2424 176.594 55.7198 0.35695 0.137444
714200 60.2424 176.607 55.7198 0.35705 0.11295
714400 60.2424 176.62 55.7198 0.35715 0.101376
714600 60.2424 176.633 55.7198 0.35725 0.00754896
714800 60.2424 176.646 55.7198 0.35735 -0.0399718
715000 60.2424 176.659 55.7198 0.35745 -0.0614839
715200 60.2424 176.672 55.7198 0.35755 -0.128003
715400 60.2424 176.685 55.7198 0.35765 -0.158733
715600 60.2424 176.698 55.7198 0.35775 -0.156637
715800 60.2424 176.711 55.7198 0.35785 -0.161075
716000 60.2424 176.724 55.7198 0.35795 -0.114232
716200 60.2424 176.737 55.7198 0.35805 -0.124766
716400 60.2424 176.75 55.7198 0.35815 -0.0549921
716600 60.2424 176.763 55.7198 0.35825 -0.00716968
716800 60.2424 176.776 55.7198 0.35835 0.0338241
717000 60.2424 176.789 55.7198 0.35845 0.0931817
717200 60.2424 176.802 55.7198 0.35855 0.12872
717400 60.2424 176.815 55.7198 0.35865 0.165963
717600 60.2424 176.828 55.7198 0.35875 0.166124
717800 60.2424 176.841 55.7198 0.35885 0.143403
718000 60.2424 176.854 55.7198 0.35895 0.16029
718200 60.2424 176.867 55.7198 0.35905 0.0773925
718400 60.2424 176.88 55.7198 0.35915 0.041837
718600 60.2424 176.893 55.7198 0.35925 -0.0150883
718800 60.2424 176.907 55.7198 0.35935 -0.0321542
719000 60.2424 176.92 55.7198 0.35945 -0.113611
719200 60.2424 176.933 55.7198 0.35955 -0.121185
719400 60.2424 176.946 55.7198 0.35965 -0.174552
719600 60.2424 176.959 55.7198 0.35975 -0.149779
719800 60.2424 176.972 55.7198 0.35985 -0.151328
720000 60.2424 176.985 55.7198 0.35995 -0.108156
720200 60.2424 176.998 55.7198 0.36005 -0.11025
720400 60.2424 177.011 55.7198 0.36015 -0.0239077
720600 60.2424 177.024 55.7198 0.36025 0.0116562
720800 60.2424 177.037 55.7198 0.36035 0.0630502
721000 60.2424 177.05 55.7198 0.36045 0.109047
721200 60.2424 177.063 55.7198 0.36055 0.159757
721400 60.2424 177.076 55.7198 0.36065 0.194818
721600 60.2424 177.089 55.7198 0.36075 0.154919
721800 60.2424 177.102 55.7198 0.36085 0.138125
722000 60.2424 177.115 55.7198 0.36095 0.0988766
722200 60.2424 177.128 55.7198 0.36105 0.0660884
722400 60.2424 177.141 55.7198 0.36115 0.0417241
722600 60.2424 177.154 55.7198 0.36125 -0.0404521
722800 60.2424 177.167 55.7198 0.36135 -0.0762472
723000 60.2424 177.18 55.7198 0.36145 -0.12821
723200 60.2424 177.193 55.7198 0.36155 -0.161289
723400 60.2424 177.206 55.7198 0.36165 -0.162671
723600 60.2424 177.219 55.7198 0.36175 -0.152608
723800 60.2424 177.232 55.7198 0.36185 -0.141662
724000 60.2424 177.245 55.7198 0.36195 -0.0779698
724200 60.2424 177.258 55.7198 0.36205 -0.0590816
724400 60.2424 177.271 55.7198 0.36215 -0.012638
724600 60.2424 177.284 55.7198 0.36225 0.0596249
724800 60.2424 177.297 55.7198 0.36235 0.0892467
725000 60.2424 177.31 55.7198 0.36245 0.145463
725200 60.2424 177.323 55.7198 0.36255 0.158128
725400 60.2424 177.336 55.7198 0.36265 0.173602
725600 60.2424 177.349 55.7198 0.36275 0.139941
725800 60.2424 177.362 55.7198 0.36285 0.115801
726000 60.2424 177.375 55.7198 0.36295 0.0697332
726200 60.2424 177.388 55.7198 0.36305 0.0401744
726400 60.2424 177.401 55.7198 0.36315 -0.00738154
726600 60.2424 177.414 55.7198 0.36325 -0.0591672
726800 60.2424 177.427 55.7198 0.36335 -0.0835396
727000 60.2424 177.44 55.7198 0.36345 -0.154218
727200 60.2424 177.453 55.7198 0.36355 -0.171781
727400 60.2424 177.466 55.7198 0.36365 -0.134672
727600 60.2424 177.479 55.7198 0.36375 -0.115059
727800 60.2424 177.492 55.7198 0.36385 -0.127133
728000 60.2424 177.505 55.7198 0.36395 -0.0642995
728200 60.2424 177.518 55.7198 0.36405 -0.025756
728400 60.2424 177.531 55.7198 0.36415 0.00831781
728600 60.2424 177.544 55.7198 0.36425 0.0853212
728800 60.2424 177.557 55.7198 0.36435 0.114953
729000 60.2424 177.57 55.7198 0.36445 0.139107
729200 60.2424 177.583 55.7198 0.36455 0.160374
729400 60.2424 177.596 55.7198 0.36465 0.137524
729600 60.2424 177.609 55.7198 0.36475 0.134923
729800 60.2424 177.622 55.7198 0.36485 0.10957
730000 60.2424 177.635 55.7198 0.36495 0.0798303
730200 60.2424 177.648 55.7198 0.36505 0.00261789
730400 60.2424 177.661 55.7198 0.36515 -0.0557203
730600 60.2424 177.674 55.7198 0.36525 -0.0952958
730800 60.2424 177.687 55.7198 0.36535 -0.108528
731000 60.2424 177.7 55.7198 0.36545 -0.149658
731200 60.2424 177.713 55.7198 0.36555 -0.142163
731400 60.2424 177.726 55.7198 0.36565 -0.131692
731600 60.2424 177.739 55.7198 0.36575 -0.126246
731800 60.2424 177.752 55.7198 0.36585 -0.0964116
732000 60.2424 177.765 55.7198 0.36595 -0.0579729
732200 60.2424 177.778 55.7198 0.36605 0.00841788
732400 60.2424 177.791 55.7198 0.36615 0.0539572
732600 60.2424 177.804 55.7198 0.36625 0.100441
732800 60.2424 177.817 55.7198 0.36635 0.135152
733000 60.2424 177.831 55.7198 0.36645 0.162196
733200 60.2424 177.844 55.7198 0.36655 0.137683
733400 60.2424 177.857 55.7198 0.36665 0.119811
733600 60.2424 177.87 55.7198 0.36675 0.124347
733800 60.2424 177.883 55.7198 0.36685 0.0891334
734000 60.2424 177.896 55.7198 0.36695 0.049933
734200 60.2424 177.909 55.7198 0.36705 -0.0334834
734400 60.2424 177.922 55.7198 0.36715 -0.0542866
734600 60.2424 177.935 55.7198 0.36725 -0.108028
734800 60.2424 177.948 55.7198 0.36735 -0.149652
735000 60.2424 177.961 55.7198 0.36745 -0.150234
735200 60.2424 177.974 55.7198 0.36755 -0.146037
735400 60.2424 177.987 55.7198 0.36765 -0.101874
735600 60.2424 178 55.7198 0.36775 -0.110124
735800 60.2424 178.013 55.7198 0.36785 -0.0638705
736000 60.2424 178.026 55.7198 0.36795 -0.0252937
736200 60.2424 178.039 55.7198 0.36805 0.0327582
736400 60.2424 178.052 55.7198 0.36815 0.0885708
736600 60.2424 178.065 55.7198 0.36825 0.104118
736800 60.2424 178.078 55.7198 0.36835 0.136131
737000 60.2424 178.091 55.7198 0.36845 0.14532
737200 60.2424 178.104 55.7198 0.36855 0.145672
737400 60.2424 178.117 55.7198 0.36865 0.114453
737600 60.2424 178.13 55.7198 0.36875 0.0735179
737800 60.2424 178.143 55.7198 0.36885 0.0530538
738000 60.2424 178.156 55.7198 0.36895 0.0151859
738200 60.2424 178.169 55.7198 0.36905 -0.0531822
738400 60.2424 178.182 55.7198 0.36915 -0.0800355
738600 60.2424 178.195 55.7198 0.36925 -0.0982122
738800 60.2424 178.208 55.7198 0.36935 -0.127425
739000 60.2424 178.221 55.7198 0.36945 -0.151846
739200 60.2424 178.234 55.7198 0.36955 -0.122277
739400 60.2424 178.247 55.7198 0.36965 -0.101924
739600 60.2424 178.26 55.7198 0.36975 -0.0762411
739800 60.2424 178.273 55.7198 0.36985 -0.0515112
740000 60.2424 178.286 55.7198 0.36995 0.0251339
740200 60.2424 178.299 55.7198 0.37005 0.0605393
740400 60.2424 178.312 55.7198 0.37015 0.0911394
740600 60.2424 178.325 55.7198 0.37025 0.105168
740800 60.2424 178.338 55.7198 0.37035 0.139326
741000 60.2424 178.351 55.7198 0.37045 0.137676
741200 60.2424 178.364 55.7198 0.37055 0.119326
741400 60.2424 178.377 55.7198 0.37065 0.103479
741600 60.2424 178.39 55.7198 0.37075 0.0849986
741800 60.2424 178.403 55.7198 0.37085 0.00836817
742000 60.2424 178.416 55.7198 0.37095 -0.0308234
742200 60.2424 178.429 55.7198 0.37105 -0.0489651
742400 60.2424 178.442 55.7198 0.37115 -0.112243
742600 60.2424 178.455 55.7198 0.37125 -0.101859
742800 60.2424 178.468 55.7198 0.37135 -0.135159
743000 60.2424 178.481 55.7198 0.37145 -0.145031
743200 60.2424 178.494 55.7198 0.37155 -0.123417
743400 60.2424 178.507 55.7198 0.37165 -0.0808141
743600 60.2424 178.52 55.7198 0.37175 -0.0581031
743800 60.2424 178.533 55.7198 0.37185 0.00365781
744000 60.2424 178.546 55.7198 0.37195 0.0331989
744200 60.2424 178.559 55.7198 0.37205 0.0777077
744400 60.2424 178.572 55.7198 0.37215 0.0973501
744600 60.2424 178.585 55.7198 0.37225 0.104238
744800 60.2424 178.598 55.7198 0.37235 0.163185
745000 60.2424 178.611 55.7198 0.37245 0.126782
745200 60.2424 178.624 55.7198 0.37255 0.106317
745400 60.2424 178.637 55.7198 0.37265 0.0797764
745600 60.2424 178.65 55.7198 0.37275 0.0532425
745800 60.2424 178.663 55.7198 0.37285 -0.012502
746000 60.2424 178.676 55.7198 0.37295 -0.0383651
746200 60.2424 178.689 55.7198 0.37305 -0.090384
746400 60.2424 178.702 55.7198 0.37315 -0.0858374
746600 60.2424 178.715 55.7198 0.37325 -0.133318
746800 60.2424 178.728 55.7198 0.37335 -0.117842
747000 60.2424 178.741 55.7198 0.37345 -0.12291
747200 60.2424 178.754 55.7198 0.37355 -0.105798
747400 60.2424 178.768 55.7198 0.37365 -0.0743759
747600 60.2424 178.781 55.7198 0.37375 -0.0388509
747800 60.2424 178.794 55.7198 0.37385 0.0122845
748000 60.2424 178.807 55.7198 0.37395 0.0396497
748200 60.2424 178.82 55.7198 0.37405 0.0965835
748400 60.2424 178.833 55.7198 0.37415 0.109854
748600 60.2424 178.846 55.7198 0.37425 0.130588
748800 60.2424 178.859 55.7198 0.37435 0.129457
749000 60.2424 178.872 55.7198 0.37445 0.118018
749200 60.2424 178.885 55.7198 0.37455 0.0945619
749400 60.2424 178.898 55.7198 0.37465 0.0913925
749600 60.2424 178.911 55.7198 0.37475 0.00899771
749800 60.2424 178.924 55.7198 0.37485 -0.0161981
750000 60.2424 178.937 55.7198 0.37495 -0.064243
750200 60.2424 178.95 55.7198 0.37505 -0.0799511
750400 60.2424 178.963 55.7198 0.37515 -0.10672
750600 60.2424 178.976 55.7198 0.37525 -0.156861
750800 60.2424 178.989 55.7198 0.37535 -0.126869
751000 60.2424 179.002 55.7198 0.37545 -0.107144
751200 60.2424 179.015 55.7198 0.37555 -0.0954941
751400 60.2424 179.028 55.7198 0.37565 -0.0413797
751600 60.2424 179.041 55.7198 0.37575 -0.0114182
751800 60.2424 179.054 55.7198 0.37585 0.0396811
752000 60.2424 179.067 55.7198 0.37595 0.0509065
752200 60.2424 179.08 55.7198 0.37605 0.0931511
752400 60.2424 179.093 55.7198 0.37615 0.139979
752600 60.2424 179.106 55.7198 0.37625 0.125663
752800 60.2424 179.119 55.7198 0.37635 0.135707
753000 60.2424 179.132 55.7198 0.37645 0.105832
753200 60.2424 179.145 55.7198 0.37655 0.0827565
753400 60.2424 179.158 55.7198 0.37665 0.0355021
753600 60.2424 179.171 55.7198 0.37675 -0.00650888
753800 60.2424 179.184 55.7198 0.37685 -0.0269735
754000 60.2424 179.197 55.7198 0.37695 -0.058152
754200 60.2424 179.21 55.7198 0.37705 -0.102245
754400 60.2424 179.223 55.7198 0.37715 -0.124339
754600 60.2424 179.236 55.7198 0.37725 -0.135368
754800 60.2424 179.249 55.7198 0.37735 -0.12909
755000 60.2424 179.262 55.7198 0.37745 -0.0984084
755200 60.2424 179.275 55.7198 0.37755 -0.0610924
755400 60.2424 179.288 55.7198 0.37765 -0.0380289
755600 60.2424 179.301 55.7198 0.37775 0.013086
755800 60.2424 179.314 55.7198 0.37785 0.0434044
756000 60.2424 179.327 55.7198 0.37795 0.0714914
756200 60.2424 179.34 55.7198 0.37805 0.0979324
756400 60.2424 179.353 55.7198 0.37815 0.125793
756600 60.2424 179.366 55.7198 0.37825 0.127997
756800 60.2424 179.379 55.7198 0.37835 0.127623
757000 60.2424 179.392 55.7198 0.37845 0.0913386
757200 60.2424 179.405 55.7198 0.37855 0.0688729
757400 60.2424 179.418 55.7198 0.37865 0.018274
757600 60.2424 179.431 55.7198 0.37875 -0.0189737
757800 60.2424 179.444 55.7198 0.37885 -0.0325435
758000 60.2424 179.457 55.7198 0.37895 -0.0786938
758200 60.2424 179.47 55.7198 0.37905 -0.108178
758400 60.2424 179.483 55.7198 0.37915 -0.118398
758600 60.2424 179.496 55.7198 0.37925 -0.139011
758800 60.2424 179.509 55.7198 0.37935 -0.120207
759000 60.2424 179.522 55.7198 0.37945 -0.0872026
759200 60.2424 179.535 55.7198 0.37955 -0.0417639
759400 60.2424 179.548 55.7198 0.37965 -0.0171609
759600 60.2424 179.561 55.7198 0.37975 0.0227663
759800 60.2424 179.574 55.7198 0.37985 0.0793361
760000 60.2424 179.587 55.7198 0.37995 0.075993
760200 60.2424 179.6 55.7198 0.38005 0.120874
760400 60.2424 179.613 55.7198 0.38015 0.114214
760600 60.2424 179.626 55.7198 0.38025 0.137797
760800 60.2424 179.639 55.7198 0.38035 0.101096
761000 60.2424 179.652 55.7198 0.38045 0.0855468
761200 60.2424 179.665 55.7198 0.38055 0.0488827
761400 60.2424 179.678 55.7198 0.38065 0.00568345
761600 60.2424 179.692 55.7198 0.38075 -0.0431907
761800 60.2424 179.705 55.7198 0.38085 -0.0768491
762000 60.2424 179.718 55.7198 0.38095 -0.077641
762200 60.2424 179.731 55.7198 0.38105 -0.112366
762400 60.2424 179.744 55.7198 0.38115 -0.12326
762600 60.2424 179.757 55.7198 0.38125 -0.125587
762800 60.2424 179.77 55.7198 0.38135 -0.106405
763000 60.2424 179.783 55.7198 0.38145 -0.0670751
763200 60.2424 179.796 55.7198 0.38155 -0.0452516
763400 60.2424 179.809 55.7198 0.38165 0.00423814
763600 60.2424 179.822 55.7198 0.38175 0.0437125
763800 60.2424 179.835 55.7198 0.38185 0.0845313
764000 60.2424 179.848 55.7198 0.38195 0.0981157
764200 60.2424 179.861 55.7198 0.38205 0.101155
764400 60.2424 179.874 55.7198 0.38215 0.161053
764600 60.2424 179.887 55.7198 0.38225 0.106063
764800 60.2424 179.9 55.7198 0.38235 0.0956456
765000 60.2424 179.913 55.7198 0.38245 0.0660634
765200 60.2424 179.926 55.7198 0.38255 0.0581758
765400 60.2424 179.939 55.7198 0.38265 -0.0285486
765600 60.2424 179.952 55.7198 0.38275 -0.0442984
765800 60.2424 179.965 55.7198 0.38285 -0.0870258
766000 60.2424 179.978 55.7198 0.38295 -0.108325
766200 60.2424 179.991 55.7198 0.38305 -0.106081
766400 60.2424 180.004 55.7198 0.38315 -0.157784
766600 60.2424 180.017 55.7198 0.38325 -0.0922027
766800 60.2424 180.03 55.7198 0.38335 -0.122207
767000 60.2424 180.043 55.7198 0.38345 -0.0468006
767200 60.2424 180.056 55.7198 0.38355 -0.0193151
767400 60.2424 180.069 55.7198 0.38365 0.0429128
767600 60.2424 180.082 55.7198 0.38375 0.0610181
767800 60.2424 180.095 55.7198 0.38385 0.084399
768000 60.2424 180.108 55.7198 0.38395 0.105736
768200 60.2424 180.121 55.7198 0.38405 0.136116
768400 60.2424 180.134 55.7198 0.38415 0.133914
768600 60.2424 180.147 55.7198 0.38425 0.120086
768800 60.2424 180.16 55.7198 0.38435 0.0796057
769000 60.2424 180.173 55.7198 0.38445 0.0554399
769200 60.2424 180.186 55.7198 0.38455 0.00909303
769400 60.2424 180.199 55.7198 0.38465 -0.0522739
769600 60.2424 180.212 55.7198 0.38475 -0.060359
769800 60.2424 180.225 55.7198 0.38485 -0.0827159
770000 60.2424 180.238 55.7198 0.38495 -0.127958
770200 60.2424 180.251 55.7198 0.38505 -0.122714
770400 60.2424 180.264 55.7198 0.38515 -0.140142
770600 60.2424 180.277 55.7198 0.38525 -0.105343
770800 60.2424 180.29 55.7198 0.38535 -0.077986
771000 60.2424 180.303 55.7198 0.38545 -0.054431
771200 60.2424 180.316 55.7198 0.38555 0.03394
771400 60.2424 180.329 55.7198 0.38565 0.0449746
771600 60.2424 180.342 55.7198 0.38575 0.0904533
771800 60.2424 180.355 55.7198 0.38585 0.113678
772000 60.2424 180.368 55.7198 0.38595 0.101939
772200 60.2424 180.381 55.7198 0.38605 0.140145
772400 60.2424 180.394 55.7198 0.38615 0.116871
772600 60.2424 180.407 55.7198 0.38625 0.111925
772800 60.2424 180.42 55.7198 0.38635 0.0585551
773000 60.2424 180.433 55.7198 0.38645 0.045643
773200 60.2424 180.446 55.7198 0.38655 -0.0457065
773400 60.2424 180.459 55.7198 0.38665 -0.0756607
773600 60.2424 180.472 55.7198 0.38675 -0.0701746
773800 60.2424 180.485 55.7198 0.38685 -0.121595
774000 60.2424 180.498 55.7198 0.38695 -0.112803
774200 60.2424 180.511 55.7198 0.38705 -0.0944936
774400 60.2424 180.524 55.7198 0.38715 -0.120467
774600 60.2424 180.537 55.7198 0.38725 -0.0927311
774800 60.2424 180.55 55.7198 0.38735 -0.0603743
775000 60.2424 180.563 55.7198 0.38745 -0.00695897
775200 60.2424 180.576 55.7198 0.38755 0.0202779
775400 60.2424 180.589 55.7198 0.38765 0.0653422
775600 60.2424 180.602 55.7198 0.38775 0.0963133
775800 60.2424 180.616 55.7198 0.38785 0.123503
776000 60.2424 180.629 55.7198 0.38795 0.1085
776200 60.2424 180.642 55.7198 0.38805 0.12022
776400 60.2424 180.655 55.7198 0.38815 0.120178
776600 60.2424 180.668 55.7198 0.38825 0.0832869
776800 60.2424 180.681 55.7198 0.38835 0.0630706
777000 60.2424 180.694 55.7198 0.38845 0.00244134
777200 60.2424 180.707 55.7198 0.38855 -0.0536098
777400 60.2424 180.72 55.7198 0.38865 -0.0566216
777600 60.2424 180.733 55.7198 0.38875 -0.10891
777800 60.2424 180.746 55.7198 0.38885 -0.116907
778000 60.2424 180.759 55.7198 0.38895 -0.123845
778200 60.2424 180.772 55.7198 0.38905 -0.102626
778400 60.2424 180.785 55.7198 0.38915 -0.122046
778600 60.2424 180.798 55.7198 0.38925 -0.0684472
778800 60.2424 180.811 55.7198 0.38935 -0.0335364
779000 60.2424 180.824 55.7198 0.38945 -0.00139092
779200 60.2424 180.837 55.7198 0.38955 0.0414499
779400 60.2424 180.85 55.7198 0.38965 0.0638105
779600 60.2424 180.863 55.7198 0.38975 0.118446
779800 60.2424 180.876 55.7198 0.38985 0.127909
780000 60.2424 180.889 55.7198 0.38995 0.129256
780200 60.2424 180.902 55.7198 0.39005 0.154758
780400 60.2424 180.915 55.7198 0.39015 0.0543606
780600 60.2424 180.928 55.7198 0.39025 0.0625732
780800 60.2424 180.941 55.7198 0.39035 0.0377515
781000 60.2424 180.954 55.7198 0.39045 0.00332158
781200 60.2424 180.967 55.7198 0.39055 -0.0473396
781400 60.2424 180.98 55.7198 0.39065 -0.0749369
781600 60.2424 180.993 55.7198 0.39075 -0.115175
781800 60.2424 181.006 55.7198 0.39085 -0.147859
782000 60.2424 181.019 55.7198 0.39095 -0.117357
782200 60.2424 181.032 55.7198 0.39105 -0.102618
782400 60.2424 181.045 55.7198 0.39115 -0.0805005
782600 60.2424 181.058 55.7198 0.39125 -0.0643313
782800 60.2424 181.071 55.7198 0.39135 -0.0172288
783000 60.2424 181.084 55.7198 0.39145 0.0138437
783200 60.2424 181.097 55.7198 0.39155 0.0438791
783400 60.2424 181.11 55.7198 0.39165 0.102556
783600 60.2424 181.123 55.7198 0.39175 0.120385
783800 60.2424 181.136 55.7198 0.39185 0.121705
784000 60.2424 181.149 55.7198 0.39195 0.143219
784200 60.2424 181.162 55.7198 0.39205 0.107325
784400 60.2424 181.175 55.7198 0.39215 0.0870481
784600 60.2424 181.188 55.7198 0.39225 0.0406447
784800 60.2424 181.201 55.7198 0.39235 -0.000876895
785000 60.2424 181.214 55.7198 0.39245 -0.0153477
785200 60.2424 181.227 55.7198 0.39255 -0.0602778
785400 60.2424 181.24 55.7198 0.39265 -0.101432
785600 60.2424 181.253 55.7198 0.39275 -0.10447
785800 60.2424 181.266 55.7198 0.39285 -0.138487
786000 60.2424 181.279 55.7198 0.39295 -0.119821
786200 60.2424 181.292 55.7198 0.39305 -0.0997443
786400 60.2424 181.305 55.7198 0.39315 -0.0747705
786600 60.2424 181.318 55.7198 0.39325 -0.0322171
786800 60.2424 181.331 55.7198 0.39335 0.0086532
787000 60.2424 181.344 55.7198 0.39345 0.0221151
787200 60.2424 181.357 55.7198 0.39355 0.041554
787400 60.2424 181.37 55.7198 0.39365 0.106771
787600 60.2424 181.383 55.7198 0.39375 0.125305
787800 60.2424 181.396 55.7198 0.39385 0.121456
788000 60.2424 181.409 55.7198 0.39395 0.142434
788200 60.2424 181.422 55.7198 0.39405 0.0998089
788400 60.2424 181.435 55.7198 0.39415 0.0751064
788600 60.2424 181.448 55.7198 0.39425 0.0368164
788800 60.2424 181.461 55.7198 0.39435 -0.00667209
789000 60.2424 181.474 55.7198 0.39445 -0.0261617
789200 60.2424 181.487 55.7198 0.39455 -0.0938917
789400 60.2424 181.5 55.7198 0.39465 -0.0973367
789600 60.2424 181.513 55.7198 0.39475 -0.126068
789800 60.2424 181.526 55.7198 0.39485 -0.13006
790000 60.2424 181.54 55.7198 0.39495 -0.0991129
790200 60.2424 181.553 55.7198 0.39505 -0.116232
790400 60.2424 181.566 55.7198 0.39515 -0.0552472
790600 60.2424 181.579 55.7198 0.39525 -0.0117363
790800 60.2424 181.592 55.7198 0.39535 0.0139069
791000 60.2424 181.605 55.7198 0.39545 0.0492058
791200 60.2424 181.618 55.7198 0.39555 0.0984704
791400 60.2424 181.631 55.7198 0.39565 0.09085
791600 60.2424 181.644 55.7198 0.39575 0.122985
791800 60.2424 181.657 55.7198 0.39585 0.109216
792000 60.2424 181.67 55.7198 0.39595 0.0972761
792200 60.2424 181.683 55.7198 0.39605 0.102477
792400 60.2424 181.696 55.7198 0.39615 0.0567888
792600 60.2424 181.709 55.7198 0.39625 0.0330892
792800 60.2424 181.722 55.7198 0.39635 -0.0285422
793000 60.2424 181.735 55.7198 0.39645 -0.0693061
793200 60.2424 181.748 55.7198 0.39655 -0.0781052
793400 60.2424 181.761 55.7198 0.39665 -0.119335
793600 60.2424 181.774 55.7198 0.39675 -0.127209
793800 60.2424 181.787 55.7198 0.39685 -0.106636
794000 60.2424 181.8 55.7198 0.39695 -0.101639
794200 60.2424 181.813 55.7198 0.39705 -0.0660158
794400 60.2424 181.826 55.7198 0.39715 -0.0470523
794600 60.2424 181.839 55.7198 0.39725 0.00212618
794800 60.2424 181.852 55.7198 0.39735 0.00649076
795000 60.2424 181.865 55.7198 0.39745 0.0686282
795200 60.2424 181.878 55.7198 0.39755 0.111233
795400 60.2424 181.891 55.7198 0.39765 0.125812
795600 60.2424 181.904 55.7198 0.39775 0.125488
795800 60.2424 181.917 55.7198 0.39785 0.116716
796000 60.2424 181.93 55.7198 0.39795 0.0932701
796200 60.2424 181.943 55.7198 0.39805 0.0534964
796400 60.2424 181.956 55.7198 0.39815 0.0404499
796600 60.2424 181.969 55.7198 0.39825 -0.00106871
796800 60.2424 181.982 55.7198 0.39835 -0.0257888
797000 60.2424 181.995 55.7198 0.39845 -0.0817452
797200 60.2424 182.008 55.7198 0.39855 -0.107036
797400 60.2424 182.021 55.7198 0.39865 -0.119411
797600 60.2424 182.034 55.7198 0.39875 -0.107212
797800 60.2424 182.047 55.7198 0.39885 -0.118368
798000 60.2424 182.06 55.7198 0.39895 -0.0776585
798200 60.2424 182.073 55.7198 0.39905 -0.0630609
798400 60.2424 182.086 55.7198 0.39915 -0.030768
798600 60.2424 182.099 55.7198 0.39925 -0.0160188
798800 60.2424 182.112 55.7198 0.39935 0.0694887
799000 60.2424 182.125 55.7198 0.39945 0.0903305
799200 60.2424 182.138 55.7198 0.39955 0.112955
799400 60.2424 182.151 55.7198 0.39965 0.110376
799600 60.2424 182.164 55.7198 0.39975 0.134108
799800 60.2424 182.177 55.7198 0.39985 0.098303
800000 60.2424 182.19 55.7198 0.39995 0.0652254
800200 60.2424 182.203 55.7198 0.40005 0.0849918
800400 60.2424 182.216 55.7198 0.40015 0.00391114
800600 60.2424 182.229 55.7198 0.40025 -0.0197748
800800 60.2424 182.242 55.7198 0.40035 -0.0696378
801000 60.2424 182.255 55.7198 0.40045 -0.0754139
801200 60.2424 182.268 55.7198 0.40055 -0.114985
801400 60.2424 182.281 55.7198 0.40065 -0.114718
801600 60.2424 182.294 55.7198 0.40075 -0.12268
801800 60.2424 182.307 55.7198 0.40085 -0.0981367
802000 60.2424 182.32 55.7198 0.40095 -0.0748629
802200 60.2424 182.333 55.7198 0.40105 -0.0424832
802400 60.2424 182.346 55.7198 0.40115 0.0132328
802600 60.2424 182.359 55.7198 0.40125 0.044752
802800 60.2424 182.372 55.7198 0.40135 0.0523862
803000 60.2424 182.385 55.7198 0.40145 0.0922622
803200 60.2424 182.398 55.7198 0.40155 0.122903
803400 60.2424 182.411 55.7198 0.40165 0.123917
803600 60.2424 182.424 55.7198 0.40175 0.119524
803800 60.2424 182.437 55.7198 0.40185 0.090553
804000 60.2424 182.45 55.7198 0.40195 0.0652653
804200 60.2424 182.464 55.7198 0.40205 0.0179793
804400 60.2424 182.477 55.7198 0.40215 -0.015975
804600 60.2424 182.49 55.7198 0.40225 -0.0439693
804800 60.2424 182.503 55.7198 0.40235 -0.0590053
805000 60.2424 182.516 55.7198 0.40245 -0.0884851
805200 60.2424 182.529 55.7198 0.40255 -0.118009
805400 60.2424 182.542 55.7198 0.40265 -0.117003
805600 60.2424 182.555 55.7198 0.40275 -0.108249
805800 60.2424 182.568 55.7198 0.40285 -0.0842674
806000 60.2424 182.581 55.7198 0.40295 -0.0503893
806200 60.2424 182.594 55.7198 0.40305 -0.0381709
806400 60.2424 182.607 55.7198 0.40315 0.0273383
806600 60.2424 182.62 55.7198 0.40325 0.0652377
806800 60.2424 182.633 55.7198 0.40335 0.0854442
807000 60.2424 182.646 55.7198 0.40345 0.0792027
807200 60.2424 182.659 55.7198 0.40355 0.115052
807400 60.2424 182.672 55.7198 0.40365 0.123084
807600 60.2424 182.685 55.7198 0.40375 0.10037
807800 60.2424 182.698 55.7198 0.40385 0.0845712
808000 60.2424 182.711 55.7198 0.40395 0.0652837
808200 60.2424 182.724 55.7198 0.40405 -0.00234014
808400 60.2424 182.737 55.7198 0.40415 -0.0202831
808600 60.2424 182.75 55.7198 0.40425 -0.0567322
808800 60.2424 182.763 55.7198 0.40435 -0.0933743
809000 60.2424 182.776 55.7198 0.40445 -0.10578
809200 60.2424 182.789 55.7198 0.40455 -0.0854128
809400 60.2424 182.802 55.7198 0.40465 -0.110803
809600 60.2424 182.815 55.7198 0.40475 -0.0836303
809800 60.2424 182.828 55.7198 0.40485 -0.0765141
810000 60.2424 182.841 55.7198 0.40495 -0.0577954
810200 60.2424 182.854 55.7198 0.40505 -0.013676
810400 60.2424 182.867 55.7198 0.40515 0.0252564
810600 60.2424 182.88 55.7198 0.40525 0.0787301
810800 60.2424 182.893 55.7198 0.40535 0.0983882
811000 60.2424 182.906 55.7198 0.40545 0.104821
811200 60.2424 182.919 55.7198 0.40555 0.0917046
811400 60.2424 182.932 55.7198 0.40565 0.108638
811600 60.2424 182.945 55.7198 0.40575 0.0970841
811800 60.2424 182.958 55.7198 0.40585 0.0755158
812000 60.2424 182.971 55.7198 0.40595 0.0278369
812200 60.2424 182.984 55.7198 0.40605 0.0136698
812400 60.2424 182.997 55.7198 0.40615 -0.0403549
812600 60.2424 183.01 55.7198 0.40625 -0.0859516
812800 60.2424 183.023 55.7198 0.40635 -0.0890965
813000 60.2424 183.036 55.7198 0.40645 -0.105529
813200 60.2424 183.049 55.7198 0.40655 -0.0884812
813400 60.2424 183.062 55.7198 0.40665 -0.104856
813600 60.2424 183.075 55.7198 0.40675 -0.0859918
813800 60.2424 183.088 55.7198 0.40685 -0.058927
814000 60.2424 183.101 55.7198 0.40695 -0.0443567
814200 60.2424 183.114 55.7198 0.40705 0.020615
814400 60.2424 183.127 55.7198 0.40715 0.0473512
814600 60.2424 183.14 55.7198 0.40725 0.085201
814800 60.2424 183.153 55.7198 0.40735 0.0952905
815000 60.2424 183.166 55.7198 0.40745 0.103658
815200 60.2424 183.179 55.7198 0.40755 0.115763
815400 60.2424 183.192 55.7198 0.40765 0.120542
815600 60.2424 183.205 55.7198 0.40775 0.0729612
815800 60.2424 183.218 55.7198 0.40785 0.0676742
816000 60.2424 183.231 55.7198 0.40795 0.00056038
816200 60.2424 183.244 55.7198 0.40805 -0.0267651
816400 60.2424 183.257 55.7198 0.40815 -0.0562834
816600 60.2424 183.27 55.7198 0.40825 -0.0954332
816800 60.2424 183.283 55.7198 0.40835 -0.0761722
817000 60.2424 183.296 55.7198 0.40845 -0.117462
817200 60.2424 183.309 55.7198 0.40855 -0.104068
817400 60.2424 183.322 55.7198 0.40865 -0.0830126
817600 60.2424 183.335 55.7198 0.40875 -0.0986826
817800 60.2424 183.348 55.7198 0.40885 -0.0467127
818000 60.2424 183.361 55.7198 0.40895 -0.00529499
818200 60.2424 183.374 55.7198 0.40905 0.0423992
818400 60.2424 183.387 55.7198 0.40915 0.0592713
818600 60.2424 183.401 55.7198 0.40925 0.117336
818800 60.2424 183.414 55.7198 0.40935 0.100835
819000 60.2424 183.427 55.7198 0.40945 0.111864
819200 60.2424 183.44 55.7198 0.40955 0.0952991
819400 60.2424 183.453 55.7198 0.40965 0.0784214
819600 60.2424 183.466 55.7198 0.40975 0.090568
819800 60.2424 183.479 55.7198 0.40985 0.0403091
820000 60.2424 183.492 55.7198 0.40995 -0.00332512
820200 60.2424 183.505 55.7198 0.41005 -0.0387599
820400 60.2424 183.518 55.7198 0.41015 -0.0720881
820600 60.2424 183.531 55.7198 0.41025 -0.112256
820800 60.2424 183.544 55.7198 0.41035 -0.102661
821000 60.2424 183.557 55.7198 0.41045 -0.099357
821200 60.2424 183.57 55.7198 0.41055 -0.1043
821400 60.2424 183.583 55.7198 0.41065 -0.0919564
821600 60.2424 183.596 55.7198 0.41075 -0.0547036
821800 60.2424 183.609 55.7198 0.41085 -0.0350183
822000 60.2424 183.622 55.7198 0.41095 0.0119406
822200 60.2424 183.635 55.7198 0.41105 0.0450691
822400 60.2424 183.648 55.7198 0.41115 0.0769125
822600 60.2424 183.661 55.7198 0.41125 0.126293
822800 60.2424 183.674 55.7198 0.41135 0.134112
823000 60.2424 183.687 55.7198 0.41145 0.109705
823200 60.2424 183.7 55.7198 0.41155 0.090857
823400 60.2424 183.713 55.7198 0.41165 0.0633286
823600 60.2424 183.726 55.7198 0.41175 0.0547061
823800 60.2424 183.739 55.7198 0.41185 0.018924
824000 60.2424 183.752 55.7198 0.41195 -0.0137594
824200 60.2424 183.765 55.7198 0.41205 -0.0490621
824400 60.2424 183.778 55.7198 0.41215 -0.117493
824600 60.2424 183.791 55.7198 0.41225 -0.0985471
824800 60.2424 183.804 55.7198 0.41235 -0.126515
825000 60.2424 183.817 55.7198 0.41245 -0.0924767
825200 60.2424 183.83 55.7198 0.41255 -0.0720573
825400 60.2424 183.843 55.7198 0.41265 -0.0735217
825600 60.2424 183.856 55.7198 0.41275 -0.0281825
825800 60.2424 183.869 55.7198 0.41285 -0.0099895
826000 60.2424 183.882 55.7198 0.41295 0.0195141
826200 60.2424 183.895 55.7198 0.41305 0.0725035
826400 60.2424 183.908 55.7198 0.41315 0.0946223
826600 60.2424 183.921 55.7198 0.41325 0.0846362
826800 60.2424 183.934 55.7198 0.41335 0.154748
827000 60.2424 183.947 55.7198 0.41345 0.0877895
827200 60.2424 183.96 55.7198 0.41355 0.073746
827400 60.2424 183.973 55.7198 0.41365 0.0593131
827600 60.2424 183.986 55.7198 0.41375 0.044536
827800 60.2424 183.999 55.7198 0.41385 -0.00148657
828000 60.2424 184.012 55.7198 0.41395 -0.0502385
828200 60.2424 184.025 55.7198 0.41405 -0.0817883
828400 60.2424 184.038 55.7198 0.41415 -0.0755193
828600 60.2424 184.051 55.7198 0.41425 -0.108831
828800 60.2424 184.064 55.7198 0.41435 -0.102461
829000 60.2424 184.077 55.7198 0.41445 -0.0831584
829200 60.2424 184.09 55.7198 0.41455 -0.0804634
829400 60.2424 184.103 55.7198 0.41465 -0.0788268
829600 60.2424 184.116 55.7198 0.41475 -0.0181924
829800 60.2424 184.129 55.7198 0.41485 0.0365672
830000 60.2424 184.142 55.7198 0.41495 0.0556822
830200 60.2424 184.155 55.7198 0.41505 0.0738025
830400 60.2424 184.168 55.7198 0.41515 0.0854005
830600 60.2424 184.181 55.7198 0.41525 0.0844682
830800 60.2424 184.194 55.7198 0.41535 0.102659
831000 60.2424 184.207 55.7198 0.41545 0.104757
831200 60.2424 184.22 55.7198 0.41555 0.0915807
831400 60.2424 184.233 55.7198 0.41565 0.0484631
831600 60.2424 184.246 55.7198 0.41575 0.0168676
831800 60.2424 184.259 55.7198 0.41585 -0.046807
832000 60.2424 184.272 55.7198 0.41595 -0.0861643
832200 60.2424 184.285 55.7198 0.41605 -0.0772793
832400 60.2424 184.298 55.7198 0.41615 -0.0829554
832600 60.2424 184.311 55.7198 0.41625 -0.0798138
832800 60.2424 184.325 55.7198 0.41635 -0.0809663
833000 60.2424 184.338 55.7198 0.41645 -0.0633024
833200 60.2424 184.351 55.7198 0.41655 -0.0820938
833400 60.2424 184.364 55.7198 0.41665 -0.0372182
833600 60.2424 184.377 55.7198 0.41675 -0.0212204
833800 60.2424 184.39 55.7198 0.41685 0.0364503
834000 60.2424 184.403 55.7198 0.41695 0.0807383
834200 60.2424 184.416 55.7198 0.41705 0.0877806
834400 60.2424 184.429 55.7198 0.41715 0.0906012
834600 60.2424 184.442 55.7198 0.41725 0.0916861
834800 60.2424 184.455 55.7198 0.41735 0.0853718
835000 60.2424 184.468 55.7198 0.41745 0.0690264
835200 60.2424 184.481 55.7198 0.41755 0.0600968
835400 60.2424 184.494 55.7198 0.41765 0.0440573
835600 60.2424 184.507 55.7198 0.41775 0.0133733
835800 60.2424 184.52 55.7198 0.41785 -0.0437807
836000 60.2424 184.533 55.7198 0.41795 -0.055933
836200 60.2424 184.546 55.7198 0.41805 -0.102116
836400 60.2424 184.559 55.7198 0.41815 -0.116844
836600 60.2424 184.572 55.7198 0.41825 -0.082381
836800 60.2424 184.585 55.7198 0.41835 -0.0871488
837000 60.2424 184.598 55.7198 0.41845 -0.0554514
837200 60.2424 184.611 55.7198 0.41855 -0.055287
837400 60.2424 184.624 55.7198 0.41865 -0.0281936
837600 60.2424 184.637 55.7198 0.41875 0.0142563
837800 60.2424 184.65 55.7198 0.41885 0.04975
838000 60.2424 184.663 55.7198 0.41895 0.0855192
838200 60.2424 184.676 55.7198 0.41905 0.0727443
838400 60.2424 184.689 55.7198 0.41915 0.0829098
838600 60.2424 184.702 55.7198 0.41925 0.132487
838800 60.2424 184.715 55.7198 0.41935 0.087062
839000 60.2424 184.728 55.7198 0.41945 0.072841
839200 60.2424 184.741 55.7198 0.41955 0.0394297
839400 60.2424 184.754 55.7198 0.41965 0.000330682
839600 60.2424 184.767 55.7198 0.41975 -0.0376003
839800 60.2424 184.78 55.7198 0.41985 -0.0643621
840000 60.2424 184.793 55.7198 0.41995 -0.064761
840200 60.2424 184.806 55.7198 0.42005 -0.0798003
840400 60.2424 184.819 55.7198 0.42015 -0.084058
840600 60.2424 184.832 55.7198 0.42025 -0.086355
840800 60.2424 184.845 55.7198 0.42035 -0.0956675
841000 60.2424 184.858 55.7198 0.42045 -0.0841449
841200 60.2424 184.871 55.7198 0.42055 -0.0256885
841400 60.2424 184.884 55.7198 0.42065 0.00134437
841600 60.2424 184.897 55.7198 0.42075 0.0477645
841800 60.2424 184.91 55.7198 0.42085 0.0628249
842000 60.2424 184.923 55.7198 0.42095 0.0858477
842200 60.2424 184.936 55.7198 0.42105 0.0948427
842400 60.2424 184.949 55.7198 0.42115 0.0974614
842600 60.2424 184.962 55.7198 0.42125 0.0774499
842800 60.2424 184.975 55.7198 0.42135 0.0813665
843000 60.2424 184.988 55.7198 0.42145 0.078219
843200 60.2424 185.001 55.7198 0.42155 0.0266837
843400 60.2424 185.014 55.7198 0.42165 0.000681518
843600 60.2424 185.027 55.7198 0.42175 -0.0517253
843800 60.2424 185.04 55.7198 0.42185 -0.0582689
844000 60.2424 185.053 55.7198 0.42195 -0.0986796
844200 60.2424 185.066 55.7198 0.42205 -0.102358
844400 60.2424 185.079 55.7198 0.42215 -0.091575
844600 60.2424 185.092 55.7198 0.42225 -0.0708761
844800 60.2424 185.105 55.7198 0.42235 -0.0791875
845000 60.2424 185.118 55.7198 0.42245 -0.0577632
845200 60.2424 185.131 55.7198 0.42255 -0.0330035
845400 60.2424 185.144 55.7198 0.42265 0.00242136
845600 60.2424 185.157 55.7198 0.42275 0.0586432
845800 60.2424 185.17 55.7198 0.42285 0.0876886
846000 60.2424 185.183 55.7198 0.42295 0.114227
846200 60.2424 185.196 55.7198 0.42305 0.123324
846400 60.2424 185.209 55.7198 0.42315 0.0702323
846600 60.2424 185.222 55.7198 0.42325 0.0689584
846800 60.2424 185.235 55.7198 0.42335 0.0546729
847000 60.2424 185.249 55.7198 0.42345 0.0517959
847200 60.2424 185.262 55.7198 0.42355 0.0179756
847400 60.2424 185.275 55.7198 0.42365 0.00868361
847600 60.2424 185.288 55.7198 0.42375 -0.0398809
847800 60.2424 185.301 55.7198 0.42385 -0.0893333
848000 60.2424 185.314 55.7198 0.42395 -0.12001
848200 60.2424 185.327 55.7198 0.42405 -0.122452
848400 60.2424 185.34 55.7198 0.42415 -0.104856
848600 60.2424 185.353 55.7198 0.42425 -0.0658086
848800 60.2424 185.366 55.7198 0.42435 -0.0524136
849000 60.2424 185.379 55.7198 0.42445 -0.0236479
849200 60.2424 185.392 55.7198 0.42455 -0.00433082
849400 60.2424 185.405 55.7198 0.42465 0.0237085
849600 60.2424 185.418 55.7198 0.42475 0.0502528
849800 60.2424 185.431 55.7198 0.42485 0.0718402
850000 60.2424 185.444 55.7198 0.42495 0.112582
850200 60.2424 185.457 55.7198 0.42505 0.139192
850400 60.2424 185.47 55.7198 0.42515 0.135118
850600 60.2424 185.483 55.7198 0.42525 0.0856405
850800 60.2424 185.496 55.7198 0.42535 0.0263411
851000 60.2424 185.509 55.7198 0.42545 -0.0087376
851200 60.2424 185.522 55.7198 0.42555 -0.0227988
851400 60.2424 185.535 55.7198 0.42565 -0.0163292
851600 60.2424 185.548 55.7198 0.42575 -0.0691362
851800 60.2424 185.561 55.7198 0.42585 -0.0560028
852000 60.2424 185.574 55.7198 0.42595 -0.083613
852200 60.2424 185.587 55.7198 0.42605 -0.128235
852400 60.2424 185.6 55.7198 0.42615 -0.130412
852600 60.2424 185.613 55.7198 0.42625 -0.093015
852800 60.2424 185.626 55.7198 0.42635 -0.0577203
853000 60.2424 185.639 55.7198 0.42645 -0.000373958
853200 60.2424 185.652 55.7198 0.42655 0.0376023
853400 60.2424 185.665 55.7198 0.42665 0.0605774
853600 60.2424 185.678 55.7198 0.42675 0.0804602
853800 60.2424 185.691 55.7198 0.42685 0.0923982
854000 60.2424 185.704 55.7198 0.42695 0.0944514
854200 60.2424 185.717 55.7198 0.42705 0.102496
854400 60.2424 185.73 55.7198 0.42715 0.107594
854600 60.2424 185.743 55.7198 0.42725 0.0930173
854800 60.2424 185.756 55.7198 0.42735 0.0595808
855000 60.2424 185.769 55.7198 0.42745 0.0116587
855200 60.2424 185.782 55.7198 0.42755 -0.0477103
855400 60.2424 185.795 55.7198 0.42765 -0.0758729
855600 60.2424 185.808 55.7198 0.42775 -0.077268
855800 60.2424 185.821 55.7198 0.42785 -0.103655
856000 60.2424 185.834 55.7198 0.42795 -0.0932522
856200 60.2424 185.847 55.7198 0.42805 -0.0976849
856400 60.2424 185.86 55.7198 0.42815 -0.0895914
856600 60.2424 185.873 55.7198 0.42825 -0.0664109
856800 60.2424 185.886 55.7198 0.42835 -0.0504985
857000 60.2424 185.899 55.7198 0.42845 -0.00229917
857200 60.2424 185.912 55.7198 0.42855 0.0391651
857400 60.2424 185.925 55.7198 0.42865 0.063167
857600 60.2424 185.938 55.7198 0.42875 0.0951088
857800 60.2424 185.951 55.7198 0.42885 0.10148
858000 60.2424 185.964 55.7198 0.42895 0.092341
858200 60.2424 185.977 55.7198 0.42905 0.113306
858400 60.2424 185.99 55.7198 0.42915 0.0920478
858600 60.2424 186.003 55.7198 0.42925 0.0611811
858800 60.2424 186.016 55.7198 0.42935 0.0250164
859000 60.2424 186.029 55.7198 0.42945 0.00782223
859200 60.2424 186.042 55.7198 0.42955 -0.0220975
859400 60.2424 186.055 55.7198 0.42965 -0.0748365
859600 60.2424 186.068 55.7198 0.42975 -0.102343
859800 60.2424 186.081 55.7198 0.42985 -0.115617
860000 60.2424 186.094 55.7198 0.42995 -0.0839927
860200 60.2424 186.107 55.7198 0.43005 -0.11001
860400 60.2424 186.12 55.7198 0.43015 -0.0794181
860600 60.2424 186.133 55.7198 0.43025 -0.0476504
860800 60.2424 186.146 55.7198 0.43035 -0.0124685
861000 60.2424 186.159 55.7198 0.43045 0.00083859
861200 60.2424 186.173 55.7198 0.43055 0.0355166
861400 60.2424 186.186 55.7198 0.43065 0.0909762
861600 60.2424 186.199 55.7198 0.43075 0.0958502
861800 60.2424 186.212 55.7198 0.43085 0.10886
862000 60.2424 186.225 55.7198 0.43095 0.102263
862200 60.2424 186.238 55.7198 0.43105 0.10422
862400 60.2424 186.251 55.7198 0.43115 0.0706575
862600 60.2424 186.264 55.7198 0.43125 0.0374315
862800 60.2424 186.277 55.7198 0.43135 0.0084232
863000 60.2424 186.29 55.7198 0.43145 -0.0246086
863200 60.2424 186.303 55.7198 0.43155 -0.0505337
863400 60.2424 186.316 55.7198 0.43165 -0.0937632
863600 60.2424 186.329 55.7198 0.43175 -0.0878784
863800 60.2424 186.342 55.7198 0.43185 -0.0967767
864000 60.2424 186.355 55.7198 0.43195 -0.092899
864200 60.2424 186.368 55.7198 0.43205 -0.0714721
864400 60.2424 186.381 55.7198 0.43215 -0.0552289
864600 60.2424 186.394 55.7198 0.43225 -0.0398367
864800 60.2424 186.407 55.7198 0.43235 0.00986113
865000 60.2424 186.42 55.7198 0.43245 0.0191632
865200 60.2424 186.433 55.7198 0.43255 0.0597971
865400 60.2424 186.446 55.7198 0.43265 0.0903738
865600 60.2424 186.459 55.7198 0.43275 0.0798779
865800 60.2424 186.472 55.7198 0.43285 0.10463
866000 60.2424 186.485 55.7198 0.43295 0.0918253
866200 60.2424 186.498 55.7198 0.43305 0.0701159
866400 60.2424 186.511 55.7198 0.43315 0.0511442
866600 60.2424 186.524 55.7198 0.43325 0.0268591
866800 60.2424 186.537 55.7198 0.43335 -0.00487218
867000 60.2424 186.55 55.7198 0.43345 -0.0452024
867200 60.2424 186.563 55.7198 0.43355 -0.0858107
867400 60.2424 186.576 55.7198 0.43365 -0.0604292
867600 60.2424 186.589 55.7198 0.43375 -0.094864
867800 60.2424 186.602 55.7198 0.43385 -0.0814525
868000 60.2424 186.615 55.7198 0.43395 -0.0699707
868200 60.2424 186.628 55.7198 0.43405 -0.06791
868400 60.2424 186.641 55.7198 0.43415 -0.0465261
868600 60.2424 186.654 55.7198 0.43425 -0.0102473
868800 60.2424 186.667 55.7198 0.43435 0.0159887
869000 60.2424 186.68 55.7198 0.43445 0.0487848
869200 60.2424 186.693 55.7198 0.43455 0.0721208
869400 60.2424 186.706 55.7198 0.43465 0.0852402
869600 60.2424 186.719 55.7198 0.43475 0.087444
869800 60.2424 186.732 55.7198 0.43485 0.0895207
870000 60.2424 186.745 55.7198 0.43495 0.0825945
870200 60.2424 186.758 55.7198 0.43505 0.0509852
870400 60.2424 186.771 55.7198 0.43515 0.0398185
870600 60.2424 186.784 55.7198 0.43525 -0.00310971
870800 60.2424 186.797 55.7198 0.43535 -0.00899606
871000 60.2424 186.81 55.7198 0.43545 -0.0586228
871200 60.2424 186.823 55.7198 0.43555 -0.0798401
871400 60.2424 186.836 55.7198 0.43565 -0.0779364
871600 60.2424 186.849 55.7198 0.43575 -0.0821395
871800 60.2424 186.862 55.7198 0.43585 -0.0880564
872000 60.2424 186.875 55.7198 0.43595 -0.0609997
872200 60.2424 186.888 55.7198 0.43605 -0.0593844
872400 60.2424 186.901 55.7198 0.43615 -0.0240206
872600 60.2424 186.914 55.7198 0.43625 0.0129892
872800 60.2424 186.927 55.7198 0.43635 0.0117669
873000 60.2424 186.94 55.7198 0.43645 0.0579447
873200 60.2424 186.953 55.7198 0.43655 0.0948127
873400 60.2424 186.966 55.7198 0.43665 0.0977881
873600 60.2424 186.979 55.7198 0.43675 0.0853991
873800 60.2424 186.992 55.7198 0.43685 0.0700293
874000 60.2424 187.005 55.7198 0.43695 0.0698612
874200 60.2424 187.018 55.7198 0.43705 0.0519364
874400 60.2424 187.031 55.7198 0.43715 0.0104434
874600 60.2424 187.044 55.7198 0.43725 0.00522635
874800 60.2424 187.057 55.7198 0.43735 -0.0383071
875000 60.2424 187.07 55.7198 0.43745 -0.0726364
875200 60.2424 187.083 55.7198 0.43755 -0.0613336
875400 60.2424 187.097 55.7198 0.43765 -0.0980234
875600 60.2424 187.11 55.7198 0.43775 -0.0941844
875800 60.2424 187.123 55.7198 0.43785 -0.0690667
876000 60.2424 187.136 55.7198 0.43795 -0.0568911
876200 60.2424 187.149 55.7198 0.43805 -0.0499051
876400 60.2424 187.162 55.7198 0.43815 -0.00785749
876600 60.2424 187.175 55.7198 0.43825 0.00355352
876800 60.2424 187.188 55.7198 0.43835 0.0525691
877000 60.2424 187.201 55.7198 0.43845 0.0801314
877200 60.2424 187.214 55.7198 0.43855 0.0874079
877400 60.2424 187.227 55.7198 0.43865 0.0836098
877600 60.2424 187.24 55.7198 0.43875 0.0950078
877800 60.2424 187.253 55.7198 0.43885 0.0641284
878000 60.2424 187.266 55.7198 0.43895 0.0606876
878200 60.2424 187.279 55.7198 0.43905 0.0149215
878400 60.2424 187.292 55.7198 0.43915 0.0418101
878600 60.2424 187.305 55.7198 0.43925 -0.0108378
878800 60.2424 187.318 55.7198 0.43935 -0.0518126
879000 60.2424 187.331 55.7198 0.43945 -0.0855696
879200 60.2424 187.344 55.7198 0.43955 -0.0985443
879400 60.2424 187.357 55.7198 0.43965 -0.0876971
879600 60.2424 187.37 55.7198 0.43975 -0.0862445
879800 60.2424 187.383 55.7198 0.43985 -0.0585497
880000 60.2424 187.396 55.7198 0.43995 -0.036763
880200 60.2424 187.409 55.7198 0.44005 -0.0279966
880400 60.2424 187.422 55.7198 0.44015 -0.00130373
880600 60.2424 187.435 55.7198 0.44025 0.0225629
880800 60.2424 187.448 55.7198 0.44035 0.0392663
881000 60.2424 187.461 55.7198 0.44045 0.0987318
881200 60.2424 187.474 55.7198 0.44055 0.0948125
881400 60.2424 187.487 55.7198 0.44065 0.0954038
881600 60.2424 187.5 55.7198 0.44075 0.0846764
881800 60.2424 187.513 55.7198 0.44085 0.0559968
882000 60.2424 187.526 55.7198 0.44095 0.0535516
882200 60.2424 187.539 55.7198 0.44105 0.00187295
882400 60.2424 187.552 55.7198 0.44115 -0.0126019
882600 60.2424 187.565 55.7198 0.44125 -0.0467428
882800 60.2424 187.578 55.7198 0.44135 -0.0610371
883000 60.2424 187.591 55.7198 0.44145 -0.0571828
883200 60.2424 187.604 55.7198 0.44155 -0.0920596
883400 60.2424 187.617 55.7198 0.44165 -0.0904689
883600 60.2424 187.63 55.7198 0.44175 -0.0701562
883800 60.2424 187.643 55.7198 0.44185 -0.0620857
884000 60.2424 187.656 55.7198 0.44195 -0.0319431
884200 60.2424 187.669 55.7198 0.44205 -0.00462851
884400 60.2424 187.682 55.7198 0.44215 0.0309823
884600 60.2424 187.695 55.7198 0.44225 0.050559
884800 60.2424 187.708 55.7198 0.44235 0.0667804
885000 60.2424 187.721 55.7198 0.44245 0.0605019
885200 60.2424 187.734 55.7198 0.44255 0.0995786
885400 60.2424 187.747 55.7198 0.44265 0.103919
885600 60.2424 187.76 55.7198 0.44275 0.0724517
885800 60.2424 187.773 55.7198 0.44285 0.0573475
886000 60.2424 187.786 55.7198 0.44295 0.00182784
886200 60.2424 187.799 55.7198 0.44305 -0.00296293
886400 60.2424 187.812 55.7198 0.44315 -0.0383479
886600 60.2424 187.825 55.7198 0.44325 -0.0453454
886800 60.2424 187.838 55.7198 0.44335 -0.0563907
887000 60.2424 187.851 55.7198 0.44345 -0.0829523
887200 60.2424 187.864 55.7198 0.44355 -0.0793205
887400 60.2424 187.877 55.7198 0.44365 -0.0887086
887600 60.2424 187.89 55.7198 0.44375 -0.0697013
887800 60.2424 187.903 55.7198 0.44385 -0.0444623
888000 60.2424 187.916 55.7198 0.44395 -0.0103812
888200 60.2424 187.929 55.7198 0.44405 0.0214344
888400 60.2424 187.942 55.7198 0.44415 0.0369345
888600 60.2424 187.955 55.7198 0.44425 0.0776916
888800 60.2424 187.968 55.7198 0.44435 0.054534
889000 60.2424 187.981 55.7198 0.44445 0.0762409
889200 60.2424 187.994 55.7198 0.44455 0.0849058
889400 60.2424 188.007 55.7198 0.44465 0.0823772
889600 60.2424 188.021 55.7198 0.44475 0.0582298
889800 60.2424 188.034 55.7198 0.44485 0.0347542
890000 60.2424 188.047 55.7198 0.44495 0.0185578
890200 60.2424 188.06 55.7198 0.44505 -0.0174556
890400 60.2424 188.073 55.7198 0.44515 -0.0465961
890600 60.2424 188.086 55.7198 0.44525 -0.0645499
890800 60.2424 188.099 55.7198 0.44535 -0.0620214
891000 60.2424 188.112 55.7198 0.44545 -0.0841838
891200 60.2424 188.125 55.7198 0.44555 -0.0842706
891400 60.2424 188.138 55.7198 0.44565 -0.0711318
891600 60.2424 188.151 55.7198 0.44575 -0.0363176
891800 60.2424 188.164 55.7198 0.44585 -0.0228577
892000 60.2424 188.177 55.7198 0.44595 -0.0153921
892200 60.2424 188.19 55.7198 0.44605 0.0467348
892400 60.2424 188.203 55.7198 0.44615 0.0347437
892600 60.2424 188.216 55.7198 0.44625 0.0673286
892800 60.2424 188.229 55.7198 0.44635 0.0608574
893000 60.2424 188.242 55.7198 0.44645 0.0923093
893200 60.2424 188.255 55.7198 0.44655 0.0713298
893400 60.2424 188.268 55.7198 0.44665 0.0630918
893600 60.2424 188.281 55.7198 0.44675 0.0421716
893800 60.2424 188.294 55.7198 0.44685 0.0181888
894000 60.2424 188.307 55.7198 0.44695 3.41272e-05
894200 60.2424 188.32 55.7198 0.44705 -0.0215914
894400 60.2424 188.333 55.7198 0.44715 -0.0436767
894600 60.2424 188.346 55.7198 0.44725 -0.0543475
894800 60.2424 188.359 55.7198 0.44735 -0.068113
895000 60.2424 188.372 55.7198 0.44745 -0.076545
895200 60.2424 188.385 55.7198 0.44755 -0.0991998
895400 60.2424 188.398 55.7198 0.44765 -0.0682745
895600 60.2424 188.411 55.7198 0.44775 -0.0249773
895800 60.2424 188.424 55.7198 0.44785 -0.0119014
896000 60.2424 188.437 55.7198 0.44795 0.00857411
896200 60.2424 188.45 55.7198 0.44805 0.039246
896400 60.2424 188.463 55.7198 0.44815 0.0369114
896600 60.2424 188.476 55.7198 0.44825 0.0668869
896800 60.2424 188.489 55.7198 0.44835 0.0781597
897000 60.2424 188.502 55.7198 0.44845 0.0773549
897200 60.2424 188.515 55.7198 0.44855 0.0946204
897400 60.2424 188.528 55.7198 0.44865 0.0640395
897600 60.2424 188.541 55.7198 0.44875 0.0381709
897800 60.2424 188.554 55.7198 0.44885 0.00184486
898000 60.2424 188.567 55.7198 0.44895 -0.014484
898200 60.2424 188.58 55.7198 0.44905 -0.0327548
898400 60.2424 188.593 55.7198 0.44915 -0.0430137
898600 60.2424 188.606 55.7198 0.44925 -0.0651419
898800 60.2424 188.619 55.7198 0.44935 -0.0813431
899000 60.2424 188.632 55.7198 0.44945 -0.0667999
899200 60.2424 188.645 55.7198 0.44955 -0.0891716
899400 60.2424 188.658 55.7198 0.44965 -0.0579848
899600 60.2424 188.671 55.7198 0.44975 -0.0439912
899800 60.2424 188.684 55.7198 0.44985 -0.0101963
900000 60.2424 188.697 55.7198 0.44995 0.030086
900200 60.2424 188.71 55.7198 0.45005 0.0339778
900400 60.2424 188.723 55.7198 0.45015 0.0598854
900600 60.2424 188.736 55.7198 0.45025 0.0899323
900800 60.2424 188.749 55.7198 0.45035 0.0718171
901000 60.2424 188.762 55.7198 0.45045 0.0710325
901200 60.2424 188.775 55.7198 0.45055 0.0849687
901400 60.2424 188.788 55.7198 0.45065 0.0824441
901600 60.2424 188.801 55.7198 0.45075 0.0158604
901800 60.2424 188.814 55.7198 0.45085 0.0178862
902000 60.2424 188.827 55.7198 0.45095 -0.0261397
902200 60.2424 188.84 55.7198 0.45105 -0.0413281
902400 60.2424 188.853 55.7198 0.45115 -0.0702852
902600 60.2424 188.866 55.7198 0.45125 -0.0837087
902800 60.2424 188.879 55.7198 0.45135 -0.0819646
903000 60.2424 188.892 55.7198 0.45145 -0.0835755
903200 60.2424 188.905 55.7198 0.45155 -0.0619542
903400 60.2424 188.918 55.7198 0.45165 -0.0571779
903600 60.2424 188.931 55.7198 0.45175 -0.0100834
903800 60.2424 188.944 55.7198 0.45185 -0.00555534
904000 60.2424 188.958 55.7198 0.45195 0.032065
904200 60.2424 188.971 55.7198 0.45205 0.0642103
904400 60.2424 188.984 55.7198 0.45215 0.0542821
904600 60.2424 188.997 55.7198 0.45225 0.083251
904800 60.2424 189.01 55.7198 0.45235 0.0854372
905000 60.2424 189.023 55.7198 0.45245 0.0674512
905200 60.2424 189.036 55.7198 0.45255 0.0692917
905400 60.2424 189.049 55.7198 0.45265 0.0342257
905600 60.2424 189.062 55.7198 0.45275 0.0263203
905800 60.2424 189.075 55.7198 0.45285 -0.0101062
906000 60.2424 189.088 55.7198 0.45295 -0.0287441
906200 60.2424 189.101 55.7198 0.45305 -0.0521822
906400 60.2424 189.114 55.7198 0.45315 -0.0766692
906600 60.2424 189.127 55.7198 0.45325 -0.0677988
906800 60.2424 189.14 55.7198 0.45335 -0.0672963
907000 60.2424 189.153 55.7198 0.45345 -0.0509724
907200 60.2424 189.166 55.7198 0.45355 -0.0540498
907400 60.2424 189.179 55.7198 0.45365 -0.0568171
907600 60.2424 189.192 55.7198 0.45375 -0.0135025
907800 60.2424 189.205 55.7198 0.45385 0.0205367
908000 60.2424 189.218 55.7198 0.45395 0.0322759
908200 60.2424 189.231 55.7198 0.45405 0.0594221
908400 60.2424 189.244 55.7198 0.45415 0.0731917
908600 60.2424 189.257 55.7198 0.45425 0.0696609
908800 60.2424 189.27 55.7198 0.45435 0.0832872
909000 60.2424 189.283 55.7198 0.45445 0.0578481
909200 60.2424 189.296 55.7198 0.45455 0.0430154
909400 60.2424 189.309 55.7198 0.45465 0.0383281
909600 60.2424 189.322 55.7198 0.45475 0.007364
909800 60.2424 189.335 55.7198 0.45485 -0.0201418
910000 60.2424 189.348 55.7198 0.45495 -0.00968351
910200 60.2424 189.361 55.7198 0.45505 -0.0751582
910400 60.2424 189.374 55.7198 0.45515 -0.0768709
910600 60.2424 189.387 55.7198 0.45525 -0.0695682
910800 60.2424 189.4 55.7198 0.45535 -0.0663893
911000 60.2424 189.413 55.7198 0.45545 -0.0612834
911200 60.2424 189.426 55.7198 0.45555 -0.0263306
911400 60.2424 189.439 55.7198 0.45565 -0.0268012
911600 60.2424 189.452 55.7198 0.45575 -0.00651665
911800 60.2424 189.465 55.7198 0.45585 0.00935195
912000 60.2424 189.478 55.7198 0.45595 0.029254
912200 60.2424 189.491 55.7198 0.45605 0.0471321
912400 60.2424 189.504 55.7198 0.45615 0.0894634
912600 60.2424 189.517 55.7198 0.45625 0.0776617
912800 60.2424 189.53 55.7198 0.45635 0.0802582
913000 60.2424 189.543 55.7198 0.45645 0.061875
913200 60.2424 189.556 55.7198 0.45655 0.0410968
913400 60.2424 189.569 55.7198 0.45665 0.0271433
913600 60.2424 189.582 55.7198 0.45675 -0.0108758
913800 60.2424 189.595 55.7198 0.45685 -0.013223
914000 60.2424 189.608 55.7198 0.45695 -0.0503764
914200 60.2424 189.621 55.7198 0.45705 -0.0477078
914400 60.2424 189.634 55.7198 0.45715 -0.0766275
914600 60.2424 189.647 55.7198 0.45725 -0.0705445
914800 60.2424 189.66 55.7198 0.45735 -0.0774191
915000 60.2424 189.673 55.7198 0.45745 -0.0648632
915200 60.2424 189.686 55.7198 0.45755 -0.0298837
915400 60.2424 189.699 55.7198 0.45765 -0.00897006
915600 60.2424 189.712 55.7198 0.45775 0.0178261
915800 60.2424 189.725 55.7198 0.45785 0.0289828
916000 60.2424 189.738 55.7198 0.45795 0.0471886
916200 60.2424 189.751 55.7198 0.45805 0.0557297
916400 60.2424 189.764 55.7198 0.45815 0.0909278
916600 60.2424 189.777 55.7198 0.45825 0.0721807
916800 60.2424 189.79 55.7198 0.45835 0.069911
917000 60.2424 189.803 55.7198 0.45845 0.0622909
917200 60.2424 189.816 55.7198 0.45855 0.0310437
917400 60.2424 189.829 55.7198 0.45865 0.00156349
917600 60.2424 189.842 55.7198 0.45875 -0.0233839
917800 60.2424 189.855 55.7198 0.45885 -0.0334403
918000 60.2424 189.868 55.7198 0.45895 -0.0612499
918200 60.2424 189.882 55.7198 0.45905 -0.0559584
918400 60.2424 189.895 55.7198 0.45915 -0.0669312
918600 60.2424 189.908 55.7198 0.45925 -0.0631674
918800 60.2424 189.921 55.7198 0.45935 -0.0545241
919000 60.2424 189.934 55.7198 0.45945 -0.0756948
919200 60.2424 189.947 55.7198 0.45955 -0.0273346
919400 60.2424 189.96 55.7198 0.45965 0.0057098
919600 60.2424 189.973 55.7198 0.45975 0.020637
919800 60.2424 189.986 55.7198 0.45985 0.0588847
920000 60.2424 189.999 55.7198 0.45995 0.0494396
920200 60.2424 190.012 55.7198 0.46005 0.066009
920400 60.2424 190.025 55.7198 0.46015 0.0709112
920600 60.2424 190.038 55.7198 0.46025 0.0625951
920800 60.2424 190.051 55.7198 0.46035 0.0772085
921000 60.2424 190.064 55.7198 0.46045 0.0317676
921200 60.2424 190.077 55.7198 0.46055 0.0335766
921400 60.2424 190.09 55.7198 0.46065 -0.00145236
921600 60.2424 190.103 55.7198 0.46075 -0.0299687
921800 60.2424 190.116 55.7198 0.46085 -0.0470997
922000 60.2424 190.129 55.7198 0.46095 -0.0574286
922200 60.2424 190.142 55.7198 0.46105 -0.0693974
922400 60.2424 190.155 55.7198 0.46115 -0.0576428
922600 60.2424 190.168 55.7198 0.46125 -0.0525509
922800 60.2424 190.181 55.7198 0.46135 -0.0598881
923000 60.2424 190.194 55.7198 0.46145 -0.0318514
923200 60.2424 190.207 55.7198 0.46155 -0.0311681
923400 60.2424 190.22 55.7198 0.46165 0.00231042
923600 60.2424 190.233 55.7198 0.46175 0.0345114
923800 60.2424 190.246 55.7198 0.46185 0.0254229
924000 60.2424 190.259 55.7198 0.46195 0.0641598
924200 60.2424 190.272 55.7198 0.46205 0.105077
924400 60.2424 190.285 55.7198 0.46215 0.0694561
924600 60.2424 190.298 55.7198 0.46225 0.0517811
924800 60.2424 190.311 55.7198 0.46235 0.042973
925000 60.2424 190.324 55.7198 0.46245 0.0318786
925200 60.2424 190.337 55.7198 0.46255 0.0225315
925400 60.2424 190.35 55.7198 0.46265 -0.012839
925600 60.2424 190.363 55.7198 0.46275 -0.0108586
925800 60.2424 190.376 55.7198 0.46285 -0.0343335
926000 60.2424 190.389 55.7198 0.46295 -0.0734961
926200 60.2424 190.402 55.7198 0.46305 -0.0682873
926400 60.2424 190.415 55.7198 0.46315 -0.0704297
926600 60.2424 190.428 55.7198 0.46325 -0.0629821
926800 60.2424 190.441 55.7198 0.46335 -0.0455212
927000 60.2424 190.454 55.7198 0.46345 -0.0184905
927200 60.2424 190.467 55.7198 0.46355 -0.02342
927400 60.2424 190.48 55.7198 0.46365 0.0257883
927600 60.2424 190.493 55.7198 0.46375 0.0122502
927800 60.2424 190.506 55.7198 0.46385 0.0360898
928000 60.2424 190.519 55.7198 0.46395 0.0833142
928200 60.2424 190.532 55.7198 0.46405 0.0664159
928400 60.2424 190.545 55.7198 0.46415 0.0603256
928600 60.2424 190.558 55.7198 0.46425 0.0829763
928800 60.2424 190.571 55.7198 0.46435 0.0643703
929000 60.2424 190.584 55.7198 0.46445 0.0162258
929200 60.2424 190.597 55.7198 0.46455 0.00571761
929400 60.2424 190.61 55.7198 0.46465 -0.0277235
929600 60.2424 190.623 55.7198 0.46475 -0.0264833
929800 60.2424 190.636 55.7198 0.46485 -0.0501781
930000 60.2424 190.649 55.7198 0.46495 -0.0520398
930200 60.2424 190.662 55.7198 0.46505 -0.0731528
930400 60.2424 190.675 55.7198 0.46515 -0.0675056
930600 60.2424 190.688 55.7198 0.46525 -0.0700743
930800 60.2424 190.701 55.7198 0.46535 -0.0435681
931000 60.2424 190.714 55.7198 0.46545 -0.0300857
931200 60.2424 190.727 55.7198 0.46555 0.00870263
931400 60.2424 190.74 55.7198 0.46565 0.0231192
931600 60.2424 190.753 55.7198 0.46575 0.0546965
931800 60.2424 190.766 55.7198 0.46585 0.037817
932000 60.2424 190.779 55.7198 0.46595 0.0746286
932200 60.2424 190.792 55.7198 0.46605 0.0557774
932400 60.2424 190.806 55.7198 0.46615 0.0948311
932600 60.2424 190.819 55.7198 0.46625 0.0348875
932800 60.2424 190.832 55.7198 0.46635 0.0656513
933000 60.2424 190.845 55.7198 0.46645 0.0273502
933200 60.2424 190.858 55.7198 0.46655 0.00814039
933400 60.2424 190.871 55.7198 0.46665 -0.0380766
933600 60.2424 190.884 55.7198 0.46675 -0.0553636
933800 60.2424 190.897 55.7198 0.46685 -0.0452502
934000 60.2424 190.91 55.7198 0.46695 -0.0549343
934200 60.2424 190.923 55.7198 0.46705 -0.0727707
934400 60.2424 190.936 55.7198 0.46715 -0.0523242
934600 60.2424 190.949 55.7198 0.46725 -0.0612444
934800 60.2424 190.962 55.7198 0.46735 -0.0604475
935000 60.2424 190.975 55.7198 0.46745 -0.01982
935200 60.2424 190.988 55.7198 0.46755 0.00715392
935400 60.2424 191.001 55.7198 0.46765 0.0163779
935600 60.2424 191.014 55.7198 0.46775 0.0576946
935800 60.2424 191.027 55.7198 0.46785 0.060577
936000 60.2424 191.04 55.7198 0.46795 0.0713959
936200 60.2424 191.053 55.7198 0.46805 0.0723259
936400 60.2424 191.066 55.7198 0.46815 0.0684577
936600 60.2424 191.079 55.7198 0.46825 0.0585573
936800 60.2424 191.092 55.7198 0.46835 0.0511344
937000 60.2424 191.105 55.7198 0.46845 0.0218922
937200 60.2424 191.118 55.7198 0.46855 -0.016971
937400 60.2424 191.131 55.7198 0.46865 -0.032617
937600 60.2424 191.144 55.7198 0.46875 -0.0355351
937800 60.2424 191.157 55.7198 0.46885 -0.0600667
938000 60.2424 191.17 55.7198 0.46895 -0.0855212
938200 60.2424 191.183 55.7198 0.46905 -0.0722728
938400 60.2424 191.196 55.7198 0.46915 -0.0734042
938600 60.2424 191.209 55.7198 0.46925 -0.0471371
938800 60.2424 191.222 55.7198 0.46935 -0.037988
939000 60.2424 191.235 55.7198 0.46945 -0.00818045
939200 60.2424 191.248 55.7198 0.46955 0.0104868
939400 60.2424 191.261 55.7198 0.46965 0.0417239
939600 60.2424 191.274 55.7198 0.46975 0.0637037
939800 60.2424 191.287 55.7198 0.46985 0.070987
940000 60.2424 191.3 55.7198 0.46995 0.0771588
940200 60.2424 191.313 55.7198 0.47005 0.0710179
940400 60.2424 191.326 55.7198 0.47015 0.0676331
940600 60.2424 191.339 55.7198 0.47025 0.0589743
940800 60.2424 191.352 55.7198 0.47035 0.0378648
941000 60.2424 191.365 55.7198 0.47045 -0.00254115
941200 60.2424 191.378 55.7198 0.47055 -0.0232015
941400 60.2424 191.391 55.7198 0.47065 -0.0356416
941600 60.2424 191.404 55.7198 0.47075 -0.0642192
941800 60.2424 191.417 55.7198 0.47085 -0.0721988
942000 60.2424 191.43 55.7198 0.47095 -0.0767859
942200 60.2424 191.443 55.7198 0.47105 -0.070792
942400 60.2424 191.456 55.7198 0.47115 -0.0583248
942600 60.2424 191.469 55.7198 0.47125 -0.0469038
942800 60.2424 191.482 55.7198 0.47135 -0.0286676
943000 60.2424 191.495 55.7198 0.47145 0.0025129
943200 60.2424 191.508 55.7198 0.47155 0.0243503
943400 60.2424 191.521 55.7198 0.47165 0.0649102
943600 60.2424 191.534 55.7198 0.47175 0.070831
943800 60.2424 191.547 55.7198 0.47185 0.0805571
944000 60.2424 191.56 55.7198 0.47195 0.0737976
944200 60.2424 191.573 55.7198 0.47205 0.0567202
944400 60.2424 191.586 55.7198 0.47215 0.0488691
944600 60.2424 191.599 55.7198 0.47225 0.0611194
944800 60.2424 191.612 55.7198 0.47235 0.020596
945000 60.2424 191.625 55.7198 0.47245 -0.0285166
945200 60.2424 191.638 55.7198 0.47255 -0.00769615
945400 60.2424 191.651 55.7198 0.47265 -0.0634556
945600 60.2424 191.664 55.7198 0.47275 -0.0694135
945800 60.2424 191.677 55.7198 0.47285 -0.0779608
946000 60.2424 191.69 55.7198 0.47295 -0.0848075
946200 60.2424 191.703 55.7198 0.47305 -0.0513696
946400 60.2424 191.716 55.7198 0.47315 -0.0590684
946600 60.2424 191.73 55.7198 0.47325 -0.0214744
946800 60.2424 191.743 55.7198 0.47335 -0.00771445
947000 60.2424 191.756 55.7198 0.47345 0.0312976
947200 60.2424 191.769 55.7198 0.47355 0.043218
947400 60.2424 191.782 55.7198 0.47365 0.0384552
947600 60.2424 191.795 55.7198 0.47375 0.0719226
947800 60.2424 191.808 55.7198 0.47385 0.0874012
948000 60.2424 191.821 55.7198 0.47395 0.0849335
948200 60.2424 191.834 55.7198 0.47405 0.0805412
948400 60.2424 191.847 55.7198 0.47415 0.0518416
948600 60.2424 191.86 55.7198 0.47425 0.0263603
948800 60.2424 191.873 55.7198 0.47435 -0.0245724
949000 60.2424 191.886 55.7198 0.47445 -0.0157689
949200 60.2424 191.899 55.7198 0.47455 -0.0504892
949400 60.2424 191.912 55.7198 0.47465 -0.0618264
949600 60.2424 191.925 55.7198 0.47475 -0.0769879
949800 60.2424 191.938 55.7198 0.47485 -0.0855409
950000 60.2424 191.951 55.7198 0.47495 -0.076724
950200 60.2424 191.964 55.7198 0.47505 -0.083068
950400 60.2424 191.977 55.7198 0.47515 -0.0255414
950600 60.2424 191.99 55.7198 0.47525 -0.0186817
950800 60.2424 192.003 55.7198 0.47535 0.0368024
951000 60.2424 192.016 55.7198 0.47545 0.0438501
951200 60.2424 192.029 55.7198 0.47555 0.048637
951400 60.2424 192.042 55.7198 0.47565 0.0639559
951600 60.2424 192.055 55.7198 0.47575 0.0954154
951800 60.2424 192.068 55.7198 0.47585 0.0770617
952000 60.2424 192.081 55.7198 0.47595 0.0481381
952200 60.2424 192.094 55.7198 0.47605 0.0598202
952400 60.2424 192.107 55.7198 0.47615 0.0384589
952600 60.2424 192.12 55.7198 0.47625 0.0112198
952800 60.2424 192.133 55.7198 0.47635 -0.0192313
953000 60.2424 192.146 55.7198 0.47645 -0.0505841
953200 60.2424 192.159 55.7198 0.47655 -0.0499115
953400 60.2424 192.172 55.7198 0.47665 -0.0585367
953600 60.2424 192.185 55.7198 0.47675 -0.0919173
953800 60.2424 192.198 55.7198 0.47685 -0.0599227
954000 60.2424 192.211 55.7198 0.47695 -0.0605724
954200 60.2424 192.224 55.7198 0.47705 -0.0390293
954400 60.2424 192.237 55.7198 0.47715 -0.0422877
954600 60.2424 192.25 55.7198 0.47725 0.00224367
954800 60.2424 192.263 55.7198 0.47735 0.0417595
955000 60.2424 192.276 55.7198 0.47745 0.0424419
955200 60.2424 192.289 55.7198 0.47755 0.0605664
955400 60.2424 192.302 55.7198 0.47765 0.0892285
955600 60.2424 192.315 55.7198 0.47775 0.0744606
955800 60.2424 192.328 55.7198 0.47785 0.0540176
956000 60.2424 192.341 55.7198 0.47795 0.0549674
956200 60.2424 192.354 55.7198 0.47805 0.058459
956400 60.2424 192.367 55.7198 0.47815 0.00736748
956600 60.2424 192.38 55.7198 0.47825 -0.00746585
956800 60.2424 192.393 55.7198 0.47835 -0.0364043
957000 60.2424 192.406 55.7198 0.47845 -0.0372661
957200 60.2424 192.419 55.7198 0.47855 -0.056436
957400 60.2424 192.432 55.7198 0.47865 -0.0771008
957600 60.2424 192.445 55.7198 0.47875 -0.0842559
957800 60.2424 192.458 55.7198 0.47885 -0.0339595
958000 60.2424 192.471 55.7198 0.47895 -0.0584896
958200 60.2424 192.484 55.7198 0.47905 -0.0368185
958400 60.2424 192.497 55.7198 0.47915 -0.016438
958600 60.2424 192.51 55.7198 0.47925 0.0172507
958800 60.2424 192.523 55.7198 0.47935 0.0340054
959000 60.2424 192.536 55.7198 0.47945 0.0502947
959200 60.2424 192.549 55.7198 0.47955 0.0665774
959400 60.2424 192.562 55.7198 0.47965 0.0704579
959600 60.2424 192.575 55.7198 0.47975 0.0805899
959800 60.2424 192.588 55.7198 0.47985 0.0453237
960000 60.2424 192.601 55.7198 0.47995 0.0595008
960200 60.2424 192.614 55.7198 0.48005 0.052794
960400 60.2424 192.627 55.7198 0.48015 -0.00217919
960600 60.2424 192.64 55.7198 0.48025 -0.0370636
960800 60.2424 192.654 55.7198 0.48035 -0.0347342
961000 60.2424 192.667 55.7198 0.48045 -0.0464532
961200 60.2424 192.68 55.7198 0.48055 -0.0797852
961400 60.2424 192.693 55.7198 0.48065 -0.0533284
961600 60.2424 192.706 55.7198 0.48075 -0.0580306
961800 60.2424 192.719 55.7198 0.48085 -0.0711848
962000 60.2424 192.732 55.7198 0.48095 -0.0387544
962200 60.2424 192.745 55.7198 0.48105 -0.0252396
962400 60.2424 192.758 55.7198 0.48115 0.00484237
962600 60.2424 192.771 55.7198 0.48125 0.0259859
962800 60.2424 192.784 55.7198 0.48135 0.059978
963000 60.2424 192.797 55.7198 0.48145 0.0540221
963200 60.2424 192.81 55.7198 0.48155 0.0633422
963400 60.2424 192.823 55.7198 0.48165 0.0818392
963600 60.2424 192.836 55.7198 0.48175 0.0435591
963800 60.2424 192.849 55.7198 0.48185 0.0615813
964000 60.2424 192.862 55.7198 0.48195 0.0242823
964200 60.2424 192.875 55.7198 0.48205 0.041594
964400 60.2424 192.888 55.7198 0.48215 -0.0270296
964600 60.2424 192.901 55.7198 0.48225 -0.00612949
964800 60.2424 192.914 55.7198 0.48235 -0.0494524
965000 60.2424 192.927 55.7198 0.48245 -0.0746969
965200 60.2424 192.94 55.7198 0.48255 -0.046923
965400 60.2424 192.953 55.7198 0.48265 -0.0657392
965600 60.2424 192.966 55.7198 0.48275 -0.0648625
965800 60.2424 192.979 55.7198 0.48285 -0.0335208
966000 60.2424 192.992 55.7198 0.48295 -0.0230872
966200 60.2424 193.005 55.7198 0.48305 -0.00977738
966400 60.2424 193.018 55.7198 0.48315 -0.000868921
966600 60.2424 193.031 55.7198 0.48325 0.0376507
966800 60.2424 193.044 55.7198 0.48335 0.0428063
967000 60.2424 193.057 55.7198 0.48345 0.0529554
967200 60.2424 193.07 55.7198 0.48355 0.0881226
967400 60.2424 193.083 55.7198 0.48365 0.077368
967600 60.2424 193.096 55.7198 0.48375 0.0488748
967800 60.2424 193.109 55.7198 0.48385 0.031415
968000 60.2424 193.122 55.7198 0.48395 0.0202884
968200 60.2424 193.135 55.7198 0.48405 0.00678891
968400 60.2424 193.148 55.7198 0.48415 -0.00853034
968600 60.2424 193.161 55.7198 0.48425 -0.039731
968800 60.2424 193.174 55.7198 0.48435 -0.0514536
969000 60.2424 193.187 55.7198 0.48445 -0.0432253
969200 60.2424 193.2 55.7198 0.48455 -0.0675036
969400 60.2424 193.213 55.7198 0.48465 -0.0640653
969600 60.2424 193.226 55.7198 0.48475 -0.0594743
969800 60.2424 193.239 55.7198 0.48485 -0.0312718
970000 60.2424 193.252 55.7198 0.48495 -0.00900921
970200 60.2424 193.265 55.7198 0.48505 0.0113696
970400 60.2424 193.278 55.7198 0.48515 0.0113935
970600 60.2424 193.291 55.7198 0.48525 0.0324175
970800 60.2424 193.304 55.7198 0.48535 0.044003
971000 60.2424 193.317 55.7198 0.48545 0.0566441
971200 60.2424 193.33 55.7198 0.48555 0.0976801
971400 60.2424 193.343 55.7198 0.48565 0.0616167
971600 60.2424 193.356 55.7198 0.48575 0.0374995
971800 60.2424 193.369 55.7198 0.48585 0.0607158
972000 60.2424 193.382 55.7198 0.48595 0.007428
972200 60.2424 193.395 55.7198 0.48605 -0.0285349
972400 60.2424 193.408 55.7198 0.48615 -0.021104
972600 60.2424 193.421 55.7198 0.48625 -0.0399128
972800 60.2424 193.434 55.7198 0.48635 -0.066157
973000 60.2424 193.447 55.7198 0.48645 -0.0499531
973200 60.2424 193.46 55.7198 0.48655 -0.0723868
973400 60.2424 193.473 55.7198 0.48665 -0.0553641
973600 60.2424 193.486 55.7198 0.48675 -0.0520633
973800 60.2424 193.499 55.7198 0.48685 -0.0276482
974000 60.2424 193.512 55.7198 0.48695 0.00623753
974200 60.2424 193.525 55.7198 0.48705 0.00125988
974400 60.2424 193.538 55.7198 0.48715 0.0394345
974600 60.2424 193.551 55.7198 0.48725 0.049548
974800 60.2424 193.564 55.7198 0.48735 0.0575067
975000 60.2424 193.577 55.7198 0.48745 0.088689
975200 60.2424 193.591 55.7198 0.48755 0.0596451
975400 60.2424 193.604 55.7198 0.48765 0.0417672
975600 60.2424 193.617 55.7198 0.48775 0.0511644
975800 60.2424 193.63 55.7198 0.48785 0.0194784
976000 60.2424 193.643 55.7198 0.48795 0.0165604
976200 60.2424 193.656 55.7198 0.48805 0.00494845
976400 60.2424 193.669 55.7198 0.48815 -0.0317674
976600 60.2424 193.682 55.7198 0.48825 -0.0572209
976800 60.2424 193.695 55.7198 0.48835 -0.0748592
977000 60.2424 193.708 55.7198 0.48845 -0.0648499
977200 60.2424 193.721 55.7198 0.48855 -0.0670456
977400 60.2424 193.734 55.7198 0.48865 -0.040953
977600 60.2424 193.747 55.7198 0.48875 -0.0497773
977800 60.2424 193.76 55.7198 0.48885 -0.0194421
978000 60.2424 193.773 55.7198 0.48895 0.00323543
978200 60.2424 193.786 55.7198 0.48905 0.0117021
978400 60.2424 193.799 55.7198 0.48915 0.0349739
978600 60.2424 193.812 55.7198 0.48925 0.0583897
978800 60.2424 193.825 55.7198 0.48935 0.0892304
979000 60.2424 193.838 55.7198 0.48945 0.0572498
979200 60.2424 193.851 55.7198 0.48955 0.0635648
979400 60.2424 193.864 55.7198 0.48965 0.0395876
979600 60.2424 193.877 55.7198 0.48975 0.0313211
979800 60.2424 193.89 55.7198 0.48985 0.0271208
980000 60.2424 193.903 55.7198 0.48995 -0.00864279
980200 60.2424 193.916 55.7198 0.49005 0.00119419
980400 60.2424 193.929 55.7198 0.49015 -0.0440655
980600 60.2424 193.942 55.7198 0.49025 -0.0557445
980800 60.2424 193.955 55.7198 0.49035 -0.0639566
981000 60.2424 193.968 55.7198 0.49045 -0.0647039
981200 60.2424 193.981 55.7198 0.49055 -0.0523965
981400 60.2424 193.994 55.7198 0.49065 -0.0471487
981600 60.2424 194.007 55.7198 0.49075 -0.0272943
981800 60.2424 194.02 55.7198 0.49085 0.00241998
982000 60.2424 194.033 55.7198 0.49095 -0.0129711
982200 60.2424 194.046 55.7198 0.49105 0.0304035
982400 60.2424 194.059 55.7198 0.49115 0.0516737
982600 60.2424 194.072 55.7198 0.49125 0.0644346
982800 60.2424 194.085 55.7198 0.49135 0.0588759
983000 60.2424 194.098 55.7198 0.49145 0.067478
983200 60.2424 194.111 55.7198 0.49155 0.0518108
983400 60.2424 194.124 55.7198 0.49165 0.0269027
983600 60.2424 194.137 55.7198 0.49175 0.0133271
983800 60.2424 194.15 55.7198 0.49185 0.0114217
984000 60.2424 194.163 55.7198 0.49195 -0.018076
984200 60.2424 194.176 55.7198 0.49205 -0.000960717
984400 60.2424 194.189 55.7198 0.49215 -0.0348258
984600 60.2424 194.202 55.7198 0.49225 -0.0805941
984800 60.2424 194.215 55.7198 0.49235 -0.0520226
985000 60.2424 194.228 55.7198 0.49245 -0.0668298
985200 60.2424 194.241 55.7198 0.49255 -0.0281283
985400 60.2424 194.254 55.7198 0.49265 -0.03314
985600 60.2424 194.267 55.7198 0.49275 0.0092126
985800 60.2424 194.28 55.7198 0.49285 -0.008437
986000 60.2424 194.293 55.7198 0.49295 0.0170456
986200 60.2424 194.306 55.7198 0.49305 0.0176583
986400 60.2424 194.319 55.7198 0.49315 0.0532766
986600 60.2424 194.332 55.7198 0.49325 0.0408012
986800 60.2424 194.345 55.7198 0.49335 0.0724414
987000 60.2424 194.358 55.7198 0.49345 0.0627462
987200 60.2424 194.371 55.7198 0.49355 0.0371368
987400 60.2424 194.384 55.7198 0.49365 0.0312698
987600 60.2424 194.397 55.7198 0.49375 0.00338877
987800 60.2424 194.41 55.7198 0.49385 -0.0212682
988000 60.2424 194.423 55.7198 0.49395 -0.000328615
988200 60.2424 194.436 55.7198 0.49405 -0.0235591
988400 60.2424 194.449 55.7198 0.49415 -0.0232246
988600 60.2424 194.462 55.7198 0.49425 -0.0679366
988800 60.2424 194.475 55.7198 0.49435 -0.0626011
989000 60.2424 194.488 55.7198 0.49445 -0.05058
989200 60.2424 194.501 55.7198 0.49455 -0.0719804
989400 60.2424 194.515 55.7198 0.49465 -0.0150647
989600 60.2424 194.528 55.7198 0.49475 0.0236633
989800 60.2424 194.541 55.7198 0.49485 0.0196045
990000 60.2424 194.554 55.7198 0.49495 0.0296274
990200 60.2424 194.567 55.7198 0.49505 0.0367356
990400 60.2424 194.58 55.7198 0.49515 0.0261335
990600 60.2424 194.593 55.7198 0.49525 0.0530927
990800 60.2424 194.606 55.7198 0.49535 0.0711273
991000 60.2424 194.619 55.7198 0.49545 0.0370035
991200 60.2424 194.632 55.7198 0.49555 0.0467065
991400 60.2424 194.645 55.7198 0.49565 0.010418
991600 60.2424 194.658 55.7198 0.49575 0.000781343
991800 60.2424 194.671 55.7198 0.49585 -0.0201676
992000 60.2424 194.684 55.7198 0.49595 -0.0152052
992200 60.2424 194.697 55.7198 0.49605 -0.042086
992400 60.2424 194.71 55.7198 0.49615 -0.0293747
992600 60.2424 194.723 55.7198 0.49625 -0.0481233
992800 60.2424 194.736 55.7198 0.49635 -0.0406935
993000 60.2424 194.749 55.7198 0.49645 -0.0434209
993200 60.2424 194.762 55.7198 0.49655 -0.0436975
993400 60.2424 194.775 55.7198 0.49665 -0.0179818
993600 60.2424 194.788 55.7198 0.49675 0.000905025
993800 60.2424 194.801 55.7198 0.49685 0.0218848
994000 60.2424 194.814 55.7198 0.49695 0.026245
994200 60.2424 194.827 55.7198 0.49705 0.0457837
994400 60.2424 194.84 55.7198 0.49715 0.0491524
994600 60.2424 194.853 55.7198 0.49725 0.0515853
994800 60.2424 194.866 55.7198 0.49735 0.0369042
995000 60.2424 194.879 55.7198 0.49745 0.0461435
995200 60.2424 194.892 55.7198 0.49755 0.0350316
995400 60.2424 194.905 55.7198 0.49765 0.0302949
995600 60.2424 194.918 55.7198 0.49775 -0.014766
995800 60.2424 194.931 55.7198 0.49785 -0.00996842
996000 60.2424 194.944 55.7198 0.49795 -0.0352827
996200 60.2424 194.957 55.7198 0.49805 -0.0384078
996400 60.2424 194.97 55.7198 0.49815 -0.0435346
996600 60.2424 194.983 55.7198 0.49825 -0.0544063
996800 60.2424 194.996 55.7198 0.49835 -0.0348114
997000 60.2424 195.009 55.7198 0.49845 -0.0314498
997200 60.2424 195.022 55.7198 0.49855 -0.0410119
997400 60.2424 195.035 55.7198 0.49865 -0.0158166
997600 60.2424 195.048 55.7198 0.49875 0.000238138
997800 60.2424 195.061 55.7198 0.49885 0.0253445
998000 60.2424 195.074 55.7198 0.49895 0.0513408
998200 60.2424 195.087 55.7198 0.49905 0.0478316
998400 60.2424 195.1 55.7198 0.49915 0.0405866
998600 60.2424 195.113 55.7198 0.49925 0.0441524
998800 60.2424 195.126 55.7198 0.49935 0.0581355
999000 60.2424 195.139 55.7198 0.49945 0.0368346
999200 60.2424 195.152 55.7198 0.49955 0.0136739
999400 60.2424 195.165 55.7198 0.49965 0.0177681
999600 60.2424 195.178 55.7198 0.49975 0.00287154
999800 60.2424 195.191 55.7198 0.49985 -0.027732
1000000 60.2424 195.204 55.7198 0.49995 -0.036454
1000200 60.2424 195.217 55.7198 0.50005 -0.0356764
1000400 60.2424 195.23 55.7198 0.50015 -0.0438809
1000600 60.2424 195.243 55.7198 0.50025 -0.0510758
1000800 60.2424 195.256 55.7198 0.50035 -0.0456461
1001000 60.2424 195.269 55.7198 0.50045 -0.0326765
1001200 60.2424 195.282 55.7198 0.50055 -0.00772451
1001400 60.2424 195.295 55.7198 0.50065 -0.0091273
1001600 60.2424 195.308 55.7198 0.50075 0.00724377
1001800 60.2424 195.321 55.7198 0.50085 0.0103325
1002000 60.2424 195.334 55.7198 0.50095 0.044551
1002200 60.2424 195.347 55.7198 0.50105 0.0390833
1002400 60.2424 195.36 55.7198 0.50115 0.0564076
1002600 60.2424 195.373 55.7198 0.50125 0.0566855
1002800 60.2424 195.386 55.7198 0.50135 0.0516861
1003000 60.2424 195.399 55.7198 0.50145 0.0384323
1003200 60.2424 195.412 55.7198 0.50155 0.00470431
1003400 60.2424 195.425 55.7198 0.50165 4.87782e-05
1003600 60.2424 195.439 55.7198 0.50175 0.000421847
1003800 60.2424 195.452 55.7198 0.50185 -0.0237369
1004000 60.2424 195.465 55.7198 0.50195 -0.0383813
1004200 60.2424 195.478 55.7198 0.50205 -0.0302996
1004400 60.2424 195.491 55.7198 0.50215 -0.0667276
1004600 60.2424 195.504 55.7198 0.50225 -0.0510487
1004800 60.2424 195.517 55.7198 0.50235 -0.0335319
1005000 60.2424 195.53 55.7198 0.50245 -0.0383278
1005200 60.2424 195.543 55.7198 0.50255 0.0030579
1005400 60.2424 195.556 55.7198 0.50265 -0.00244306
1005600 60.2424 195.569 55.7198 0.50275 0.00527979
1005800 60.2424 195.582 55.7198 0.50285 0.0401427
1006000 60.2424 195.595 55.7198 0.50295 0.0469842
1006200 60.2424 195.608 55.7198 0.50305 0.0221619
1006400 60.2424 195.621 55.7198 0.50315 0.0645743
1006600 60.2424 195.634 55.7198 0.50325 0.0631124
1006800 60.2424 195.647 55.7198 0.50335 0.0575485
1007000 60.2424 195.66 55.7198 0.50345 0.0314028
1007200 60.2424 195.673 55.7198 0.50355 0.0011983
1007400 60.2424 195.686 55.7198 0.50365 -0.00854131
1007600 60.2424 195.699 55.7198 0.50375 -0.0249447
1007800 60.2424 195.712 55.7198 0.50385 -0.0447842
1008000 60.2424 195.725 55.7198 0.50395 -0.0204012
1008200 60.2424 195.738 55.7198 0.50405 -0.0420353
1008400 60.2424 195.751 55.7198 0.50415 -0.0372563
1008600 60.2424 195.764 55.7198 0.50425 -0.0596634
1008800 60.2424 195.777 55.7198 0.50435 -0.0400309
1009000 60.2424 195.79 55.7198 0.50445 -0.0338651
1009200 60.2424 195.803 55.7198 0.50455 -0.0189087
1009400 60.2424 195.816 55.7198 0.50465 0.0272327
1009600 60.2424 195.829 55.7198 0.50475 0.0288735
1009800 60.2424 195.842 55.7198 0.50485 0.0454262
1010000 60.2424 195.855 55.7198 0.50495 0.0569176
1010200 60.2424 195.868 55.7198 0.50505 0.0404973
1010400 60.2424 195.881 55.7198 0.50515 0.0536973
1010600 60.2424 195.894 55.7198 0.50525 0.0296287
1010800 60.2424 195.907 55.7198 0.50535 0.0457558
1011000 60.2424 195.92 55.7198 0.50545 0.0228332
1011200 60.2424 195.933 55.7198 0.50555 0.0196336
1011400 60.2424 195.946 55.7198 0.50565 -0.00849092
1011600 60.2424 195.959 55.7198 0.50575 -0.052503
1011800 60.2424 195.972 55.7198 0.50585 -0.043091
1012000 60.2424 195.985 55.7198 0.50595 -0.0422343
1012200 60.2424 195.998 55.7198 0.50605 -0.0600117
1012400 60.2424 196.011 55.7198 0.50615 -0.0690365
1012600 60.2424 196.024 55.7198 0.50625 -0.00846703
1012800 60.2424 196.037 55.7198 0.50635 -0.0095501
1013000 60.2424 196.05 55.7198 0.50645 -0.00373684
1013200 60.2424 196.063 55.7198 0.50655 0.000876014
1013400 60.2424 196.076 55.7198 0.50665 0.00232758
1013600 60.2424 196.089 55.7198 0.50675 0.0415344
1013800 60.2424 196.102 55.7198 0.50685 0.0552831
1014000 60.2424 196.115 55.7198 0.50695 0.0427201
1014200 60.2424 196.128 55.7198 0.50705 0.0637057
1014400 60.2424 196.141 55.7198 0.50715 0.0408432
1014600 60.2424 196.154 55.7198 0.50725 0.0458865
1014800 60.2424 196.167 55.7198 0.50735 0.0165623
1015000 60.2424 196.18 55.7198 0.50745 -0.00426003
1015200 60.2424 196.193 55.7198 0.50755 -0.0103877
1015400 60.2424 196.206 55.7198 0.50765 -0.0237145
1015600 60.2424 196.219 55.7198 0.50775 -0.0223054
1015800 60.2424 196.232 55.7198 0.50785 -0.0443041
1016000 60.2424 196.245 55.7198 0.50795 -0.0476858
1016200 60.2424 196.258 55.7198 0.50805 -0.0539726
1016400 60.2424 196.271 55.7198 0.50815 -0.0322975
1016600 60.2424 196.284 55.7198 0.50825 -0.0365276
1016800 60.2424 196.297 55.7198 0.50835 -0.0168685
1017000 60.2424 196.31 55.7198 0.50845 0.00484326
1017200 60.2424 196.323 55.7198 0.50855 0.0088752
1017400 60.2424 196.336 55.7198 0.50865 0.0256344
1017600 60.2424 196.349 55.7198 0.50875 0.0575658
1017800 60.2424 196.363 55.7198 0.50885 0.0350962
1018000 60.2424 196.376 55.7198 0.50895 0.0480414
1018200 60.2424 196.389 55.7198 0.50905 0.0466131
1018400 60.2424 196.402 55.7198 0.50915 0.0273468
1018600 60.2424 196.415 55.7198 0.50925 0.0407383
1018800 60.2424 196.428 55.7198 0.50935 0.0290303
1019000 60.2424 196.441 55.7198 0.50945 0.000721672
1019200 60.2424 196.454 55.7198 0.50955 -0.0109075
1019400 60.2424 196.467 55.7198 0.50965 -0.0402584
1019600 60.2424 196.48 55.7198 0.50975 -0.0364578
1019800 60.2424 196.493 55.7198 0.50985 -0.0422835
1020000 60.2424 196.506 55.7198 0.50995 -0.0404197
1020200 60.2424 196.519 55.7198 0.51005 -0.038479
1020400 60.2424 196.532 55.7198 0.51015 -0.0331264
1020600 60.2424 196.545 55.7198 0.51025 -0.0346963
1020800 60.2424 196.558 55.7198 0.51035 8.79165e-05
1021000 60.2424 196.571 55.7198 0.51045 0.00416446
1021200 60.2424 196.584 55.7198 0.51055 0.0045672
1021400 60.2424 196.597 55.7198 0.51065 0.0358673
1021600 60.2424 196.61 55.7198 0.51075 0.0425817
1021800 60.2424 196.623 55.7198 0.51085 0.0573428
1022000 60.2424 196.636 55.7198 0.51095 0.0584711
1022200 60.2424 196.649 55.7198 0.51105 0.0366859
1022400 60.2424 196.662 55.7198 0.51115 0.0398336
1022600 60.2424 196.675 55.7198 0.51125 0.00230085
1022800 60.2424 196.688 55.7198 0.51135 0.0269505
1023000 60.2424 196.701 55.7198 0.51145 0.014069
1023200 60.2424 196.714 55.7198 0.51155 -0.0352009
1023400 60.2424 196.727 55.7198 0.51165 -0.035172
1023600 60.2424 196.74 55.7198 0.51175 -0.0360059
1023800 60.2424 196.753 55.7198 0.51185 -0.0460262
1024000 60.2424 196.766 55.7198 0.51195 -0.0507958
1024200 60.2424 196.779 55.7198 0.51205 -0.0415862
1024400 60.2424 196.792 55.7198 0.51215 -0.01156
1024600 60.2424 196.805 55.7198 0.51225 -0.0395843
1024800 60.2424 196.818 55.7198 0.51235 -0.00164837
1025000 60.2424 196.831 55.7198 0.51245 0.00111308
1025200 60.2424 196.844 55.7198 0.51255 0.0275106
1025400 60.2424 196.857 55.7198 0.51265 0.0247374
1025600 60.2424 196.87 55.7198 0.51275 0.0544969
1025800 60.2424 196.883 55.7198 0.51285 0.0513307
1026000 60.2424 196.896 55.7198 0.51295 0.0597922
1026200 60.2424 196.909 55.7198 0.51305 0.0430215
1026400 60.2424 196.922 55.7198 0.51315 0.0372995
1026600 60.2424 196.935 55.7198 0.51325 0.0175197
1026800 60.2424 196.948 55.7198 0.51335 0.0147877
1027000 60.2424 196.961 55.7198 0.51345 -0.00800256
1027200 60.2424 196.974 55.7198 0.51355 -0.0312367
1027400 60.2424 196.987 55.7198 0.51365 -0.043201
1027600 60.2424 197 55.7198 0.51375 -0.0436433
1027800 60.2424 197.013 55.7198 0.51385 -0.0368473
1028000 60.2424 197.026 55.7198 0.51395 -0.0660087
1028200 60.2424 197.039 55.7198 0.51405 -0.0430897
1028400 60.2424 197.052 55.7198 0.51415 -0.023927
1028600 60.2424 197.065 55.7198 0.51425 -0.00859166
1028800 60.2424 197.078 55.7198 0.51435 -0.00348723
1029000 60.2424 197.091 55.7198 0.51445 0.0166496
1029200 60.2424 197.104 55.7198 0.51455 0.0213725
1029400 60.2424 197.117 55.7198 0.51465 0.0453972
1029600 60.2424 197.13 55.7198 0.51475 0.0352649
1029800 60.2424 197.143 55.7198 0.51485 0.0702969
1030000 60.2424 197.156 55.7198 0.51495 0.0429255
1030200 60.2424 197.169 55.7198 0.51505 0.0508875
1030400 60.2424 197.182 55.7198 0.51515 0.0391611
1030600 60.2424 197.195 55.7198 0.51525 0.0204
1030800 60.2424 197.208 55.7198 0.51535 -0.00635674
1031000 60.2424 197.221 55.7198 0.51545 -0.0147703
1031200 60.2424 197.234 55.7198 0.51555 -0.0278742
1031400 60.2424 197.247 55.7198 0.51565 -0.0325
1031600 60.2424 197.26 55.7198 0.51575 -0.0656977
1031800 60.2424 197.273 55.7198 0.51585 -0.0497202
1032000 60.2424 197.287 55.7198 0.51595 -0.0288546
1032200 60.2424 197.3 55.7198 0.51605 -0.0531069
1032400 60.2424 197.313 55.7198 0.51615 -0.0319909
1032600 60.2424 197.326 55.7198 0.51625 -0.00674508
1032800 60.2424 197.339 55.7198 0.51635 0.0202437
1033000 60.2424 197.352 55.7198 0.51645 0.0257575
1033200 60.2424 197.365 55.7198 0.51655 0.0379011
1033400 60.2424 197.378 55.7198 0.51665 0.0203252
1033600 60.2424 197.391 55.7198 0.51675 0.0651928
1033800 60.2424 197.404 55.7198 0.51685 0.0608703
1034000 60.2424 197.417 55.7198 0.51695 0.0530328
1034200 60.2424 197.43 55.7198 0.51705 0.0472645
1034400 60.2424 197.443 55.7198 0.51715 0.004577
1034600 60.2424 197.456 55.7198 0.51725 0.012777
1034800 60.2424 197.469 55.7198 0.51735 -0.00800176
1035000 60.2424 197.482 55.7198 0.51745 -0.0256932
1035200 60.2424 197.495 55.7198 0.51755 -0.0327956
1035400 60.2424 197.508 55.7198 0.51765 -0.0482895
1035600 60.2424 197.521 55.7198 0.51775 -0.0462276
1035800 60.2424 197.534 55.7198 0.51785 -0.037872
1036000 60.2424 197.547 55.7198 0.51795 -0.0522647
1036200 60.2424 197.56 55.7198 0.51805 -0.0374813
1036400 60.2424 197.573 55.7198 0.51815 -0.00732655
1036600 60.2424 197.586 55.7198 0.51825 -0.0172968
1036800 60.2424 197.599 55.7198 0.51835 0.018536
1037000 60.2424 197.612 55.7198 0.51845 0.024576
1037200 60.2424 197.625 55.7198 0.51855 0.0421589
1037400 60.2424 197.638 55.7198 0.51865 0.06132
1037600 60.2424 197.651 55.7198 0.51875 0.041378
1037800 60.2424 197.664 55.7198 0.51885 0.0399667
1038000 60.2424 197.677 55.7198 0.51895 0.0576641
1038200 60.2424 197.69 55.7198 0.51905 0.0416061
1038400 60.2424 197.703 55.7198 0.51915 0.0301734
1038600 60.2424 197.716 55.7198 0.51925 -0.00920002
1038800 60.2424 197.729 55.7198 0.51935 -0.0133733
1039000 60.2424 197.742 55.7198 0.51945 -0.0349158
1039200 60.2424 197.755 55.7198 0.51955 -0.031225
1039400 60.2424 197.768 55.7198 0.51965 -0.0592101
1039600 60.2424 197.781 55.7198 0.51975 -0.0497298
1039800 60.2424 197.794 55.7198 0.51985 -0.0288371
1040000 60.2424 197.807 55.7198 0.51995 -0.0493564
1040200 60.2424 197.82 55.7198 0.52005 -0.0450724
1040400 60.2424 197.833 55.7198 0.52015 -0.0158211
1040600 60.2424 197.846 55.7198 0.52025 0.0176591
1040800 60.2424 197.859 55.7198 0.52035 0.01787
1041000 60.2424 197.872 55.7198 0.52045 0.0192205
1041200 60.2424 197.885 55.7198 0.52055 0.0725567
1041400 60.2424 197.898 55.7198 0.52065 0.053398
1041600 60.2424 197.911 55.7198 0.52075 0.0580723
1041800 60.2424 197.924 55.7198 0.52085 0.0336594
1042000 60.2424 197.937 55.7198 0.52095 0.0415022
1042200 60.2424 197.95 55.7198 0.52105 0.0307049
1042400 60.2424 197.963 55.7198 0.52115 0.0403951
1042600 60.2424 197.976 55.7198 0.52125 -0.0122925
1042800 60.2424 197.989 55.7198 0.52135 -0.0231556
1043000 60.2424 198.002 55.7198 0.52145 -0.0446484
1043200 60.2424 198.015 55.7198 0.52155 -0.0312622
1043400 60.2424 198.028 55.7198 0.52165 -0.0568078
1043600 60.2424 198.041 55.7198 0.52175 -0.0622045
1043800 60.2424 198.054 55.7198 0.52185 -0.0455038
1044000 60.2424 198.067 55.7198 0.52195 -0.039591
1044200 60.2424 198.08 55.7198 0.52205 -0.0130541
1044400 60.2424 198.093 55.7198 0.52215 -0.00879441
1044600 60.2424 198.106 55.7198 0.52225 0.0119722
1044800 60.2424 198.119 55.7198 0.52235 0.0298013
1045000 60.2424 198.132 55.7198 0.52245 0.046313
1045200 60.2424 198.145 55.7198 0.52255 0.045791
1045400 60.2424 198.158 55.7198 0.52265 0.0657612
1045600 60.2424 198.171 55.7198 0.52275 0.0501775
1045800 60.2424 198.184 55.7198 0.52285 0.0390125
1046000 60.2424 198.197 55.7198 0.52295 0.0261296
1046200 60.2424 198.211 55.7198 0.52305 0.0249
1046400 60.2424 198.224 55.7198 0.52315 -0.00175604
1046600 60.2424 198.237 55.7198 0.52325 -0.000396651
1046800 60.2424 198.25 55.7198 0.52335 -0.0417601
1047000 60.2424 198.263 55.7198 0.52345 -0.0271995
1047200 60.2424 198.276 55.7198 0.52355 -0.0505621
1047400 60.2424 198.289 55.7198 0.52365 -0.0518251
1047600 60.2424 198.302 55.7198 0.52375 -0.0480164
1047800 60.2424 198.315 55.7198 0.52385 -0.0354537
1048000 60.2424 198.328 55.7198 0.52395 -0.0261927
1048200 60.2424 198.341 55.7198 0.52405 -0.0177197
1048400 60.2424 198.354 55.7198 0.52415 -0.00666022
1048600 60.2424 198.367 55.7198 0.52425 0.0318806
1048800 60.2424 198.38 55.7198 0.52435 0.0225005
1049000 60.2424 198.393 55.7198 0.52445 0.0502844
1049200 60.2424 198.406 55.7198 0.52455 0.0689254
1049400 60.2424 198.419 55.7198 0.52465 0.0350052
1049600 60.2424 198.432 55.7198 0.52475 0.047314
1049800 60.2424 198.445 55.7198 0.52485 0.0431038
1050000 60.2424 198.458 55.7198 0.52495 0.0544642
1050200 60.2424 198.471 55.7198 0.52505 -0.0022178
1050400 60.2424 198.484 55.7198 0.52515 -0.00109175
1050600 60.2424 198.497 55.7198 0.52525 -0.000547979
1050800 60.2424 198.51 55.7198 0.52535 -0.0430061
1051000 60.2424 198.523 55.7198 0.52545 -0.0795228
1051200 60.2424 198.536 55.7198 0.52555 -0.0190857
1051400 60.2424 198.549 55.7198 0.52565 -0.0601129
1051600 60.2424 198.562 55.7198 0.52575 -0.0504763
1051800 60.2424 198.575 55.7198 0.52585 -0.0248704
1052000 60.2424 198.588 55.7198 0.52595 -0.0256189
1052200 60.2424 198.601 55.7198 0.52605 -0.0251908
1052400 60.2424 198.614 55.7198 0.52615 0.0186025
1052600 60.2424 198.627 55.7198 0.52625 0.0354056
1052800 60.2424 198.64 55.7198 0.52635 0.018241
1053000 60.2424 198.653 55.7198 0.52645 0.0644069
1053200 60.2424 198.666 55.7198 0.52655 0.0561103
1053400 60.2424 198.679 55.7198 0.52665 0.0480461
1053600 60.2424 198.692 55.7198 0.52675 0.0588685
1053800 60.2424 198.705 55.7198 0.52685 0.0369838
1054000 60.2424 198.718 55.7198 0.52695 0.0396854
1054200 60.2424 198.731 55.7198 0.52705 0.00696401
1054400 60.2424 198.744 55.7198 0.52715 -0.00349239
1054600 60.2424 198.757 55.7198 0.52725 -0.0528885
1054800 60.2424 198.77 55.7198 0.52735 -0.0387842
1055000 60.2424 198.783 55.7198 0.52745 -0.0469518
1055200 60.2424 198.796 55.7198 0.52755 -0.0424556
1055400 60.2424 198.809 55.7198 0.52765 -0.0512995
1055600 60.2424 198.822 55.7198 0.52775 -0.0475561
1055800 60.2424 198.835 55.7198 0.52785 -0.0413251
1056000 60.2424 198.848 55.7198 0.52795 -0.0138596
1056200 60.2424 198.861 55.7198 0.52805 0.00531854
1056400 60.2424 198.874 55.7198 0.52815 0.0227656
1056600 60.2424 198.887 55.7198 0.52825 0.0335992
1056800 60.2424 198.9 55.7198 0.52835 0.0483243
1057000 60.2424 198.913 55.7198 0.52845 0.039846
1057200 60.2424 198.926 55.7198 0.52855 0.0608052
1057400 60.2424 198.939 55.7198 0.52865 0.0445018
1057600 60.2424 198.952 55.7198 0.52875 0.0555398
1057800 60.2424 198.965 55.7198 0.52885 0.0296231
1058000 60.2424 198.978 55.7198 0.52895 0.0124364
1058200 60.2424 198.991 55.7198 0.52905 -0.00574768
1058400 60.2424 199.004 55.7198 0.52915 -0.0181874
1058600 60.2424 199.017 55.7198 0.52925 -0.0365031
1058800 60.2424 199.03 55.7198 0.52935 -0.0413689
1059000 60.2424 199.043 55.7198 0.52945 -0.0507064
1059200 60.2424 199.056 55.7198 0.52955 -0.0565062
1059400 60.2424 199.069 55.7198 0.52965 -0.0364266
1059600 60.2424 199.082 55.7198 0.52975 -0.0355398
1059800 60.2424 199.095 55.7198 0.52985 -0.0150466
1060000 60.2424 199.108 55.7198 0.52995 -0.0038214
1060200 60.2424 199.121 55.7198 0.53005 0.0026738
1060400 60.2424 199.134 55.7198 0.53015 0.0279125
1060600 60.2424 199.148 55.7198 0.53025 0.0347299
1060800 60.2424 199.161 55.7198 0.53035 0.0657148
1061000 60.2424 199.174 55.7198 0.53045 0.0520245
1061200 60.2424 199.187 55.7198 0.53055 0.0440314
1061400 60.2424 199.2 55.7198 0.53065 0.0313911
1061600 60.2424 199.213 55.7198 0.53075 0.0361543
1061800 60.2424 199.226 55.7198 0.53085 0.0295566
1062000 60.2424 199.239 55.7198 0.53095 0.0104246
1062200 60.2424 199.252 55.7198 0.53105 -0.0163094
1062400 60.2424 199.265 55.7198 0.53115 -0.0100157
1062600 60.2424 199.278 55.7198 0.53125 -0.0453908
1062800 60.2424 199.291 55.7198 0.53135 -0.0517598
1063000 60.2424 199.304 55.7198 0.53145 -0.0520961
1063200 60.2424 199.317 55.7198 0.53155 -0.0409331
1063400 60.2424 199.33 55.7198 0.53165 -0.044278
1063600 60.2424 199.343 55.7198 0.53175 -0.023304
1063800 60.2424 199.356 55.7198 0.53185 -0.00403675
1064000 60.2424 199.369 55.7198 0.53195 -0.00925799
1064200 60.2424 199.382 55.7198 0.53205 0.00786353
1064400 60.2424 199.395 55.7198 0.53215 0.0266568
1064600 60.2424 199.408 55.7198 0.53225 0.0445124
1064800 60.2424 199.421 55.7198 0.53235 0.0626174
1065000 60.2424 199.434 55.7198 0.53245 0.0550955
1065200 60.2424 199.447 55.7198 0.53255 0.0586106
1065400 60.2424 199.46 55.7198 0.53265 0.0304808
1065600 60.2424 199.473 55.7198 0.53275 0.00915701
1065800 60.2424 199.486 55.7198 0.53285 0.0238407
1066000 60.2424 199.499 55.7198 0.53295 0.0148437
1066200 60.2424 199.512 55.7198 0.53305 0.00335762
1066400 60.2424 199.525 55.7198 0.53315 -0.0381507
1066600 60.2424 199.538 55.7198 0.53325 -0.0493508
1066800 60.2424 199.551 55.7198 0.53335 -0.0561935
1067000 60.2424 199.564 55.7198 0.53345 -0.0635655
1067200 60.2424 199.577 55.7198 0.53355 -0.0377712
1067400 60.2424 199.59 55.7198 0.53365 -0.0278826
1067600 60.2424 199.603 55.7198 0.53375 -0.0251947
1067800 60.2424 199.616 55.7198 0.53385 0.00360983
1068000 60.2424 199.629 55.7198 0.53395 0.0154532
1068200 60.2424 199.642 55.7198 0.53405 0.00830293
1068400 60.2424 199.655 55.7198 0.53415 0.0391219
1068600 60.2424 199.668 55.7198 0.53425 0.062497
1068800 60.2424 199.681 55.7198 0.53435 0.0400544
1069000 60.2424 199.694 55.7198 0.53445 0.0504762
1069200 60.2424 199.707 55.7198 0.53455 0.032923
1069400 60.2424 199.72 55.7198 0.53465 0.0397167
1069600 60.2424 199.733 55.7198 0.53475 0.0216812
1069800 60.2424 199.746 55.7198 0.53485 -0.00340798
1070000 60.2424 199.759 55.7198 0.53495 -0.0130064
1070200 60.2424 199.772 55.7198 0.53505 -0.0199274
1070400 60.2424 199.785 55.7198 0.53515 -0.0369614
1070600 60.2424 199.798 55.7198 0.53525 -0.0336263
1070800 60.2424 199.811 55.7198 0.53535 -0.0345308
1071000 60.2424 199.824 55.7198 0.53545 -0.037152
1071200 60.2424 199.837 55.7198 0.53555 -0.0405774
1071400 60.2424 199.85 55.7198 0.53565 -0.0347244
1071600 60.2424 199.863 55.7198 0.53575 -0.0139643
1071800 60.2424 199.876 55.7198 0.53585 0.0174314
1072000 60.2424 199.889 55.7198 0.53595 0.0173568
1072200 60.2424 199.902 55.7198 0.53605 0.0199443
1072400 60.2424 199.915 55.7198 0.53615 0.0310641
1072600 60.2424 199.928 55.7198 0.53625 0.0281182
1072800 60.2424 199.941 55.7198 0.53635 0.0422875
1073000 60.2424 199.954 55.7198 0.53645 0.0743957
1073200 60.2424 199.967 55.7198 0.53655 0.0293785
1073400 60.2424 199.98 55.7198 0.53665 0.0189886
1073600 60.2424 199.993 55.7198 0.53675 0.00719517
1073800 60.2424 200.006 55.7198 0.53685 0.0173652
1074000 60.2424 200.019 55.7198 0.53695 -0.0122982
1074200 60.2424 200.032 55.7198 0.53705 -0.0373277
1074400 60.2424 200.045 55.7198 0.53715 -0.0443785
1074600 60.2424 200.058 55.7198 0.53725 -0.0386448
1074800 60.2424 200.072 55.7198 0.53735 -0.0397647
1075000 60.2424 200.085 55.7198 0.53745 -0.028612
1075200 60.2424 200.098 55.7198 0.53755 -0.0387743
1075400 60.2424 200.111 55.7198 0.53765 -0.0167123
1075600 60.2424 200.124 55.7198 0.53775 -0.00870703
1075800 60.2424 200.137 55.7198 0.53785 0.00610918
1076000 60.2424 200.15 55.7198 0.53795 0.0212494
1076200 60.2424 200.163 55.7198 0.53805 0.0422658
1076400 60.2424 200.176 55.7198 0.53815 0.0497488
1076600 60.2424 200.189 55.7198 0.53825 0.0412719
1076800 60.2424 200.202 55.7198 0.53835 0.0545731
1077000 60.2424 200.215 55.7198 0.53845 0.0312354
1077200 60.2424 200.228 55.7198 0.53855 0.0359206
1077400 60.2424 200.241 55.7198 0.53865 0.0118973
1077600 60.2424 200.254 55.7198 0.53875 0.00283655
1077800 60.2424 200.267 55.7198 0.53885 -0.0137396
1078000 60.2424 200.28 55.7198 0.53895 -0.0279343
1078200 60.2424 200.293 55.7198 0.53905 -0.0321189
1078400 60.2424 200.306 55.7198 0.53915 -0.0366145
1078600 60.2424 200.319 55.7198 0.53925 -0.034927
1078800 60.2424 200.332 55.7198 0.53935 -0.0527008
1079000 60.2424 200.345 55.7198 0.53945 -0.0360724
1079200 60.2424 200.358 55.7198 0.53955 -0.0123084
1079400 60.2424 200.371 55.7198 0.53965 0.00616663
1079600 60.2424 200.384 55.7198 0.53975 0.0194169
1079800 60.2424 200.397 55.7198 0.53985 0.00637675
1080000 60.2424 200.41 55.7198 0.53995 0.0246585
1080200 60.2424 200.423 55.7198 0.54005 0.0346593
1080400 60.2424 200.436 55.7198 0.54015 0.0401378
1080600 60.2424 200.449 55.7198 0.54025 0.0446759
1080800 60.2424 200.462 55.7198 0.54035 0.0345799
1081000 60.2424 200.475 55.7198 0.54045 0.0483109
1081200 60.2424 200.488 55.7198 0.54055 0.0168971
1081400 60.2424 200.501 55.7198 0.54065 -0.0160904
1081600 60.2424 200.514 55.7198 0.54075 0.00462304
1081800 60.2424 200.527 55.7198 0.54085 -0.0200376
1082000 60.2424 200.54 55.7198 0.54095 -0.0425014
1082200 60.2424 200.553 55.7198 0.54105 -0.0124895
1082400 60.2424 200.566 55.7198 0.54115 -0.0372718
1082600 60.2424 200.579 55.7198 0.54125 -0.0286955
1082800 60.2424 200.592 55.7198 0.54135 -0.0288467
1083000 60.2424 200.605 55.7198 0.54145 -0.0287784
1083200 60.2424 200.618 55.7198 0.54155 -0.0216854
1083400 60.2424 200.631 55.7198 0.54165 -0.00226511
1083600 60.2424 200.644 55.7198 0.54175 0.0159102
1083800 60.2424 200.657 55.7198 0.54185 0.02318
1084000 60.2424 200.67 55.7198 0.54195 0.0498901
1084200 60.2424 200.683 55.7198 0.54205 0.0188787
1084400 60.2424 200.696 55.7198 0.54215 0.0367238
1084600 60.2424 200.709 55.7198 0.54225 0.0348392
1084800 60.2424 200.722 55.7198 0.54235 0.0475322
1085000 60.2424 200.735 55.7198 0.54245 0.0192362
1085200 60.2424 200.748 55.7198 0.54255 0.00392401
1085400 60.2424 200.761 55.7198 0.54265 -0.00839861
1085600 60.2424 200.774 55.7198 0.54275 -0.00885851
1085800 60.2424 200.787 55.7198 0.54285 0.00478305
1086000 60.2424 200.8 55.7198 0.54295 -0.0354105
1086200 60.2424 200.813 55.7198 0.54305 -0.0402843
1086400 60.2424 200.826 55.7198 0.54315 -0.0415147
1086600 60.2424 200.839 55.7198 0.54325 -0.0259327
1086800 60.2424 200.852 55.7198 0.54335 -0.0259137
1087000 60.2424 200.865 55.7198 0.54345 -0.00854202
1087200 60.2424 200.878 55.7198 0.54355 -0.0085944
1087400 60.2424 200.891 55.7198 0.54365 0.00318597
1087600 60.2424 200.904 55.7198 0.54375 0.02058
1087800 60.2424 200.917 55.7198 0.54385 0.0238434
1088000 60.2424 200.93 55.7198 0.54395 0.0467078
1088200 60.2424 200.943 55.7198 0.54405 0.0313419
1088400 60.2424 200.956 55.7198 0.54415 0.0369338
1088600 60.2424 200.969 55.7198 0.54425 0.0307289
1088800 60.2424 200.982 55.7198 0.54435 0.0324008
1089000 60.2424 200.996 55.7198 0.54445 0.0308442
1089200 60.2424 201.009 55.7198 0.54455 -0.00451021
1089400 60.2424 201.022 55.7198 0.54465 -0.00375496
1089600 60.2424 201.035 55.7198 0.54475 -0.00981722
1089800 60.2424 201.048 55.7198 0.54485 -0.040542
1090000 60.2424 201.061 55.7198 0.54495 -0.0371937
1090200 60.2424 201.074 55.7198 0.54505 -0.0278572
1090400 60.2424 201.087 55.7198 0.54515 -0.0313773
1090600 60.2424 201.1 55.7198 0.54525 -0.0221555
1090800 60.2424 201.113 55.7198 0.54535 -0.0354176
1091000 60.2424 201.126 55.7198 0.54545 -0.00756291
1091200 60.2424 201.139 55.7198 0.54555 -0.000708959
1091400 60.2424 201.152 55.7198 0.54565 -0.012987
1091600 60.2424 201.165 55.7198 0.54575 0.0161416
1091800 60.2424 201.178 55.7198 0.54585 0.0495135
1092000 60.2424 201.191 55.7198 0.54595 0.038707
1092200 60.2424 201.204 55.7198 0.54605 0.053236
1092400 60.2424 201.217 55.7198 0.54615 0.0270425
1092600 60.2424 201.23 55.7198 0.54625 0.0392605
1092800 60.2424 201.243 55.7198 0.54635 0.0105088
1093000 60.2424 201.256 55.7198 0.54645 0.0186531
1093200 60.2424 201.269 55.7198 0.54655 0.000696089
1093400 60.2424 201.282 55.7198 0.54665 0.00495561
1093600 60.2424 201.295 55.7198 0.54675 -0.023634
1093800 60.2424 201.308 55.7198 0.54685 -0.0304408
1094000 60.2424 201.321 55.7198 0.54695 -0.0189382
1094200 60.2424 201.334 55.7198 0.54705 -0.0491302
1094400 60.2424 201.347 55.7198 0.54715 -0.0271251
1094600 60.2424 201.36 55.7198 0.54725 -0.0291215
1094800 60.2424 201.373 55.7198 0.54735 -0.0209509
1095000 60.2424 201.386 55.7198 0.54745 -0.00336526
1095200 60.2424 201.399 55.7198 0.54755 -0.00623808
1095400 60.2424 201.412 55.7198 0.54765 0.0209091
1095600 60.2424 201.425 55.7198 0.54775 0.0211368
1095800 60.2424 201.438 55.7198 0.54785 0.0360733
1096000 60.2424 201.451 55.7198 0.54795 0.035498
1096200 60.2424 201.464 55.7198 0.54805 0.0196233
1096400 60.2424 201.477 55.7198 0.54815 0.037849
1096600 60.2424 201.49 55.7198 0.54825 0.0437979
1096800 60.2424 201.503 55.7198 0.54835 0.0200773
1097000 60.2424 201.516 55.7198 0.54845 -0.00122304
1097200 60.2424 201.529 55.7198 0.54855 0.00667975
1097400 60.2424 201.542 55.7198 0.54865 -0.00577614
1097600 60.2424 201.555 55.7198 0.54875 -0.0188012
1097800 60.2424 201.568 55.7198 0.54885 -0.0153986
1098000 60.2424 201.581 55.7198 0.54895 -0.0380741
1098200 60.2424 201.594 55.7198 0.54905 -0.0303193
1098400 60.2424 201.607 55.7198 0.54915 -0.0414269
1098600 60.2424 201.62 55.7198 0.54925 -0.00958725
1098800 60.2424 201.633 55.7198 0.54935 -0.0185968
1099000 60.2424 201.646 55.7198 0.54945 0.00176798
1099200 60.2424 201.659 55.7198 0.54955 -0.00485902
1099400 60.2424 201.672 55.7198 0.54965 0.0190929
1099600 60.2424 201.685 55.7198 0.54975 0.0215571
1099800 60.2424 201.698 55.7198 0.54985 0.0240556
1100000 60.2424 201.711 55.7198 0.54995 0.037708
1100200 60.2424 201.724 55.7198 0.55005 0.0183428
1100400 60.2424 201.737 55.7198 0.55015 0.0251091
1100600 60.2424 201.75 55.7198 0.55025 0.0259465
1100800 60.2424 201.763 55.7198 0.55035 0.0126607
1101000 60.2424 201.776 55.7198 0.55045 0.0231704
1101200 60.2424 201.789 55.7198 0.55055 -0.00947631
1101400 60.2424 201.802 55.7198 0.55065 -0.0290884
1101600 60.2424 201.815 55.7198 0.55075 -0.00033062
1101800 60.2424 201.828 55.7198 0.55085 -0.0306761
1102000 60.2424 201.841 55.7198 0.55095 -0.00380294
1102200 60.2424 201.854 55.7198 0.55105 -0.0170247
1102400 60.2424 201.867 55.7198 0.55115 -0.0196316
1102600 60.2424 201.88 55.7198 0.55125 -0.0219679
1102800 60.2424 201.893 55.7198 0.55135 -0.0237721
1103000 60.2424 201.906 55.7198 0.55145 -0.00426377
1103200 60.2424 201.92 55.7198 0.55155 0.0123844
1103400 60.2424 201.933 55.7198 0.55165 0.0412798
1103600 60.2424 201.946 55.7198 0.55175 0.0388762
1103800 60.2424 201.959 55.7198 0.55185 -0.0089741
1104000 60.2424 201.972 55.7198 0.55195 0.0118583
1104200 60.2424 201.985 55.7198 0.55205 0.0163749
1104400 60.2424 201.998 55.7198 0.55215 0.0305839
1104600 60.2424 202.011 55.7198 0.55225 0.0102034
1104800 60.2424 202.024 55.7198 0.55235 0.0317463
1105000 60.2424 202.037 55.7198 0.55245 0.0068139
1105200 60.2424 202.05 55.7198 0.55255 -0.00441493
1105400 60.2424 202.063 55.7198 0.55265 -0.0191124
1105600 60.2424 202.076 55.7198 0.55275 -0.0148552
1105800 60.2424 202.089 55.7198 0.55285 -0.0436008
1106000 60.2424 202.102 55.7198 0.55295 -0.00182298
1106200 60.2424 202.115 55.7198 0.55305 -0.00310896
1106400 60.2424 202.128 55.7198 0.55315 -0.0156471
1106600 60.2424 202.141 55.7198 0.55325 0.000678778
1106800 60.2424 202.154 55.7198 0.55335 -0.0337348
1107000 60.2424 202.167 55.7198 0.55345 -0.0110721
1107200 60.2424 202.18 55.7198 0.55355 0.00447902
1107400 60.2424 202.193 55.7198 0.55365 0.00751662
1107600 60.2424 202.206 55.7198 0.55375 0.041499
1107800 60.2424 202.219 55.7198 0.55385 0.0434881
1108000 60.2424 202.232 55.7198 0.55395 0.0226115
1108200 60.2424 202.245 55.7198 0.55405 0.0136071
1108400 60.2424 202.258 55.7198 0.55415 -0.005777
1108600 60.2424 202.271 55.7198 0.55425 0.00145795
1108800 60.2424 202.284 55.7198 0.55435 0.0300483
1109000 60.2424 202.297 55.7198 0.55445 -0.00901227
1109200 60.2424 202.31 55.7198 0.55455 -0.00163452
1109400 60.2424 202.323 55.7198 0.55465 0.0119158
1109600 60.2424 202.336 55.7198 0.55475 -0.0069964
1109800 60.2424 202.349 55.7198 0.55485 -0.026241
1110000 60.2424 202.362 55.7198 0.55495 -0.026682
1110200 60.2424 202.375 55.7198 0.55505 -0.00347585
1110400 60.2424 202.388 55.7198 0.55515 -0.00538018
1110600 60.2424 202.401 55.7198 0.55525 0.00698389
1110800 60.2424 202.414 55.7198 0.55535 -0.0229501
1111000 60.2424 202.427 55.7198 0.55545 0.00797812
1111200 60.2424 202.44 55.7198 0.55555 -0.011663
1111400 60.2424 202.453 55.7198 0.55565 0.018448
1111600 60.2424 202.466 55.7198 0.55575 0.0107727
1111800 60.2424 202.479 55.7198 0.55585 0.0150155
1112000 60.2424 202.492 55.7198 0.55595 0.0190923
1112200 60.2424 202.505 55.7198 0.55605 0.0116949
1112400 60.2424 202.518 55.7198 0.55615 0.0279151
1112600 60.2424 202.531 55.7198 0.55625 0.00453094
1112800 60.2424 202.544 55.7198 0.55635 0.0206464
1113000 60.2424 202.557 55.7198 0.55645 -0.0156231
1113200 60.2424 202.57 55.7198 0.55655 0.0120883
1113400 60.2424 202.583 55.7198 0.55665 -0.0223252
1113600 60.2424 202.596 55.7198 0.55675 -0.00236986
1113800 60.2424 202.609 55.7198 0.55685 -0.0100468
1114000 60.2424 202.622 55.7198 0.55695 -0.0142063
1114200 60.2424 202.635 55.7198 0.55705 -0.0150516
1114400 60.2424 202.648 55.7198 0.55715 -0.0101278
1114600 60.2424 202.661 55.7198 0.55725 -0.00946758
1114800 60.2424 202.674 55.7198 0.55735 0.00251325
1115000 60.2424 202.687 55.7198 0.55745 -0.00107059
1115200 60.2424 202.7 55.7198 0.55755 0.0211271
1115400 60.2424 202.713 55.7198 0.55765 0.00452174
1115600 60.2424 202.726 55.7198 0.55775 0.0153512
1115800 60.2424 202.739 55.7198 0.55785 -0.00972017
1116000 60.2424 202.752 55.7198 0.55795 0.0303191
1116200 60.2424 202.765 55.7198 0.55805 0.0184426
1116400 60.2424 202.778 55.7198 0.55815 0.0245057
1116600 60.2424 202.791 55.7198 0.55825 0.013884
1116800 60.2424 202.804 55.7198 0.55835 0.00978304
1117000 60.2424 202.817 55.7198 0.55845 -0.00817083
1117200 60.2424 202.83 55.7198 0.55855 -0.0102701
1117400 60.2424 202.844 55.7198 0.55865 -0.0073945
1117600 60.2424 202.857 55.7198 0.55875 -0.0158841
1117800 60.2424 202.87 55.7198 0.55885 -0.0105338
1118000 60.2424 202.883 55.7198 0.55895 -0.000705714
1118200 60.2424 202.896 55.7198 0.55905 -0.010432
1118400 60.2424 202.909 55.7198 0.55915 -0.0240746
1118600 60.2424 202.922 55.7198 0.55925 0.00681914
1118800 60.2424 202.935 55.7198 0.55935 -0.0142723
1119000 60.2424 202.948 55.7198 0.55945 0.00119591
1119200 60.2424 202.961 55.7198 0.55955 0.013071
1119400 60.2424 202.974 55.7198 0.55965 0.0217325
1119600 60.2424 202.987 55.7198 0.55975 0.0178531
1119800 60.2424 203 55.7198 0.55985 0.0396873
1120000 60.2424 203.013 55.7198 0.55995 0.00571618
1120200 60.2424 203.026 55.7198 0.56005 0.00958621
1120400 60.2424 203.039 55.7198 0.56015 0.00233181
1120600 60.2424 203.052 55.7198 0.56025 -0.0169429
1120800 60.2424 203.065 55.7198 0.56035 0.0124514
1121000 60.2424 203.078 55.7198 0.56045 0.0047293
1121200 60.2424 203.091 55.7198 0.56055 -0.00188678
1121400 60.2424 203.104 55.7198 0.56065 -0.0186671
1121600 60.2424 203.117 55.7198 0.56075 -0.0252056
1121800 60.2424 203.13 55.7198 0.56085 0.00490086
1122000 60.2424 203.143 55.7198 0.56095 -0.0145904
1122200 60.2424 203.156 55.7198 0.56105 0.0189551
1122400 60.2424 203.169 55.7198 0.56115 -0.0179088
1122600 60.2424 203.182 55.7198 0.56125 -0.00420991
1122800 60.2424 203.195 55.7198 0.56135 0.00871141
1123000 60.2424 203.208 55.7198 0.56145 0.0114706
1123200 60.2424 203.221 55.7198 0.56155 0.00914319
1123400 60.2424 203.234 55.7198 0.56165 0.0233735
1123600 60.2424 203.247 55.7198 0.56175 0.00868104
1123800 60.2424 203.26 55.7198 0.56185 0.0009791
1124000 60.2424 203.273 55.7198 0.56195 0.00859479
1124200 60.2424 203.286 55.7198 0.56205 -0.000955638
1124400 60.2424 203.299 55.7198 0.56215 0.0174053
1124600 60.2424 203.312 55.7198 0.56225 0.00365371
1124800 60.2424 203.325 55.7198 0.56235 -0.00269739
1125000 60.2424 203.338 55.7198 0.56245 0.0325239
1125200 60.2424 203.351 55.7198 0.56255 -0.0273061
1125400 60.2424 203.364 55.7198 0.56265 -0.0329011
1125600 60.2424 203.377 55.7198 0.56275 -0.00675667
1125800 60.2424 203.39 55.7198 0.56285 -0.0159803
1126000 60.2424 203.403 55.7198 0.56295 0.0130332
1126200 60.2424 203.416 55.7198 0.56305 0.00728804
1126400 60.2424 203.429 55.7198 0.56315 0.00405081
1126600 60.2424 203.442 55.7198 0.56325 -0.020239
1126800 60.2424 203.455 55.7198 0.56335 0.00538773
1127000 60.2424 203.468 55.7198 0.56345 0.0162236
1127200 60.2424 203.481 55.7198 0.56355 0.0214562
1127400 60.2424 203.494 55.7198 0.56365 0.0179396
1127600 60.2424 203.507 55.7198 0.56375 0.0102252
1127800 60.2424 203.52 55.7198 0.56385 -0.00797458
1128000 60.2424 203.533 55.7198 0.56395 0.0318138
1128200 60.2424 203.546 55.7198 0.56405 -0.00721462
1128400 60.2424 203.559 55.7198 0.56415 0.0027317
1128600 60.2424 203.572 55.7198 0.56425 -0.0195988
1128800 60.2424 203.585 55.7198 0.56435 0.00947515
1129000 60.2424 203.598 55.7198 0.56445 -3.85416e-05
1129200 60.2424 203.611 55.7198 0.56455 -0.00805913
1129400 60.2424 203.624 55.7198 0.56465 0.00170834
1129600 60.2424 203.637 55.7198 0.56475 0.00683779
1129800 60.2424 203.65 55.7198 0.56485 -0.0192113
1130000 60.2424 203.663 55.7198 0.56495 -0.0090885
1130200 60.2424 203.676 55.7198 0.56505 0.00957873
1130400 60.2424 203.689 55.7198 0.56515 0.0130344
1130600 60.2424 203.702 55.7198 0.56525 0.00330615
1130800 60.2424 203.715 55.7198 0.56535 -0.00589934
1131000 60.2424 203.728 55.7198 0.56545 0.00211724
1131200 60.2424 203.741 55.7198 0.56555 0.00176813
1131400 60.2424 203.754 55.7198 0.56565 0.00940119
1131600 60.2424 203.767 55.7198 0.56575 -0.00581835
1131800 60.2424 203.781 55.7198 0.56585 0.0351924
1132000 60.2424 203.794 55.7198 0.56595 -0.000434025
1132200 60.2424 203.807 55.7198 0.56605 0.01397
1132400 60.2424 203.82 55.7198 0.56615 -0.0170507
1132600 60.2424 203.833 55.7198 0.56625 0.00445825
1132800 60.2424 203.846 55.7198 0.56635 0.0181004
1133000 60.2424 203.859 55.7198 0.56645 -0.00223898
1133200 60.2424 203.872 55.7198 0.56655 -0.0108927
1133400 60.2424 203.885 55.7198 0.56665 -0.00474042
1133600 60.2424 203.898 55.7198 0.56675 -0.0114973
1133800 60.2424 203.911 55.7198 0.56685 0.0019367
1134000 60.2424 203.924 55.7198 0.56695 -0.00673409
1134200 60.2424 203.937 55.7198 0.56705 -0.00659156
1134400 60.2424 203.95 55.7198 0.56715 -0.00910135
1134600 60.2424 203.963 55.7198 0.56725 0.0153676
1134800 60.2424 203.976 55.7198 0.56735 0.0216826
1135000 60.2424 203.989 55.7198 0.56745 -0.00742124
1135200 60.2424 204.002 55.7198 0.56755 -0.0218533
1135400 60.2424 204.015 55.7198 0.56765 0.0335283
1135600 60.2424 204.028 55.7198 0.56775 0.0113917
1135800 60.2424 204.041 55.7198 0.56785 0.0187837
1136000 60.2424 204.054 55.7198 0.56795 0.0149743
1136200 60.2424 204.067 55.7198 0.56805 -0.0160222
1136400 60.2424 204.08 55.7198 0.56815 0.0194169
1136600 60.2424 204.093 55.7198 0.56825 -0.000403442
1136800 60.2424 204.106 55.7198 0.56835 -0.00525502
1137000 60.2424 204.119 55.7198 0.56845 -0.00155103
1137200 60.2424 204.132 55.7198 0.56855 0.00105741
1137400 60.2424 204.145 55.7198 0.56865 -0.0181188
1137600 60.2424 204.158 55.7198 0.56875 -0.013022
1137800 60.2424 204.171 55.7198 0.56885 -0.004475
1138000 60.2424 204.184 55.7198 0.56895 -0.000650913
1138200 60.2424 204.197 55.7198 0.56905 0.0093779
1138400 60.2424 204.21 55.7198 0.56915 0.0129386
1138600 60.2424 204.223 55.7198 0.56925 -0.00156105
1138800 60.2424 204.236 55.7198 0.56935 -0.00178444
1139000 60.2424 204.249 55.7198 0.56945 0.0197776
1139200 60.2424 204.262 55.7198 0.56955 0.0134989
1139400 60.2424 204.275 55.7198 0.56965 0.0123337
1139600 60.2424 204.288 55.7198 0.56975 0.00549559
1139800 60.2424 204.301 55.7198 0.56985 -0.00491419
1140000 60.2424 204.314 55.7198 0.56995 0.0199198
1140200 60.2424 204.327 55.7198 0.57005 0.00166938
1140400 60.2424 204.34 55.7198 0.57015 0.00452934
1140600 60.2424 204.353 55.7198 0.57025 -0.0106385
1140800 60.2424 204.366 55.7198 0.57035 -0.010259
1141000 60.2424 204.379 55.7198 0.57045 -0.0103668
1141200 60.2424 204.392 55.7198 0.57055 0.0137902
1141400 60.2424 204.405 55.7198 0.57065 -0.0158388
1141600 60.2424 204.418 55.7198 0.57075 -0.00870897
1141800 60.2424 204.431 55.7198 0.57085 0.00350124
1142000 60.2424 204.444 55.7198 0.57095 -0.00703324
1142200 60.2424 204.457 55.7198 0.57105 0.0018505
1142400 60.2424 204.47 55.7198 0.57115 -0.00868802
1142600 60.2424 204.483 55.7198 0.57125 0.00523461
1142800 60.2424 204.496 55.7198 0.57135 0.0334525
1143000 60.2424 204.509 55.7198 0.57145 -0.0012208
1143200 60.2424 204.522 55.7198 0.57155 0.0161963
1143400 60.2424 204.535 55.7198 0.57165 0.0128257
1143600 60.2424 204.548 55.7198 0.57175 0.00405576
1143800 60.2424 204.561 55.7198 0.57185 0.0230514
1144000 60.2424 204.574 55.7198 0.57195 0.0169108
1144200 60.2424 204.587 55.7198 0.57205 -0.0121921
1144400 60.2424 204.6 55.7198 0.57215 0.00172814
1144600 60.2424 204.613 55.7198 0.57225 -0.00538539
1144800 60.2424 204.626 55.7198 0.57235 -0.00527923
1145000 60.2424 204.639 55.7198 0.57245 -0.00104395
1145200 60.2424 204.652 55.7198 0.57255 -0.0223391
1145400 60.2424 204.665 55.7198 0.57265 -0.0207414
1145600 60.2424 204.678 55.7198 0.57275 -0.00892676
1145800 60.2424 204.691 55.7198 0.57285 0.00901237
1146000 60.2424 204.705 55.7198 0.57295 0.00179733
1146200 60.2424 204.718 55.7198 0.57305 0.0131302
1146400 60.2424 204.731 55.7198 0.57315 -0.00869119
1146600 60.2424 204.744 55.7198 0.57325 0.0106064
1146800 60.2424 204.757 55.7198 0.57335 0.011083
1147000 60.2424 204.77 55.7198 0.57345 0.0233087
1147200 60.2424 204.783 55.7198 0.57355 0.0113579
1147400 60.2424 204.796 55.7198 0.57365 0.0177973
1147600 60.2424 204.809 55.7198 0.57375 0.0226238
1147800 60.2424 204.822 55.7198 0.57385 -0.000412139
1148000 60.2424 204.835 55.7198 0.57395 -0.00476521
1148200 60.2424 204.848 55.7198 0.57405 -0.00482158
1148400 60.2424 204.861 55.7198 0.57415 -0.00325841
1148600 60.2424 204.874 55.7198 0.57425 -0.00248275
1148800 60.2424 204.887 55.7198 0.57435 -0.00717748
1149000 60.2424 204.9 55.7198 0.57445 -0.0217894
1149200 60.2424 204.913 55.7198 0.57455 -0.00509357
1149400 60.2424 204.926 55.7198 0.57465 -0.00384224
1149600 60.2424 204.939 55.7198 0.57475 -0.0120723
1149800 60.2424 204.952 55.7198 0.57485 -0.0131565
1150000 60.2424 204.965 55.7198 0.57495 -0.00530372
1150200 60.2424 204.978 55.7198 0.57505 0.0225728
1150400 60.2424 204.991 55.7198 0.57515 0.0317097
1150600 60.2424 205.004 55.7198 0.57525 -0.00405032
1150800 60.2424 205.017 55.7198 0.57535 0.0146443
1151000 60.2424 205.03 55.7198 0.57545 0.023653
1151200 60.2424 205.043 55.7198 0.57555 0.0276722
1151400 60.2424 205.056 55.7198 0.57565 -0.00113003
1151600 60.2424 205.069 55.7198 0.57575 0.0242084
1151800 60.2424 205.082 55.7198 0.57585 0.00601134
1152000 60.2424 205.095 55.7198 0.57595 -0.00167553
1152200 60.2424 205.108 55.7198 0.57605 -0.0228807
1152400 60.2424 205.121 55.7198 0.57615 -0.0163652
1152600 60.2424 205.134 55.7198 0.57625 -0.0105529
1152800 60.2424 205.147 55.7198 0.57635 -0.0273777
1153000 60.2424 205.16 55.7198 0.57645 0.00157078
1153200 60.2424 205.173 55.7198 0.57655 -0.00610366
1153400 60.2424 205.186 55.7198 0.57665 -0.00334462
1153600 60.2424 205.199 55.7198 0.57675 -0.00632214
1153800 60.2424 205.212 55.7198 0.57685 -0.000402578
1154000 60.2424 205.225 55.7198 0.57695 0.0121275
1154200 60.2424 205.238 55.7198 0.57705 0.00139932
1154400 60.2424 205.251 55.7198 0.57715 0.0255416
1154600 60.2424 205.264 55.7198 0.57725 0.0113068
1154800 60.2424 205.277 55.7198 0.57735 0.0285314
1155000 60.2424 205.29 55.7198 0.57745 0.0198955
1155200 60.2424 205.303 55.7198 0.57755 0.0215664
1155400 60.2424 205.316 55.7198 0.57765 -0.00520435
1155600 60.2424 205.329 55.7198 0.57775 0.00324056
1155800 60.2424 205.342 55.7198 0.57785 0.00993503
1156000 60.2424 205.355 55.7198 0.57795 -0.0161949
1156200 60.2424 205.368 55.7198 0.57805 0.00744989
1156400 60.2424 205.381 55.7198 0.57815 -0.0300891
1156600 60.2424 205.394 55.7198 0.57825 0.000108699
1156800 60.2424 205.407 55.7198 0.57835 -0.0190575
1157000 60.2424 205.42 55.7198 0.57845 -0.0164154
1157200 60.2424 205.433 55.7198 0.57855 -0.00398917
1157400 60.2424 205.446 55.7198 0.57865 -0.00384527
1157600 60.2424 205.459 55.7198 0.57875 0.00830638
1157800 60.2424 205.472 55.7198 0.57885 -0.00780445
1158000 60.2424 205.485 55.7198 0.57895 0.0138092
1158200 60.2424 205.498 55.7198 0.57905 0.0203878
1158400 60.2424 205.511 55.7198 0.57915 0.00933135
1158600 60.2424 205.524 55.7198 0.57925 0.0253891
1158800 60.2424 205.537 55.7198 0.57935 0.00951727
1159000 60.2424 205.55 55.7198 0.57945 0.0246274
1159200 60.2424 205.563 55.7198 0.57955 -0.00722757
1159400 60.2424 205.576 55.7198 0.57965 0.0129719
1159600 60.2424 205.589 55.7198 0.57975 0.00860099
1159800 60.2424 205.602 55.7198 0.57985 0.00981172
1160000 60.2424 205.615 55.7198 0.57995 0.00431738
1160200 60.2424 205.629 55.7198 0.58005 -0.0150585
1160400 60.2424 205.642 55.7198 0.58015 -0.0064296
1160600 60.2424 205.655 55.7198 0.58025 -0.00762003
1160800 60.2424 205.668 55.7198 0.58035 -0.0349404
1161000 60.2424 205.681 55.7198 0.58045 -0.0112718
1161200 60.2424 205.694 55.7198 0.58055 -0.0131773
1161400 60.2424 205.707 55.7198 0.58065 0.00681609
1161600 60.2424 205.72 55.7198 0.58075 -0.00296817
1161800 60.2424 205.733 55.7198 0.58085 -0.015895
1162000 60.2424 205.746 55.7198 0.58095 0.0113095
1162200 60.2424 205.759 55.7198 0.58105 0.0272636
1162400 60.2424 205.772 55.7198 0.58115 0.0204953
1162600 60.2424 205.785 55.7198 0.58125 0.0156238
1162800 60.2424 205.798 55.7198 0.58135 0.0291891
1163000 60.2424 205.811 55.7198 0.58145 0.0195239
1163200 60.2424 205.824 55.7198 0.58155 0.0143283
1163400 60.2424 205.837 55.7198 0.58165 0.0252937
1163600 60.2424 205.85 55.7198 0.58175 -0.0172317
1163800 60.2424 205.863 55.7198 0.58185 0.012301
1164000 60.2424 205.876 55.7198 0.58195 -0.0200984
1164200 60.2424 205.889 55.7198 0.58205 -0.0185755
1164400 60.2424 205.902 55.7198 0.58215 -0.0189066
1164600 60.2424 205.915 55.7198 0.58225 -0.0121914
1164800 60.2424 205.928 55.7198 0.58235 -0.0187154
1165000 60.2424 205.941 55.7198 0.58245 -0.00909001
1165200 60.2424 205.954 55.7198 0.58255 -0.0212537
1165400 60.2424 205.967 55.7198 0.58265 0.00541727
1165600 60.2424 205.98 55.7198 0.58275 -0.00919853
1165800 60.2424 205.993 55.7198 0.58285 0.0227301
1166000 60.2424 206.006 55.7198 0.58295 0.0201314
1166200 60.2424 206.019 55.7198 0.58305 0.0177052
1166400 60.2424 206.032 55.7198 0.58315 0.0272901
1166600 60.2424 206.045 55.7198 0.58325 0.0276579
1166800 60.2424 206.058 55.7198 0.58335 0.0209094
1167000 60.2424 206.071 55.7198 0.58345 0.00846908
1167200 60.2424 206.084 55.7198 0.58355 0.00945134
1167400 60.2424 206.097 55.7198 0.58365 0.0246927
1167600 60.2424 206.11 55.7198 0.58375 0.00221574
1167800 60.2424 206.123 55.7198 0.58385 -0.0224423
1168000 60.2424 206.136 55.7198 0.58395 -0.0383078
1168200 60.2424 206.149 55.7198 0.58405 -0.0109327
1168400 60.2424 206.162 55.7198 0.58415 -0.0203642
1168600 60.2424 206.175 55.7198 0.58425 -0.0265264
1168800 60.2424 206.188 55.7198 0.58435 -0.0134282
1169000 60.2424 206.201 55.7198 0.58445 0.0118948
1169200 60.2424 206.214 55.7198 0.58455 -0.00730031
1169400 60.2424 206.227 55.7198 0.58465 -0.015926
1169600 60.2424 206.24 55.7198 0.58475 0.0156318
1169800 60.2424 206.253 55.7198 0.58485 0.0249335
1170000 60.2424 206.266 55.7198 0.58495 0.013958
1170200 60.2424 206.279 55.7198 0.58505 0.0271003
1170400 60.2424 206.292 55.7198 0.58515 0.0306714
1170600 60.2424 206.305 55.7198 0.58525 0.0228112
1170800 60.2424 206.318 55.7198 0.58535 0.0176508
1171000 60.2424 206.331 55.7198 0.58545 0.00240893
1171200 60.2424 206.344 55.7198 0.58555 0.00627944
1171400 60.2424 206.357 55.7198 0.58565 0.0141148
1171600 60.2424 206.37 55.7198 0.58575 -0.00324001
1171800 60.2424 206.383 55.7198 0.58585 0.000450787
1172000 60.2424 206.396 55.7198 0.58595 -0.0324922
1172200 60.2424 206.409 55.7198 0.58605 -0.0338927
1172400 60.2424 206.422 55.7198 0.58615 -0.0172865
1172600 60.2424 206.435 55.7198 0.58625 -0.0241617
1172800 60.2424 206.448 55.7198 0.58635 -0.00471081
1173000 60.2424 206.461 55.7198 0.58645 -0.000600921
1173200 60.2424 206.474 55.7198 0.58655 0.00550842
1173400 60.2424 206.487 55.7198 0.58665 -6.51657e-06
1173600 60.2424 206.5 55.7198 0.58675 0.0105909
1173800 60.2424 206.513 55.7198 0.58685 0.028065
1174000 60.2424 206.526 55.7198 0.58695 0.00375787
1174200 60.2424 206.539 55.7198 0.58705 0.0434488
1174400 60.2424 206.553 55.7198 0.58715 0.0196652
1174600 60.2424 206.566 55.7198 0.58725 0.00849058
1174800 60.2424 206.579 55.7198 0.58735 0.0223377
1175000 60.2424 206.592 55.7198 0.58745 0.00922554
1175200 60.2424 206.605 55.7198 0.58755 -0.00686404
1175400 60.2424 206.618 55.7198 0.58765 -0.0221032
1175600 60.2424 206.631 55.7198 0.58775 -0.00343775
1175800 60.2424 206.644 55.7198 0.58785 -0.00869739
1176000 60.2424 206.657 55.7198 0.58795 -0.00929682
1176200 60.2424 206.67 55.7198 0.58805 -0.0129512
1176400 60.2424 206.683 55.7198 0.58815 -0.0213908
1176600 60.2424 206.696 55.7198 0.58825 -0.0142779
1176800 60.2424 206.709 55.7198 0.58835 -0.000134702
1177000 60.2424 206.722 55.7198 0.58845 -0.00195081
1177200 60.2424 206.735 55.7198 0.58855 0.00860898
1177400 60.2424 206.748 55.7198 0.58865 0.0190291
1177600 60.2424 206.761 55.7198 0.58875 0.0242374
1177800 60.2424 206.774 55.7198 0.58885 -0.00434447
1178000 60.2424 206.787 55.7198 0.58895 0.0123346
1178200 60.2424 206.8 55.7198 0.58905 0.0291882
1178400 60.2424 206.813 55.7198 0.58915 0.0282811
1178600 60.2424 206.826 55.7198 0.58925 -0.00217419
1178800 60.2424 206.839 55.7198 0.58935 0.00925308
1179000 60.2424 206.852 55.7198 0.58945 0.0149011
1179200 60.2424 206.865 55.7198 0.58955 -0.0229829
1179400 60.2424 206.878 55.7198 0.58965 -0.00214001
1179600 60.2424 206.891 55.7198 0.58975 -0.0165201
1179800 60.2424 206.904 55.7198 0.58985 -0.0090826
1180000 60.2424 206.917 55.7198 0.58995 0.00195265
1180200 60.2424 206.93 55.7198 0.59005 -0.0208303
1180400 60.2424 206.943 55.7198 0.59015 -0.0141749
1180600 60.2424 206.956 55.7198 0.59025 0.0081486
1180800 60.2424 206.969 55.7198 0.59035 0.00275208
1181000 60.2424 206.982 55.7198 0.59045 -0.00493701
1181200 60.2424 206.995 55.7198 0.59055 0.00329547
1181400 60.2424 207.008 55.7198 0.59065 0.0204405
1181600 60.2424 207.021 55.7198 0.59075 0.0169181
1181800 60.2424 207.034 55.7198 0.59085 0.0166224
1182000 60.2424 207.047 55.7198 0.59095 0.0106793
1182200 60.2424 207.06 55.7198 0.59105 0.00312522
1182400 60.2424 207.073 55.7198 0.59115 0.0148675
1182600 60.2424 207.086 55.7198 0.59125 0.00699167
1182800 60.2424 207.099 55.7198 0.59135 0.0124639
1183000 60.2424 207.112 55.7198 0.59145 -0.000652179
1183200 60.2424 207.125 55.7198 0.59155 -0.0177377
1183400 60.2424 207.138 55.7198 0.59165 -0.00932673
1183600 60.2424 207.151 55.7198 0.59175 0.0090757
1183800 60.2424 207.164 55.7198 0.59185 -0.00588627
1184000 60.2424 207.177 55.7198 0.59195 0.00601088
1184200 60.2424 207.19 55.7198 0.59205 -0.0214131
1184400 60.2424 207.203 55.7198 0.59215 -0.0197956
1184600 60.2424 207.216 55.7198 0.59225 -0.0123861
1184800 60.2424 207.229 55.7198 0.59235 0.00478343
1185000 60.2424 207.242 55.7198 0.59245 0.00662051
1185200 60.2424 207.255 55.7198 0.59255 0.0123922
1185400 60.2424 207.268 55.7198 0.59265 0.0227277
1185600 60.2424 207.281 55.7198 0.59275 0.0227953
1185800 60.2424 207.294 55.7198 0.59285 0.00664562
1186000 60.2424 207.307 55.7198 0.59295 -0.000742589
1186200 60.2424 207.32 55.7198 0.59305 0.0104106
1186400 60.2424 207.333 55.7198 0.59315 0.0279548
1186600 60.2424 207.346 55.7198 0.59325 0.0188445
1186800 60.2424 207.359 55.7198 0.59335 -0.0189303
1187000 60.2424 207.372 55.7198 0.59345 -0.011617
1187200 60.2424 207.385 55.7198 0.59355 0.000861704
1187400 60.2424 207.398 55.7198 0.59365 -0.0231089
1187600 60.2424 207.411 55.7198 0.59375 0.00209871
1187800 60.2424 207.424 55.7198 0.59385 -0.00772292
1188000 60.2424 207.437 55.7198 0.59395 -0.00751264
1188200 60.2424 207.45 55.7198 0.59405 0.000925296
1188400 60.2424 207.463 55.7198 0.59415 0.000490071
1188600 60.2424 207.477 55.7198 0.59425 0.00799702
1188800 60.2424 207.49 55.7198 0.59435 0.00463609
1189000 60.2424 207.503 55.7198 0.59445 -0.0158078
1189200 60.2424 207.516 55.7198 0.59455 0.022387
1189400 60.2424 207.529 55.7198 0.59465 0.0286684
1189600 60.2424 207.542 55.7198 0.59475 0.01635
1189800 60.2424 207.555 55.7198 0.59485 0.000347137
1190000 60.2424 207.568 55.7198 0.59495 -0.00115615
1190200 60.2424 207.581 55.7198 0.59505 0.00206309
1190400 60.2424 207.594 55.7198 0.59515 0.00217252
1190600 60.2424 207.607 55.7198 0.59525 0.0176431
1190800 60.2424 207.62 55.7198 0.59535 0.00016594
1191000 60.2424 207.633 55.7198 0.59545 -0.00588651
1191200 60.2424 207.646 55.7198 0.59555 -0.00402053
1191400 60.2424 207.659 55.7198 0.59565 -0.00373967
1191600 60.2424 207.672 55.7198 0.59575 -0.0215482
1191800 60.2424 207.685 55.7198 0.59585 0.014421
1192000 60.2424 207.698 55.7198 0.59595 -0.00188513
1192200 60.2424 207.711 55.7198 0.59605 -0.00370702
1192400 60.2424 207.724 55.7198 0.59615 0.00643538
1192600 60.2424 207.737 55.7198 0.59625 -0.00161252
1192800 60.2424 207.75 55.7198 0.59635 -0.00387142
1193000 60.2424 207.763 55.7198 0.59645 0.00931739
1193200 60.2424 207.776 55.7198 0.59655 -0.00154505
1193400 60.2424 207.789 55.7198 0.59665 0.00351806
1193600 60.2424 207.802 55.7198 0.59675 0.029212
1193800 60.2424 207.815 55.7198 0.59685 0.0166473
1194000 60.2424 207.828 55.7198 0.59695 0.00566984
1194200 60.2424 207.841 55.7198 0.59705 -0.00231625
1194400 60.2424 207.854 55.7198 0.59715 0.00457306
1194600 60.2424 207.867 55.7198 0.59725 -0.0173746
1194800 60.2424 207.88 55.7198 0.59735 0.0146522
1195000 60.2424 207.893 55.7198 0.59745 0.00788037
1195200 60.2424 207.906 55.7198 0.59755 0.00185359
1195400 60.2424 207.919 55.7198 0.59765 -0.0104794
1195600 60.2424 207.932 55.7198 0.59775 -0.0135712
1195800 60.2424 207.945 55.7198 0.59785 0.00512131
1196000 60.2424 207.958 55.7198 0.59795 -0.00836016
1196200 60.2424 207.971 55.7198 0.59805 0.00716535
1196400 60.2424 207.984 55.7198 0.59815 -0.0221777
1196600 60.2424 207.997 55.7198 0.59825 0.0381032
1196800 60.2424 208.01 55.7198 0.59835 0.00844826
1197000 60.2424 208.023 55.7198 0.59845 0.0137726
1197200 60.2424 208.036 55.7198 0.59855 -0.0106853
1197400 60.2424 208.049 55.7198 0.59865 0.00282845
1197600 60.2424 208.062 55.7198 0.59875 0.013422
1197800 60.2424 208.075 55.7198 0.59885 0.0157534
1198000 60.2424 208.088 55.7198 0.59895 0.00439666
1198200 60.2424 208.101 55.7198 0.59905 -0.000544566
1198400 60.2424 208.114 55.7198 0.59915 -0.0112645
1198600 60.2424 208.127 55.7198 0.59925 -0.0034272
1198800 60.2424 208.14 55.7198 0.59935 0.0152378
1199000 60.2424 208.153 55.7198 0.59945 -0.00390918
1199200 60.2424 208.166 55.7198 0.59955 -0.00216932
1199400 60.2424 208.179 55.7198 0.59965 0.00629592
1199600 60.2424 208.192 55.7198 0.59975 -0.0108002
1199800 60.2424 208.205 55.7198 0.59985 -0.000530172
1200000 60.2424 208.218 55.7198 0.59995 0.00159345
1200200 60.2424 208.231 55.7198 0.60005 0.0136166
1200400 60.2424 208.244 55.7198 0.60015 -0.000670896
1200600 60.2424 208.257 55.7198 0.60025 -0.00768954
1200800 60.2424 208.27 55.7198 0.60035 0.00274439
1201000 60.2424 208.283 55.7198 0.60045 0.0040428
1201200 60.2424 208.296 55.7198 0.60055 6.49226e-05
1201400 60.2424 208.309 55.7198 0.60065 0.0045661
1201600 60.2424 208.322 55.7198 0.60075 0.0146926
1201800 60.2424 208.335 55.7198 0.60085 0.00554763
1202000 60.2424 208.348 55.7198 0.60095 0.0136622
1202200 60.2424 208.361 55.7198 0.60105 6.05405e-05
1202400 60.2424 208.374 55.7198 0.60115 0.00501056
1202600 60.2424 208.387 55.7198 0.60125 0.00549685
1202800 60.2424 208.401 55.7198 0.60135 0.00978417
1203000 60.2424 208.414 55.7198 0.60145 0.00179039
1203200 60.2424 208.427 55.7198 0.60155 0.00941144
1203400 60.2424 208.44 55.7198 0.60165 -0.0232146
1203600 60.2424 208.453 55.7198 0.60175 0.0110655
1203800 60.2424 208.466 55.7198 0.60185 -0.00566746
1204000 60.2424 208.479 55.7198 0.60195 0.000271198
1204200 60.2424 208.492 55.7198 0.60205 0.00636301
1204400 60.2424 208.505 55.7198 0.60215 -0.0100786
1204600 60.2424 208.518 55.7198 0.60225 -0.000723019
1204800 60.2424 208.531 55.7198 0.60235 0.00772778
1205000 60.2424 208.544 55.7198 0.60245 -0.0135205
1205200 60.2424 208.557 55.7198 0.60255 0.011893
1205400 60.2424 208.57 55.7198 0.60265 0.00621451
1205600 60.2424 208.583 55.7198 0.60275 0.00709536
1205800 60.2424 208.596 55.7198 0.60285 0.0099278
1206000 60.2424 208.609 55.7198 0.60295 -0.00749429
1206200 60.2424 208.622 55.7198 0.60305 0.015515
1206400 60.2424 208.635 55.7198 0.60315 0.0109689
1206600 60.2424 208.648 55.7198 0.60325 0.00694936
1206800 60.2424 208.661 55.7198 0.60335 0.010131
1207000 60.2424 208.674 55.7198 0.60345 0.00707548
1207200 60.2424 208.687 55.7198 0.60355 -0.00689162
1207400 60.2424 208.7 55.7198 0.60365 0.0221821
1207600 60.2424 208.713 55.7198 0.60375 0.00311913
1207800 60.2424 208.726 55.7198 0.60385 2.42011e-05
1208000 60.2424 208.739 55.7198 0.60395 -0.00295617
1208200 60.2424 208.752 55.7198 0.60405 -0.00666033
1208400 60.2424 208.765 55.7198 0.60415 0.000953619
1208600 60.2424 208.778 55.7198 0.60425 -0.0164744
1208800 60.2424 208.791 55.7198 0.60435 -0.00866229
1209000 60.2424 208.804 55.7198 0.60445 0.00098359
1209200 60.2424 208.817 55.7198 0.60455 -0.0100927
1209400 60.2424 208.83 55.7198 0.60465 0.00765846
1209600 60.2424 208.843 55.7198 0.60475 0.00398187
1209800 60.2424 208.856 55.7198 0.60485 0.00278304
1210000 60.2424 208.869 55.7198 0.60495 0.014775
1210200 60.2424 208.882 55.7198 0.60505 -0.00452971
1210400 60.2424 208.895 55.7198 0.60515 0.025514
1210600 60.2424 208.908 55.7198 0.60525 0.00346957
1210800 60.2424 208.921 55.7198 0.60535 0.00391811
1211000 60.2424 208.934 55.7198 0.60545 0.0257807
1211200 60.2424 208.947 55.7198 0.60555 0.0108677
1211400 60.2424 208.96 55.7198 0.60565 0.00707987
1211600 60.2424 208.973 55.7198 0.60575 -0.00519761
1211800 60.2424 208.986 55.7198 0.60585 -0.00205374
1212000 60.2424 208.999 55.7198 0.60595 -0.00769553
1212200 60.2424 209.012 55.7198 0.60605 0.00931335
1212400 60.2424 209.025 55.7198 0.60615 -0.00854072
1212600 60.2424 209.038 55.7198 0.60625 0.00416049
1212800 60.2424 209.051 55.7198 0.60635 0.00505535
1213000 60.2424 209.064 55.7198 0.60645 -0.0141611
1213200 60.2424 209.077 55.7198 0.60655 -0.017673
1213400 60.2424 209.09 55.7198 0.60665 0.0133264
1213600 60.2424 209.103 55.7198 0.60675 -0.00518939
1213800 60.2424 209.116 55.7198 0.60685 0.00502815
1214000 60.2424 209.129 55.7198 0.60695 0.0146888
1214200 60.2424 209.142 55.7198 0.60705 0.0109691
1214400 60.2424 209.155 55.7198 0.60715 0.0111475
1214600 60.2424 209.168 55.7198 0.60725 0.00707683
1214800 60.2424 209.181 55.7198 0.60735 0.00647228
1215000 60.2424 209.194 55.7198 0.60745 0.00667031
1215200 60.2424 209.207 55.7198 0.60755 0.0116174
1215400 60.2424 209.22 55.7198 0.60765 -0.00138601
1215600 60.2424 209.233 55.7198 0.60775 0.0140726
1215800 60.2424 209.246 55.7198 0.60785 0.00788624
1216000 60.2424 209.259 55.7198 0.60795 -0.000665252
1216200 60.2424 209.272 55.7198 0.60805 0.000805563
1216400 60.2424 209.285 55.7198 0.60815 -0.00757223
1216600 60.2424 209.298 55.7198 0.60825 -0.0145202
1216800 60.2424 209.311 55.7198 0.60835 0.00569746
1217000 60.2424 209.324 55.7198 0.60845 -0.00273295
1217200 60.2424 209.338 55.7198 0.60855 -0.00175107
1217400 60.2424 209.351 55.7198 0.60865 -0.0241909
1217600 60.2424 209.364 55.7198 0.60875 0.00555532
1217800 60.2424 209.377 55.7198 0.60885 -0.0330646
1218000 60.2424 209.39 55.7198 0.60895 0.0295669
1218200 60.2424 209.403 55.7198 0.60905 0.0209393
1218400 60.2424 209.416 55.7198 0.60915 0.00133085
1218600 60.2424 209.429 55.7198 0.60925 0.0207212
1218800 60.2424 209.442 55.7198 0.60935 0.00620704
1219000 60.2424 209.455 55.7198 0.60945 0.0159206
1219200 60.2424 209.468 55.7198 0.60955 0.0147739
1219400 60.2424 209.481 55.7198 0.60965 0.0100039
1219600 60.2424 209.494 55.7198 0.60975 0.0206288
1219800 60.2424 209.507 55.7198 0.60985 0.0186109
1220000 60.2424 209.52 55.7198 0.60995 -0.00295849
1220200 60.2424 209.533 55.7198 0.61005 -0.0204778
1220400 60.2424 209.546 55.7198 0.61015 -0.0193863
1220600 60.2424 209.559 55.7198 0.61025 0.00210505
1220800 60.2424 209.572 55.7198 0.61035 -0.00531635
1221000 60.2424 209.585 55.7198 0.61045 -0.00929014
1221200 60.2424 209.598 55.7198 0.61055 -0.00217819
1221400 60.2424 209.611 55.7198 0.61065 -0.0129575
1221600 60.2424 209.624 55.7198 0.61075 -0.00176469
1221800 60.2424 209.637 55.7198 0.61085 -0.0131762
1222000 60.2424 209.65 55.7198 0.61095 0.00813404
1222200 60.2424 209.663 55.7198 0.61105 0.0127529
1222400 60.2424 209.676 55.7198 0.61115 0.0284548
1222600 60.2424 209.689 55.7198 0.61125 0.0250623
1222800 60.2424 209.702 55.7198 0.61135 0.0190591
1223000 60.2424 209.715 55.7198 0.61145 0.00794869
1223200 60.2424 209.728 55.7198 0.61155 0.0111378
1223400 60.2424 209.741 55.7198 0.61165 0.00894147
1223600 60.2424 209.754 55.7198 0.61175 0.00208665
1223800 60.2424 209.767 55.7198 0.61185 0.0125883
1224000 60.2424 209.78 55.7198 0.61195 -0.00632956
1224200 60.2424 209.793 55.7198 0.61205 -0.0158964
1224400 60.2424 209.806 55.7198 0.61215 -0.00201377
1224600 60.2424 209.819 55.7198 0.61225 -0.0213612
1224800 60.2424 209.832 55.7198 0.61235 -0.0164952
1225000 60.2424 209.845 55.7198 0.61245 0.00747041
1225200 60.2424 209.858 55.7198 0.61255 -0.000956476
1225400 60.2424 209.871 55.7198 0.61265 -0.00226149
1225600 60.2424 209.884 55.7198 0.61275 -0.0079345
1225800 60.2424 209.897 55.7198 0.61285 0.00686434
1226000 60.2424 209.91 55.7198 0.61295 0.0183556
1226200 60.2424 209.923 55.7198 0.61305 0.0209513
1226400 60.2424 209.936 55.7198 0.61315 0.00327633
1226600 60.2424 209.949 55.7198 0.61325 0.0213334
1226800 60.2424 209.962 55.7198 0.61335 0.0110589
1227000 60.2424 209.975 55.7198 0.61345 0.0123717
1227200 60.2424 209.988 55.7198 0.61355 0.00335125
1227400 60.2424 210.001 55.7198 0.61365 0.00770215
1227600 60.2424 210.014 55.7198 0.61375 0.00784077
1227800 60.2424 210.027 55.7198 0.61385 0.011857
1228000 60.2424 210.04 55.7198 0.61395 -0.0200969
1228200 60.2424 210.053 55.7198 0.61405 -0.0150012
1228400 60.2424 210.066 55.7198 0.61415 -0.00577371
1228600 60.2424 210.079 55.7198 0.61425 -0.0146972
1228800 60.2424 210.092 55.7198 0.61435 -0.00489089
1229000 60.2424 210.105 55.7198 0.61445 0.00419563
1229200 60.2424 210.118 55.7198 0.61455 -0.00380927
1229400 60.2424 210.131 55.7198 0.61465 -0.0141168
1229600 60.2424 210.144 55.7198 0.61475 0.0266835
1229800 60.2424 210.157 55.7198 0.61485 0.00882954
1230000 60.2424 210.17 55.7198 0.61495 0.00579094
1230200 60.2424 210.183 55.7198 0.61505 0.0124445
1230400 60.2424 210.196 55.7198 0.61515 0.0160971
1230600 60.2424 210.209 55.7198 0.61525 0.0170407
1230800 60.2424 210.222 55.7198 0.61535 0.00754971
1231000 60.2424 210.235 55.7198 0.61545 0.000121398
1231200 60.2424 210.248 55.7198 0.61555 0.0154064
1231400 60.2424 210.262 55.7198 0.61565 -0.00638801
1231600 60.2424 210.275 55.7198 0.61575 -0.00359814
1231800 60.2424 210.288 55.7198 0.61585 0.00967383
1232000 60.2424 210.301 55.7198 0.61595 -0.00903863
1232200 60.2424 210.314 55.7198 0.61605 -0.012155
1232400 60.2424 210.327 55.7198 0.61615 -0.000634549
1232600 60.2424 210.34 55.7198 0.61625 -0.00360029
1232800 60.2424 210.353 55.7198 0.61635 0.00755193
1233000 60.2424 210.366 55.7198 0.61645 -0.00727872
1233200 60.2424 210.379 55.7198 0.61655 -0.00677973
1233400 60.2424 210.392 55.7198 0.61665 0.0146385
1233600 60.2424 210.405 55.7198 0.61675 0.014034
1233800 60.2424 210.418 55.7198 0.61685 0.0113434
1234000 60.2424 210.431 55.7198 0.61695 -0.00503609
1234200 60.2424 210.444 55.7198 0.61705 0.0104905
1234400 60.2424 210.457 55.7198 0.61715 0.000467643
1234600 60.2424 210.47 55.7198 0.61725 0.0179166
1234800 60.2424 210.483 55.7198 0.61735 0.00539497
1235000 60.2424 210.496 55.7198 0.61745 -0.0030104
1235200 60.2424 210.509 55.7198 0.61755 0.00310612
1235400 60.2424 210.522 55.7198 0.61765 0.0139827
1235600 60.2424 210.535 55.7198 0.61775 -0.00390566
1235800 60.2424 210.548 55.7198 0.61785 0.0078766
1236000 60.2424 210.561 55.7198 0.61795 -0.0022321
1236200 60.2424 210.574 55.7198 0.61805 -0.00994466
1236400 60.2424 210.587 55.7198 0.61815 -0.00518601
1236600 60.2424 210.6 55.7198 0.61825 0.00665127
1236800 60.2424 210.613 55.7198 0.61835 -0.00387003
1237000 60.2424 210.626 55.7198 0.61845 -0.00353005
1237200 60.2424 210.639 55.7198 0.61855 0.00519754
1237400 60.2424 210.652 55.7198 0.61865 0.00584524
1237600 60.2424 210.665 55.7198 0.61875 0.0146017
1237800 60.2424 210.678 55.7198 0.61885 0.00352101
1238000 60.2424 210.691 55.7198 0.61895 0.0107993
1238200 60.2424 210.704 55.7198 0.61905 0.0169168
1238400 60.2424 210.717 55.7198 0.61915 -0.00470408
1238600 60.2424 210.73 55.7198 0.61925 -0.00189865
1238800 60.2424 210.743 55.7198 0.61935 0.00712831
1239000 60.2424 210.756 55.7198 0.61945 0.00861163
1239200 60.2424 210.769 55.7198 0.61955 -0.0167815
1239400 60.2424 210.782 55.7198 0.61965 0.0219489
1239600 60.2424 210.795 55.7198 0.61975 -0.00368384
1239800 60.2424 210.808 55.7198 0.61985 -0.00859944
1240000 60.2424 210.821 55.7198 0.61995 -0.0120891
1240200 60.2424 210.834 55.7198 0.62005 0.0134605
1240400 60.2424 210.847 55.7198 0.62015 0.00443479
1240600 60.2424 210.86 55.7198 0.62025 -0.0112088
1240800 60.2424 210.873 55.7198 0.62035 0.00403346
1241000 60.2424 210.886 55.7198 0.62045 0.0116718
1241200 60.2424 210.899 55.7198 0.62055 0.0105332
1241400 60.2424 210.912 55.7198 0.62065 -0.0123317
1241600 60.2424 210.925 55.7198 0.62075 0.0180006
1241800 60.2424 210.938 55.7198 0.62085 0.0235594
1242000 60.2424 210.951 55.7198 0.62095 0.00316475
1242200 60.2424 210.964 55.7198 0.62105 0.0067564
1242400 60.2424 210.977 55.7198 0.62115 -0.0029196
1242600 60.2424 210.99 55.7198 0.62125 0.00071095
1242800 60.2424 211.003 55.7198 0.62135 -8.09538e-05
1243000 60.2424 211.016 55.7198 0.62145 0.00474009
1243200 60.2424 211.029 55.7198 0.62155 0.00406961
1243400 60.2424 211.042 55.7198 0.62165 0.0026375
1243600 60.2424 211.055 55.7198 0.62175 0.000663089
1243800 60.2424 211.068 55.7198 0.62185 -0.0242748
1244000 60.2424 211.081 55.7198 0.62195 0.00098331
1244200 60.2424 211.094 55.7198 0.62205 -0.011697
1244400 60.2424 211.107 55.7198 0.62215 0.00679406
1244600 60.2424 211.12 55.7198 0.62225 0.0154339
1244800 60.2424 211.133 55.7198 0.62235 0.00354244
1245000 60.2424 211.146 55.7198 0.62245 -0.00132902
1245200 60.2424 211.159 55.7198 0.62255 0.0018751
1245400 60.2424 211.172 55.7198 0.62265 0.0195849
1245600 60.2424 211.186 55.7198 0.62275 0.0101696
1245800 60.2424 211.199 55.7198 0.62285 0.0161381
1246000 60.2424 211.212 55.7198 0.62295 0.00874504
1246200 60.2424 211.225 55.7198 0.62305 0.00731351
1246400 60.2424 211.238 55.7198 0.62315 0.000547676
1246600 60.2424 211.251 55.7198 0.62325 9.63019e-05
1246800 60.2424 211.264 55.7198 0.62335 -0.00155368
1247000 60.2424 211.277 55.7198 0.62345 0.00424465
1247200 60.2424 211.29 55.7198 0.62355 -0.000824108
1247400 60.2424 211.303 55.7198 0.62365 0.000549798
1247600 60.2424 211.316 55.7198 0.62375 -0.0292867
1247800 60.2424 211.329 55.7198 0.62385 0.00925461
1248000 60.2424 211.342 55.7198 0.62395 -0.00659908
1248200 60.2424 211.355 55.7198 0.62405 -0.000262786
1248400 60.2424 211.368 55.7198 0.62415 -0.00519173
1248600 60.2424 211.381 55.7198 0.62425 0.00790577
1248800 60.2424 211.394 55.7198 0.62435 0.0138359
1249000 60.2424 211.407 55.7198 0.62445 0.0014661
1249200 60.2424 211.42 55.7198 0.62455 0.00868004
1249400 60.2424 211.433 55.7198 0.62465 0.0181263
1249600 60.2424 211.446 55.7198 0.62475 0.00645157
1249800 60.2424 211.459 55.7198 0.62485 0.0141146
1250000 60.2424 211.472 55.7198 0.62495 0.0185989
1250200 60.2424 211.485 55.7198 0.62505 -0.011069
1250400 60.2424 211.498 55.7198 0.62515 0.0128748
1250600 60.2424 211.511 55.7198 0.62525 0.00539117
1250800 60.2424 211.524 55.7198 0.62535 -0.00350436
1251000 60.2424 211.537 55.7198 0.62545 0.00455336
1251200 60.2424 211.55 55.7198 0.62555 -0.00953572
1251400 60.2424 211.563 55.7198 0.62565 -0.0104935
1251600 60.2424 211.576 55.7198 0.62575 -0.00309616
1251800 60.2424 211.589 55.7198 0.62585 -0.00536055
1252000 60.2424 211.602 55.7198 0.62595 -7.0398e-05
1252200 60.2424 211.615 55.7198 0.62605 -0.0073438
1252400 60.2424 211.628 55.7198 0.62615 0.00143008
1252600 60.2424 211.641 55.7198 0.62625 0.00974383
1252800 60.2424 211.654 55.7198 0.62635 -0.00339044
1253000 60.2424 211.667 55.7198 0.62645 0.015611
1253200 60.2424 211.68 55.7198 0.62655 0.00723211
1253400 60.2424 211.693 55.7198 0.62665 0.00685023
1253600 60.2424 211.706 55.7198 0.62675 0.0157173
1253800 60.2424 211.719 55.7198 0.62685 -0.000367118
1254000 60.2424 211.732 55.7198 0.62695 0.0157065
1254200 60.2424 211.745 55.7198 0.62705 0.00633111
1254400 60.2424 211.758 55.7198 0.62715 0.00675768
1254600 60.2424 211.771 55.7198 0.62725 0.00805317
1254800 60.2424 211.784 55.7198 0.62735 0.0120575
1255000 60.2424 211.797 55.7198 0.62745 0.00453699
1255200 60.2424 211.81 55.7198 0.62755 -0.0191874
1255400 60.2424 211.823 55.7198 0.62765 -0.00974939
1255600 60.2424 211.836 55.7198 0.62775 0.00150257
1255800 60.2424 211.849 55.7198 0.62785 -0.00987408
1256000 60.2424 211.862 55.7198 0.62795 0.0106749
1256200 60.2424 211.875 55.7198 0.62805 -0.0083847
1256400 60.2424 211.888 55.7198 0.62815 -0.00703164
1256600 60.2424 211.901 55.7198 0.62825 0.0123473
1256800 60.2424 211.914 55.7198 0.62835 -0.011008
1257000 60.2424 211.927 55.7198 0.62845 0.0120055
1257200 60.2424 211.94 55.7198 0.62855 -0.00116236
1257400 60.2424 211.953 55.7198 0.62865 0.00370659
1257600 60.2424 211.966 55.7198 0.62875 0.025019
1257800 60.2424 211.979 55.7198 0.62885 0.00150478
1258000 60.2424 211.992 55.7198 0.62895 0.00605417
1258200 60.2424 212.005 55.7198 0.62905 0.0256541
1258400 60.2424 212.018 55.7198 0.62915 -0.0238991
1258600 60.2424 212.031 55.7198 0.62925 -0.00671653
1258800 60.2424 212.044 55.7198 0.62935 0.0203966
1259000 60.2424 212.057 55.7198 0.62945 0.00296446
1259200 60.2424 212.07 55.7198 0.62955 0.0136325
1259400 60.2424 212.083 55.7198 0.62965 0.0084506
1259600 60.2424 212.096 55.7198 0.62975 -0.00469689
1259800 60.2424 212.11 55.7198 0.62985 -0.00287909
1260000 60.2424 212.123 55.7198 0.62995 -0.00744718
1260200 60.2424 212.136 55.7198 0.63005 -0.00704972
1260400 60.2424 212.149 55.7198 0.63015 0.0149547
1260600 60.2424 212.162 55.7198 0.63025 -0.00121344
1260800 60.2424 212.175 55.7198 0.63035 -0.010107
1261000 60.2424 212.188 55.7198 0.63045 0.00971699
1261200 60.2424 212.201 55.7198 0.63055 0.0127289
1261400 60.2424 212.214 55.7198 0.63065 0.00366753
1261600 60.2424 212.227 55.7198 0.63075 -0.00152687
1261800 60.2424 212.24 55.7198 0.63085 0.000795163
1262000 60.2424 212.253 55.7198 0.63095 -0.00704617
1262200 60.2424 212.266 55.7198 0.63105 0.00727501
1262400 60.2424 212.279 55.7198 0.63115 0.00688966
1262600 60.2424 212.292 55.7198 0.63125 0.0202499
1262800 60.2424 212.305 55.7198 0.63135 -0.000686349
1263000 60.2424 212.318 55.7198 0.63145 0.00596267
1263200 60.2424 212.331 55.7198 0.63155 -0.0118319
1263400 60.2424 212.344 55.7198 0.63165 0.0138684
1263600 60.2424 212.357 55.7198 0.63175 -0.00882218
1263800 60.2424 212.37 55.7198 0.63185 0.00614018
1264000 60.2424 212.383 55.7198 0.63195 0.015889
1264200 60.2424 212.396 55.7198 0.63205 0.00245068
1264400 60.2424 212.409 55.7198 0.63215 -0.00508174
1264600 60.2424 212.422 55.7198 0.63225 -0.0208962
1264800 60.2424 212.435 55.7198 0.63235 0.00497877
1265000 60.2424 212.448 55.7198 0.63245 0.0133915
1265200 60.2424 212.461 55.7198 0.63255 0.0182227
1265400 60.2424 212.474 55.7198 0.63265 0.000512723
1265600 60.2424 212.487 55.7198 0.63275 0.00137182
1265800 60.2424 212.5 55.7198 0.63285 -0.00466371
1266000 60.2424 212.513 55.7198 0.63295 0.00559415
1266200 60.2424 212.526 55.7198 0.63305 0.00451265
1266400 60.2424 212.539 55.7198 0.63315 0.0335908
1266600 60.2424 212.552 55.7198 0.63325 -0.0133782
1266800 60.2424 212.565 55.7198 0.63335 0.00210105
1267000 60.2424 212.578 55.7198 0.63345 0.00324539
1267200 60.2424 212.591 55.7198 0.63355 -0.00682465
1267400 60.2424 212.604 55.7198 0.63365 -0.0145695
1267600 60.2424 212.617 55.7198 0.63375 -0.0121587
1267800 60.2424 212.63 55.7198 0.63385 0.00921912
1268000 60.2424 212.643 55.7198 0.63395 0.00906556
1268200 60.2424 212.656 55.7198 0.63405 -0.0015378
1268400 60.2424 212.669 55.7198 0.63415 0.00398198
1268600 60.2424 212.682 55.7198 0.63425 0.00257814
1268800 60.2424 212.695 55.7198 0.63435 0.00553645
1269000 60.2424 212.708 55.7198 0.63445 0.0026503
1269200 60.2424 212.721 55.7198 0.63455 0.0101931
1269400 60.2424 212.734 55.7198 0.63465 0.0112001
1269600 60.2424 212.747 55.7198 0.63475 0.0220288
1269800 60.2424 212.76 55.7198 0.63485 0.0153106
1270000 60.2424 212.773 55.7198 0.63495 -0.0147439
1270200 60.2424 212.786 55.7198 0.63505 -0.00322481
1270400 60.2424 212.799 55.7198 0.63515 0.0162083
1270600 60.2424 212.812 55.7198 0.63525 0.0100988
1270800 60.2424 212.825 55.7198 0.63535 -0.0117034
1271000 60.2424 212.838 55.7198 0.63545 0.0105893
1271200 60.2424 212.851 55.7198 0.63555 -0.0181709
1271400 60.2424 212.864 55.7198 0.63565 -0.00900974
1271600 60.2424 212.877 55.7198 0.63575 -0.0138465
1271800 60.2424 212.89 55.7198 0.63585 0.0064067
1272000 60.2424 212.903 55.7198 0.63595 0.00724829
1272200 60.2424 212.916 55.7198 0.63605 0.00419586
1272400 60.2424 212.929 55.7198 0.63615 0.00821387
1272600 60.2424 212.942 55.7198 0.63625 0.0155475
1272800 60.2424 212.955 55.7198 0.63635 -0.00438915
1273000 60.2424 212.968 55.7198 0.63645 -0.00444523
1273200 60.2424 212.981 55.7198 0.63655 0.0105745
1273400 60.2424 212.994 55.7198 0.63665 0.0172133
1273600 60.2424 213.007 55.7198 0.63675 0.022795
1273800 60.2424 213.02 55.7198 0.63685 -0.000357261
1274000 60.2424 213.034 55.7198 0.63695 0.0107349
1274200 60.2424 213.047 55.7198 0.63705 -0.00416256
1274400 60.2424 213.06 55.7198 0.63715 -0.0248522
1274600 60.2424 213.073 55.7198 0.63725 0.00760976
1274800 60.2424 213.086 55.7198 0.63735 -0.00608044
1275000 60.2424 213.099 55.7198 0.63745 0.0160743
1275200 60.2424 213.112 55.7198 0.63755 0.00167415
1275400 60.2424 213.125 55.7198 0.63765 -0.00568233
1275600 60.2424 213.138 55.7198 0.63775 0.00609028
1275800 60.2424 213.151 55.7198 0.63785 -0.00583838
1276000 60.2424 213.164 55.7198 0.63795 0.00118162
1276200 60.2424 213.177 55.7198 0.63805 -3.85929e-05
1276400 60.2424 213.19 55.7198 0.63815 -0.00118588
1276600 60.2424 213.203 55.7198 0.63825 0.0166018
1276800 60.2424 213.216 55.7198 0.63835 0.0216336
1277000 60.2424 213.229 55.7198 0.63845 -0.001331
1277200 60.2424 213.242 55.7198 0.63855 0.00220095
1277400 60.2424 213.255 55.7198 0.63865 -0.011838
1277600 60.2424 213.268 55.7198 0.63875 0.0165068
1277800 60.2424 213.281 55.7198 0.63885 0.00860181
1278000 60.2424 213.294 55.7198 0.63895 0.00860141
1278200 60.2424 213.307 55.7198 0.63905 -0.00187196
1278400 60.2424 213.32 55.7198 0.63915 -0.00114433
1278600 60.2424 213.333 55.7198 0.63925 -0.00253662
1278800 60.2424 213.346 55.7198 0.63935 0.0034637
1279000 60.2424 213.359 55.7198 0.63945 -0.0170447
1279200 60.2424 213.372 55.7198 0.63955 0.0127632
1279400 60.2424 213.385 55.7198 0.63965 0.00615846
1279600 60.2424 213.398 55.7198 0.63975 -0.000168536
1279800 60.2424 213.411 55.7198 0.63985 -0.0223444
1280000 60.2424 213.424 55.7198 0.63995 0.0188215
1280200 60.2424 213.437 55.7198 0.64005 0.0109955
1280400 60.2424 213.45 55.7198 0.64015 0.013254
1280600 60.2424 213.463 55.7198 0.64025 0.00641954
1280800 60.2424 213.476 55.7198 0.64035 0.00173785
1281000 60.2424 213.489 55.7198 0.64045 0.0263519
1281200 60.2424 213.502 55.7198 0.64055 -0.00610194
1281400 60.2424 213.515 55.7198 0.64065 -0.0152769
1281600 60.2424 213.528 55.7198 0.64075 0.00588798
1281800 60.2424 213.541 55.7198 0.64085 0.0211832
1282000 60.2424 213.554 55.7198 0.64095 0.00299327
1282200 60.2424 213.567 55.7198 0.64105 0.00254383
1282400 60.2424 213.58 55.7198 0.64115 0.000928447
1282600 60.2424 213.593 55.7198 0.64125 -0.0137651
1282800 60.2424 213.606 55.7198 0.64135 -0.0063423
1283000 60.2424 213.619 55.7198 0.64145 0.00154564
1283200 60.2424 213.632 55.7198 0.64155 0.0155
1283400 60.2424 213.645 55.7198 0.64165 -0.00703586
1283600 60.2424 213.658 55.7198 0.64175 -0.00391653
1283800 60.2424 213.671 55.7198 0.64185 0.00995953
1284000 60.2424 213.684 55.7198 0.64195 0.0038453
1284200 60.2424 213.697 55.7198 0.64205 -0.011246
1284400 60.2424 213.71 55.7198 0.64215 0.0149571
1284600 60.2424 213.723 55.7198 0.64225 0.0058723
1284800 60.2424 213.736 55.7198 0.64235 0.00456426
1285000 60.2424 213.749 55.7198 0.64245 0.0144111
1285200 60.2424 213.762 55.7198 0.64255 0.0110406
1285400 60.2424 213.775 55.7198 0.64265 0.00710893
1285600 60.2424 213.788 55.7198 0.64275 0.00552792
1285800 60.2424 213.801 55.7198 0.64285 -0.00350352
1286000 60.2424 213.814 55.7198 0.64295 -0.00194902
1286200 60.2424 213.827 55.7198 0.64305 -0.00654392
1286400 60.2424 213.84 55.7198 0.64315 0.015012
1286600 60.2424 213.853 55.7198 0.64325 -0.00248158
1286800 60.2424 213.866 55.7198 0.64335 0.00520028
1287000 60.2424 213.879 55.7198 0.64345 0.00219316
1287200 60.2424 213.892 55.7198 0.64355 -0.00427605
1287400 60.2424 213.905 55.7198 0.64365 0.00233389
1287600 60.2424 213.918 55.7198 0.64375 -0.00845273
1287800 60.2424 213.931 55.7198 0.64385 0.00235699
1288000 60.2424 213.944 55.7198 0.64395 0.00888355
1288200 60.2424 213.957 55.7198 0.64405 0.000175642
1288400 60.2424 213.971 55.7198 0.64415 -0.00250905
1288600 60.2424 213.984 55.7198 0.64425 0.0161112
1288800 60.2424 213.997 55.7198 0.64435 0.00438861
1289000 60.2424 214.01 55.7198 0.64445 0.00403548
1289200 60.2424 214.023 55.7198 0.64455 0.00100149
1289400 60.2424 214.036 55.7198 0.64465 0.0212643
1289600 60.2424 214.049 55.7198 0.64475 -0.00168843
1289800 60.2424 214.062 55.7198 0.64485 0.0126122
1290000 60.2424 214.075 55.7198 0.64495 0.00802571
1290200 60.2424 214.088 55.7198 0.64505 0.00774279
1290400 60.2424 214.101 55.7198 0.64515 -0.0191087
1290600 60.2424 214.114 55.7198 0.64525 0.00755514
1290800 60.2424 214.127 55.7198 0.64535 0.00509051
1291000 60.2424 214.14 55.7198 0.64545 -0.00512617
1291200 60.2424 214.153 55.7198 0.64555 -0.013084
1291400 60.2424 214.166 55.7198 0.64565 0.0143241
1291600 60.2424 214.179 55.7198 0.64575 -0.00439256
1291800 60.2424 214.192 55.7198 0.64585 -0.00833152
1292000 60.2424 214.205 55.7198 0.64595 0.00459358
1292200 60.2424 214.218 55.7198 0.64605 -0.00194822
1292400 60.2424 214.231 55.7198 0.64615 -0.00546393
1292600 60.2424 214.244 55.7198 0.64625 0.0207755
1292800 60.2424 214.257 55.7198 0.64635 0.0124534
1293000 60.2424 214.27 55.7198 0.64645 0.019661
1293200 60.2424 214.283 55.7198 0.64655 0.0195921
1293400 60.2424 214.296 55.7198 0.64665 -0.00345523
1293600 60.2424 214.309 55.7198 0.64675 -0.00927517
1293800 60.2424 214.322 55.7198 0.64685 -0.00104873
1294000 60.2424 214.335 55.7198 0.64695 0.0141698
1294200 60.2424 214.348 55.7198 0.64705 0.00638195
1294400 60.2424 214.361 55.7198 0.64715 0.0116727
1294600 60.2424 214.374 55.7198 0.64725 -0.00812244
1294800 60.2424 214.387 55.7198 0.64735 -0.00165693
1295000 60.2424 214.4 55.7198 0.64745 0.00820678
1295200 60.2424 214.413 55.7198 0.64755 -0.00735776
1295400 60.2424 214.426 55.7198 0.64765 -0.00918001
1295600 60.2424 214.439 55.7198 0.64775 0.014798
1295800 60.2424 214.452 55.7198 0.64785 -0.0177431
1296000 60.2424 214.465 55.7198 0.64795 -0.00330374
1296200 60.2424 214.478 55.7198 0.64805 0.0190004
1296400 60.2424 214.491 55.7198 0.64815 -0.00575124
1296600 60.2424 214.504 55.7198 0.64825 -0.00403941
1296800 60.2424 214.517 55.7198 0.64835 -0.00367936
1297000 60.2424 214.53 55.7198 0.64845 0.0167981
1297200 60.2424 214.543 55.7198 0.64855 0.00755425
1297400 60.2424 214.556 55.7198 0.64865 -0.00339336
1297600 60.2424 214.569 55.7198 0.64875 0.00777244
1297800 60.2424 214.582 55.7198 0.64885 0.0199158
1298000 60.2424 214.595 55.7198 0.64895 0.0188992
1298200 60.2424 214.608 55.7198 0.64905 -0.000538191
1298400 60.2424 214.621 55.7198 0.64915 0.0126408
1298600 60.2424 214.634 55.7198 0.64925 0.012595
1298800 60.2424 214.647 55.7198 0.64935 -0.00624017
1299000 60.2424 214.66 55.7198 0.64945 -7.28303e-05
1299200 60.2424 214.673 55.7198 0.64955 -0.00287062
1299400 60.2424 214.686 55.7198 0.64965 0.00275761
1299600 60.2424 214.699 55.7198 0.64975 -0.00441151
1299800 60.2424 214.712 55.7198 0.64985 -0.00694315
1300000 60.2424 214.725 55.7198 0.64995 -0.010534
1300200 60.2424 214.738 55.7198 0.65005 -0.00825691
1300400 60.2424 214.751 55.7198 0.65015 -0.000283618
1300600 60.2424 214.764 55.7198 0.65025 0.0154507
1300800 60.2424 214.777 55.7198 0.65035 -0.00790394
1301000 60.2424 214.79 55.7198 0.65045 0.019027
1301200 60.2424 214.803 55.7198 0.65055 -0.00362602
1301400 60.2424 214.816 55.7198 0.65065 0.00481129
1301600 60.2424 214.829 55.7198 0.65075 0.0341469
1301800 60.2424 214.842 55.7198 0.65085 0.00448802
1302000 60.2424 214.855 55.7198 0.65095 0.000874889
1302200 60.2424 214.868 55.7198 0.65105 0.00880462
1302400 60.2424 214.881 55.7198 0.65115 0.00748982
1302600 60.2424 214.895 55.7198 0.65125 0.00609332
1302800 60.2424 214.908 55.7198 0.65135 -0.00319726
1303000 60.2424 214.921 55.7198 0.65145 0.00266738
1303200 60.2424 214.934 55.7198 0.65155 0.0172724
1303400 60.2424 214.947 55.7198 0.65165 -0.00530555
1303600 60.2424 214.96 55.7198 0.65175 -0.00238485
1303800 60.2424 214.973 55.7198 0.65185 -0.0113651
1304000 60.2424 214.986 55.7198 0.65195 -0.017198
1304200 60.2424 214.999 55.7198 0.65205 0.0172898
1304400 60.2424 215.012 55.7198 0.65215 -0.0137409
1304600 60.2424 215.025 55.7198 0.65225 0.000475412
1304800 60.2424 215.038 55.7198 0.65235 0.0081625
1305000 60.2424 215.051 55.7198 0.65245 0.00216471
1305200 60.2424 215.064 55.7198 0.65255 0.00956675
1305400 60.2424 215.077 55.7198 0.65265 -0.00804062
1305600 60.2424 215.09 55.7198 0.65275 0.0204559
1305800 60.2424 215.103 55.7198 0.65285 0.00461106
1306000 60.2424 215.116 55.7198 0.65295 0.0136681
1306200 60.2424 215.129 55.7198 0.65305 0.0172664
1306400 60.2424 215.142 55.7198 0.65315 0.015789
1306600 60.2424 215.155 55.7198 0.65325 0.00428648
1306800 60.2424 215.168 55.7198 0.65335 -0.000678344
1307000 60.2424 215.181 55.7198 0.65345 0.00841842
1307200 60.2424 215.194 55.7198 0.65355 -0.00154663
1307400 60.2424 215.207 55.7198 0.65365 -0.00149665
1307600 60.2424 215.22 55.7198 0.65375 -0.00909496
1307800 60.2424 215.233 55.7198 0.65385 -0.00683843
1308000 60.2424 215.246 55.7198 0.65395 -0.0107144
1308200 60.2424 215.259 55.7198 0.65405 -0.00330059
1308400 60.2424 215.272 55.7198 0.65415 -0.00122237
1308600 60.2424 215.285 55.7198 0.65425 -0.00850378
1308800 60.2424 215.298 55.7198 0.65435 0.0100255
1309000 60.2424 215.311 55.7198 0.65445 0.0099037
1309200 60.2424 215.324 55.7198 0.65455 -0.0129167
1309400 60.2424 215.337 55.7198 0.65465 0.0307262
1309600 60.2424 215.35 55.7198 0.65475 0.00937504
1309800 60.2424 215.363 55.7198 0.65485 0.0131319
1310000 60.2424 215.376 55.7198 0.65495 -0.00372309
1310200 60.2424 215.389 55.7198 0.65505 0.0227294
1310400 60.2424 215.402 55.7198 0.65515 0.0192043
1310600 60.2424 215.415 55.7198 0.65525 -0.000471707
1310800 60.2424 215.428 55.7198 0.65535 0.0115279
1311000 60.2424 215.441 55.7198 0.65545 0.00456551
1311200 60.2424 215.454 55.7198 0.65555 0.00233734
1311400 60.2424 215.467 55.7198 0.65565 -0.00573238
1311600 60.2424 215.48 55.7198 0.65575 -0.0224875
1311800 60.2424 215.493 55.7198 0.65585 -0.0182935
1312000 60.2424 215.506 55.7198 0.65595 0.012051
1312200 60.2424 215.519 55.7198 0.65605 -0.000148563
1312400 60.2424 215.532 55.7198 0.65615 -0.0080625
1312600 60.2424 215.545 55.7198 0.65625 -0.000113749
1312800 60.2424 215.558 55.7198 0.65635 -0.00669574
1313000 60.2424 215.571 55.7198 0.65645 0.00380863
1313200 60.2424 215.584 55.7198 0.65655 0.00391674
1313400 60.2424 215.597 55.7198 0.65665 0.012932
1313600 60.2424 215.61 55.7198 0.65675 0.0289871
1313800 60.2424 215.623 55.7198 0.65685 0.0126075
1314000 60.2424 215.636 55.7198 0.65695 0.0217175
1314200 60.2424 215.649 55.7198 0.65705 -0.0112265
1314400 60.2424 215.662 55.7198 0.65715 -0.00233176
1314600 60.2424 215.675 55.7198 0.65725 0.00693844
1314800 60.2424 215.688 55.7198 0.65735 0.0105268
1315000 60.2424 215.701 55.7198 0.65745 -0.00319352
1315200 60.2424 215.714 55.7198 0.65755 0.0095087
1315400 60.2424 215.727 55.7198 0.65765 0.000356111
1315600 60.2424 215.74 55.7198 0.65775 -0.00686287
1315800 60.2424 215.753 55.7198 0.65785 -0.0196917
1316000 60.2424 215.766 55.7198 0.65795 -0.0116094
1316200 60.2424 215.779 55.7198 0.65805 0.00279683
1316400 60.2424 215.792 55.7198 0.65815 0.0158061
1316600 60.2424 215.805 55.7198 0.65825 0.0075972
1316800 60.2424 215.819 55.7198 0.65835 -0.00666885
1317000 60.2424 215.832 55.7198 0.65845 0.00947861
1317200 60.2424 215.845 55.7198 0.65855 0.00852829
1317400 60.2424 215.858 55.7198 0.65865 0.010129
1317600 60.2424 215.871 55.7198 0.65875 0.00941657
1317800 60.2424 215.884 55.7198 0.65885 0.00856152
1318000 60.2424 215.897 55.7198 0.65895 0.00867287
1318200 60.2424 215.91 55.7198 0.65905 0.000569306
1318400 60.2424 215.923 55.7198 0.65915 0.00777224
1318600 60.2424 215.936 55.7198 0.65925 0.0115205
1318800 60.2424 215.949 55.7198 0.65935 -9.61674e-05
1319000 60.2424 215.962 55.7198 0.65945 -0.00490618
1319200 60.2424 215.975 55.7198 0.65955 -0.0147867
1319400 60.2424 215.988 55.7198 0.65965 0.0124701
1319600 60.2424 216.001 55.7198 0.65975 0.00682678
1319800 60.2424 216.014 55.7198 0.65985 0.00453997
1320000 60.2424 216.027 55.7198 0.65995 -0.0107027
1320200 60.2424 216.04 55.7198 0.66005 -0.0235073
1320400 60.2424 216.053 55.7198 0.66015 0.0109162
1320600 60.2424 216.066 55.7198 0.66025 -0.000694022
1320800 60.2424 216.079 55.7198 0.66035 0.0135784
1321000 60.2424 216.092 55.7198 0.66045 0.0098819
1321200 60.2424 216.105 55.7198 0.66055 -0.0110392
1321400 60.2424 216.118 55.7198 0.66065 0.00877484
1321600 60.2424 216.131 55.7198 0.66075 -0.00386921
1321800 60.2424 216.144 55.7198 0.66085 0.0247037
1322000 60.2424 216.157 55.7198 0.66095 0.017682
1322200 60.2424 216.17 55.7198 0.66105 0.0263375
1322400 60.2424 216.183 55.7198 0.66115 -0.00849006
1322600 60.2424 216.196 55.7198 0.66125 0.000292289
1322800 60.2424 216.209 55.7198 0.66135 0.0231403
1323000 60.2424 216.222 55.7198 0.66145 -0.00108322
1323200 60.2424 216.235 55.7198 0.66155 -0.000289411
1323400 60.2424 216.248 55.7198 0.66165 -0.00697858
1323600 60.2424 216.261 55.7198 0.66175 0.000121386
1323800 60.2424 216.274 55.7198 0.66185 -0.0242125
1324000 60.2424 216.287 55.7198 0.66195 -0.0114259
1324200 60.2424 216.3 55.7198 0.66205 -0.00257179
1324400 60.2424 216.313 55.7198 0.66215 0.00615322
1324600 60.2424 216.326 55.7198 0.66225 0.00301024
1324800 60.2424 216.339 55.7198 0.66235 0.00634499
1325000 60.2424 216.352 55.7198 0.66245 -0.0110212
1325200 60.2424 216.365 55.7198 0.66255 0.00747365
1325400 60.2424 216.378 55.7198 0.66265 0.0131718
1325600 60.2424 216.391 55.7198 0.66275 0.0243437
1325800 60.2424 216.404 55.7198 0.66285 0.00668739
1326000 60.2424 216.417 55.7198 0.66295 0.00418683
1326200 60.2424 216.43 55.7198 0.66305 0.00993044
1326400 60.2424 216.443 55.7198 0.66315 0.00312019
1326600 60.2424 216.456 55.7198 0.66325 0.0108399
1326800 60.2424 216.469 55.7198 0.66335 -0.00341924
1327000 60.2424 216.482 55.7198 0.66345 0.0116566
1327200 60.2424 216.495 55.7198 0.66355 0.0139192
1327400 60.2424 216.508 55.7198 0.66365 -0.00430995
1327600 60.2424 216.521 55.7198 0.66375 -0.0124183
1327800 60.2424 216.534 55.7198 0.66385 -0.0127319
1328000 60.2424 216.547 55.7198 0.66395 -0.0106931
1328200 60.2424 216.56 55.7198 0.66405 -0.00135974
1328400 60.2424 216.573 55.7198 0.66415 -0.00912914
1328600 60.2424 216.586 55.7198 0.66425 0.0112102
1328800 60.2424 216.599 55.7198 0.66435 0.013531
1329000 60.2424 216.612 55.7198 0.66445 -0.000319868
1329200 60.2424 216.625 55.7198 0.66455 0.00338067
1329400 60.2424 216.638 55.7198 0.66465 0.00809859
1329600 60.2424 216.651 55.7198 0.66475 0.0125034
1329800 60.2424 216.664 55.7198 0.66485 0.0160574
1330000 60.2424 216.677 55.7198 0.66495 0.00334182
1330200 60.2424 216.69 55.7198 0.66505 0.0133151
1330400 60.2424 216.703 55.7198 0.66515 0.0166911
1330600 60.2424 216.716 55.7198 0.66525 -0.00208301
1330800 60.2424 216.729 55.7198 0.66535 0.0024448
1331000 60.2424 216.743 55.7198 0.66545 0.0049454
1331200 60.2424 216.756 55.7198 0.66555 -0.0035824
1331400 60.2424 216.769 55.7198 0.66565 -0.0290508
1331600 60.2424 216.782 55.7198 0.66575 0.0215297
1331800 60.2424 216.795 55.7198 0.66585 -0.00238367
1332000 60.2424 216.808 55.7198 0.66595 -0.0152975
1332200 60.2424 216.821 55.7198 0.66605 -0.0211683
1332400 60.2424 216.834 55.7198 0.66615 0.0154288
1332600 60.2424 216.847 55.7198 0.66625 0.000451812
1332800 60.2424 216.86 55.7198 0.66635 -0.00353097
1333000 60.2424 216.873 55.7198 0.66645 0.00656481
1333200 60.2424 216.886 55.7198 0.66655 0.0235297
1333400 60.2424 216.899 55.7198 0.66665 0.00905045
1333600 60.2424 216.912 55.7198 0.66675 0.0130016
1333800 60.2424 216.925 55.7198 0.66685 0.0121601
1334000 60.2424 216.938 55.7198 0.66695 0.0181995
1334200 60.2424 216.951 55.7198 0.66705 -0.000119301
1334400 60.2424 216.964 55.7198 0.66715 0.00560057
1334600 60.2424 216.977 55.7198 0.66725 0.0110237
1334800 60.2424 216.99 55.7198 0.66735 0.0128298
1335000 60.2424 217.003 55.7198 0.66745 -0.0334095
1335200 60.2424 217.016 55.7198 0.66755 0.0017122
1335400 60.2424 217.029 55.7198 0.66765 0.00527946
1335600 60.2424 217.042 55.7198 0.66775 2.08911e-05
1335800 60.2424 217.055 55.7198 0.66785 -0.0298674
1336000 60.2424 217.068 55.7198 0.66795 0.0112776
1336200 60.2424 217.081 55.7198 0.66805 -0.0187934
1336400 60.2424 217.094 55.7198 0.66815 0.00234768
1336600 60.2424 217.107 55.7198 0.66825 0.000454267
1336800 60.2424 217.12 55.7198 0.66835 0.0166215
1337000 60.2424 217.133 55.7198 0.66845 0.0248795
1337200 60.2424 217.146 55.7198 0.66855 0.0093462
1337400 60.2424 217.159 55.7198 0.66865 0.00571711
1337600 60.2424 217.172 55.7198 0.66875 0.00575591
1337800 60.2424 217.185 55.7198 0.66885 0.00397212
1338000 60.2424 217.198 55.7198 0.66895 0.0331064
1338200 60.2424 217.211 55.7198 0.66905 -0.00121879
1338400 60.2424 217.224 55.7198 0.66915 0.00104495
1338600 60.2424 217.237 55.7198 0.66925 0.012263
1338800 60.2424 217.25 55.7198 0.66935 -0.00854879
1339000 60.2424 217.263 55.7198 0.66945 -0.0111708
1339200 60.2424 217.276 55.7198 0.66955 -0.0140469
1339400 60.2424 217.289 55.7198 0.66965 -0.00655293
1339600 60.2424 217.302 55.7198 0.66975 -0.00193007
1339800 60.2424 217.315 55.7198 0.66985 -0.00373877
1340000 60.2424 217.328 55.7198 0.66995 0.00325105
1340200 60.2424 217.341 55.7198 0.67005 -0.00521323
1340400 60.2424 217.354 55.7198 0.67015 -0.0138664
1340600 60.2424 217.367 55.7198 0.67025 0.0214084
1340800 60.2424 217.38 55.7198 0.67035 0.00108953
1341000 60.2424 217.393 55.7198 0.67045 0.0351724
1341200 60.2424 217.406 55.7198 0.67055 0.00118423
1341400 60.2424 217.419 55.7198 0.67065 0.0216149
1341600 60.2424 217.432 55.7198 0.67075 0.0066494
1341800 60.2424 217.445 55.7198 0.67085 0.00720243
1342000 60.2424 217.458 55.7198 0.67095 0.00738869
1342200 60.2424 217.471 55.7198 0.67105 -0.000997798
1342400 60.2424 217.484 55.7198 0.67115 0.0230078
1342600 60.2424 217.497 55.7198 0.67125 -0.00548428
1342800 60.2424 217.51 55.7198 0.67135 -0.0143632
1343000 60.2424 217.523 55.7198 0.67145 -0.00505487
1343200 60.2424 217.536 55.7198 0.67155 -0.01854
1343400 60.2424 217.549 55.7198 0.67165 -0.0099365
1343600 60.2424 217.562 55.7198 0.67175 0.00486353
1343800 60.2424 217.575 55.7198 0.67185 0.00869254
1344000 60.2424 217.588 55.7198 0.67195 0.00190267
1344200 60.2424 217.601 55.7198 0.67205 -0.00194686
1344400 60.2424 217.614 55.7198 0.67215 0.00782551
1344600 60.2424 217.627 55.7198 0.67225 -0.00437289
1344800 60.2424 217.64 55.7198 0.67235 -0.00455719
1345000 60.2424 217.653 55.7198 0.67245 0.0215574
1345200 60.2424 217.667 55.7198 0.67255 0.009267
1345400 60.2424 217.68 55.7198 0.67265 0.0245722
1345600 60.2424 217.693 55.7198 0.67275 0.0105339
1345800 60.2424 217.706 55.7198 0.67285 -0.000191553
1346000 60.2424 217.719 55.7198 0.67295 -0.00972744
1346200 60.2424 217.732 55.7198 0.67305 0.00691816
1346400 60.2424 217.745 55.7198 0.67315 0.00946444
1346600 60.2424 217.758 55.7198 0.67325 0.0192461
1346800 60.2424 217.771 55.7198 0.67335 0.000555134
1347000 60.2424 217.784 55.7198 0.67345 -0.0103002
1347200 60.2424 217.797 55.7198 0.67355 0.0118365
1347400 60.2424 217.81 55.7198 0.67365 -0.0205599
1347600 60.2424 217.823 55.7198 0.67375 -0.00842377
1347800 60.2424 217.836 55.7198 0.67385 -9.05098e-05
1348000 60.2424 217.849 55.7198 0.67395 0.00451264
1348200 60.2424 217.862 55.7198 0.67405 0.00898282
1348400 60.2424 217.875 55.7198 0.67415 0.00481654
1348600 60.2424 217.888 55.7198 0.67425 -0.00207191
1348800 60.2424 217.901 55.7198 0.67435 -0.0007415
1349000 60.2424 217.914 55.7198 0.67445 -0.0076942
1349200 60.2424 217.927 55.7198 0.67455 0.00413962
1349400 60.2424 217.94 55.7198 0.67465 0.0188319
1349600 60.2424 217.953 55.7198 0.67475 0.00987993
1349800 60.2424 217.966 55.7198 0.67485 0.0197709
1350000 60.2424 217.979 55.7198 0.67495 0.00749519
1350200 60.2424 217.992 55.7198 0.67505 -0.0056778
1350400 60.2424 218.005 55.7198 0.67515 -0.0201602
1350600 60.2424 218.018 55.7198 0.67525 0.0122801
1350800 60.2424 218.031 55.7198 0.67535 0.0186319
1351000 60.2424 218.044 55.7198 0.67545 0.0042387
1351200 60.2424 218.057 55.7198 0.67555 -0.00484472
1351400 60.2424 218.07 55.7198 0.67565 -0.00104734
1351600 60.2424 218.083 55.7198 0.67575 -0.00571365
1351800 60.2424 218.096 55.7198 0.67585 0.011685
1352000 60.2424 218.109 55.7198 0.67595 -0.00354039
1352200 60.2424 218.122 55.7198 0.67605 -0.0104856
1352400 60.2424 218.135 55.7198 0.67615 -0.00143124
1352600 60.2424 218.148 55.7198 0.67625 0.00526178
1352800 60.2424 218.161 55.7198 0.67635 0.00312966
1353000 60.2424 218.174 55.7198 0.67645 0.019719
1353200 60.2424 218.187 55.7198 0.67655 -0.00212876
1353400 60.2424 218.2 55.7198 0.67665 -0.00947774
1353600 60.2424 218.213 55.7198 0.67675 0.0250634
1353800 60.2424 218.226 55.7198 0.67685 0.0112446
1354000 60.2424 218.239 55.7198 0.67695 0.00956562
1354200 60.2424 218.252 55.7198 0.67705 0.0098181
1354400 60.2424 218.265 55.7198 0.67715 -0.0113051
1354600 60.2424 218.278 55.7198 0.67725 0.0101453
1354800 60.2424 218.291 55.7198 0.67735 -0.00463945
1355000 60.2424 218.304 55.7198 0.67745 0.0135648
1355200 60.2424 218.317 55.7198 0.67755 -0.00876559
1355400 60.2424 218.33 55.7198 0.67765 0.00693525
1355600 60.2424 218.343 55.7198 0.67775 -0.00430839
1355800 60.2424 218.356 55.7198 0.67785 -0.00900958
1356000 60.2424 218.369 55.7198 0.67795 -0.00190212
1356200 60.2424 218.382 55.7198 0.67805 0.00688544
1356400 60.2424 218.395 55.7198 0.67815 0.0101887
1356600 60.2424 218.408 55.7198 0.67825 -0.00150554
1356800 60.2424 218.421 55.7198 0.67835 -0.0136317
1357000 60.2424 218.434 55.7198 0.67845 0.0111314
1357200 60.2424 218.447 55.7198 0.67855 0.00120146
1357400 60.2424 218.46 55.7198 0.67865 -0.00414651
1357600 60.2424 218.473 55.7198 0.67875 0.0186508
1357800 60.2424 218.486 55.7198 0.67885 0.00535931
1358000 60.2424 218.499 55.7198 0.67895 0.0183151
1358200 60.2424 218.512 55.7198 0.67905 0.0137194
1358400 60.2424 218.525 55.7198 0.67915 0.0143184
1358600 60.2424 218.538 55.7198 0.67925 -0.00630954
1358800 60.2424 218.551 55.7198 0.67935 -0.0057414
1359000 60.2424 218.564 55.7198 0.67945 0.00996117
1359200 60.2424 218.577 55.7198 0.67955 0.00140886
1359400 60.2424 218.591 55.7198 0.67965 0.00257184
1359600 60.2424 218.604 55.7198 0.67975 -0.0027125
1359800 60.2424 218.617 55.7198 0.67985 -0.0122967
1360000 60.2424 218.63 55.7198 0.67995 -0.0054376
1360200 60.2424 218.643 55.7198 0.68005 0.017872
1360400 60.2424 218.656 55.7198 0.68015 -0.00609422
1360600 60.2424 218.669 55.7198 0.68025 -0.00104212
1360800 60.2424 218.682 55.7198 0.68035 0.00140534
1361000 60.2424 218.695 55.7198 0.68045 0.00267528
1361200 60.2424 218.708 55.7198 0.68055 0.00689867
1361400 60.2424 218.721 55.7198 0.68065 -0.000838653
1361600 60.2424 218.734 55.7198 0.68075 0.00822429
1361800 60.2424 218.747 55.7198 0.68085 0.0072896
1362000 60.2424 218.76 55.7198 0.68095 0.0201141
1362200 60.2424 218.773 55.7198 0.68105 0.000144413
1362400 60.2424 218.786 55.7198 0.68115 -0.00229839
1362600 60.2424 218.799 55.7198 0.68125 0.0138754
1362800 60.2424 218.812 55.7198 0.68135 0.00347953
1363000 60.2424 218.825 55.7198 0.68145 0.00130278
1363200 60.2424 218.838 55.7198 0.68155 0.00592318
1363400 60.2424 218.851 55.7198 0.68165 -0.00415496
1363600 60.2424 218.864 55.7198 0.68175 0.0108257
1363800 60.2424 218.877 55.7198 0.68185 0.00370172
1364000 60.2424 218.89 55.7198 0.68195 -0.0105361
1364200 60.2424 218.903 55.7198 0.68205 -0.00107088
1364400 60.2424 218.916 55.7198 0.68215 -0.00369074
1364600 60.2424 218.929 55.7198 0.68225 0.0129222
1364800 60.2424 218.942 55.7198 0.68235 0.00443455
1365000 60.2424 218.955 55.7198 0.68245 0.00259822
1365200 60.2424 218.968 55.7198 0.68255 0.00367316
1365400 60.2424 218.981 55.7198 0.68265 -0.00850602
1365600 60.2424 218.994 55.7198 0.68275 -0.00944556
1365800 60.2424 219.007 55.7198 0.68285 0.0123779
1366000 60.2424 219.02 55.7198 0.68295 0.00659999
1366200 60.2424 219.033 55.7198 0.68305 0.0165582
1366400 60.2424 219.046 55.7198 0.68315 0.00317394
1366600 60.2424 219.059 55.7198 0.68325 -0.00740306
1366800 60.2424 219.072 55.7198 0.68335 -0.000190566
1367000 60.2424 219.085 55.7198 0.68345 0.0112871
1367200 60.2424 219.098 55.7198 0.68355 0.0274824
1367400 60.2424 219.111 55.7198 0.68365 0.0116183
1367600 60.2424 219.124 55.7198 0.68375 -0.000246409
1367800 60.2424 219.137 55.7198 0.68385 -0.00153167
1368000 60.2424 219.15 55.7198 0.68395 -0.00260843
1368200 60.2424 219.163 55.7198 0.68405 -0.00278242
1368400 60.2424 219.176 55.7198 0.68415 -0.00260072
1368600 60.2424 219.189 55.7198 0.68425 0.00026043
1368800 60.2424 219.202 55.7198 0.68435 -0.000300023
1369000 60.2424 219.215 55.7198 0.68445 0.0022771
1369200 60.2424 219.228 55.7198 0.68455 -0.00613896
1369400 60.2424 219.241 55.7198 0.68465 -0.00570688
1369600 60.2424 219.254 55.7198 0.68475 -0.00363917
1369800 60.2424 219.267 55.7198 0.68485 0.00408736
1370000 60.2424 219.28 55.7198 0.68495 0.022655
1370200 60.2424 219.293 55.7198 0.68505 0.0109923
1370400 60.2424 219.306 55.7198 0.68515 0.0017884
1370600 60.2424 219.319 55.7198 0.68525 -0.00518881
1370800 60.2424 219.332 55.7198 0.68535 0.0196031
1371000 60.2424 219.345 55.7198 0.68545 0.0135335
1371200 60.2424 219.358 55.7198 0.68555 0.00309948
1371400 60.2424 219.371 55.7198 0.68565 0.00513562
1371600 60.2424 219.384 55.7198 0.68575 0.0250141
1371800 60.2424 219.397 55.7198 0.68585 -0.00200862
1372000 60.2424 219.41 55.7198 0.68595 -0.0144184
1372200 60.2424 219.423 55.7198 0.68605 0.00693503
1372400 60.2424 219.436 55.7198 0.68615 0.00263769
1372600 60.2424 219.449 55.7198 0.68625 -0.00855073
1372800 60.2424 219.462 55.7198 0.68635 0.00318089
1373000 60.2424 219.475 55.7198 0.68645 0.00428492
1373200 60.2424 219.488 55.7198 0.68655 -0.029258
1373400 60.2424 219.501 55.7198 0.68665 -0.0151589
1373600 60.2424 219.514 55.7198 0.68675 0.0102507
1373800 60.2424 219.528 55.7198 0.68685 0.0137428
1374000 60.2424 219.541 55.7198 0.68695 0.0129178
1374200 60.2424 219.554 55.7198 0.68705 0.0109421
1374400 60.2424 219.567 55.7198 0.68715 0.00398901
1374600 60.2424 219.58 55.7198 0.68725 0.0231855
1374800 60.2424 219.593 55.7198 0.68735 -0.00371913
1375000 60.2424 219.606 55.7198 0.68745 0.0151499
1375200 60.2424 219.619 55.7198 0.68755 0.0208409
1375400 60.2424 219.632 55.7198 0.68765 -0.000162128
1375600 60.2424 219.645 55.7198 0.68775 0.00130736
1375800 60.2424 219.658 55.7198 0.68785 0.000135355
1376000 60.2424 219.671 55.7198 0.68795 -0.0143611
1376200 60.2424 219.684 55.7198 0.68805 0.00730632
1376400 60.2424 219.697 55.7198 0.68815 -0.00727442
1376600 60.2424 219.71 55.7198 0.68825 0.0010935
1376800 60.2424 219.723 55.7198 0.68835 -0.000668768
1377000 60.2424 219.736 55.7198 0.68845 0.000538178
1377200 60.2424 219.749 55.7198 0.68855 -0.0080101
1377400 60.2424 219.762 55.7198 0.68865 0.00010132
1377600 60.2424 219.775 55.7198 0.68875 -0.00764395
1377800 60.2424 219.788 55.7198 0.68885 0.0222031
1378000 60.2424 219.801 55.7198 0.68895 0.00644631
1378200 60.2424 219.814 55.7198 0.68905 0.00945676
1378400 60.2424 219.827 55.7198 0.68915 -0.00314383
1378600 60.2424 219.84 55.7198 0.68925 0.00701452
1378800 60.2424 219.853 55.7198 0.68935 0.0145567
1379000 60.2424 219.866 55.7198 0.68945 0.017599
1379200 60.2424 219.879 55.7198 0.68955 0.0221246
1379400 60.2424 219.892 55.7198 0.68965 0.00874208
1379600 60.2424 219.905 55.7198 0.68975 -0.00279317
1379800 60.2424 219.918 55.7198 0.68985 0.00911562
1380000 60.2424 219.931 55.7198 0.68995 -0.0115834
1380200 60.2424 219.944 55.7198 0.69005 0.00971568
1380400 60.2424 219.957 55.7198 0.69015 -0.0169378
1380600 60.2424 219.97 55.7198 0.69025 -0.0114892
1380800 60.2424 219.983 55.7198 0.69035 -0.0035606
1381000 60.2424 219.996 55.7198 0.69045 -0.0030276
1381200 60.2424 220.009 55.7198 0.69055 -0.00965923
1381400 60.2424 220.022 55.7198 0.69065 -0.0085233
1381600 60.2424 220.035 55.7198 0.69075 0.000590466
1381800 60.2424 220.048 55.7198 0.69085 0.001681
1382000 60.2424 220.061 55.7198 0.69095 0.0322872
1382200 60.2424 220.074 55.7198 0.69105 0.013025
1382400 60.2424 220.087 55.7198 0.69115 0.011259
1382600 60.2424 220.1 55.7198 0.69125 0.0296751
1382800 60.2424 220.113 55.7198 0.69135 0.0106616
1383000 60.2424 220.126 55.7198 0.69145 0.00485647
1383200 60.2424 220.139 55.7198 0.69155 -0.00233305
1383400 60.2424 220.152 55.7198 0.69165 0.011413
1383600 60.2424 220.165 55.7198 0.69175 0.0151701
1383800 60.2424 220.178 55.7198 0.69185 0.0023829
1384000 60.2424 220.191 55.7198 0.69195 -0.0241885
1384200 60.2424 220.204 55.7198 0.69205 -0.000597222
1384400 60.2424 220.217 55.7198 0.69215 -0.0213585
1384600 60.2424 220.23 55.7198 0.69225 -0.0113479
1384800 60.2424 220.243 55.7198 0.69235 -7.46572e-05
1385000 60.2424 220.256 55.7198 0.69245 -0.00279928
1385200 60.2424 220.269 55.7198 0.69255 -0.00839935
1385400 60.2424 220.282 55.7198 0.69265 0.00678808
1385600 60.2424 220.295 55.7198 0.69275 0.0243091
1385800 60.2424 220.308 55.7198 0.69285 -0.0073277
1386000 60.2424 220.321 55.7198 0.69295 0.0248304
1386200 60.2424 220.334 55.7198 0.69305 0.00847962
1386400 60.2424 220.347 55.7198 0.69315 -0.0017002
1386600 60.2424 220.36 55.7198 0.69325 0.0356006
1386800 60.2424 220.373 55.7198 0.69335 0.0293216
1387000 60.2424 220.386 55.7198 0.69345 0.0106692
1387200 60.2424 220.399 55.7198 0.69355 0.00553953
1387400 60.2424 220.412 55.7198 0.69365 -0.0146731
1387600 60.2424 220.425 55.7198 0.69375 -0.00688232
1387800 60.2424 220.438 55.7198 0.69385 0.0130798
1388000 60.2424 220.452 55.7198 0.69395 -0.0196707
1388200 60.2424 220.465 55.7198 0.69405 -0.00403452
1388400 60.2424 220.478 55.7198 0.69415 0.00600719
1388600 60.2424 220.491 55.7198 0.69425 -0.0179507
1388800 60.2424 220.504 55.7198 0.69435 -0.018856
1389000 60.2424 220.517 55.7198 0.69445 -0.00420407
1389200 60.2424 220.53 55.7198 0.69455 -0.00514133
1389400 60.2424 220.543 55.7198 0.69465 0.00988136
1389600 60.2424 220.556 55.7198 0.69475 0.014184
1389800 60.2424 220.569 55.7198 0.69485 0.0183727
1390000 60.2424 220.582 55.7198 0.69495 0.0143388
1390200 60.2424 220.595 55.7198 0.69505 0.0170147
1390400 60.2424 220.608 55.7198 0.69515 0.0116579
1390600 60.2424 220.621 55.7198 0.69525 0.00490268
1390800 60.2424 220.634 55.7198 0.69535 0.0322157
1391000 60.2424 220.647 55.7198 0.69545 0.0132442
1391200 60.2424 220.66 55.7198 0.69555 0.0204822
1391400 60.2424 220.673 55.7198 0.69565 -0.02078
1391600 60.2424 220.686 55.7198 0.69575 -0.0142693
1391800 60.2424 220.699 55.7198 0.69585 -0.0101074
1392000 60.2424 220.712 55.7198 0.69595 -0.00931536
1392200 60.2424 220.725 55.7198 0.69605 0.0109219
1392400 60.2424 220.738 55.7198 0.69615 -0.0128193
1392600 60.2424 220.751 55.7198 0.69625 -0.00806103
1392800 60.2424 220.764 55.7198 0.69635 -0.024395
1393000 60.2424 220.777 55.7198 0.69645 -0.0130855
1393200 60.2424 220.79 55.7198 0.69655 0.0222048
1393400 60.2424 220.803 55.7198 0.69665 0.0213565
1393600 60.2424 220.816 55.7198 0.69675 0.00804905
1393800 60.2424 220.829 55.7198 0.69685 0.0122538
1394000 60.2424 220.842 55.7198 0.69695 0.0174576
1394200 60.2424 220.855 55.7198 0.69705 0.0242679
1394400 60.2424 220.868 55.7198 0.69715 0.0314204
1394600 60.2424 220.881 55.7198 0.69725 0.00642635
1394800 60.2424 220.894 55.7198 0.69735 0.0144213
1395000 60.2424 220.907 55.7198 0.69745 -0.00507003
1395200 60.2424 220.92 55.7198 0.69755 0.00308509
1395400 60.2424 220.933 55.7198 0.69765 -0.0219641
1395600 60.2424 220.946 55.7198 0.69775 -0.00968432
1395800 60.2424 220.959 55.7198 0.69785 0.00410224
1396000 60.2424 220.972 55.7198 0.69795 -0.00692809
1396200 60.2424 220.985 55.7198 0.69805 -0.0106286
1396400 60.2424 220.998 55.7198 0.69815 -0.0136368
1396600 60.2424 221.011 55.7198 0.69825 -0.00860057
1396800 60.2424 221.024 55.7198 0.69835 0.000462753
1397000 60.2424 221.037 55.7198 0.69845 0.00510516
1397200 60.2424 221.05 55.7198 0.69855 0.0141458
1397400 60.2424 221.063 55.7198 0.69865 0.00703648
1397600 60.2424 221.076 55.7198 0.69875 0.0172371
1397800 60.2424 221.089 55.7198 0.69885 0.0138519
1398000 60.2424 221.102 55.7198 0.69895 -0.00114369
1398200 60.2424 221.115 55.7198 0.69905 0.0219867
1398400 60.2424 221.128 55.7198 0.69915 0.00661719
1398600 60.2424 221.141 55.7198 0.69925 0.0320658
1398800 60.2424 221.154 55.7198 0.69935 0.00672569
1399000 60.2424 221.167 55.7198 0.69945 -0.00720106
1399200 60.2424 221.18 55.7198 0.69955 -0.00766419
1399400 60.2424 221.193 55.7198 0.69965 -0.000439069
1399600 60.2424 221.206 55.7198 0.69975 -0.00743022
1399800 60.2424 221.219 55.7198 0.69985 0.012677
1400000 60.2424 221.232 55.7198 0.69995 -0.00726578
1400200 60.2424 221.245 55.7198 0.70005 -0.0149976
1400400 60.2424 221.258 55.7198 0.70015 -0.0154205
1400600 60.2424 221.271 55.7198 0.70025 0.00329933
1400800 60.2424 221.284 55.7198 0.70035 0.0109149
1401000 60.2424 221.297 55.7198 0.70045 -0.00615329
1401200 60.2424 221.31 55.7198 0.70055 0.00964636
1401400 60.2424 221.323 55.7198 0.70065 0.0185099
1401600 60.2424 221.336 55.7198 0.70075 0.0124025
1401800 60.2424 221.349 55.7198 0.70085 0.00412048
1402000 60.2424 221.362 55.7198 0.70095 0.0254529
1402200 60.2424 221.376 55.7198 0.70105 0.0134054
1402400 60.2424 221.389 55.7198 0.70115 0.00270738
1402600 60.2424 221.402 55.7198 0.70125 0.0120119
1402800 60.2424 221.415 55.7198 0.70135 0.0144112
1403000 60.2424 221.428 55.7198 0.70145 0.00039127
1403200 60.2424 221.441 55.7198 0.70155 -0.0241248
1403400 60.2424 221.454 55.7198 0.70165 -0.00750267
1403600 60.2424 221.467 55.7198 0.70175 -0.00218482
1403800 60.2424 221.48 55.7198 0.70185 -0.0142621
1404000 60.2424 221.493 55.7198 0.70195 0.0146132
1404200 60.2424 221.506 55.7198 0.70205 0.000891407
1404400 60.2424 221.519 55.7198 0.70215 -0.0174979
1404600 60.2424 221.532 55.7198 0.70225 0.00673933
1404800 60.2424 221.545 55.7198 0.70235 -0.0122228
1405000 60.2424 221.558 55.7198 0.70245 0.0259257
1405200 60.2424 221.571 55.7198 0.70255 0.012193
1405400 60.2424 221.584 55.7198 0.70265 0.00181544
1405600 60.2424 221.597 55.7198 0.70275 0.0228285
1405800 60.2424 221.61 55.7198 0.70285 0.00222397
1406000 60.2424 221.623 55.7198 0.70295 0.0110765
1406200 60.2424 221.636 55.7198 0.70305 0.0144113
1406400 60.2424 221.649 55.7198 0.70315 0.0048004
1406600 60.2424 221.662 55.7198 0.70325 0.0211504
1406800 60.2424 221.675 55.7198 0.70335 0.0110878
1407000 60.2424 221.688 55.7198 0.70345 -0.0137129
1407200 60.2424 221.701 55.7198 0.70355 -0.0109334
1407400 60.2424 221.714 55.7198 0.70365 -0.01251
1407600 60.2424 221.727 55.7198 0.70375 -0.00732384
1407800 60.2424 221.74 55.7198 0.70385 0.00792642
1408000 60.2424 221.753 55.7198 0.70395 -0.00288868
1408200 60.2424 221.766 55.7198 0.70405 -0.0004471
1408400 60.2424 221.779 55.7198 0.70415 0.00472772
1408600 60.2424 221.792 55.7198 0.70425 -0.0174488
1408800 60.2424 221.805 55.7198 0.70435 0.00366786
1409000 60.2424 221.818 55.7198 0.70445 0.00764013
1409200 60.2424 221.831 55.7198 0.70455 0.014717
1409400 60.2424 221.844 55.7198 0.70465 0.0124775
1409600 60.2424 221.857 55.7198 0.70475 0.0326621
1409800 60.2424 221.87 55.7198 0.70485 0.0196862
1410000 60.2424 221.883 55.7198 0.70495 -0.000787459
1410200 60.2424 221.896 55.7198 0.70505 0.00962269
1410400 60.2424 221.909 55.7198 0.70515 0.00780906
1410600 60.2424 221.922 55.7198 0.70525 0.00833708
1410800 60.2424 221.935 55.7198 0.70535 0.0115638
1411000 60.2424 221.948 55.7198 0.70545 0.00204264
1411200 60.2424 221.961 55.7198 0.70555 -0.0141937
1411400 60.2424 221.974 55.7198 0.70565 -0.00766495
1411600 60.2424 221.987 55.7198 0.70575 -0.00912498
1411800 60.2424 222 55.7198 0.70585 -0.0316108
1412000 60.2424 222.013 55.7198 0.70595 -0.00583498
1412200 60.2424 222.026 55.7198 0.70605 0.000913962
1412400 60.2424 222.039 55.7198 0.70615 0.0169203
1412600 60.2424 222.052 55.7198 0.70625 -0.0122689
1412800 60.2424 222.065 55.7198 0.70635 -0.00883023
1413000 60.2424 222.078 55.7198 0.70645 0.00378543
1413200 60.2424 222.091 55.7198 0.70655 0.0296019
1413400 60.2424 222.104 55.7198 0.70665 0.0171801
1413600 60.2424 222.117 55.7198 0.70675 0.0332833
1413800 60.2424 222.13 55.7198 0.70685 0.00684774
1414000 60.2424 222.143 55.7198 0.70695 0.0352781
1414200 60.2424 222.156 55.7198 0.70705 0.00638402
1414400 60.2424 222.169 55.7198 0.70715 -0.0044705
1414600 60.2424 222.182 55.7198 0.70725 0.00575729
1414800 60.2424 222.195 55.7198 0.70735 0.0157627
1415000 60.2424 222.208 55.7198 0.70745 -0.00675157
1415200 60.2424 222.221 55.7198 0.70755 -0.004722
1415400 60.2424 222.234 55.7198 0.70765 -0.0183959
1415600 60.2424 222.247 55.7198 0.70775 -0.0250017
1415800 60.2424 222.26 55.7198 0.70785 -0.00321333
1416000 60.2424 222.273 55.7198 0.70795 -0.0162984
1416200 60.2424 222.286 55.7198 0.70805 0.000414454
1416400 60.2424 222.3 55.7198 0.70815 -0.00789866
1416600 60.2424 222.313 55.7198 0.70825 0.00751208
1416800 60.2424 222.326 55.7198 0.70835 0.0147918
1417000 60.2424 222.339 55.7198 0.70845 0.00207063
1417200 60.2424 222.352 55.7198 0.70855 0.00540043
1417400 60.2424 222.365 55.7198 0.70865 0.0354693
1417600 60.2424 222.378 55.7198 0.70875 0.0271596
1417800 60.2424 222.391 55.7198 0.70885 0.00980549
1418000 60.2424 222.404 55.7198 0.70895 0.0281407
1418200 60.2424 222.417 55.7198 0.70905 0.00365636
1418400 60.2424 222.43 55.7198 0.70915 0.00390891
1418600 60.2424 222.443 55.7198 0.70925 0.00600729
1418800 60.2424 222.456 55.7198 0.70935 -0.00299653
1419000 60.2424 222.469 55.7198 0.70945 -0.00110372
1419200 60.2424 222.482 55.7198 0.70955 -0.00960488
1419400 60.2424 222.495 55.7198 0.70965 -0.0180407
1419600 60.2424 222.508 55.7198 0.70975 -0.0262548
1419800 60.2424 222.521 55.7198 0.70985 -0.0122778
1420000 60.2424 222.534 55.7198 0.70995 -0.00504753
1420200 60.2424 222.547 55.7198 0.71005 0.00378292
1420400 60.2424 222.56 55.7198 0.71015 -0.00762146
1420600 60.2424 222.573 55.7198 0.71025 0.0200841
1420800 60.2424 222.586 55.7198 0.71035 0.00524435
1421000 60.2424 222.599 55.7198 0.71045 0.0196475
1421200 60.2424 222.612 55.7198 0.71055 0.00819869
1421400 60.2424 222.625 55.7198 0.71065 0.0315401
1421600 60.2424 222.638 55.7198 0.71075 0.030785
1421800 60.2424 222.651 55.7198 0.71085 0.0162791
1422000 60.2424 222.664 55.7198 0.71095 0.0155038
1422200 60.2424 222.677 55.7198 0.71105 0.0123372
1422400 60.2424 222.69 55.7198 0.71115 0.0160394
1422600 60.2424 222.703 55.7198 0.71125 -0.0225754
1422800 60.2424 222.716 55.7198 0.71135 -0.00879922
1423000 60.2424 222.729 55.7198 0.71145 0.00268276
1423200 60.2424 222.742 55.7198 0.71155 -0.021619
1423400 60.2424 222.755 55.7198 0.71165 -0.00829416
1423600 60.2424 222.768 55.7198 0.71175 -0.0161919
1423800 60.2424 222.781 55.7198 0.71185 -0.0132759
1424000 60.2424 222.794 55.7198 0.71195 0.000665017
1424200 60.2424 222.807 55.7198 0.71205 0.00511761
1424400 60.2424 222.82 55.7198 0.71215 -0.0311737
1424600 60.2424 222.833 55.7198 0.71225 0.0264202
1424800 60.2424 222.846 55.7198 0.71235 0.0346099
1425000 60.2424 222.859 55.7198 0.71245 -0.00219927
1425200 60.2424 222.872 55.7198 0.71255 0.0211961
1425400 60.2424 222.885 55.7198 0.71265 0.0159207
1425600 60.2424 222.898 55.7198 0.71275 0.0157965
1425800 60.2424 222.911 55.7198 0.71285 0.0240347
1426000 60.2424 222.924 55.7198 0.71295 0.0183548
1426200 60.2424 222.937 55.7198 0.71305 0.00528786
1426400 60.2424 222.95 55.7198 0.71315 0.00312442
1426600 60.2424 222.963 55.7198 0.71325 0.00215393
1426800 60.2424 222.976 55.7198 0.71335 -0.00198231
1427000 60.2424 222.989 55.7198 0.71345 -0.0114926
1427200 60.2424 223.002 55.7198 0.71355 -0.00911407
1427400 60.2424 223.015 55.7198 0.71365 -0.00758591
1427600 60.2424 223.028 55.7198 0.71375 -0.0104275
1427800 60.2424 223.041 55.7198 0.71385 -0.0182291
1428000 60.2424 223.054 55.7198 0.71395 -0.005213
1428200 60.2424 223.067 55.7198 0.71405 0.00261418
1428400 60.2424 223.08 55.7198 0.71415 -0.000761658
1428600 60.2424 223.093 55.7198 0.71425 -0.00399404
1428800 60.2424 223.106 55.7198 0.71435 0.0205969
1429000 60.2424 223.119 55.7198 0.71445 0.0171889
1429200 60.2424 223.132 55.7198 0.71455 0.00956321
1429400 60.2424 223.145 55.7198 0.71465 0.0133352
1429600 60.2424 223.158 55.7198 0.71475 0.0161813
1429800 60.2424 223.171 55.7198 0.71485 0.0361097
1430000 60.2424 223.184 55.7198 0.71495 0.012592
1430200 60.2424 223.197 55.7198 0.71505 -0.00494867
1430400 60.2424 223.21 55.7198 0.71515 0.0210614
1430600 60.2424 223.224 55.7198 0.71525 -0.00927995
1430800 60.2424 223.237 55.7198 0.71535 -0.00807151
1431000 60.2424 223.25 55.7198 0.71545 -0.0101446
1431200 60.2424 223.263 55.7198 0.71555 -0.00291377
1431400 60.2424 223.276 55.7198 0.71565 -0.0148219
1431600 60.2424 223.289 55.7198 0.71575 0.00888283
1431800 60.2424 223.302 55.7198 0.71585 -0.0210008
1432000 60.2424 223.315 55.7198 0.71595 -0.00969714
1432200 60.2424 223.328 55.7198 0.71605 0.0030574
1432400 60.2424 223.341 55.7198 0.71615 0.00340181
1432600 60.2424 223.354 55.7198 0.71625 0.00920277
1432800 60.2424 223.367 55.7198 0.71635 0.0118163
1433000 60.2424 223.38 55.7198 0.71645 0.0178943
1433200 60.2424 223.393 55.7198 0.71655 0.0130652
1433400 60.2424 223.406 55.7198 0.71665 0.0219597
1433600 60.2424 223.419 55.7198 0.71675 0.0211318
1433800 60.2424 223.432 55.7198 0.71685 0.0175233
1434000 60.2424 223.445 55.7198 0.71695 0.0100188
1434200 60.2424 223.458 55.7198 0.71705 0.00915846
1434400 60.2424 223.471 55.7198 0.71715 0.00409607
1434600 60.2424 223.484 55.7198 0.71725 -0.0185148
1434800 60.2424 223.497 55.7198 0.71735 -0.00543891
1435000 60.2424 223.51 55.7198 0.71745 -0.0290728
1435200 60.2424 223.523 55.7198 0.71755 -0.0220777
1435400 60.2424 223.536 55.7198 0.71765 0.0215252
1435600 60.2424 223.549 55.7198 0.71775 -0.0145035
1435800 60.2424 223.562 55.7198 0.71785 0.00460092
1436000 60.2424 223.575 55.7198 0.71795 0.00246013
1436200 60.2424 223.588 55.7198 0.71805 -0.00119136
1436400 60.2424 223.601 55.7198 0.71815 0.00954925
1436600 60.2424 223.614 55.7198 0.71825 0.0196877
1436800 60.2424 223.627 55.7198 0.71835 0.02324
1437000 60.2424 223.64 55.7198 0.71845 0.0303775
1437200 60.2424 223.653 55.7198 0.71855 0.0166905
1437400 60.2424 223.666 55.7198 0.71865 -0.0134123
1437600 60.2424 223.679 55.7198 0.71875 0.00453649
1437800 60.2424 223.692 55.7198 0.71885 0.0141254
1438000 60.2424 223.705 55.7198 0.71895 0.0113732
1438200 60.2424 223.718 55.7198 0.71905 0.00167154
1438400 60.2424 223.731 55.7198 0.71915 -0.0083327
1438600 60.2424 223.744 55.7198 0.71925 -0.00486836
1438800 60.2424 223.757 55.7198 0.71935 -0.0166738
1439000 60.2424 223.77 55.7198 0.71945 -0.0242465
1439200 60.2424 223.783 55.7198 0.71955 0.0071988
1439400 60.2424 223.796 55.7198 0.71965 -0.00768482
1439600 60.2424 223.809 55.7198 0.71975 0.00221277
1439800 60.2424 223.822 55.7198 0.71985 0.00533128
1440000 60.2424 223.835 55.7198 0.71995 0.0030333
1440200 60.2424 223.848 55.7198 0.72005 0.0102053
1440400 60.2424 223.861 55.7198 0.72015 0.0165874
1440600 60.2424 223.874 55.7198 0.72025 0.0173956
1440800 60.2424 223.887 55.7198 0.72035 0.0164001
1441000 60.2424 223.9 55.7198 0.72045 0.0180878
1441200 60.2424 223.913 55.7198 0.72055 0.0120716
1441400 60.2424 223.926 55.7198 0.72065 0.00877704
1441600 60.2424 223.939 55.7198 0.72075 0.00642248
1441800 60.2424 223.952 55.7198 0.72085 0.0145108
1442000 60.2424 223.965 55.7198 0.72095 -0.00199976
1442200 60.2424 223.978 55.7198 0.72105 -0.00951887
1442400 60.2424 223.991 55.7198 0.72115 -0.00949265
1442600 60.2424 224.004 55.7198 0.72125 -0.0197295
1442800 60.2424 224.017 55.7198 0.72135 -0.0062369
1443000 60.2424 224.03 55.7198 0.72145 -0.0105875
1443200 60.2424 224.043 55.7198 0.72155 0.0023287
1443400 60.2424 224.056 55.7198 0.72165 0.0230288
1443600 60.2424 224.069 55.7198 0.72175 -0.0166372
1443800 60.2424 224.082 55.7198 0.72185 0.0104921
1444000 60.2424 224.095 55.7198 0.72195 -0.00651632
1444200 60.2424 224.108 55.7198 0.72205 0.0185064
1444400 60.2424 224.121 55.7198 0.72215 0.0129994
1444600 60.2424 224.134 55.7198 0.72225 0.0135364
1444800 60.2424 224.148 55.7198 0.72235 0.0319687
1445000 60.2424 224.161 55.7198 0.72245 0.0155297
1445200 60.2424 224.174 55.7198 0.72255 0.00176584
1445400 60.2424 224.187 55.7198 0.72265 0.00231994
1445600 60.2424 224.2 55.7198 0.72275 0.00382368
1445800 60.2424 224.213 55.7198 0.72285 0.00860445
1446000 60.2424 224.226 55.7198 0.72295 0.00208498
1446200 60.2424 224.239 55.7198 0.72305 -0.0226394
1446400 60.2424 224.252 55.7198 0.72315 -0.0017191
1446600 60.2424 224.265 55.7198 0.72325 -0.00885295
1446800 60.2424 224.278 55.7198 0.72335 -0.00635792
1447000 60.2424 224.291 55.7198 0.72345 -0.00627275
1447200 60.2424 224.304 55.7198 0.72355 -0.0102181
1447400 60.2424 224.317 55.7198 0.72365 -0.0030815
1447600 60.2424 224.33 55.7198 0.72375 0.0142576
1447800 60.2424 224.343 55.7198 0.72385 0.0183213
1448000 60.2424 224.356 55.7198 0.72395 0.0156013
1448200 60.2424 224.369 55.7198 0.72405 0.0209234
1448400 60.2424 224.382 55.7198 0.72415 0.00163338
1448600 60.2424 224.395 55.7198 0.72425 -0.00507984
1448800 60.2424 224.408 55.7198 0.72435 0.0239662
1449000 60.2424 224.421 55.7198 0.72445 0.0188449
1449200 60.2424 224.434 55.7198 0.72455 0.0109685
1449400 60.2424 224.447 55.7198 0.72465 0.009912
1449600 60.2424 224.46 55.7198 0.72475 -0.0109496
1449800 60.2424 224.473 55.7198 0.72485 0.00152301
1450000 60.2424 224.486 55.7198 0.72495 -0.012553
1450200 60.2424 224.499 55.7198 0.72505 -0.0105317
1450400 60.2424 224.512 55.7198 0.72515 -0.0025937
1450600 60.2424 224.525 55.7198 0.72525 -0.0114203
1450800 60.2424 224.538 55.7198 0.72535 0.020283
1451000 60.2424 224.551 55.7198 0.72545 0.00349826
1451200 60.2424 224.564 55.7198 0.72555 -0.0125278
1451400 60.2424 224.577 55.7198 0.72565 -0.00157812
1451600 60.2424 224.59 55.7198 0.72575 0.0150753
1451800 60.2424 224.603 55.7198 0.72585 -0.000404988
1452000 60.2424 224.616 55.7198 0.72595 0.0137714
1452200 60.2424 224.629 55.7198 0.72605 0.0366887
1452400 60.2424 224.642 55.7198 0.72615 0.016263
1452600 60.2424 224.655 55.7198 0.72625 -0.00944659
1452800 60.2424 224.668 55.7198 0.72635 0.000488458
1453000 60.2424 224.681 55.7198 0.72645 0.00560488
1453200 60.2424 224.694 55.7198 0.72655 0.00339369
1453400 60.2424 224.707 55.7198 0.72665 -0.00580336
1453600 60.2424 224.72 55.7198 0.72675 0.0276002
1453800 60.2424 224.733 55.7198 0.72685 -0.000428956
1454000 60.2424 224.746 55.7198 0.72695 -0.0207651
1454200 60.2424 224.759 55.7198 0.72705 -0.0121497
1454400 60.2424 224.772 55.7198 0.72715 -0.00151571
1454600 60.2424 224.785 55.7198 0.72725 -0.00325925
1454800 60.2424 224.798 55.7198 0.72735 0.00925276
1455000 60.2424 224.811 55.7198 0.72745 -0.000873356
1455200 60.2424 224.824 55.7198 0.72755 0.00687615
1455400 60.2424 224.837 55.7198 0.72765 0.0128395
1455600 60.2424 224.85 55.7198 0.72775 0.00765019
1455800 60.2424 224.863 55.7198 0.72785 -0.00281452
1456000 60.2424 224.876 55.7198 0.72795 0.0204886
1456200 60.2424 224.889 55.7198 0.72805 0.0207003
1456400 60.2424 224.902 55.7198 0.72815 0.017081
1456600 60.2424 224.915 55.7198 0.72825 0.00125778
1456800 60.2424 224.928 55.7198 0.72835 0.0100961
1457000 60.2424 224.941 55.7198 0.72845 -0.000430159
1457200 60.2424 224.954 55.7198 0.72855 -0.00384489
1457400 60.2424 224.967 55.7198 0.72865 -0.00897234
1457600 60.2424 224.98 55.7198 0.72875 -0.000497079
1457800 60.2424 224.993 55.7198 0.72885 -0.00367522
1458000 60.2424 225.006 55.7198 0.72895 -0.00618257
1458200 60.2424 225.019 55.7198 0.72905 -0.012636
1458400 60.2424 225.032 55.7198 0.72915 0.00222052
1458600 60.2424 225.045 55.7198 0.72925 0.0089078
1458800 60.2424 225.058 55.7198 0.72935 -0.00195016
1459000 60.2424 225.071 55.7198 0.72945 0.00493987
1459200 60.2424 225.085 55.7198 0.72955 -0.00313874
1459400 60.2424 225.098 55.7198 0.72965 0.0185987
1459600 60.2424 225.111 55.7198 0.72975 0.0244974
1459800 60.2424 225.124 55.7198 0.72985 0.0124086
1460000 60.2424 225.137 55.7198 0.72995 0.0203374
1460200 60.2424 225.15 55.7198 0.73005 0.00854992
1460400 60.2424 225.163 55.7198 0.73015 0.0144508
1460600 60.2424 225.176 55.7198 0.73025 -0.00431435
1460800 60.2424 225.189 55.7198 0.73035 0.00496895
1461000 60.2424 225.202 55.7198 0.73045 -0.0037431
1461200 60.2424 225.215 55.7198 0.73055 0.00519714
1461400 60.2424 225.228 55.7198 0.73065 0.000472049
1461600 60.2424 225.241 55.7198 0.73075 -0.0234274
1461800 60.2424 225.254 55.7198 0.73085 -0.00657615
1462000 60.2424 225.267 55.7198 0.73095 -0.0259629
1462200 60.2424 225.28 55.7198 0.73105 0.00157464
1462400 60.2424 225.293 55.7198 0.73115 0.0138692
1462600 60.2424 225.306 55.7198 0.73125 0.00450286
1462800 60.2424 225.319 55.7198 0.73135 0.00510064
1463000 60.2424 225.332 55.7198 0.73145 0.0115635
1463200 60.2424 225.345 55.7198 0.73155 0.0108574
1463400 60.2424 225.358 55.7198 0.73165 0.0244021
1463600 60.2424 225.371 55.7198 0.73175 0.00889948
1463800 60.2424 225.384 55.7198 0.73185 0.0189072
1464000 60.2424 225.397 55.7198 0.73195 0.0273296
1464200 60.2424 225.41 55.7198 0.73205 -0.00285708
1464400 60.2424 225.423 55.7198 0.73215 0.00721911
1464600 60.2424 225.436 55.7198 0.73225 -0.00854622
1464800 60.2424 225.449 55.7198 0.73235 -0.00985464
1465000 60.2424 225.462 55.7198 0.73245 0.0136951
1465200 60.2424 225.475 55.7198 0.73255 -0.0147581
1465400 60.2424 225.488 55.7198 0.73265 -0.0145622
1465600 60.2424 225.501 55.7198 0.73275 -0.0320383
1465800 60.2424 225.514 55.7198 0.73285 0.0201588
1466000 60.2424 225.527 55.7198 0.73295 -0.0173199
1466200 60.2424 225.54 55.7198 0.73305 0.0023247
1466400 60.2424 225.553 55.7198 0.73315 0.00548016
1466600 60.2424 225.566 55.7198 0.73325 0.0122886
1466800 60.2424 225.579 55.7198 0.73335 0.00577849
1467000 60.2424 225.592 55.7198 0.73345 0.0268673
1467200 60.2424 225.605 55.7198 0.73355 0.0140258
1467400 60.2424 225.618 55.7198 0.73365 0.0181432
1467600 60.2424 225.631 55.7198 0.73375 0.0308894
1467800 60.2424 225.644 55.7198 0.73385 0.0138639
1468000 60.2424 225.657 55.7198 0.73395 0.00859187
1468200 60.2424 225.67 55.7198 0.73405 0.011175
1468400 60.2424 225.683 55.7198 0.73415 -0.00769183
1468600 60.2424 225.696 55.7198 0.73425 -0.00169688
1468800 60.2424 225.709 55.7198 0.73435 -0.0120133
1469000 60.2424 225.722 55.7198 0.73445 -0.00939718
1469200 60.2424 225.735 55.7198 0.73455 -0.0199722
1469400 60.2424 225.748 55.7198 0.73465 -0.00555508
1469600 60.2424 225.761 55.7198 0.73475 -0.0205357
1469800 60.2424 225.774 55.7198 0.73485 -0.0131396
1470000 60.2424 225.787 55.7198 0.73495 -0.00734314
1470200 60.2424 225.8 55.7198 0.73505 0.00470772
1470400 60.2424 225.813 55.7198 0.73515 0.0124633
1470600 60.2424 225.826 55.7198 0.73525 0.0273559
1470800 60.2424 225.839 55.7198 0.73535 0.0197068
1471000 60.2424 225.852 55.7198 0.73545 0.0149733
1471200 60.2424 225.865 55.7198 0.73555 0.0285465
1471400 60.2424 225.878 55.7198 0.73565 0.0170984
1471600 60.2424 225.891 55.7198 0.73575 0.0252363
1471800 60.2424 225.904 55.7198 0.73585 0.0246063
1472000 60.2424 225.917 55.7198 0.73595 -0.00595154
1472200 60.2424 225.93 55.7198 0.73605 0.0100078
1472400 60.2424 225.943 55.7198 0.73615 -0.00617643
1472600 60.2424 225.956 55.7198 0.73625 -0.0166778
1472800 60.2424 225.969 55.7198 0.73635 -0.0230898
1473000 60.2424 225.982 55.7198 0.73645 -0.0248702
1473200 60.2424 225.995 55.7198 0.73655 0.000555615
1473400 60.2424 226.009 55.7198 0.73665 -0.0114913
1473600 60.2424 226.022 55.7198 0.73675 -0.0250943
1473800 60.2424 226.035 55.7198 0.73685 -0.00712222
1474000 60.2424 226.048 55.7198 0.73695 0.000998008
1474200 60.2424 226.061 55.7198 0.73705 0.00362132
1474400 60.2424 226.074 55.7198 0.73715 0.0137908
1474600 60.2424 226.087 55.7198 0.73725 0.0364692
1474800 60.2424 226.1 55.7198 0.73735 0.0079503
1475000 60.2424 226.113 55.7198 0.73745 0.044829
1475200 60.2424 226.126 55.7198 0.73755 0.0245045
1475400 60.2424 226.139 55.7198 0.73765 0.0287658
1475600 60.2424 226.152 55.7198 0.73775 0.0194662
1475800 60.2424 226.165 55.7198 0.73785 0.0175209
1476000 60.2424 226.178 55.7198 0.73795 -0.00247765
1476200 60.2424 226.191 55.7198 0.73805 -0.0080534
1476400 60.2424 226.204 55.7198 0.73815 -0.00784804
1476600 60.2424 226.217 55.7198 0.73825 -0.0188266
1476800 60.2424 226.23 55.7198 0.73835 -0.0169199
1477000 60.2424 226.243 55.7198 0.73845 -0.0146874
1477200 60.2424 226.256 55.7198 0.73855 -0.0262583
1477400 60.2424 226.269 55.7198 0.73865 -0.0353324
1477600 60.2424 226.282 55.7198 0.73875 -0.0158415
1477800 60.2424 226.295 55.7198 0.73885 -0.00265001
1478000 60.2424 226.308 55.7198 0.73895 0.0157807
1478200 60.2424 226.321 55.7198 0.73905 0.0122049
1478400 60.2424 226.334 55.7198 0.73915 0.023141
1478600 60.2424 226.347 55.7198 0.73925 0.0159607
1478800 60.2424 226.36 55.7198 0.73935 0.0442864
1479000 60.2424 226.373 55.7198 0.73945 0.0238241
1479200 60.2424 226.386 55.7198 0.73955 0.00833171
1479400 60.2424 226.399 55.7198 0.73965 0.0332033
1479600 60.2424 226.412 55.7198 0.73975 0.0272992
1479800 60.2424 226.425 55.7198 0.73985 0.0191167
1480000 60.2424 226.438 55.7198 0.73995 0.0081679
1480200 60.2424 226.451 55.7198 0.74005 -0.0254105
1480400 60.2424 226.464 55.7198 0.74015 -0.0194682
1480600 60.2424 226.477 55.7198 0.74025 -0.00930645
1480800 60.2424 226.49 55.7198 0.74035 -0.0111875
1481000 60.2424 226.503 55.7198 0.74045 -0.0224509
1481200 60.2424 226.516 55.7198 0.74055 -0.0209737
1481400 60.2424 226.529 55.7198 0.74065 -0.00520559
1481600 60.2424 226.542 55.7198 0.74075 -0.0241651
1481800 60.2424 226.555 55.7198 0.74085 -0.0112696
1482000 60.2424 226.568 55.7198 0.74095 0.00286013
1482200 60.2424 226.581 55.7198 0.74105 0.0102418
1482400 60.2424 226.594 55.7198 0.74115 0.0407431
1482600 60.2424 226.607 55.7198 0.74125 0.0274295
1482800 60.2424 226.62 55.7198 0.74135 0.0302917
1483000 60.2424 226.633 55.7198 0.74145 0.0212291
1483200 60.2424 226.646 55.7198 0.74155 0.0111467
1483400 60.2424 226.659 55.7198 0.74165 0.0332649
1483600 60.2424 226.672 55.7198 0.74175 0.0303359
1483800 60.2424 226.685 55.7198 0.74185 0.00055908
1484000 60.2424 226.698 55.7198 0.74195 0.00103602
1484200 60.2424 226.711 55.7198 0.74205 0.0122268
1484400 60.2424 226.724 55.7198 0.74215 -0.040516
1484600 60.2424 226.737 55.7198 0.74225 -0.0271389
1484800 60.2424 226.75 55.7198 0.74235 -0.0359277
1485000 60.2424 226.763 55.7198 0.74245 -0.00546869
1485200 60.2424 226.776 55.7198 0.74255 -0.0231158
1485400 60.2424 226.789 55.7198 0.74265 -0.00830925
1485600 60.2424 226.802 55.7198 0.74275 -0.0110214
1485800 60.2424 226.815 55.7198 0.74285 0.00238983
1486000 60.2424 226.828 55.7198 0.74295 0.00562841
1486200 60.2424 226.841 55.7198 0.74305 0.0275209
1486400 60.2424 226.854 55.7198 0.74315 0.0162732
1486600 60.2424 226.867 55.7198 0.74325 0.0389428
1486800 60.2424 226.88 55.7198 0.74335 0.0288784
1487000 60.2424 226.893 55.7198 0.74345 0.0406885
1487200 60.2424 226.906 55.7198 0.74355 0.0143582
1487400 60.2424 226.919 55.7198 0.74365 0.0160728
1487600 60.2424 226.933 55.7198 0.74375 0.0108361
1487800 60.2424 226.946 55.7198 0.74385 -0.00648474
1488000 60.2424 226.959 55.7198 0.74395 -0.00879119
1488200 60.2424 226.972 55.7198 0.74405 4.87212e-06
1488400 60.2424 226.985 55.7198 0.74415 -0.0251532
1488600 60.2424 226.998 55.7198 0.74425 -0.0164164
1488800 60.2424 227.011 55.7198 0.74435 -0.0310468
1489000 60.2424 227.024 55.7198 0.74445 -0.000497786
1489200 60.2424 227.037 55.7198 0.74455 -0.0204413
1489400 60.2424 227.05 55.7198 0.74465 -0.018259
1489600 60.2424 227.063 55.7198 0.74475 0.0159682
1489800 60.2424 227.076 55.7198 0.74485 -0.00297256
1490000 60.2424 227.089 55.7198 0.74495 0.0139715
1490200 60.2424 227.102 55.7198 0.74505 0.0247964
1490400 60.2424 227.115 55.7198 0.74515 0.0302659
1490600 60.2424 227.128 55.7198 0.74525 0.0113851
1490800 60.2424 227.141 55.7198 0.74535 0.0264772
1491000 60.2424 227.154 55.7198 0.74545 0.0118803
1491200 60.2424 227.167 55.7198 0.74555 0.0266605
1491400 60.2424 227.18 55.7198 0.74565 0.0201564
1491600 60.2424 227.193 55.7198 0.74575 0.00695329
1491800 60.2424 227.206 55.7198 0.74585 0.00746194
1492000 60.2424 227.219 55.7198 0.74595 -0.0235729
1492200 60.2424 227.232 55.7198 0.74605 -0.0185831
1492400 60.2424 227.245 55.7198 0.74615 -0.0171269
1492600 60.2424 227.258 55.7198 0.74625 -0.00784882
1492800 60.2424 227.271 55.7198 0.74635 -0.0126483
1493000 60.2424 227.284 55.7198 0.74645 0.00242734
1493200 60.2424 227.297 55.7198 0.74655 -0.026259
1493400 60.2424 227.31 55.7198 0.74665 -0.00593102
1493600 60.2424 227.323 55.7198 0.74675 0.0055185
1493800 60.2424 227.336 55.7198 0.74685 0.0141572
1494000 60.2424 227.349 55.7198 0.74695 0.006893
1494200 60.2424 227.362 55.7198 0.74705 0.0247994
1494400 60.2424 227.375 55.7198 0.74715 0.0190352
1494600 60.2424 227.388 55.7198 0.74725 0.028597
1494800 60.2424 227.401 55.7198 0.74735 0.0257787
1495000 60.2424 227.414 55.7198 0.74745 0.00479847
1495200 60.2424 227.427 55.7198 0.74755 0.0233902
1495400 60.2424 227.44 55.7198 0.74765 0.00684356
1495600 60.2424 227.453 55.7198 0.74775 -0.0135547
1495800 60.2424 227.466 55.7198 0.74785 -0.00684697
1496000 60.2424 227.479 55.7198 0.74795 -0.00635185
1496200 60.2424 227.492 55.7198 0.74805 -0.0126348
1496400 60.2424 227.505 55.7198 0.74815 -0.009082
1496600 60.2424 227.518 55.7198 0.74825 -0.0222871
1496800 60.2424 227.531 55.7198 0.74835 -0.00914198
1497000 60.2424 227.544 55.7198 0.74845 -0.00781686
1497200 60.2424 227.557 55.7198 0.74855 0.0235903
1497400 60.2424 227.57 55.7198 0.74865 -0.00596319
1497600 60.2424 227.583 55.7198 0.74875 0.0180323
1497800 60.2424 227.596 55.7198 0.74885 0.00750189
1498000 60.2424 227.609 55.7198 0.74895 0.0144798
1498200 60.2424 227.622 55.7198 0.74905 0.0148299
1498400 60.2424 227.635 55.7198 0.74915 0.0201295
1498600 60.2424 227.648 55.7198 0.74925 0.0219519
1498800 60.2424 227.661 55.7198 0.74935 0.0146669
1499000 60.2424 227.674 55.7198 0.74945 0.00891186
1499200 60.2424 227.687 55.7198 0.74955 -0.0127567
1499400 60.2424 227.7 55.7198 0.74965 0.00483126
1499600 60.2424 227.713 55.7198 0.74975 -0.0134321
1499800 60.2424 227.726 55.7198 0.74985 0.00422896
1500000 60.2424 227.739 55.7198 0.74995 -0.00242219
1500200 60.2424 227.752 55.7198 0.75005 -0.00965074
1500400 60.2424 227.765 55.7198 0.75015 -0.0130104
1500600 60.2424 227.778 55.7198 0.75025 -0.0126663
1500800 60.2424 227.791 55.7198 0.75035 -0.0148339
1501000 60.2424 227.804 55.7198 0.75045 -0.00453336
1501200 60.2424 227.817 55.7198 0.75055 0.0209811
1501400 60.2424 227.83 55.7198 0.75065 0.00540011
1501600 60.2424 227.843 55.7198 0.75075 0.0197249
1501800 60.2424 227.857 55.7198 0.75085 0.00328129
1502000 60.2424 227.87 55.7198 0.75095 0.0108063
1502200 60.2424 227.883 55.7198 0.75105 0.0223838
1502400 60.2424 227.896 55.7198 0.75115 0.0353287
1502600 60.2424 227.909 55.7198 0.75125 0.0186088
1502800 60.2424 227.922 55.7198 0.75135 0.00486416
1503000 60.2424 227.935 55.7198 0.75145 -0.00158507
1503200 60.2424 227.948 55.7198 0.75155 0.00539649
1503400 60.2424 227.961 55.7198 0.75165 -0.0164837
1503600 60.2424 227.974 55.7198 0.75175 0.00257552
1503800 60.2424 227.987 55.7198 0.75185 -0.000796511
1504000 60.2424 228 55.7198 0.75195 -0.00509751
1504200 60.2424 228.013 55.7198 0.75205 -0.0115574
1504400 60.2424 228.026 55.7198 0.75215 -0.014502
1504600 60.2424 228.039 55.7198 0.75225 -0.0231902
1504800 60.2424 228.052 55.7198 0.75235 -0.00877693
1505000 60.2424 228.065 55.7198 0.75245 0.0150924
1505200 60.2424 228.078 55.7198 0.75255 0.00697898
1505400 60.2424 228.091 55.7198 0.75265 0.011782
1505600 60.2424 228.104 55.7198 0.75275 0.0169898
1505800 60.2424 228.117 55.7198 0.75285 0.0144632
1506000 60.2424 228.13 55.7198 0.75295 0.00133715
1506200 60.2424 228.143 55.7198 0.75305 0.022334
1506400 60.2424 228.156 55.7198 0.75315 0.0349747
1506600 60.2424 228.169 55.7198 0.75325 0.0181217
1506800 60.2424 228.182 55.7198 0.75335 0.00966624
1507000 60.2424 228.195 55.7198 0.75345 -0.00136971
1507200 60.2424 228.208 55.7198 0.75355 -0.00625255
1507400 60.2424 228.221 55.7198 0.75365 -0.0169428
1507600 60.2424 228.234 55.7198 0.75375 -0.0120853
1507800 60.2424 228.247 55.7198 0.75385 -0.00599286
1508000 60.2424 228.26 55.7198 0.75395 -0.00203973
1508200 60.2424 228.273 55.7198 0.75405 -0.0209733
1508400 60.2424 228.286 55.7198 0.75415 -0.0217679
1508600 60.2424 228.299 55.7198 0.75425 -0.000138878
1508800 60.2424 228.312 55.7198 0.75435 0.00800012
1509000 60.2424 228.325 55.7198 0.75445 -0.00143972
1509200 60.2424 228.338 55.7198 0.75455 0.0151485
1509400 60.2424 228.351 55.7198 0.75465 0.0214368
1509600 60.2424 228.364 55.7198 0.75475 0.0420306
1509800 60.2424 228.377 55.7198 0.75485 0.0140027
1510000 60.2424 228.39 55.7198 0.75495 0.00635904
1510200 60.2424 228.403 55.7198 0.75505 0.0133471
1510400 60.2424 228.416 55.7198 0.75515 0.0182231
1510600 60.2424 228.429 55.7198 0.75525 0.00767501
1510800 60.2424 228.442 55.7198 0.75535 -0.0011551
1511000 60.2424 228.455 55.7198 0.75545 -0.00265172
1511200 60.2424 228.468 55.7198 0.75555 -0.00183851
1511400 60.2424 228.481 55.7198 0.75565 -0.00525586
1511600 60.2424 228.494 55.7198 0.75575 -0.02619
1511800 60.2424 228.507 55.7198 0.75585 -0.0253788
1512000 60.2424 228.52 55.7198 0.75595 0.000531827
1512200 60.2424 228.533 55.7198 0.75605 0.00230603
1512400 60.2424 228.546 55.7198 0.75615 -0.02354
1512600 60.2424 228.559 55.7198 0.75625 0.00264087
1512800 60.2424 228.572 55.7198 0.75635 0.0181421
1513000 60.2424 228.585 55.7198 0.75645 0.0242854
1513200 60.2424 228.598 55.7198 0.75655 0.0165612
1513400 60.2424 228.611 55.7198 0.75665 0.0100291
1513600 60.2424 228.624 55.7198 0.75675 0.0205704
1513800 60.2424 228.637 55.7198 0.75685 0.0232508
1514000 60.2424 228.65 55.7198 0.75695 0.0198481
1514200 60.2424 228.663 55.7198 0.75705 0.0225207
1514400 60.2424 228.676 55.7198 0.75715 -0.000230164
1514600 60.2424 228.689 55.7198 0.75725 -0.0105284
1514800 60.2424 228.702 55.7198 0.75735 -0.00534718
1515000 60.2424 228.715 55.7198 0.75745 0.00354914
1515200 60.2424 228.728 55.7198 0.75755 -0.0233101
1515400 60.2424 228.741 55.7198 0.75765 0.000190623
1515600 60.2424 228.754 55.7198 0.75775 -0.0189592
1515800 60.2424 228.767 55.7198 0.75785 -0.0125925
1516000 60.2424 228.781 55.7198 0.75795 -0.0138264
1516200 60.2424 228.794 55.7198 0.75805 -0.00831243
1516400 60.2424 228.807 55.7198 0.75815 0.000953907
1516600 60.2424 228.82 55.7198 0.75825 0.0136425
1516800 60.2424 228.833 55.7198 0.75835 0.0269937
1517000 60.2424 228.846 55.7198 0.75845 -0.0104728
1517200 60.2424 228.859 55.7198 0.75855 0.0297257
1517400 60.2424 228.872 55.7198 0.75865 0.0143281
1517600 60.2424 228.885 55.7198 0.75875 0.0334399
1517800 60.2424 228.898 55.7198 0.75885 0.00783802
1518000 60.2424 228.911 55.7198 0.75895 0.0297677
1518200 60.2424 228.924 55.7198 0.75905 0.00324217
1518400 60.2424 228.937 55.7198 0.75915 0.00762806
1518600 60.2424 228.95 55.7198 0.75925 -0.00118547
1518800 60.2424 228.963 55.7198 0.75935 0.000913524
1519000 60.2424 228.976 55.7198 0.75945 -0.0130183
1519200 60.2424 228.989 55.7198 0.75955 -0.019307
1519400 60.2424 229.002 55.7198 0.75965 -0.0190928
1519600 60.2424 229.015 55.7198 0.75975 -0.00397772
1519800 60.2424 229.028 55.7198 0.75985 -0.0150169
1520000 60.2424 229.041 55.7198 0.75995 0.00827681
1520200 60.2424 229.054 55.7198 0.76005 -0.00953804
1520400 60.2424 229.067 55.7198 0.76015 -0.0062488
1520600 60.2424 229.08 55.7198 0.76025 0.00158026
1520800 60.2424 229.093 55.7198 0.76035 0.00854358
1521000 60.2424 229.106 55.7198 0.76045 0.0262962
1521200 60.2424 229.119 55.7198 0.76055 0.0420259
1521400 60.2424 229.132 55.7198 0.76065 0.0193483
1521600 60.2424 229.145 55.7198 0.76075 0.00945605
1521800 60.2424 229.158 55.7198 0.76085 0.00312904
1522000 60.2424 229.171 55.7198 0.76095 0.0128984
1522200 60.2424 229.184 55.7198 0.76105 0.0168187
1522400 60.2424 229.197 55.7198 0.76115 0.0123592
1522600 60.2424 229.21 55.7198 0.76125 0.0132233
1522800 60.2424 229.223 55.7198 0.76135 -0.0193015
1523000 60.2424 229.236 55.7198 0.76145 -0.0152128
1523200 60.2424 229.249 55.7198 0.76155 -0.0136057
1523400 60.2424 229.262 55.7198 0.76165 -0.0297902
1523600 60.2424 229.275 55.7198 0.76175 -0.00246672
1523800 60.2424 229.288 55.7198 0.76185 -0.00188599
1524000 60.2424 229.301 55.7198 0.76195 -0.00858023
1524200 60.2424 229.314 55.7198 0.76205 -0.0156066
1524400 60.2424 229.327 55.7198 0.76215 -0.00113881
1524600 60.2424 229.34 55.7198 0.76225 0.0115869
1524800 60.2424 229.353 55.7198 0.76235 0.0212399
1525000 60.2424 229.366 55.7198 0.76245 0.0214682
1525200 60.2424 229.379 55.7198 0.76255 0.0302767
1525400 60.2424 229.392 55.7198 0.76265 0.0270311
1525600 60.2424 229.405 55.7198 0.76275 0.0254279
1525800 60.2424 229.418 55.7198 0.76285 0.0108385
1526000 60.2424 229.431 55.7198 0.76295 0.00828404
1526200 60.2424 229.444 55.7198 0.76305 0.0132767
1526400 60.2424 229.457 55.7198 0.76315 0.0064572
1526600 60.2424 229.47 55.7198 0.76325 0.00683423
1526800 60.2424 229.483 55.7198 0.76335 0.0107906
1527000 60.2424 229.496 55.7198 0.76345 -0.0336981
1527200 60.2424 229.509 55.7198 0.76355 -0.0283443
1527400 60.2424 229.522 55.7198 0.76365 -0.0202169
1527600 60.2424 229.535 55.7198 0.76375 -0.0293563
1527800 60.2424 229.548 55.7198 0.76385 -0.00379683
1528000 60.2424 229.561 55.7198 0.76395 -0.00547782
1528200 60.2424 229.574 55.7198 0.76405 -0.0082672
1528400 60.2424 229.587 55.7198 0.76415 0.00901375
1528600 60.2424 229.6 55.7198 0.76425 0.0249407
1528800 60.2424 229.613 55.7198 0.76435 0.0111206
1529000 60.2424 229.626 55.7198 0.76445 0.0263612
1529200 60.2424 229.639 55.7198 0.76455 0.0245879
1529400 60.2424 229.652 55.7198 0.76465 0.0239446
1529600 60.2424 229.665 55.7198 0.76475 0.0248983
1529800 60.2424 229.678 55.7198 0.76485 0.0113816
1530000 60.2424 229.691 55.7198 0.76495 0.0205087
1530200 60.2424 229.704 55.7198 0.76505 -0.0130775
1530400 60.2424 229.718 55.7198 0.76515 -0.00389131
1530600 60.2424 229.731 55.7198 0.76525 -0.00500626
1530800 60.2424 229.744 55.7198 0.76535 -0.00569964
1531000 60.2424 229.757 55.7198 0.76545 -0.0026694
1531200 60.2424 229.77 55.7198 0.76555 -0.025296
1531400 60.2424 229.783 55.7198 0.76565 -0.0221115
1531600 60.2424 229.796 55.7198 0.76575 -0.00822382
1531800 60.2424 229.809 55.7198 0.76585 -0.00654283
1532000 60.2424 229.822 55.7198 0.76595 0.010487
1532200 60.2424 229.835 55.7198 0.76605 -0.00858168
1532400 60.2424 229.848 55.7198 0.76615 0.00940286
1532600 60.2424 229.861 55.7198 0.76625 0.0190492
1532800 60.2424 229.874 55.7198 0.76635 0.0352781
1533000 60.2424 229.887 55.7198 0.76645 0.00777608
1533200 60.2424 229.9 55.7198 0.76655 0.0234272
1533400 60.2424 229.913 55.7198 0.76665 0.0203864
1533600 60.2424 229.926 55.7198 0.76675 0.0316966
1533800 60.2424 229.939 55.7198 0.76685 0.00108651
1534000 60.2424 229.952 55.7198 0.76695 0.013039
1534200 60.2424 229.965 55.7198 0.76705 -0.012001
1534400 60.2424 229.978 55.7198 0.76715 -0.00777802
1534600 60.2424 229.991 55.7198 0.76725 -0.0100194
1534800 60.2424 230.004 55.7198 0.76735 0.00547779
1535000 60.2424 230.017 55.7198 0.76745 -0.0299423
1535200 60.2424 230.03 55.7198 0.76755 -0.0207463
1535400 60.2424 230.043 55.7198 0.76765 -0.00805165
1535600 60.2424 230.056 55.7198 0.76775 -0.00750816
1535800 60.2424 230.069 55.7198 0.76785 -0.000909825
1536000 60.2424 230.082 55.7198 0.76795 0.0102262
1536200 60.2424 230.095 55.7198 0.76805 0.0162838
1536400 60.2424 230.108 55.7198 0.76815 0.0076969
1536600 60.2424 230.121 55.7198 0.76825 0.0102717
1536800 60.2424 230.134 55.7198 0.76835 0.0266018
1537000 60.2424 230.147 55.7198 0.76845 0.0184683
1537200 60.2424 230.16 55.7198 0.76855 0.0255876
1537400 60.2424 230.173 55.7198 0.76865 0.0258679
1537600 60.2424 230.186 55.7198 0.76875 0.0115917
1537800 60.2424 230.199 55.7198 0.76885 0.0176741
1538000 60.2424 230.212 55.7198 0.76895 -0.00893245
1538200 60.2424 230.225 55.7198 0.76905 0.000185036
1538400 60.2424 230.238 55.7198 0.76915 -0.0232532
1538600 60.2424 230.251 55.7198 0.76925 -0.00339168
1538800 60.2424 230.264 55.7198 0.76935 -0.0262714
1539000 60.2424 230.277 55.7198 0.76945 -0.0115503
1539200 60.2424 230.29 55.7198 0.76955 -0.0182668
1539400 60.2424 230.303 55.7198 0.76965 -0.0230542
1539600 60.2424 230.316 55.7198 0.76975 8.11023e-05
1539800 60.2424 230.329 55.7198 0.76985 0.00555672
1540000 60.2424 230.342 55.7198 0.76995 0.0162053
1540200 60.2424 230.355 55.7198 0.77005 0.00918525
1540400 60.2424 230.368 55.7198 0.77015 0.0176141
1540600 60.2424 230.381 55.7198 0.77025 0.023417
1540800 60.2424 230.394 55.7198 0.77035 0.0153629
1541000 60.2424 230.407 55.7198 0.77045 0.0375253
1541200 60.2424 230.42 55.7198 0.77055 0.0188184
1541400 60.2424 230.433 55.7198 0.77065 0.0286397
1541600 60.2424 230.446 55.7198 0.77075 0.0296951
1541800 60.2424 230.459 55.7198 0.77085 -0.0200358
1542000 60.2424 230.472 55.7198 0.77095 -0.000690617
1542200 60.2424 230.485 55.7198 0.77105 -0.00604053
1542400 60.2424 230.498 55.7198 0.77115 -0.0163699
1542600 60.2424 230.511 55.7198 0.77125 -0.0189949
1542800 60.2424 230.524 55.7198 0.77135 -0.0133704
1543000 60.2424 230.537 55.7198 0.77145 -0.0234102
1543200 60.2424 230.55 55.7198 0.77155 -0.01432
1543400 60.2424 230.563 55.7198 0.77165 -0.00295006
1543600 60.2424 230.576 55.7198 0.77175 -0.0234689
1543800 60.2424 230.589 55.7198 0.77185 0.0238665
1544000 60.2424 230.602 55.7198 0.77195 0.0141939
1544200 60.2424 230.615 55.7198 0.77205 0.0176519
1544400 60.2424 230.628 55.7198 0.77215 0.0202607
1544600 60.2424 230.642 55.7198 0.77225 0.00333209
1544800 60.2424 230.655 55.7198 0.77235 0.0347843
1545000 60.2424 230.668 55.7198 0.77245 0.0185984
1545200 60.2424 230.681 55.7198 0.77255 0.0283148
1545400 60.2424 230.694 55.7198 0.77265 0.0156668
1545600 60.2424 230.707 55.7198 0.77275 0.00620287
1545800 60.2424 230.72 55.7198 0.77285 0.0106665
1546000 60.2424 230.733 55.7198 0.77295 -0.0147361
1546200 60.2424 230.746 55.7198 0.77305 -0.00569432
1546400 60.2424 230.759 55.7198 0.77315 -0.0239278
1546600 60.2424 230.772 55.7198 0.77325 -0.00730928
1546800 60.2424 230.785 55.7198 0.77335 -0.00995867
1547000 60.2424 230.798 55.7198 0.77345 -0.0184782
1547200 60.2424 230.811 55.7198 0.77355 -0.00717079
1547400 60.2424 230.824 55.7198 0.77365 -0.00926514
1547600 60.2424 230.837 55.7198 0.77375 -0.000901941
1547800 60.2424 230.85 55.7198 0.77385 0.0016278
1548000 60.2424 230.863 55.7198 0.77395 0.0189443
1548200 60.2424 230.876 55.7198 0.77405 0.0208034
1548400 60.2424 230.889 55.7198 0.77415 0.0181161
1548600 60.2424 230.902 55.7198 0.77425 0.0174939
1548800 60.2424 230.915 55.7198 0.77435 0.0419059
1549000 60.2424 230.928 55.7198 0.77445 0.0163223
1549200 60.2424 230.941 55.7198 0.77455 0.00605851
1549400 60.2424 230.954 55.7198 0.77465 0.0157297
1549600 60.2424 230.967 55.7198 0.77475 -0.00017681
1549800 60.2424 230.98 55.7198 0.77485 -0.00453474
1550000 60.2424 230.993 55.7198 0.77495 -0.00710978
1550200 60.2424 231.006 55.7198 0.77505 -0.00546654
1550400 60.2424 231.019 55.7198 0.77515 -0.0270742
1550600 60.2424 231.032 55.7198 0.77525 -0.0156265
1550800 60.2424 231.045 55.7198 0.77535 -0.0110849
1551000 60.2424 231.058 55.7198 0.77545 0.00284762
1551200 60.2424 231.071 55.7198 0.77555 -0.0116514
1551400 60.2424 231.084 55.7198 0.77565 0.00214646
1551600 60.2424 231.097 55.7198 0.77575 0.0111556
1551800 60.2424 231.11 55.7198 0.77585 0.0158425
1552000 60.2424 231.123 55.7198 0.77595 0.0135427
1552200 60.2424 231.136 55.7198 0.77605 0.0155853
1552400 60.2424 231.149 55.7198 0.77615 0.0200823
1552600 60.2424 231.162 55.7198 0.77625 0.0084829
1552800 60.2424 231.175 55.7198 0.77635 0.0223785
1553000 60.2424 231.188 55.7198 0.77645 0.0100654
1553200 60.2424 231.201 55.7198 0.77655 0.0236043
1553400 60.2424 231.214 55.7198 0.77665 0.00278672
1553600 60.2424 231.227 55.7198 0.77675 0.000416568
1553800 60.2424 231.24 55.7198 0.77685 -0.00276781
1554000 60.2424 231.253 55.7198 0.77695 -0.0199643
1554200 60.2424 231.266 55.7198 0.77705 -0.0136493
1554400 60.2424 231.279 55.7198 0.77715 -0.0108923
1554600 60.2424 231.292 55.7198 0.77725 -0.000774029
1554800 60.2424 231.305 55.7198 0.77735 -0.0275578
1555000 60.2424 231.318 55.7198 0.77745 0.00406448
1555200 60.2424 231.331 55.7198 0.77755 0.00146932
1555400 60.2424 231.344 55.7198 0.77765 -0.00372093
1555600 60.2424 231.357 55.7198 0.77775 0.00651392
1555800 60.2424 231.37 55.7198 0.77785 0.016238
1556000 60.2424 231.383 55.7198 0.77795 0.0337174
1556200 60.2424 231.396 55.7198 0.77805 0.0155804
1556400 60.2424 231.409 55.7198 0.77815 0.0226128
1556600 60.2424 231.422 55.7198 0.77825 0.0175134
1556800 60.2424 231.435 55.7198 0.77835 0.0137205
1557000 60.2424 231.448 55.7198 0.77845 -0.000664034
1557200 60.2424 231.461 55.7198 0.77855 0.0165802
1557400 60.2424 231.474 55.7198 0.77865 0.0110207
1557600 60.2424 231.487 55.7198 0.77875 -0.000862989
1557800 60.2424 231.5 55.7198 0.77885 -0.0148327
1558000 60.2424 231.513 55.7198 0.77895 -0.00657583
1558200 60.2424 231.526 55.7198 0.77905 -0.0152469
1558400 60.2424 231.539 55.7198 0.77915 -0.0238405
1558600 60.2424 231.552 55.7198 0.77925 -0.000259492
1558800 60.2424 231.566 55.7198 0.77935 -0.00494489
1559000 60.2424 231.579 55.7198 0.77945 -0.00323292
1559200 60.2424 231.592 55.7198 0.77955 -0.00859357
1559400 60.2424 231.605 55.7198 0.77965 0.00311546
1559600 60.2424 231.618 55.7198 0.77975 0.0164707
1559800 60.2424 231.631 55.7198 0.77985 0.0054856
1560000 60.2424 231.644 55.7198 0.77995 0.0224178
1560200 60.2424 231.657 55.7198 0.78005 0.00794335
1560400 60.2424 231.67 55.7198 0.78015 0.0235172
1560600 60.2424 231.683 55.7198 0.78025 0.0285013
1560800 60.2424 231.696 55.7198 0.78035 0.0212942
1561000 60.2424 231.709 55.7198 0.78045 0.0143452
1561200 60.2424 231.722 55.7198 0.78055 0.000373472
1561400 60.2424 231.735 55.7198 0.78065 0.0106461
1561600 60.2424 231.748 55.7198 0.78075 -0.0157516
1561800 60.2424 231.761 55.7198 0.78085 -0.00887295
1562000 60.2424 231.774 55.7198 0.78095 -0.00449904
1562200 60.2424 231.787 55.7198 0.78105 -0.0144261
1562400 60.2424 231.8 55.7198 0.78115 -0.00955271
1562600 60.2424 231.813 55.7198 0.78125 -0.00933385
1562800 60.2424 231.826 55.7198 0.78135 -0.0233776
1563000 60.2424 231.839 55.7198 0.78145 -0.0130546
1563200 60.2424 231.852 55.7198 0.78155 -0.0040826
1563400 60.2424 231.865 55.7198 0.78165 0.0254514
1563600 60.2424 231.878 55.7198 0.78175 0.030408
1563800 60.2424 231.891 55.7198 0.78185 0.00743184
1564000 60.2424 231.904 55.7198 0.78195 0.0210895
1564200 60.2424 231.917 55.7198 0.78205 -0.000260533
1564400 60.2424 231.93 55.7198 0.78215 0.0141532
1564600 60.2424 231.943 55.7198 0.78225 0.0266021
1564800 60.2424 231.956 55.7198 0.78235 0.0296453
1565000 60.2424 231.969 55.7198 0.78245 0.00270009
1565200 60.2424 231.982 55.7198 0.78255 0.0081219
1565400 60.2424 231.995 55.7198 0.78265 -0.0100873
1565600 60.2424 232.008 55.7198 0.78275 -0.00253907
1565800 60.2424 232.021 55.7198 0.78285 -0.00566483
1566000 60.2424 232.034 55.7198 0.78295 -0.00320183
1566200 60.2424 232.047 55.7198 0.78305 -0.0200257
1566400 60.2424 232.06 55.7198 0.78315 -0.00663332
1566600 60.2424 232.073 55.7198 0.78325 -0.00905517
1566800 60.2424 232.086 55.7198 0.78335 -0.0163027
1567000 60.2424 232.099 55.7198 0.78345 0.00458738
1567200 60.2424 232.112 55.7198 0.78355 0.007364
1567400 60.2424 232.125 55.7198 0.78365 0.0058997
1567600 60.2424 232.138 55.7198 0.78375 0.0241076
1567800 60.2424 232.151 55.7198 0.78385 0.00418919
1568000 60.2424 232.164 55.7198 0.78395 0.0275572
1568200 60.2424 232.177 55.7198 0.78405 0.0106817
1568400 60.2424 232.19 55.7198 0.78415 0.00889025
1568600 60.2424 232.203 55.7198 0.78425 0.0322076
1568800 60.2424 232.216 55.7198 0.78435 -0.00656229
1569000 60.2424 232.229 55.7198 0.78445 0.0223836
1569200 60.2424 232.242 55.7198 0.78455 -0.00942808
1569400 60.2424 232.255 55.7198 0.78465 0.0150025
1569600 60.2424 232.268 55.7198 0.78475 -0.0269354
1569800 60.2424 232.281 55.7198 0.78485 -0.00581286
1570000 60.2424 232.294 55.7198 0.78495 -0.00166544
1570200 60.2424 232.307 55.7198 0.78505 -0.0176161
1570400 60.2424 232.32 55.7198 0.78515 -0.0124087
1570600 60.2424 232.333 55.7198 0.78525 -0.00210553
1570800 60.2424 232.346 55.7198 0.78535 -0.0130589
1571000 60.2424 232.359 55.7198 0.78545 -0.00837879
1571200 60.2424 232.372 55.7198 0.78555 0.0111192
1571400 60.2424 232.385 55.7198 0.78565 0.0254571
1571600 60.2424 232.398 55.7198 0.78575 0.0145839
1571800 60.2424 232.411 55.7198 0.78585 0.0214956
1572000 60.2424 232.424 55.7198 0.78595 0.0154221
1572200 60.2424 232.437 55.7198 0.78605 0.0160536
1572400 60.2424 232.45 55.7198 0.78615 0.0232778
1572600 60.2424 232.463 55.7198 0.78625 0.0207684
1572800 60.2424 232.476 55.7198 0.78635 0.0106515
1573000 60.2424 232.49 55.7198 0.78645 -0.000549923
1573200 60.2424 232.503 55.7198 0.78655 0.00241764
1573400 60.2424 232.516 55.7198 0.78665 -0.0121762
1573600 60.2424 232.529 55.7198 0.78675 -0.0165573
1573800 60.2424 232.542 55.7198 0.78685 -0.00891419
1574000 60.2424 232.555 55.7198 0.78695 -0.0110604
1574200 60.2424 232.568 55.7198 0.78705 -0.0053124
1574400 60.2424 232.581 55.7198 0.78715 -0.0097317
1574600 60.2424 232.594 55.7198 0.78725 -0.0152317
1574800 60.2424 232.607 55.7198 0.78735 -0.00064427
1575000 60.2424 232.62 55.7198 0.78745 0.00939738
1575200 60.2424 232.633 55.7198 0.78755 -0.0018576
1575400 60.2424 232.646 55.7198 0.78765 0.0269353
1575600 60.2424 232.659 55.7198 0.78775 0.02668
1575800 60.2424 232.672 55.7198 0.78785 0.0169807
1576000 60.2424 232.685 55.7198 0.78795 0.011238
1576200 60.2424 232.698 55.7198 0.78805 0.00878376
1576400 60.2424 232.711 55.7198 0.78815 0.02194
1576600 60.2424 232.724 55.7198 0.78825 0.0121567
1576800 60.2424 232.737 55.7198 0.78835 0.0093689
1577000 60.2424 232.75 55.7198 0.78845 0.00939406
1577200 60.2424 232.763 55.7198 0.78855 -0.0146534
1577400 60.2424 232.776 55.7198 0.78865 -0.000478881
1577600 60.2424 232.789 55.7198 0.78875 -0.00192745
1577800 60.2424 232.802 55.7198 0.78885 -0.0209999
1578000 60.2424 232.815 55.7198 0.78895 -0.0010139
1578200 60.2424 232.828 55.7198 0.78905 -0.013301
1578400 60.2424 232.841 55.7198 0.78915 -0.00956903
1578600 60.2424 232.854 55.7198 0.78925 -0.0141933
1578800 60.2424 232.867 55.7198 0.78935 0.00335188
1579000 60.2424 232.88 55.7198 0.78945 0.00926199
1579200 60.2424 232.893 55.7198 0.78955 -0.00285876
1579400 60.2424 232.906 55.7198 0.78965 0.0223998
1579600 60.2424 232.919 55.7198 0.78975 0.0150026
1579800 60.2424 232.932 55.7198 0.78985 0.0174913
1580000 60.2424 232.945 55.7198 0.78995 0.0245497
1580200 60.2424 232.958 55.7198 0.79005 0.0138366
1580400 60.2424 232.971 55.7198 0.79015 0.0173203
1580600 60.2424 232.984 55.7198 0.79025 0.0165945
1580800 60.2424 232.997 55.7198 0.79035 0.00609075
1581000 60.2424 233.01 55.7198 0.79045 -0.00438806
1581200 60.2424 233.023 55.7198 0.79055 -0.00197363
1581400 60.2424 233.036 55.7198 0.79065 -0.00374856
1581600 60.2424 233.049 55.7198 0.79075 -0.00850964
1581800 60.2424 233.062 55.7198 0.79085 -0.0162828
1582000 60.2424 233.075 55.7198 0.79095 -0.0165922
1582200 60.2424 233.088 55.7198 0.79105 -0.00346408
1582400 60.2424 233.101 55.7198 0.79115 -0.00078613
1582600 60.2424 233.114 55.7198 0.79125 -0.00920491
1582800 60.2424 233.127 55.7198 0.79135 -0.00431759
1583000 60.2424 233.14 55.7198 0.79145 0.00580479
1583200 60.2424 233.153 55.7198 0.79155 0.0134033
1583400 60.2424 233.166 55.7198 0.79165 0.0115098
1583600 60.2424 233.179 55.7198 0.79175 0.00906002
1583800 60.2424 233.192 55.7198 0.79185 0.0324306
1584000 60.2424 233.205 55.7198 0.79195 0.0073784
1584200 60.2424 233.218 55.7198 0.79205 0.0123755
1584400 60.2424 233.231 55.7198 0.79215 0.0278738
1584600 60.2424 233.244 55.7198 0.79225 0.0110795
1584800 60.2424 233.257 55.7198 0.79235 0.00223777
1585000 60.2424 233.27 55.7198 0.79245 0.0111652
1585200 60.2424 233.283 55.7198 0.79255 -0.00203608
1585400 60.2424 233.296 55.7198 0.79265 -0.011858
1585600 60.2424 233.309 55.7198 0.79275 -0.010186
1585800 60.2424 233.322 55.7198 0.79285 -0.0112856
1586000 60.2424 233.335 55.7198 0.79295 -0.00861026
1586200 60.2424 233.348 55.7198 0.79305 -0.0187281
1586400 60.2424 233.361 55.7198 0.79315 -0.00731307
1586600 60.2424 233.374 55.7198 0.79325 0.00564417
1586800 60.2424 233.387 55.7198 0.79335 0.00481664
1587000 60.2424 233.4 55.7198 0.79345 0.00433467
1587200 60.2424 233.414 55.7198 0.79355 0.0095021
1587400 60.2424 233.427 55.7198 0.79365 0.0154099
1587600 60.2424 233.44 55.7198 0.79375 0.0225487
1587800 60.2424 233.453 55.7198 0.79385 0.0202455
1588000 60.2424 233.466 55.7198 0.79395 0.0094481
1588200 60.2424 233.479 55.7198 0.79405 0.0139114
1588400 60.2424 233.492 55.7198 0.79415 0.019629
1588600 60.2424 233.505 55.7198 0.79425 0.00571111
1588800 60.2424 233.518 55.7198 0.79435 -0.0148231
1589000 60.2424 233.531 55.7198 0.79445 -0.00548187
1589200 60.2424 233.544 55.7198 0.79455 0.00435829
1589400 60.2424 233.557 55.7198 0.79465 -0.0173702
1589600 60.2424 233.57 55.7198 0.79475 -0.00547831
1589800 60.2424 233.583 55.7198 0.79485 -8.65483e-05
1590000 60.2424 233.596 55.7198 0.79495 -0.00118854
1590200 60.2424 233.609 55.7198 0.79505 -0.0118061
1590400 60.2424 233.622 55.7198 0.79515 0.00548966
1590600 60.2424 233.635 55.7198 0.79525 -0.0114468
1590800 60.2424 233.648 55.7198 0.79535 0.0213014
1591000 60.2424 233.661 55.7198 0.79545 0.0177447
1591200 60.2424 233.674 55.7198 0.79555 0.000932768
1591400 60.2424 233.687 55.7198 0.79565 0.00838135
1591600 60.2424 233.7 55.7198 0.79575 0.0312606
1591800 60.2424 233.713 55.7198 0.79585 -0.000855987
1592000 60.2424 233.726 55.7198 0.79595 0.0105478
1592200 60.2424 233.739 55.7198 0.79605 0.0108069
1592400 60.2424 233.752 55.7198 0.79615 0.00703857
1592600 60.2424 233.765 55.7198 0.79625 0.0134316
1592800 60.2424 233.778 55.7198 0.79635 -0.00968609
1593000 60.2424 233.791 55.7198 0.79645 0.0125522
1593200 60.2424 233.804 55.7198 0.79655 -0.0214289
1593400 60.2424 233.817 55.7198 0.79665 -0.00659013
1593600 60.2424 233.83 55.7198 0.79675 0.000188892
1593800 60.2424 233.843 55.7198 0.79685 -0.000226846
1594000 60.2424 233.856 55.7198 0.79695 0.00351312
1594200 60.2424 233.869 55.7198 0.79705 -0.0106021
1594400 60.2424 233.882 55.7198 0.79715 0.00980281
1594600 60.2424 233.895 55.7198 0.79725 -0.0162298
1594800 60.2424 233.908 55.7198 0.79735 0.0144271
1595000 60.2424 233.921 55.7198 0.79745 -0.0105382
1595200 60.2424 233.934 55.7198 0.79755 0.0170406
1595400 60.2424 233.947 55.7198 0.79765 0.0268529
1595600 60.2424 233.96 55.7198 0.79775 0.0130876
1595800 60.2424 233.973 55.7198 0.79785 0.00662708
1596000 60.2424 233.986 55.7198 0.79795 0.00306899
1596200 60.2424 233.999 55.7198 0.79805 0.0144869
1596400 60.2424 234.012 55.7198 0.79815 0.018681
1596600 60.2424 234.025 55.7198 0.79825 -0.0153396
1596800 60.2424 234.038 55.7198 0.79835 0.0130908
1597000 60.2424 234.051 55.7198 0.79845 0.0126883
1597200 60.2424 234.064 55.7198 0.79855 -0.0052067
1597400 60.2424 234.077 55.7198 0.79865 -0.00786906
1597600 60.2424 234.09 55.7198 0.79875 -0.0161887
1597800 60.2424 234.103 55.7198 0.79885 -0.00682077
1598000 60.2424 234.116 55.7198 0.79895 0.00517567
1598200 60.2424 234.129 55.7198 0.79905 -0.00530659
1598400 60.2424 234.142 55.7198 0.79915 -0.00039963
1598600 60.2424 234.155 55.7198 0.79925 0.00532172
1598800 60.2424 234.168 55.7198 0.79935 0.00459175
1599000 60.2424 234.181 55.7198 0.79945 -0.000529124
1599200 60.2424 234.194 55.7198 0.79955 0.000738451
1599400 60.2424 234.207 55.7198 0.79965 0.0193303
1599600 60.2424 234.22 55.7198 0.79975 0.0210693
1599800 60.2424 234.233 55.7198 0.79985 0.0160155
1600000 60.2424 234.246 55.7198 0.79995 0.0172445
1600200 60.2424 234.259 55.7198 0.80005 0.00285202
1600400 60.2424 234.272 55.7198 0.80015 -0.000251541
1600600 60.2424 234.285 55.7198 0.80025 0.00813414
1600800 60.2424 234.298 55.7198 0.80035 0.0103306
1601000 60.2424 234.311 55.7198 0.80045 -0.0027825
1601200 60.2424 234.324 55.7198 0.80055 -0.0160568
1601400 60.2424 234.338 55.7198 0.80065 0.000944033
1601600 60.2424 234.351 55.7198 0.80075 -0.00435716
1601800 60.2424 234.364 55.7198 0.80085 -0.00542532
1602000 60.2424 234.377 55.7198 0.80095 -0.000864514
1602200 60.2424 234.39 55.7198 0.80105 -0.00137646
1602400 60.2424 234.403 55.7198 0.80115 0.0108064
1602600 60.2424 234.416 55.7198 0.80125 -0.0101553
1602800 60.2424 234.429 55.7198 0.80135 0.00915052
1603000 60.2424 234.442 55.7198 0.80145 0.00541736
1603200 60.2424 234.455 55.7198 0.80155 0.0148128
1603400 60.2424 234.468 55.7198 0.80165 0.00289141
1603600 60.2424 234.481 55.7198 0.80175 0.0174893
1603800 60.2424 234.494 55.7198 0.80185 0.00823946
1604000 60.2424 234.507 55.7198 0.80195 0.0174398
1604200 60.2424 234.52 55.7198 0.80205 -0.00866132
1604400 60.2424 234.533 55.7198 0.80215 0.0122243
1604600 60.2424 234.546 55.7198 0.80225 -0.00706639
1604800 60.2424 234.559 55.7198 0.80235 0.00227587
1605000 60.2424 234.572 55.7198 0.80245 0.00985577
1605200 60.2424 234.585 55.7198 0.80255 0.00572621
1605400 60.2424 234.598 55.7198 0.80265 -0.00594828
1605600 60.2424 234.611 55.7198 0.80275 -0.0102323
1605800 60.2424 234.624 55.7198 0.80285 -0.0135296
1606000 60.2424 234.637 55.7198 0.80295 0.00747345
1606200 60.2424 234.65 55.7198 0.80305 0.00356035
1606400 60.2424 234.663 55.7198 0.80315 0.00488803
1606600 60.2424 234.676 55.7198 0.80325 -0.00872913
1606800 60.2424 234.689 55.7198 0.80335 0.0167484
1607000 60.2424 234.702 55.7198 0.80345 -0.00758917
1607200 60.2424 234.715 55.7198 0.80355 0.0261331
1607400 60.2424 234.728 55.7198 0.80365 0.00435533
1607600 60.2424 234.741 55.7198 0.80375 0.0102433
1607800 60.2424 234.754 55.7198 0.80385 0.0172252
1608000 60.2424 234.767 55.7198 0.80395 0.00184322
1608200 60.2424 234.78 55.7198 0.80405 0.024191
1608400 60.2424 234.793 55.7198 0.80415 -0.0161331
1608600 60.2424 234.806 55.7198 0.80425 0.00668815
1608800 60.2424 234.819 55.7198 0.80435 0.0066562
1609000 60.2424 234.832 55.7198 0.80445 0.011116
1609200 60.2424 234.845 55.7198 0.80455 -0.0109549
1609400 60.2424 234.858 55.7198 0.80465 -0.00908242
1609600 60.2424 234.871 55.7198 0.80475 0.00199857
1609800 60.2424 234.884 55.7198 0.80485 -0.00274779
1610000 60.2424 234.897 55.7198 0.80495 -0.00678663
1610200 60.2424 234.91 55.7198 0.80505 -0.0235326
1610400 60.2424 234.923 55.7198 0.80515 0.0204292
1610600 60.2424 234.936 55.7198 0.80525 0.00485126
1610800 60.2424 234.949 55.7198 0.80535 -0.00552789
1611000 60.2424 234.962 55.7198 0.80545 0.0258324
1611200 60.2424 234.975 55.7198 0.80555 0.00611723
1611400 60.2424 234.988 55.7198 0.80565 -0.00178227
1611600 60.2424 235.001 55.7198 0.80575 0.0138746
1611800 60.2424 235.014 55.7198 0.80585 0.0160153
1612000 60.2424 235.027 55.7198 0.80595 0.0146376
1612200 60.2424 235.04 55.7198 0.80605 0.0244913
1612400 60.2424 235.053 55.7198 0.80615 -0.00082137
1612600 60.2424 235.066 55.7198 0.80625 0.0099373
1612800 60.2424 235.079 55.7198 0.80635 -0.0164174
1613000 60.2424 235.092 55.7198 0.80645 -0.00920384
1613200 60.2424 235.105 55.7198 0.80655 -0.0118478
1613400 60.2424 235.118 55.7198 0.80665 0.00495958
1613600 60.2424 235.131 55.7198 0.80675 0.00819575
1613800 60.2424 235.144 55.7198 0.80685 -0.000545517
1614000 60.2424 235.157 55.7198 0.80695 0.000351212
1614200 60.2424 235.17 55.7198 0.80705 -0.0119113
1614400 60.2424 235.183 55.7198 0.80715 -0.00797069
1614600 60.2424 235.196 55.7198 0.80725 0.00190901
1614800 60.2424 235.209 55.7198 0.80735 0.014016
1615000 60.2424 235.222 55.7198 0.80745 0.0185087
1615200 60.2424 235.235 55.7198 0.80755 0.00829708
1615400 60.2424 235.248 55.7198 0.80765 0.0126634
1615600 60.2424 235.261 55.7198 0.80775 0.00883747
1615800 60.2424 235.275 55.7198 0.80785 0.00115045
1616000 60.2424 235.288 55.7198 0.80795 0.0127004
1616200 60.2424 235.301 55.7198 0.80805 0.0104618
1616400 60.2424 235.314 55.7198 0.80815 0.0114041
1616600 60.2424 235.327 55.7198 0.80825 0.0016898
1616800 60.2424 235.34 55.7198 0.80835 0.0018289
1617000 60.2424 235.353 55.7198 0.80845 -0.00502564
1617200 60.2424 235.366 55.7198 0.80855 -0.00932261
1617400 60.2424 235.379 55.7198 0.80865 -0.0110896
1617600 60.2424 235.392 55.7198 0.80875 0.0023052
1617800 60.2424 235.405 55.7198 0.80885 0.0145585
1618000 60.2424 235.418 55.7198 0.80895 -0.00694827
1618200 60.2424 235.431 55.7198 0.80905 -4.19146e-05
1618400 60.2424 235.444 55.7198 0.80915 -0.019056
1618600 60.2424 235.457 55.7198 0.80925 -0.00131881
1618800 60.2424 235.47 55.7198 0.80935 0.0141684
1619000 60.2424 235.483 55.7198 0.80945 0.00571052
1619200 60.2424 235.496 55.7198 0.80955 0.0290267
1619400 60.2424 235.509 55.7198 0.80965 -0.00578566
1619600 60.2424 235.522 55.7198 0.80975 0.0147078
1619800 60.2424 235.535 55.7198 0.80985 0.0211136
1620000 60.2424 235.548 55.7198 0.80995 0.0046653
1620200 60.2424 235.561 55.7198 0.81005 0.00898587
1620400 60.2424 235.574 55.7198 0.81015 -0.00543792
1620600 60.2424 235.587 55.7198 0.81025 0.0181853
1620800 60.2424 235.6 55.7198 0.81035 -0.00459592
1621000 60.2424 235.613 55.7198 0.81045 0.00623634
1621200 60.2424 235.626 55.7198 0.81055 0.00254687
1621400 60.2424 235.639 55.7198 0.81065 -0.0264953
1621600 60.2424 235.652 55.7198 0.81075 0.00289042
1621800 60.2424 235.665 55.7198 0.81085 -0.00571417
1622000 60.2424 235.678 55.7198 0.81095 -0.00337329
1622200 60.2424 235.691 55.7198 0.81105 0.0133582
1622400 60.2424 235.704 55.7198 0.81115 0.00176501
1622600 60.2424 235.717 55.7198 0.81125 -0.00607806
1622800 60.2424 235.73 55.7198 0.81135 0.00855263
1623000 60.2424 235.743 55.7198 0.81145 0.0116198
1623200 60.2424 235.756 55.7198 0.81155 0.00272866
1623400 60.2424 235.769 55.7198 0.81165 0.00863046
1623600 60.2424 235.782 55.7198 0.81175 0.0173866
1623800 60.2424 235.795 55.7198 0.81185 0.0173337
1624000 60.2424 235.808 55.7198 0.81195 -2.03046e-05
1624200 60.2424 235.821 55.7198 0.81205 -0.0100961
1624400 60.2424 235.834 55.7198 0.81215 0.0143418
1624600 60.2424 235.847 55.7198 0.81225 0.00684601
1624800 60.2424 235.86 55.7198 0.81235 0.000503785
1625000 60.2424 235.873 55.7198 0.81245 -0.00574726
1625200 60.2424 235.886 55.7198 0.81255 0.0158144
1625400 60.2424 235.899 55.7198 0.81265 -0.0161019
1625600 60.2424 235.912 55.7198 0.81275 0.00184431
1625800 60.2424 235.925 55.7198 0.81285 -0.019462
1626000 60.2424 235.938 55.7198 0.81295 -0.000204982
1626200 60.2424 235.951 55.7198 0.81305 0.00796308
1626400 60.2424 235.964 55.7198 0.81315 0.0114718
1626600 60.2424 235.977 55.7198 0.81325 0.00965509
1626800 60.2424 235.99 55.7198 0.81335 -0.000739906
1627000 60.2424 236.003 55.7198 0.81345 0.0133894
1627200 60.2424 236.016 55.7198 0.81355 -0.00026373
1627400 60.2424 236.029 55.7198 0.81365 0.010332
1627600 60.2424 236.042 55.7198 0.81375 0.0244442
1627800 60.2424 236.055 55.7198 0.81385 0.0171107
1628000 60.2424 236.068 55.7198 0.81395 -0.0016575
1628200 60.2424 236.081 55.7198 0.81405 0.000706241
1628400 60.2424 236.094 55.7198 0.81415 -0.00801626
1628600 60.2424 236.107 55.7198 0.81425 0.00576402
1628800 60.2424 236.12 55.7198 0.81435 -0.0191965
1629000 60.2424 236.133 55.7198 0.81445 0.00219447
1629200 60.2424 236.146 55.7198 0.81455 0.0011531
1629400 60.2424 236.159 55.7198 0.81465 -0.000200304
1629600 60.2424 236.172 55.7198 0.81475 -0.00358792
1629800 60.2424 236.185 55.7198 0.81485 0.00381894
1630000 60.2424 236.199 55.7198 0.81495 -0.00195291
1630200 60.2424 236.212 55.7198 0.81505 0.0103095
1630400 60.2424 236.225 55.7198 0.81515 0.00730503
1630600 60.2424 236.238 55.7198 0.81525 0.00960322
1630800 60.2424 236.251 55.7198 0.81535 0.00369522
1631000 60.2424 236.264 55.7198 0.81545 0.0171673
1631200 60.2424 236.277 55.7198 0.81555 0.00924089
1631400 60.2424 236.29 55.7198 0.81565 -0.00247234
1631600 60.2424 236.303 55.7198 0.81575 0.0110189
1631800 60.2424 236.316 55.7198 0.81585 0.00786082
1632000 60.2424 236.329 55.7198 0.81595 0.00680076
1632200 60.2424 236.342 55.7198 0.81605 0.0112706
1632400 60.2424 236.355 55.7198 0.81615 -0.00384618
1632600 60.2424 236.368 55.7198 0.81625 0.000186288
1632800 60.2424 236.381 55.7198 0.81635 -0.00545395
1633000 60.2424 236.394 55.7198 0.81645 -0.00672153
1633200 60.2424 236.407 55.7198 0.81655 -0.00321831
1633400 60.2424 236.42 55.7198 0.81665 -0.0027992
1633600 60.2424 236.433 55.7198 0.81675 0.00265436
1633800 60.2424 236.446 55.7198 0.81685 -2.9656e-05
1634000 60.2424 236.459 55.7198 0.81695 0.0038473
1634200 60.2424 236.472 55.7198 0.81705 -0.00177743
1634400 60.2424 236.485 55.7198 0.81715 0.00251473
1634600 60.2424 236.498 55.7198 0.81725 -0.00353432
1634800 60.2424 236.511 55.7198 0.81735 0.0128875
1635000 60.2424 236.524 55.7198 0.81745 0.0288735
1635200 60.2424 236.537 55.7198 0.81755 0.0184475
1635400 60.2424 236.55 55.7198 0.81765 0.00293279
1635600 60.2424 236.563 55.7198 0.81775 6.83408e-05
1635800 60.2424 236.576 55.7198 0.81785 0.00543357
1636000 60.2424 236.589 55.7198 0.81795 0.00659317
1636200 60.2424 236.602 55.7198 0.81805 0.00683276
1636400 60.2424 236.615 55.7198 0.81815 0.000496217
1636600 60.2424 236.628 55.7198 0.81825 0.00525217
1636800 60.2424 236.641 55.7198 0.81835 -0.00211817
1637000 60.2424 236.654 55.7198 0.81845 -0.0122295
1637200 60.2424 236.667 55.7198 0.81855 -0.0136278
1637400 60.2424 236.68 55.7198 0.81865 -0.00880526
1637600 60.2424 236.693 55.7198 0.81875 0.00346777
1637800 60.2424 236.706 55.7198 0.81885 0.00830017
1638000 60.2424 236.719 55.7198 0.81895 0.0212923
1638200 60.2424 236.732 55.7198 0.81905 0.00149252
1638400 60.2424 236.745 55.7198 0.81915 -0.00323843
1638600 60.2424 236.758 55.7198 0.81925 -0.00192627
1638800 60.2424 236.771 55.7198 0.81935 0.0157195
1639000 60.2424 236.784 55.7198 0.81945 0.0265657
1639200 60.2424 236.797 55.7198 0.81955 0.0107256
1639400 60.2424 236.81 55.7198 0.81965 0.00426123
1639600 60.2424 236.823 55.7198 0.81975 0.00164417
1639800 60.2424 236.836 55.7198 0.81985 -0.00375732
1640000 60.2424 236.849 55.7198 0.81995 -0.00964689
1640200 60.2424 236.862 55.7198 0.82005 -0.0129239
1640400 60.2424 236.875 55.7198 0.82015 0.0230384
1640600 60.2424 236.888 55.7198 0.82025 -0.00121582
1640800 60.2424 236.901 55.7198 0.82035 -0.00320701
1641000 60.2424 236.914 55.7198 0.82045 0.00471762
1641200 60.2424 236.927 55.7198 0.82055 -0.0131788
1641400 60.2424 236.94 55.7198 0.82065 0.00954294
1641600 60.2424 236.953 55.7198 0.82075 -0.00466719
1641800 60.2424 236.966 55.7198 0.82085 0.0118692
1642000 60.2424 236.979 55.7198 0.82095 0.0156208
1642200 60.2424 236.992 55.7198 0.82105 -0.00255604
1642400 60.2424 237.005 55.7198 0.82115 0.0116857
1642600 60.2424 237.018 55.7198 0.82125 0.0135903
1642800 60.2424 237.031 55.7198 0.82135 -0.00458923
1643000 60.2424 237.044 55.7198 0.82145 0.00685424
1643200 60.2424 237.057 55.7198 0.82155 0.00928122
1643400 60.2424 237.07 55.7198 0.82165 0.0141798
1643600 60.2424 237.083 55.7198 0.82175 -0.0091072
1643800 60.2424 237.096 55.7198 0.82185 0.0190085
1644000 60.2424 237.109 55.7198 0.82195 -0.0137677
1644200 60.2424 237.123 55.7198 0.82205 0.00114861
1644400 60.2424 237.136 55.7198 0.82215 0.00146714
1644600 60.2424 237.149 55.7198 0.82225 -0.00675531
1644800 60.2424 237.162 55.7198 0.82235 -0.00173117
1645000 60.2424 237.175 55.7198 0.82245 -0.000210056
1645200 60.2424 237.188 55.7198 0.82255 0.0146349
1645400 60.2424 237.201 55.7198 0.82265 -0.0088637
1645600 60.2424 237.214 55.7198 0.82275 0.0104434
1645800 60.2424 237.227 55.7198 0.82285 0.00428022
1646000 60.2424 237.24 55.7198 0.82295 -0.00597396
1646200 60.2424 237.253 55.7198 0.82305 0.0101144
1646400 60.2424 237.266 55.7198 0.82315 0.00807038
1646600 60.2424 237.279 55.7198 0.82325 0.0193247
1646800 60.2424 237.292 55.7198 0.82335 0.0114865
1647000 60.2424 237.305 55.7198 0.82345 -0.00697852
1647200 60.2424 237.318 55.7198 0.82355 0.0043802
1647400 60.2424 237.331 55.7198 0.82365 0.00834122
1647600 60.2424 237.344 55.7198 0.82375 -0.00436556
1647800 60.2424 237.357 55.7198 0.82385 0.00937665
1648000 60.2424 237.37 55.7198 0.82395 0.00331115
1648200 60.2424 237.383 55.7198 0.82405 -0.00284351
1648400 60.2424 237.396 55.7198 0.82415 0.000547089
1648600 60.2424 237.409 55.7198 0.82425 0.00486509
1648800 60.2424 237.422 55.7198 0.82435 -0.0104968
1649000 60.2424 237.435 55.7198 0.82445 -0.00557984
1649200 60.2424 237.448 55.7198 0.82455 0.0191721
1649400 60.2424 237.461 55.7198 0.82465 0.0168025
1649600 60.2424 237.474 55.7198 0.82475 -0.0252553
1649800 60.2424 237.487 55.7198 0.82485 -0.00113284
1650000 60.2424 237.5 55.7198 0.82495 0.00953466
1650200 60.2424 237.513 55.7198 0.82505 0.0022072
1650400 60.2424 237.526 55.7198 0.82515 0.00732694
1650600 60.2424 237.539 55.7198 0.82525 0.0195109
1650800 60.2424 237.552 55.7198 0.82535 0.0123987
1651000 60.2424 237.565 55.7198 0.82545 0.00546832
1651200 60.2424 237.578 55.7198 0.82555 0.00652266
1651400 60.2424 237.591 55.7198 0.82565 0.0049293
1651600 60.2424 237.604 55.7198 0.82575 -0.00925453
1651800 60.2424 237.617 55.7198 0.82585 0.0169269
1652000 60.2424 237.63 55.7198 0.82595 0.0057924
1652200 60.2424 237.643 55.7198 0.82605 0.00894544
1652400 60.2424 237.656 55.7198 0.82615 -0.0261762
1652600 60.2424 237.669 55.7198 0.82625 -0.00664381
1652800 60.2424 237.682 55.7198 0.82635 0.00939789
1653000 60.2424 237.695 55.7198 0.82645 -0.00477463
1653200 60.2424 237.708 55.7198 0.82655 -0.00469293
1653400 60.2424 237.721 55.7198 0.82665 0.00760162
1653600 60.2424 237.734 55.7198 0.82675 0.00258927
1653800 60.2424 237.747 55.7198 0.82685 -0.00178011
1654000 60.2424 237.76 55.7198 0.82695 0.00640051
1654200 60.2424 237.773 55.7198 0.82705 0.00879661
1654400 60.2424 237.786 55.7198 0.82715 0.00647037
1654600 60.2424 237.799 55.7198 0.82725 0.0164417
1654800 60.2424 237.812 55.7198 0.82735 0.0109004
1655000 60.2424 237.825 55.7198 0.82745 0.000275407
1655200 60.2424 237.838 55.7198 0.82755 0.0110204
1655400 60.2424 237.851 55.7198 0.82765 0.00179912
1655600 60.2424 237.864 55.7198 0.82775 0.015895
1655800 60.2424 237.877 55.7198 0.82785 0.00881601
1656000 60.2424 237.89 55.7198 0.82795 -0.0174749
1656200 60.2424 237.903 55.7198 0.82805 0.00106371
1656400 60.2424 237.916 55.7198 0.82815 0.00733835
1656600 60.2424 237.929 55.7198 0.82825 -0.00775337
1656800 60.2424 237.942 55.7198 0.82835 0.00414452
1657000 60.2424 237.955 55.7198 0.82845 -0.00502401
1657200 60.2424 237.968 55.7198 0.82855 0.00509354
1657400 60.2424 237.981 55.7198 0.82865 -0.00460629
1657600 60.2424 237.994 55.7198 0.82875 -0.00955429
1657800 60.2424 238.007 55.7198 0.82885 0.00335846
1658000 60.2424 238.02 55.7198 0.82895 0.0030647
1658200 60.2424 238.033 55.7198 0.82905 0.0147764
1658400 60.2424 238.047 55.7198 0.82915 0.00691337
1658600 60.2424 238.06 55.7198 0.82925 0.0101068
1658800 60.2424 238.073 55.7198 0.82935 0.0106397
1659000 60.2424 238.086 55.7198 0.82945 0.0113967
1659200 60.2424 238.099 55.7198 0.82955 0.00700749
1659400 60.2424 238.112 55.7198 0.82965 0.00137238
1659600 60.2424 238.125 55.7198 0.82975 0.0113987
1659800 60.2424 238.138 55.7198 0.82985 0.0104235
1660000 60.2424 238.151 55.7198 0.82995 0.00588684
1660200 60.2424 238.164 55.7198 0.83005 0.00849655
1660400 60.2424 238.177 55.7198 0.83015 -0.0185214
1660600 60.2424 238.19 55.7198 0.83025 0.00261681
1660800 60.2424 238.203 55.7198 0.83035 -0.0140228
1661000 60.2424 238.216 55.7198 0.83045 0.00212906
1661200 60.2424 238.229 55.7198 0.83055 -0.00573872
1661400 60.2424 238.242 55.7198 0.83065 0.00233024
1661600 60.2424 238.255 55.7198 0.83075 -0.00416444
1661800 60.2424 238.268 55.7198 0.83085 0.00562733
1662000 60.2424 238.281 55.7198 0.83095 0.000357014
1662200 60.2424 238.294 55.7198 0.83105 0.00582976
1662400 60.2424 238.307 55.7198 0.83115 0.00806622
1662600 60.2424 238.32 55.7198 0.83125 0.0225149
1662800 60.2424 238.333 55.7198 0.83135 0.000768905
1663000 60.2424 238.346 55.7198 0.83145 0.0186758
1663200 60.2424 238.359 55.7198 0.83155 0.00839231
1663400 60.2424 238.372 55.7198 0.83165 0.00429723
1663600 60.2424 238.385 55.7198 0.83175 -0.00253371
1663800 60.2424 238.398 55.7198 0.83185 0.000994967
1664000 60.2424 238.411 55.7198 0.83195 -0.00182667
1664200 60.2424 238.424 55.7198 0.83205 0.00804594
1664400 60.2424 238.437 55.7198 0.83215 -0.0104772
1664600 60.2424 238.45 55.7198 0.83225 0.0108567
1664800 60.2424 238.463 55.7198 0.83235 -0.0118893
1665000 60.2424 238.476 55.7198 0.83245 -0.0107554
1665200 60.2424 238.489 55.7198 0.83255 0.00902923
1665400 60.2424 238.502 55.7198 0.83265 0.012939
1665600 60.2424 238.515 55.7198 0.83275 0.015342
1665800 60.2424 238.528 55.7198 0.83285 0.00034359
1666000 60.2424 238.541 55.7198 0.83295 -0.00552405
1666200 60.2424 238.554 55.7198 0.83305 -0.00471076
1666400 60.2424 238.567 55.7198 0.83315 0.0130302
1666600 60.2424 238.58 55.7198 0.83325 0.010965
1666800 60.2424 238.593 55.7198 0.83335 0.0218979
1667000 60.2424 238.606 55.7198 0.83345 0.00440704
1667200 60.2424 238.619 55.7198 0.83355 -0.0138743
1667400 60.2424 238.632 55.7198 0.83365 0.0034375
1667600 60.2424 238.645 55.7198 0.83375 -0.000364844
1667800 60.2424 238.658 55.7198 0.83385 0.0165657
1668000 60.2424 238.671 55.7198 0.83395 0.00537032
1668200 60.2424 238.684 55.7198 0.83405 0.0121554
1668400 60.2424 238.697 55.7198 0.83415 -0.00811541
1668600 60.2424 238.71 55.7198 0.83425 0.00562829
1668800 60.2424 238.723 55.7198 0.83435 -0.0158342
1669000 60.2424 238.736 55.7198 0.83445 -0.00947614
1669200 60.2424 238.749 55.7198 0.83455 0.00378296
1669400 60.2424 238.762 55.7198 0.83465 -0.000290937
1669600 60.2424 238.775 55.7198 0.83475 0.0142727
1669800 60.2424 238.788 55.7198 0.83485 0.00318614
1670000 60.2424 238.801 55.7198 0.83495 0.00772809
1670200 60.2424 238.814 55.7198 0.83505 -0.00734866
1670400 60.2424 238.827 55.7198 0.83515 4.88683e-06
1670600 60.2424 238.84 55.7198 0.83525 0.0138292
1670800 60.2424 238.853 55.7198 0.83535 0.00889494
1671000 60.2424 238.866 55.7198 0.83545 0.00664997
1671200 60.2424 238.879 55.7198 0.83555 0.0239164
1671400 60.2424 238.892 55.7198 0.83565 0.0024512
1671600 60.2424 238.905 55.7198 0.83575 -0.00970337
1671800 60.2424 238.918 55.7198 0.83585 0.00352042
1672000 60.2424 238.931 55.7198 0.83595 0.0158315
1672200 60.2424 238.944 55.7198 0.83605 0.00185057
1672400 60.2424 238.957 55.7198 0.83615 -1.53971e-05
1672600 60.2424 238.971 55.7198 0.83625 -0.00371728
1672800 60.2424 238.984 55.7198 0.83635 -0.0129577
1673000 60.2424 238.997 55.7198 0.83645 -0.00451524
1673200 60.2424 239.01 55.7198 0.83655 -0.00298517
1673400 60.2424 239.023 55.7198 0.83665 0.0111373
1673600 60.2424 239.036 55.7198 0.83675 0.00511873
1673800 60.2424 239.049 55.7198 0.83685 0.00220314
1674000 60.2424 239.062 55.7198 0.83695 0.00218832
1674200 60.2424 239.075 55.7198 0.83705 0.0143512
1674400 60.2424 239.088 55.7198 0.83715 0.00385292
1674600 60.2424 239.101 55.7198 0.83725 0.0101625
1674800 60.2424 239.114 55.7198 0.83735 0.00431085
1675000 60.2424 239.127 55.7198 0.83745 0.0147641
1675200 60.2424 239.14 55.7198 0.83755 0.00852189
1675400 60.2424 239.153 55.7198 0.83765 -0.00524588
1675600 60.2424 239.166 55.7198 0.83775 0.0173105
1675800 60.2424 239.179 55.7198 0.83785 -0.00620848
1676000 60.2424 239.192 55.7198 0.83795 -0.00731145
1676200 60.2424 239.205 55.7198 0.83805 -0.00662186
1676400 60.2424 239.218 55.7198 0.83815 0.00795151
1676600 60.2424 239.231 55.7198 0.83825 0.00412821
1676800 60.2424 239.244 55.7198 0.83835 -0.00956054
1677000 60.2424 239.257 55.7198 0.83845 0.00570562
1677200 60.2424 239.27 55.7198 0.83855 0.0052038
1677400 60.2424 239.283 55.7198 0.83865 0.00720676
1677600 60.2424 239.296 55.7198 0.83875 0.00191515
1677800 60.2424 239.309 55.7198 0.83885 0.0098201
1678000 60.2424 239.322 55.7198 0.83895 0.00739097
1678200 60.2424 239.335 55.7198 0.83905 0.00682975
1678400 60.2424 239.348 55.7198 0.83915 -0.00780437
1678600 60.2424 239.361 55.7198 0.83925 0.0116494
1678800 60.2424 239.374 55.7198 0.83935 0.00911635
1679000 60.2424 239.387 55.7198 0.83945 -0.00411806
1679200 60.2424 239.4 55.7198 0.83955 0.00414006
1679400 60.2424 239.413 55.7198 0.83965 0.00296212
1679600 60.2424 239.426 55.7198 0.83975 0.00264244
1679800 60.2424 239.439 55.7198 0.83985 0.00772438
1680000 60.2424 239.452 55.7198 0.83995 -0.0119779
1680200 60.2424 239.465 55.7198 0.84005 0.0113469
1680400 60.2424 239.478 55.7198 0.84015 -3.18002e-05
1680600 60.2424 239.491 55.7198 0.84025 -0.00632533
1680800 60.2424 239.504 55.7198 0.84035 0.00455034
1681000 60.2424 239.517 55.7198 0.84045 -2.7177e-05
1681200 60.2424 239.53 55.7198 0.84055 0.0178469
1681400 60.2424 239.543 55.7198 0.84065 0.0144054
1681600 60.2424 239.556 55.7198 0.84075 -0.00979157
1681800 60.2424 239.569 55.7198 0.84085 -0.00312179
1682000 60.2424 239.582 55.7198 0.84095 0.0212641
1682200 60.2424 239.595 55.7198 0.84105 0.00253389
1682400 60.2424 239.608 55.7198 0.84115 0.0122863
1682600 60.2424 239.621 55.7198 0.84125 -0.00620214
1682800 60.2424 239.634 55.7198 0.84135 0.00611211
1683000 60.2424 239.647 55.7198 0.84145 0.00667675
1683200 60.2424 239.66 55.7198 0.84155 -1.17619e-05
1683400 60.2424 239.673 55.7198 0.84165 -0.0118631
1683600 60.2424 239.686 55.7198 0.84175 0.00436826
1683800 60.2424 239.699 55.7198 0.84185 0.00443857
1684000 60.2424 239.712 55.7198 0.84195 -0.00476594
1684200 60.2424 239.725 55.7198 0.84205 0.0107742
1684400 60.2424 239.738 55.7198 0.84215 0.0022355
1684600 60.2424 239.751 55.7198 0.84225 0.00342938
1684800 60.2424 239.764 55.7198 0.84235 -0.00375802
1685000 60.2424 239.777 55.7198 0.84245 0.00918266
1685200 60.2424 239.79 55.7198 0.84255 -0.000703736
1685400 60.2424 239.803 55.7198 0.84265 0.0076011
1685600 60.2424 239.816 55.7198 0.84275 0.0094462
1685800 60.2424 239.829 55.7198 0.84285 0.00546709
1686000 60.2424 239.842 55.7198 0.84295 0.00844618
1686200 60.2424 239.855 55.7198 0.84305 0.0113731
1686400 60.2424 239.868 55.7198 0.84315 -0.0112584
1686600 60.2424 239.881 55.7198 0.84325 0.005371
1686800 60.2424 239.894 55.7198 0.84335 -0.00620281
1687000 60.2424 239.908 55.7198 0.84345 0.000230342
1687200 60.2424 239.921 55.7198 0.84355 0.0129995
1687400 60.2424 239.934 55.7198 0.84365 -0.00212166
1687600 60.2424 239.947 55.7198 0.84375 0.0112861
1687800 60.2424 239.96 55.7198 0.84385 0.00120145
1688000 60.2424 239.973 55.7198 0.84395 -0.00948484
1688200 60.2424 239.986 55.7198 0.84405 0.00995218
1688400 60.2424 239.999 55.7198 0.84415 -0.00325978
1688600 60.2424 240.012 55.7198 0.84425 0.0132197
1688800 60.2424 240.025 55.7198 0.84435 0.0184852
1689000 60.2424 240.038 55.7198 0.84445 0.00385373
1689200 60.2424 240.051 55.7198 0.84455 -0.00643063
1689400 60.2424 240.064 55.7198 0.84465 0.0071906
1689600 60.2424 240.077 55.7198 0.84475 0.00334886
1689800 60.2424 240.09 55.7198 0.84485 -6.76151e-05
1690000 60.2424 240.103 55.7198 0.84495 -0.00319844
1690200 60.2424 240.116 55.7198 0.84505 0.0109941
1690400 60.2424 240.129 55.7198 0.84515 0.000102378
1690600 60.2424 240.142 55.7198 0.84525 0.00562168
1690800 60.2424 240.155 55.7198 0.84535 -0.0133626
1691000 60.2424 240.168 55.7198 0.84545 0.00471076
1691200 60.2424 240.181 55.7198 0.84555 0.00162429
1691400 60.2424 240.194 55.7198 0.84565 0.0149619
1691600 60.2424 240.207 55.7198 0.84575 0.00534437
1691800 60.2424 240.22 55.7198 0.84585 0.00997579
1692000 60.2424 240.233 55.7198 0.84595 0.00759153
1692200 60.2424 240.246 55.7198 0.84605 -0.016017
1692400 60.2424 240.259 55.7198 0.84615 0.0130393
1692600 60.2424 240.272 55.7198 0.84625 0.00239946
1692800 60.2424 240.285 55.7198 0.84635 -0.00841757
1693000 60.2424 240.298 55.7198 0.84645 0.00798175
1693200 60.2424 240.311 55.7198 0.84655 0.0156595
1693400 60.2424 240.324 55.7198 0.84665 0.00298013
1693600 60.2424 240.337 55.7198 0.84675 3.72585e-06
1693800 60.2424 240.35 55.7198 0.84685 0.0126657
1694000 60.2424 240.363 55.7198 0.84695 0.00540317
1694200 60.2424 240.376 55.7198 0.84705 -0.010533
1694400 60.2424 240.389 55.7198 0.84715 0.00134034
1694600 60.2424 240.402 55.7198 0.84725 -0.00495117
1694800 60.2424 240.415 55.7198 0.84735 0.00559611
1695000 60.2424 240.428 55.7198 0.84745 0.00373616
1695200 60.2424 240.441 55.7198 0.84755 0.000348327
1695400 60.2424 240.454 55.7198 0.84765 0.00153783
1695600 60.2424 240.467 55.7198 0.84775 -0.00198945
1695800 60.2424 240.48 55.7198 0.84785 0.0121017
1696000 60.2424 240.493 55.7198 0.84795 0.0192216
1696200 60.2424 240.506 55.7198 0.84805 0.00173386
1696400 60.2424 240.519 55.7198 0.84815 -0.00625416
1696600 60.2424 240.532 55.7198 0.84825 0.0118767
1696800 60.2424 240.545 55.7198 0.84835 -0.00335459
1697000 60.2424 240.558 55.7198 0.84845 0.0238873
1697200 60.2424 240.571 55.7198 0.84855 -0.00350313
1697400 60.2424 240.584 55.7198 0.84865 0.00821255
1697600 60.2424 240.597 55.7198 0.84875 0.00182455
1697800 60.2424 240.61 55.7198 0.84885 0.00229689
1698000 60.2424 240.623 55.7198 0.84895 -0.0153448
1698200 60.2424 240.636 55.7198 0.84905 -0.00454326
1698400 60.2424 240.649 55.7198 0.84915 0.00690551
1698600 60.2424 240.662 55.7198 0.84925 0.00683738
1698800 60.2424 240.675 55.7198 0.84935 0.0135359
1699000 60.2424 240.688 55.7198 0.84945 -0.00844841
1699200 60.2424 240.701 55.7198 0.84955 -0.00425166
1699400 60.2424 240.714 55.7198 0.84965 0.00402659
1699600 60.2424 240.727 55.7198 0.84975 -0.00792418
1699800 60.2424 240.74 55.7198 0.84985 0.0224508
1700000 60.2424 240.753 55.7198 0.84995 0.0105607
1700200 60.2424 240.766 55.7198 0.85005 -0.00247331
1700400 60.2424 240.779 55.7198 0.85015 0.00207432
1700600 60.2424 240.792 55.7198 0.85025 0.0117659
1700800 60.2424 240.805 55.7198 0.85035 0.00246777
1701000 60.2424 240.818 55.7198 0.85045 -0.0032648
1701200 60.2424 240.832 55.7198 0.85055 0.0201824
1701400 60.2424 240.845 55.7198 0.85065 0.00964734
1701600 60.2424 240.858 55.7198 0.85075 -0.0138252
1701800 60.2424 240.871 55.7198 0.85085 0.011928
1702000 60.2424 240.884 55.7198 0.85095 0.00227293
1702200 60.2424 240.897 55.7198 0.85105 -0.00234986
1702400 60.2424 240.91 55.7198 0.85115 -0.00542547
1702600 60.2424 240.923 55.7198 0.85125 0.0111536
1702800 60.2424 240.936 55.7198 0.85135 0.00797644
1703000 60.2424 240.949 55.7198 0.85145 -0.00511982
1703200 60.2424 240.962 55.7198 0.85155 -0.00813858
1703400 60.2424 240.975 55.7198 0.85165 0.00821168
1703600 60.2424 240.988 55.7198 0.85175 0.00866132
1703800 60.2424 241.001 55.7198 0.85185 0.00691942
1704000 60.2424 241.014 55.7198 0.85195 0.00123018
1704200 60.2424 241.027 55.7198 0.85205 0.00485358
1704400 60.2424 241.04 55.7198 0.85215 0.00341547
1704600 60.2424 241.053 55.7198 0.85225 0.00296914
1704800 60.2424 241.066 55.7198 0.85235 0.00239501
1705000 60.2424 241.079 55.7198 0.85245 0.00118916
1705200 60.2424 241.092 55.7198 0.85255 -0.00426593
1705400 60.2424 241.105 55.7198 0.85265 0.00988425
1705600 60.2424 241.118 55.7198 0.85275 0.00200477
1705800 60.2424 241.131 55.7198 0.85285 0.0123646
1706000 60.2424 241.144 55.7198 0.85295 0.00472956
1706200 60.2424 241.157 55.7198 0.85305 0.00467401
1706400 60.2424 241.17 55.7198 0.85315 -5.82518e-05
1706600 60.2424 241.183 55.7198 0.85325 0.0037359
1706800 60.2424 241.196 55.7198 0.85335 -0.00291783
1707000 60.2424 241.209 55.7198 0.85345 -0.000329416
1707200 60.2424 241.222 55.7198 0.85355 0.0131114
1707400 60.2424 241.235 55.7198 0.85365 0.00158032
1707600 60.2424 241.248 55.7198 0.85375 -0.00202098
1707800 60.2424 241.261 55.7198 0.85385 0.00452329
1708000 60.2424 241.274 55.7198 0.85395 0.00832196
1708200 60.2424 241.287 55.7198 0.85405 -0.00451103
1708400 60.2424 241.3 55.7198 0.85415 0.00244037
1708600 60.2424 241.313 55.7198 0.85425 0.010589
1708800 60.2424 241.326 55.7198 0.85435 0.0114236
1709000 60.2424 241.339 55.7198 0.85445 -0.00110169
1709200 60.2424 241.352 55.7198 0.85455 -0.00671792
1709400 60.2424 241.365 55.7198 0.85465 -0.000972184
1709600 60.2424 241.378 55.7198 0.85475 -0.00375273
1709800 60.2424 241.391 55.7198 0.85485 0.0101723
1710000 60.2424 241.404 55.7198 0.85495 0.0106278
1710200 60.2424 241.417 55.7198 0.85505 0.00670216
1710400 60.2424 241.43 55.7198 0.85515 0.0153586
1710600 60.2424 241.443 55.7198 0.85525 0.00492157
1710800 60.2424 241.456 55.7198 0.85535 -0.0186787
1711000 60.2424 241.469 55.7198 0.85545 0.00121403
1711200 60.2424 241.482 55.7198 0.85555 0.00387529
1711400 60.2424 241.495 55.7198 0.85565 0.0134546
1711600 60.2424 241.508 55.7198 0.85575 0.011573
1711800 60.2424 241.521 55.7198 0.85585 0.00462849
1712000 60.2424 241.534 55.7198 0.85595 0.0106782
1712200 60.2424 241.547 55.7198 0.85605 -0.018154
1712400 60.2424 241.56 55.7198 0.85615 -0.0109493
1712600 60.2424 241.573 55.7198 0.85625 0.0149328
1712800 60.2424 241.586 55.7198 0.85635 0.0069944
1713000 60.2424 241.599 55.7198 0.85645 -0.00741385
1713200 60.2424 241.612 55.7198 0.85655 -0.00323328
1713400 60.2424 241.625 55.7198 0.85665 0.026399
1713600 60.2424 241.638 55.7198 0.85675 -0.00949869
1713800 60.2424 241.651 55.7198 0.85685 0.00622153
1714000 60.2424 241.664 55.7198 0.85695 0.00824398
1714200 60.2424 241.677 55.7198 0.85705 -0.00820759
1714400 60.2424 241.69 55.7198 0.85715 0.0112849
1714600 60.2424 241.703 55.7198 0.85725 0.00669102
1714800 60.2424 241.716 55.7198 0.85735 0.021674
1715000 60.2424 241.729 55.7198 0.85745 0.0135263
1715200 60.2424 241.742 55.7198 0.85755 -0.000908969
1715400 60.2424 241.756 55.7198 0.85765 -0.0189261
1715600 60.2424 241.769 55.7198 0.85775 -0.0159589
1715800 60.2424 241.782 55.7198 0.85785 0.0131645
1716000 60.2424 241.795 55.7198 0.85795 0.00309995
1716200 60.2424 241.808 55.7198 0.85805 0.0151171
1716400 60.2424 241.821 55.7198 0.85815 0.00958685
1716600 60.2424 241.834 55.7198 0.85825 -0.0107766
1716800 60.2424 241.847 55.7198 0.85835 -0.0109886
1717000 60.2424 241.86 55.7198 0.85845 -0.00805174
1717200 60.2424 241.873 55.7198 0.85855 0.00448022
1717400 60.2424 241.886 55.7198 0.85865 0.0166054
1717600 60.2424 241.899 55.7198 0.85875 0.027241
1717800 60.2424 241.912 55.7198 0.85885 -0.00275246
1718000 60.2424 241.925 55.7198 0.85895 -0.00105473
1718200 60.2424 241.938 55.7198 0.85905 -0.000424872
1718400 60.2424 241.951 55.7198 0.85915 0.00438589
1718600 60.2424 241.964 55.7198 0.85925 0.00749773
1718800 60.2424 241.977 55.7198 0.85935 0.0142005
1719000 60.2424 241.99 55.7198 0.85945 0.0245352
1719200 60.2424 242.003 55.7198 0.85955 -0.00554861
1719400 60.2424 242.016 55.7198 0.85965 -0.00904721
1719600 60.2424 242.029 55.7198 0.85975 -0.0128443
1719800 60.2424 242.042 55.7198 0.85985 0.00360936
1720000 60.2424 242.055 55.7198 0.85995 0.0182392
1720200 60.2424 242.068 55.7198 0.86005 -0.0111533
1720400 60.2424 242.081 55.7198 0.86015 0.00291418
1720600 60.2424 242.094 55.7198 0.86025 0.00619375
1720800 60.2424 242.107 55.7198 0.86035 -0.0126294
1721000 60.2424 242.12 55.7198 0.86045 -0.0157752
1721200 60.2424 242.133 55.7198 0.86055 -0.00139901
1721400 60.2424 242.146 55.7198 0.86065 0.00978825
1721600 60.2424 242.159 55.7198 0.86075 0.0260596
1721800 60.2424 242.172 55.7198 0.86085 0.00962414
1722000 60.2424 242.185 55.7198 0.86095 0.00136542
1722200 60.2424 242.198 55.7198 0.86105 0.000705878
1722400 60.2424 242.211 55.7198 0.86115 0.0083449
1722600 60.2424 242.224 55.7198 0.86125 0.0164717
1722800 60.2424 242.237 55.7198 0.86135 0.0177445
1723000 60.2424 242.25 55.7198 0.86145 0.0113067
1723200 60.2424 242.263 55.7198 0.86155 -0.00317162
1723400 60.2424 242.276 55.7198 0.86165 -0.0129534
1723600 60.2424 242.289 55.7198 0.86175 0.00201702
1723800 60.2424 242.302 55.7198 0.86185 -0.00469698
1724000 60.2424 242.315 55.7198 0.86195 -0.000656807
1724200 60.2424 242.328 55.7198 0.86205 0.000231419
1724400 60.2424 242.341 55.7198 0.86215 -0.00555888
1724600 60.2424 242.354 55.7198 0.86225 0.00218959
1724800 60.2424 242.367 55.7198 0.86235 -0.00497342
1725000 60.2424 242.38 55.7198 0.86245 0.00113228
1725200 60.2424 242.393 55.7198 0.86255 -0.00141527
1725400 60.2424 242.406 55.7198 0.86265 -0.00435483
1725600 60.2424 242.419 55.7198 0.86275 0.0134991
1725800 60.2424 242.432 55.7198 0.86285 0.0143116
1726000 60.2424 242.445 55.7198 0.86295 0.0190237
1726200 60.2424 242.458 55.7198 0.86305 0.012951
1726400 60.2424 242.471 55.7198 0.86315 -0.00279274
1726600 60.2424 242.484 55.7198 0.86325 0.00522496
1726800 60.2424 242.497 55.7198 0.86335 0.0149507
1727000 60.2424 242.51 55.7198 0.86345 0.00629309
1727200 60.2424 242.523 55.7198 0.86355 0.00216254
1727400 60.2424 242.536 55.7198 0.86365 0.00434846
1727600 60.2424 242.549 55.7198 0.86375 -0.00332434
1727800 60.2424 242.562 55.7198 0.86385 -0.00651243
1728000 60.2424 242.575 55.7198 0.86395 -0.00717875
1728200 60.2424 242.588 55.7198 0.86405 -0.00885026
1728400 60.2424 242.601 55.7198 0.86415 0.000823971
1728600 60.2424 242.614 55.7198 0.86425 -0.00652312
1728800 60.2424 242.627 55.7198 0.86435 0.000413186
1729000 60.2424 242.64 55.7198 0.86445 0.00368544
1729200 60.2424 242.653 55.7198 0.86455 0.00700363
1729400 60.2424 242.666 55.7198 0.86465 0.00925294
1729600 60.2424 242.68 55.7198 0.86475 0.00443557
1729800 60.2424 242.693 55.7198 0.86485 0.024767
1730000 60.2424 242.706 55.7198 0.86495 -0.00221507
1730200 60.2424 242.719 55.7198 0.86505 0.0127057
1730400 60.2424 242.732 55.7198 0.86515 0.0107747
1730600 60.2424 242.745 55.7198 0.86525 0.0177967
1730800 60.2424 242.758 55.7198 0.86535 0.0036227
1731000 60.2424 242.771 55.7198 0.86545 0.00905082
1731200 60.2424 242.784 55.7198 0.86555 -0.0175273
1731400 60.2424 242.797 55.7198 0.86565 -0.0060044
1731600 60.2424 242.81 55.7198 0.86575 -0.0142022
1731800 60.2424 242.823 55.7198 0.86585 0.00535462
1732000 60.2424 242.836 55.7198 0.86595 0.00447012
1732200 60.2424 242.849 55.7198 0.86605 -0.00389175
1732400 60.2424 242.862 55.7198 0.86615 -0.00675036
1732600 60.2424 242.875 55.7198 0.86625 -0.00616036
1732800 60.2424 242.888 55.7198 0.86635 0.00536159
1733000 60.2424 242.901 55.7198 0.86645 0.00218175
1733200 60.2424 242.914 55.7198 0.86655 0.0197512
1733400 60.2424 242.927 55.7198 0.86665 0.00386797
1733600 60.2424 242.94 55.7198 0.86675 0.0163723
1733800 60.2424 242.953 55.7198 0.86685 0.0137112
1734000 60.2424 242.966 55.7198 0.86695 -0.0151962
1734200 60.2424 242.979 55.7198 0.86705 0.0153268
1734400 60.2424 242.992 55.7198 0.86715 0.00608328
1734600 60.2424 243.005 55.7198 0.86725 0.0198928
1734800 60.2424 243.018 55.7198 0.86735 0.00661172
1735000 60.2424 243.031 55.7198 0.86745 -0.00631567
1735200 60.2424 243.044 55.7198 0.86755 -0.00589071
1735400 60.2424 243.057 55.7198 0.86765 -0.00725218
1735600 60.2424 243.07 55.7198 0.86775 -0.00164007
1735800 60.2424 243.083 55.7198 0.86785 -0.000962327
1736000 60.2424 243.096 55.7198 0.86795 -0.00112588
1736200 60.2424 243.109 55.7198 0.86805 0.0151653
1736400 60.2424 243.122 55.7198 0.86815 -0.0177505
1736600 60.2424 243.135 55.7198 0.86825 -0.0212652
1736800 60.2424 243.148 55.7198 0.86835 0.00900384
1737000 60.2424 243.161 55.7198 0.86845 0.00938417
1737200 60.2424 243.174 55.7198 0.86855 0.0161033
1737400 60.2424 243.187 55.7198 0.86865 0.00149006
1737600 60.2424 243.2 55.7198 0.86875 0.0234663
1737800 60.2424 243.213 55.7198 0.86885 0.0138611
1738000 60.2424 243.226 55.7198 0.86895 0.000969019
1738200 60.2424 243.239 55.7198 0.86905 0.0169593
1738400 60.2424 243.252 55.7198 0.86915 -2.24233e-05
1738600 60.2424 243.265 55.7198 0.86925 0.00943616
1738800 60.2424 243.278 55.7198 0.86935 0.0162422
1739000 60.2424 243.291 55.7198 0.86945 -0.00627037
1739200 60.2424 243.304 55.7198 0.86955 0.00594869
1739400 60.2424 243.317 55.7198 0.86965 -0.0186908
1739600 60.2424 243.33 55.7198 0.86975 -0.019369
1739800 60.2424 243.343 55.7198 0.86985 -0.0061488
1740000 60.2424 243.356 55.7198 0.86995 -0.0105344
1740200 60.2424 243.369 55.7198 0.87005 0.00561534
1740400 60.2424 243.382 55.7198 0.87015 0.00414107
1740600 60.2424 243.395 55.7198 0.87025 0.010996
1740800 60.2424 243.408 55.7198 0.87035 -0.0179788
1741000 60.2424 243.421 55.7198 0.87045 0.0049086
1741200 60.2424 243.434 55.7198 0.87055 0.0154548
1741400 60.2424 243.447 55.7198 0.87065 0.00391396
1741600 60.2424 243.46 55.7198 0.87075 0.0415851
1741800 60.2424 243.473 55.7198 0.87085 0.0172345
1742000 60.2424 243.486 55.7198 0.87095 -0.00309569
1742200 60.2424 243.499 55.7198 0.87105 0.00722201
1742400 60.2424 243.512 55.7198 0.87115 0.00680686
1742600 60.2424 243.525 55.7198 0.87125 0.000870262
1742800 60.2424 243.538 55.7198 0.87135 0.00739333
1743000 60.2424 243.551 55.7198 0.87145 0.00199788
1743200 60.2424 243.564 55.7198 0.87155 -0.0107741
1743400 60.2424 243.577 55.7198 0.87165 -0.00458507
1743600 60.2424 243.59 55.7198 0.87175 -0.00754245
1743800 60.2424 243.604 55.7198 0.87185 -0.00847241
1744000 60.2424 243.617 55.7198 0.87195 -0.00750428
1744200 60.2424 243.63 55.7198 0.87205 -0.00652854
1744400 60.2424 243.643 55.7198 0.87215 -0.00976137
1744600 60.2424 243.656 55.7198 0.87225 0.00121287
1744800 60.2424 243.669 55.7198 0.87235 0.0133968
1745000 60.2424 243.682 55.7198 0.87245 0.000542991
1745200 60.2424 243.695 55.7198 0.87255 0.0234785
1745400 60.2424 243.708 55.7198 0.87265 0.0125928
1745600 60.2424 243.721 55.7198 0.87275 -0.000242509
1745800 60.2424 243.734 55.7198 0.87285 0.0158337
1746000 60.2424 243.747 55.7198 0.87295 0.016998
1746200 60.2424 243.76 55.7198 0.87305 0.00955495
1746400 60.2424 243.773 55.7198 0.87315 0.0145768
1746600 60.2424 243.786 55.7198 0.87325 0.0104119
1746800 60.2424 243.799 55.7198 0.87335 -0.0209207
1747000 60.2424 243.812 55.7198 0.87345 0.00133614
1747200 60.2424 243.825 55.7198 0.87355 -0.00188974
1747400 60.2424 243.838 55.7198 0.87365 -0.00232269
1747600 60.2424 243.851 55.7198 0.87375 -0.00387515
1747800 60.2424 243.864 55.7198 0.87385 -0.00178012
1748000 60.2424 243.877 55.7198 0.87395 -0.0168873
1748200 60.2424 243.89 55.7198 0.87405 -0.0140217
1748400 60.2424 243.903 55.7198 0.87415 -0.00134314
1748600 60.2424 243.916 55.7198 0.87425 0.00743676
1748800 60.2424 243.929 55.7198 0.87435 0.0069347
1749000 60.2424 243.942 55.7198 0.87445 0.0195681
1749200 60.2424 243.955 55.7198 0.87455 0.0127428
1749400 60.2424 243.968 55.7198 0.87465 0.0149628
1749600 60.2424 243.981 55.7198 0.87475 0.0148131
1749800 60.2424 243.994 55.7198 0.87485 0.00419321
1750000 60.2424 244.007 55.7198 0.87495 0.00565746
1750200 60.2424 244.02 55.7198 0.87505 0.0136576
1750400 60.2424 244.033 55.7198 0.87515 0.0122046
1750600 60.2424 244.046 55.7198 0.87525 0.000416612
1750800 60.2424 244.059 55.7198 0.87535 -0.00400566
1751000 60.2424 244.072 55.7198 0.87545 -0.0195782
1751200 60.2424 244.085 55.7198 0.87555 -0.00271886
1751400 60.2424 244.098 55.7198 0.87565 -0.015739
1751600 60.2424 244.111 55.7198 0.87575 -0.020736
1751800 60.2424 244.124 55.7198 0.87585 0.0123373
1752000 60.2424 244.137 55.7198 0.87595 0.00334465
1752200 60.2424 244.15 55.7198 0.87605 -0.0135907
1752400 60.2424 244.163 55.7198 0.87615 0.00618864
1752600 60.2424 244.176 55.7198 0.87625 -0.000865787
1752800 60.2424 244.189 55.7198 0.87635 0.0175965
1753000 60.2424 244.202 55.7198 0.87645 0.0141703
1753200 60.2424 244.215 55.7198 0.87655 0.0142683
1753400 60.2424 244.228 55.7198 0.87665 0.0196761
1753600 60.2424 244.241 55.7198 0.87675 0.0313977
1753800 60.2424 244.254 55.7198 0.87685 0.0178198
1754000 60.2424 244.267 55.7198 0.87695 -0.0118103
1754200 60.2424 244.28 55.7198 0.87705 -0.0100188
1754400 60.2424 244.293 55.7198 0.87715 0.00305971
1754600 60.2424 244.306 55.7198 0.87725 0.0102188
1754800 60.2424 244.319 55.7198 0.87735 -0.0123038
1755000 60.2424 244.332 55.7198 0.87745 -0.00282721
1755200 60.2424 244.345 55.7198 0.87755 -0.0120596
1755400 60.2424 244.358 55.7198 0.87765 -0.0123458
1755600 60.2424 244.371 55.7198 0.87775 -0.0142991
1755800 60.2424 244.384 55.7198 0.87785 0.00211503
1756000 60.2424 244.397 55.7198 0.87795 -0.00580534
1756200 60.2424 244.41 55.7198 0.87805 0.00993648
1756400 60.2424 244.423 55.7198 0.87815 0.0247285
1756600 60.2424 244.436 55.7198 0.87825 -0.00471148
1756800 60.2424 244.449 55.7198 0.87835 0.0159275
1757000 60.2424 244.462 55.7198 0.87845 0.0142493
1757200 60.2424 244.475 55.7198 0.87855 0.0172901
1757400 60.2424 244.488 55.7198 0.87865 0.0167992
1757600 60.2424 244.501 55.7198 0.87875 0.00380108
1757800 60.2424 244.514 55.7198 0.87885 0.00149062
1758000 60.2424 244.528 55.7198 0.87895 -0.00412069
1758200 60.2424 244.541 55.7198 0.87905 -0.0115059
1758400 60.2424 244.554 55.7198 0.87915 -0.00342051
1758600 60.2424 244.567 55.7198 0.87925 -0.000725805
1758800 60.2424 244.58 55.7198 0.87935 -0.00113411
1759000 60.2424 244.593 55.7198 0.87945 -0.00857299
1759200 60.2424 244.606 55.7198 0.87955 -0.0120997
1759400 60.2424 244.619 55.7198 0.87965 -0.013145
1759600 60.2424 244.632 55.7198 0.87975 3.74811e-05
1759800 60.2424 244.645 55.7198 0.87985 0.0171846
1760000 60.2424 244.658 55.7198 0.87995 0.00408942
1760200 60.2424 244.671 55.7198 0.88005 0.0185259
1760400 60.2424 244.684 55.7198 0.88015 0.00478825
1760600 60.2424 244.697 55.7198 0.88025 0.0237319
1760800 60.2424 244.71 55.7198 0.88035 0.00213399
1761000 60.2424 244.723 55.7198 0.88045 0.00800816
1761200 60.2424 244.736 55.7198 0.88055 0.0126776
1761400 60.2424 244.749 55.7198 0.88065 0.0250632
1761600 60.2424 244.762 55.7198 0.88075 0.00208503
1761800 60.2424 244.775 55.7198 0.88085 -0.00666377
1762000 60.2424 244.788 55.7198 0.88095 -0.0079124
1762200 60.2424 244.801 55.7198 0.88105 0.0024763
1762400 60.2424 244.814 55.7198 0.88115 -0.0122254
1762600 60.2424 244.827 55.7198 0.88125 -0.0158281
1762800 60.2424 244.84 55.7198 0.88135 -0.00325616
1763000 60.2424 244.853 55.7198 0.88145 -0.00289356
1763200 60.2424 244.866 55.7198 0.88155 -0.016346
1763400 60.2424 244.879 55.7198 0.88165 0.00180723
1763600 60.2424 244.892 55.7198 0.88175 -0.00945286
1763800 60.2424 244.905 55.7198 0.88185 0.0134132
1764000 60.2424 244.918 55.7198 0.88195 0.00881207
1764200 60.2424 244.931 55.7198 0.88205 0.00826014
1764400 60.2424 244.944 55.7198 0.88215 0.0167457
1764600 60.2424 244.957 55.7198 0.88225 0.0196548
1764800 60.2424 244.97 55.7198 0.88235 0.0295675
1765000 60.2424 244.983 55.7198 0.88245 0.0159371
1765200 60.2424 244.996 55.7198 0.88255 -0.00451803
1765400 60.2424 245.009 55.7198 0.88265 0.00465454
1765600 60.2424 245.022 55.7198 0.88275 -0.00348313
1765800 60.2424 245.035 55.7198 0.88285 -0.00338907
1766000 60.2424 245.048 55.7198 0.88295 -0.00118146
1766200 60.2424 245.061 55.7198 0.88305 0.00145989
1766400 60.2424 245.074 55.7198 0.88315 -0.0182318
1766600 60.2424 245.087 55.7198 0.88325 -0.0198195
1766800 60.2424 245.1 55.7198 0.88335 0.00133058
1767000 60.2424 245.113 55.7198 0.88345 -0.0114923
1767200 60.2424 245.126 55.7198 0.88355 0.0079651
1767400 60.2424 245.139 55.7198 0.88365 0.00794661
1767600 60.2424 245.152 55.7198 0.88375 0.00930116
1767800 60.2424 245.165 55.7198 0.88385 0.000672087
1768000 60.2424 245.178 55.7198 0.88395 -0.00751662
1768200 60.2424 245.191 55.7198 0.88405 0.00616325
1768400 60.2424 245.204 55.7198 0.88415 0.0239054
1768600 60.2424 245.217 55.7198 0.88425 0.0194837
1768800 60.2424 245.23 55.7198 0.88435 0.0101049
1769000 60.2424 245.243 55.7198 0.88445 0.00864245
1769200 60.2424 245.256 55.7198 0.88455 0.0201591
1769400 60.2424 245.269 55.7198 0.88465 -0.00582124
1769600 60.2424 245.282 55.7198 0.88475 -0.0098286
1769800 60.2424 245.295 55.7198 0.88485 -0.0204196
1770000 60.2424 245.308 55.7198 0.88495 0.00283809
1770200 60.2424 245.321 55.7198 0.88505 0.000675114
1770400 60.2424 245.334 55.7198 0.88515 -0.00190064
1770600 60.2424 245.347 55.7198 0.88525 0.00539705
1770800 60.2424 245.36 55.7198 0.88535 -0.0215265
1771000 60.2424 245.373 55.7198 0.88545 -0.00182196
1771200 60.2424 245.386 55.7198 0.88555 -0.0100474
1771400 60.2424 245.399 55.7198 0.88565 0.0250942
1771600 60.2424 245.412 55.7198 0.88575 0.00453573
1771800 60.2424 245.425 55.7198 0.88585 0.0123713
1772000 60.2424 245.438 55.7198 0.88595 0.0124197
1772200 60.2424 245.451 55.7198 0.88605 0.00300867
1772400 60.2424 245.465 55.7198 0.88615 0.00378422
1772600 60.2424 245.478 55.7198 0.88625 0.00679596
1772800 60.2424 245.491 55.7198 0.88635 0.0099151
1773000 60.2424 245.504 55.7198 0.88645 0.0143784
1773200 60.2424 245.517 55.7198 0.88655 -0.00507348
1773400 60.2424 245.53 55.7198 0.88665 0.0133681
1773600 60.2424 245.543 55.7198 0.88675 0.00843915
1773800 60.2424 245.556 55.7198 0.88685 -0.00369495
1774000 60.2424 245.569 55.7198 0.88695 -0.0150973
1774200 60.2424 245.582 55.7198 0.88705 -0.00738512
1774400 60.2424 245.595 55.7198 0.88715 -0.0191619
1774600 60.2424 245.608 55.7198 0.88725 0.00463247
1774800 60.2424 245.621 55.7198 0.88735 0.00197974
1775000 60.2424 245.634 55.7198 0.88745 0.0183659
1775200 60.2424 245.647 55.7198 0.88755 -0.00710356
1775400 60.2424 245.66 55.7198 0.88765 0.0043762
1775600 60.2424 245.673 55.7198 0.88775 -0.00925741
1775800 60.2424 245.686 55.7198 0.88785 0.0137891
1776000 60.2424 245.699 55.7198 0.88795 0.00958362
1776200 60.2424 245.712 55.7198 0.88805 0.0123473
1776400 60.2424 245.725 55.7198 0.88815 0.0164916
1776600 60.2424 245.738 55.7198 0.88825 0.00155742
1776800 60.2424 245.751 55.7198 0.88835 0.000481802
1777000 60.2424 245.764 55.7198 0.88845 -0.0117025
1777200 60.2424 245.777 55.7198 0.88855 -0.00109613
1777400 60.2424 245.79 55.7198 0.88865 0.00159723
1777600 60.2424 245.803 55.7198 0.88875 0.0157912
1777800 60.2424 245.816 55.7198 0.88885 0.0140277
1778000 60.2424 245.829 55.7198 0.88895 0.000301227
1778200 60.2424 245.842 55.7198 0.88905 -0.0143178
1778400 60.2424 245.855 55.7198 0.88915 -0.0205772
1778600 60.2424 245.868 55.7198 0.88925 -0.00626316
1778800 60.2424 245.881 55.7198 0.88935 0.00615527
1779000 60.2424 245.894 55.7198 0.88945 0.0101632
1779200 60.2424 245.907 55.7198 0.88955 0.0099524
1779400 60.2424 245.92 55.7198 0.88965 0.0201588
1779600 60.2424 245.933 55.7198 0.88975 -0.0138641
1779800 60.2424 245.946 55.7198 0.88985 -0.0104063
1780000 60.2424 245.959 55.7198 0.88995 0.00212178
1780200 60.2424 245.972 55.7198 0.89005 0.0140611
1780400 60.2424 245.985 55.7198 0.89015 0.0149654
1780600 60.2424 245.998 55.7198 0.89025 0.0252249
1780800 60.2424 246.011 55.7198 0.89035 0.0133326
1781000 60.2424 246.024 55.7198 0.89045 -0.00710371
1781200 60.2424 246.037 55.7198 0.89055 -0.00149412
1781400 60.2424 246.05 55.7198 0.89065 -0.00465389
1781600 60.2424 246.063 55.7198 0.89075 0.00945726
1781800 60.2424 246.076 55.7198 0.89085 -0.00126711
1782000 60.2424 246.089 55.7198 0.89095 0.00307087
1782200 60.2424 246.102 55.7198 0.89105 -0.0165802
1782400 60.2424 246.115 55.7198 0.89115 0.00398209
1782600 60.2424 246.128 55.7198 0.89125 -0.0132079
1782800 60.2424 246.141 55.7198 0.89135 -0.00255072
1783000 60.2424 246.154 55.7198 0.89145 -0.00302109
1783200 60.2424 246.167 55.7198 0.89155 0.0103594
1783400 60.2424 246.18 55.7198 0.89165 0.0201836
1783600 60.2424 246.193 55.7198 0.89175 -0.00744517
1783800 60.2424 246.206 55.7198 0.89185 0.00454665
1784000 60.2424 246.219 55.7198 0.89195 0.00915741
1784200 60.2424 246.232 55.7198 0.89205 0.00855958
1784400 60.2424 246.245 55.7198 0.89215 0.0045781
1784600 60.2424 246.258 55.7198 0.89225 0.00753576
1784800 60.2424 246.271 55.7198 0.89235 0.00308882
1785000 60.2424 246.284 55.7198 0.89245 6.26435e-05
1785200 60.2424 246.297 55.7198 0.89255 0.00645399
1785400 60.2424 246.31 55.7198 0.89265 0.01271
1785600 60.2424 246.323 55.7198 0.89275 -0.0128646
1785800 60.2424 246.336 55.7198 0.89285 0.00285495
1786000 60.2424 246.349 55.7198 0.89295 -0.0145367
1786200 60.2424 246.362 55.7198 0.89305 -0.00843213
1786400 60.2424 246.375 55.7198 0.89315 0.00188153
1786600 60.2424 246.389 55.7198 0.89325 0.0154556
1786800 60.2424 246.402 55.7198 0.89335 0.00089348
1787000 60.2424 246.415 55.7198 0.89345 -0.00367281
1787200 60.2424 246.428 55.7198 0.89355 -0.0110696
1787400 60.2424 246.441 55.7198 0.89365 0.0098722
1787600 60.2424 246.454 55.7198 0.89375 0.00742486
1787800 60.2424 246.467 55.7198 0.89385 0.0135143
1788000 60.2424 246.48 55.7198 0.89395 0.0197785
1788200 60.2424 246.493 55.7198 0.89405 -0.000491356
1788400 60.2424 246.506 55.7198 0.89415 0.00181461
1788600 60.2424 246.519 55.7198 0.89425 -0.000593093
1788800 60.2424 246.532 55.7198 0.89435 0.00136947
1789000 60.2424 246.545 55.7198 0.89445 0.0250931
1789200 60.2424 246.558 55.7198 0.89455 0.00331073
1789400 60.2424 246.571 55.7198 0.89465 -0.00325243
1789600 60.2424 246.584 55.7198 0.89475 -0.0128813
1789800 60.2424 246.597 55.7198 0.89485 -0.00623601
1790000 60.2424 246.61 55.7198 0.89495 -0.0081393
1790200 60.2424 246.623 55.7198 0.89505 0.0143991
1790400 60.2424 246.636 55.7198 0.89515 -0.0161594
1790600 60.2424 246.649 55.7198 0.89525 0.00611798
1790800 60.2424 246.662 55.7198 0.89535 0.00219188
1791000 60.2424 246.675 55.7198 0.89545 -0.00704906
1791200 60.2424 246.688 55.7198 0.89555 0.00261138
1791400 60.2424 246.701 55.7198 0.89565 0.0159495
1791600 60.2424 246.714 55.7198 0.89575 0.00309292
1791800 60.2424 246.727 55.7198 0.89585 0.0199197
1792000 60.2424 246.74 55.7198 0.89595 0.00463035
1792200 60.2424 246.753 55.7198 0.89605 0.0199225
1792400 60.2424 246.766 55.7198 0.89615 -0.0144104
1792600 60.2424 246.779 55.7198 0.89625 0.0154394
1792800 60.2424 246.792 55.7198 0.89635 0.00355719
1793000 60.2424 246.805 55.7198 0.89645 0.00663606
1793200 60.2424 246.818 55.7198 0.89655 -0.00273824
1793400 60.2424 246.831 55.7198 0.89665 -0.00101779
1793600 60.2424 246.844 55.7198 0.89675 -0.00753905
1793800 60.2424 246.857 55.7198 0.89685 -0.00531359
1794000 60.2424 246.87 55.7198 0.89695 -0.005733
1794200 60.2424 246.883 55.7198 0.89705 -0.0107016
1794400 60.2424 246.896 55.7198 0.89715 0.0148072
1794600 60.2424 246.909 55.7198 0.89725 -0.00800482
1794800 60.2424 246.922 55.7198 0.89735 0.00424287
1795000 60.2424 246.935 55.7198 0.89745 -0.00823702
1795200 60.2424 246.948 55.7198 0.89755 -0.00234511
1795400 60.2424 246.961 55.7198 0.89765 0.00380975
1795600 60.2424 246.974 55.7198 0.89775 0.0194924
1795800 60.2424 246.987 55.7198 0.89785 0.0202415
1796000 60.2424 247 55.7198 0.89795 0.00459172
1796200 60.2424 247.013 55.7198 0.89805 0.0192625
1796400 60.2424 247.026 55.7198 0.89815 -0.00361566
1796600 60.2424 247.039 55.7198 0.89825 0.0111406
1796800 60.2424 247.052 55.7198 0.89835 0.0136238
1797000 60.2424 247.065 55.7198 0.89845 -0.00124162
1797200 60.2424 247.078 55.7198 0.89855 0.00547
1797400 60.2424 247.091 55.7198 0.89865 0.000943537
1797600 60.2424 247.104 55.7198 0.89875 -0.0089245
1797800 60.2424 247.117 55.7198 0.89885 -0.0143139
1798000 60.2424 247.13 55.7198 0.89895 -0.0145024
1798200 60.2424 247.143 55.7198 0.89905 -0.0141272
1798400 60.2424 247.156 55.7198 0.89915 -0.00832868
1798600 60.2424 247.169 55.7198 0.89925 0.00506105
1798800 60.2424 247.182 55.7198 0.89935 0.00404564
1799000 60.2424 247.195 55.7198 0.89945 0.00249545
1799200 60.2424 247.208 55.7198 0.89955 0.0149798
1799400 60.2424 247.221 55.7198 0.89965 0.00579508
1799600 60.2424 247.234 55.7198 0.89975 0.000546742
1799800 60.2424 247.247 55.7198 0.89985 0.0260047
1800000 60.2424 247.26 55.7198 0.89995 0.013729
1800200 60.2424 247.273 55.7198 0.90005 0.0232917
1800400 60.2424 247.286 55.7198 0.90015 0.0152193
1800600 60.2424 247.299 55.7198 0.90025 -0.00250106
1800800 60.2424 247.313 55.7198 0.90035 -0.00696985
1801000 60.2424 247.326 55.7198 0.90045 0.0122765
1801200 60.2424 247.339 55.7198 0.90055 -0.0156145
1801400 60.2424 247.352 55.7198 0.90065 0.00529738
1801600 60.2424 247.365 55.7198 0.90075 -0.00140454
1801800 60.2424 247.378 55.7198 0.90085 -0.0146818
1802000 60.2424 247.391 55.7198 0.90095 -0.0224303
1802200 60.2424 247.404 55.7198 0.90105 -0.016445
1802400 60.2424 247.417 55.7198 0.90115 -0.014554
1802600 60.2424 247.43 55.7198 0.90125 0.00552788
1802800 60.2424 247.443 55.7198 0.90135 0.0146986
1803000 60.2424 247.456 55.7198 0.90145 0.00338489
1803200 60.2424 247.469 55.7198 0.90155 0.000752223
1803400 60.2424 247.482 55.7198 0.90165 0.00886589
1803600 60.2424 247.495 55.7198 0.90175 0.0404504
1803800 60.2424 247.508 55.7198 0.90185 0.0194011
1804000 60.2424 247.521 55.7198 0.90195 0.0267212
1804200 60.2424 247.534 55.7198 0.90205 0.0152748
1804400 60.2424 247.547 55.7198 0.90215 0.0210137
1804600 60.2424 247.56 55.7198 0.90225 -0.00542444
1804800 60.2424 247.573 55.7198 0.90235 -0.0027463
1805000 60.2424 247.586 55.7198 0.90245 -0.0115556
1805200 60.2424 247.599 55.7198 0.90255 -0.00812158
1805400 60.2424 247.612 55.7198 0.90265 -0.0148232
1805600 60.2424 247.625 55.7198 0.90275 -0.0273319
1805800 60.2424 247.638 55.7198 0.90285 -0.021404
1806000 60.2424 247.651 55.7198 0.90295 -0.0229214
1806200 60.2424 247.664 55.7198 0.90305 0.00179346
1806400 60.2424 247.677 55.7198 0.90315 0.00160764
1806600 60.2424 247.69 55.7198 0.90325 -0.00367672
1806800 60.2424 247.703 55.7198 0.90335 0.00728419
1807000 60.2424 247.716 55.7198 0.90345 0.0206665
1807200 60.2424 247.729 55.7198 0.90355 0.0107687
1807400 60.2424 247.742 55.7198 0.90365 0.0350908
1807600 60.2424 247.755 55.7198 0.90375 0.0261895
1807800 60.2424 247.768 55.7198 0.90385 0.0158329
1808000 60.2424 247.781 55.7198 0.90395 0.0006761
1808200 60.2424 247.794 55.7198 0.90405 0.0329531
1808400 60.2424 247.807 55.7198 0.90415 0.00106773
1808600 60.2424 247.82 55.7198 0.90425 0.00379595
1808800 60.2424 247.833 55.7198 0.90435 0.000969065
1809000 60.2424 247.846 55.7198 0.90445 -0.00950068
1809200 60.2424 247.859 55.7198 0.90455 -0.00122519
1809400 60.2424 247.872 55.7198 0.90465 -0.0274442
1809600 60.2424 247.885 55.7198 0.90475 -0.031214
1809800 60.2424 247.898 55.7198 0.90485 -0.0121741
1810000 60.2424 247.911 55.7198 0.90495 -0.0149118
1810200 60.2424 247.924 55.7198 0.90505 -0.0139359
1810400 60.2424 247.937 55.7198 0.90515 -0.0152817
1810600 60.2424 247.95 55.7198 0.90525 0.00290112
1810800 60.2424 247.963 55.7198 0.90535 0.0221884
1811000 60.2424 247.976 55.7198 0.90545 0.0181721
1811200 60.2424 247.989 55.7198 0.90555 0.0301912
1811400 60.2424 248.002 55.7198 0.90565 0.02905
1811600 60.2424 248.015 55.7198 0.90575 0.0162516
1811800 60.2424 248.028 55.7198 0.90585 0.0138316
1812000 60.2424 248.041 55.7198 0.90595 0.0255621
1812200 60.2424 248.054 55.7198 0.90605 0.0120004
1812400 60.2424 248.067 55.7198 0.90615 0.0113484
1812600 60.2424 248.08 55.7198 0.90625 -0.00717406
1812800 60.2424 248.093 55.7198 0.90635 0.00928428
1813000 60.2424 248.106 55.7198 0.90645 -0.0323099
1813200 60.2424 248.119 55.7198 0.90655 -0.00599402
1813400 60.2424 248.132 55.7198 0.90665 -0.0277315
1813600 60.2424 248.145 55.7198 0.90675 -0.0162753
1813800 60.2424 248.158 55.7198 0.90685 -0.0112831
1814000 60.2424 248.171 55.7198 0.90695 -0.0190467
1814200 60.2424 248.184 55.7198 0.90705 -0.00789131
1814400 60.2424 248.197 55.7198 0.90715 0.002778
1814600 60.2424 248.21 55.7198 0.90725 0.0121107
1814800 60.2424 248.223 55.7198 0.90735 0.00796947
1815000 60.2424 248.237 55.7198 0.90745 0.0214793
1815200 60.2424 248.25 55.7198 0.90755 0.0292562
1815400 60.2424 248.263 55.7198 0.90765 0.0195783
1815600 60.2424 248.276 55.7198 0.90775 0.018187
1815800 60.2424 248.289 55.7198 0.90785 0.0141483
1816000 60.2424 248.302 55.7198 0.90795 0.0241927
1816200 60.2424 248.315 55.7198 0.90805 0.0118834
1816400 60.2424 248.328 55.7198 0.90815 -0.000623781
1816600 60.2424 248.341 55.7198 0.90825 -0.0132616
1816800 60.2424 248.354 55.7198 0.90835 0.00914576
1817000 60.2424 248.367 55.7198 0.90845 -0.0266435
1817200 60.2424 248.38 55.7198 0.90855 -0.0252236
1817400 60.2424 248.393 55.7198 0.90865 -0.00461425
1817600 60.2424 248.406 55.7198 0.90875 -0.0241471
1817800 60.2424 248.419 55.7198 0.90885 0.00283526
1818000 60.2424 248.432 55.7198 0.90895 -0.0259722
1818200 60.2424 248.445 55.7198 0.90905 -0.0037476
1818400 60.2424 248.458 55.7198 0.90915 0.00034811
1818600 60.2424 248.471 55.7198 0.90925 0.0131925
1818800 60.2424 248.484 55.7198 0.90935 0.0206605
1819000 60.2424 248.497 55.7198 0.90945 0.0324767
1819200 60.2424 248.51 55.7198 0.90955 0.0193648
1819400 60.2424 248.523 55.7198 0.90965 0.0154833
1819600 60.2424 248.536 55.7198 0.90975 0.0212165
1819800 60.2424 248.549 55.7198 0.90985 0.0130052
1820000 60.2424 248.562 55.7198 0.90995 0.006507
1820200 60.2424 248.575 55.7198 0.91005 0.0196585
1820400 60.2424 248.588 55.7198 0.91015 -0.00577676
1820600 60.2424 248.601 55.7198 0.91025 0.00692776
1820800 60.2424 248.614 55.7198 0.91035 -0.028334
1821000 60.2424 248.627 55.7198 0.91045 -0.0286862
1821200 60.2424 248.64 55.7198 0.91055 -0.0132421
1821400 60.2424 248.653 55.7198 0.91065 -0.00763779
1821600 60.2424 248.666 55.7198 0.91075 -0.016897
1821800 60.2424 248.679 55.7198 0.91085 0.00600338
1822000 60.2424 248.692 55.7198 0.91095 -0.0075434
1822200 60.2424 248.705 55.7198 0.91105 7.74587e-05
1822400 60.2424 248.718 55.7198 0.91115 0.00402815
1822600 60.2424 248.731 55.7198 0.91125 0.00949017
1822800 60.2424 248.744 55.7198 0.91135 0.0232786
1823000 60.2424 248.757 55.7198 0.91145 0.0210507
1823200 60.2424 248.77 55.7198 0.91155 0.0276148
1823400 60.2424 248.783 55.7198 0.91165 0.0109145
1823600 60.2424 248.796 55.7198 0.91175 0.0187995
1823800 60.2424 248.809 55.7198 0.91185 0.011046
1824000 60.2424 248.822 55.7198 0.91195 2.94746e-05
1824200 60.2424 248.835 55.7198 0.91205 0.0118675
1824400 60.2424 248.848 55.7198 0.91215 -0.0120731
1824600 60.2424 248.861 55.7198 0.91225 -0.00585641
1824800 60.2424 248.874 55.7198 0.91235 -0.0241806
1825000 60.2424 248.887 55.7198 0.91245 -0.00483359
1825200 60.2424 248.9 55.7198 0.91255 -0.0332482
1825400 60.2424 248.913 55.7198 0.91265 -0.0184644
1825600 60.2424 248.926 55.7198 0.91275 -0.00556248
1825800 60.2424 248.939 55.7198 0.91285 -0.000231395
1826000 60.2424 248.952 55.7198 0.91295 0.00621803
1826200 60.2424 248.965 55.7198 0.91305 0.00368115
1826400 60.2424 248.978 55.7198 0.91315 0.0269296
1826600 60.2424 248.991 55.7198 0.91325 0.0135609
1826800 60.2424 249.004 55.7198 0.91335 0.0163457
1827000 60.2424 249.017 55.7198 0.91345 -0.000293184
1827200 60.2424 249.03 55.7198 0.91355 0.0356905
1827400 60.2424 249.043 55.7198 0.91365 0.0287598
1827600 60.2424 249.056 55.7198 0.91375 0.00827175
1827800 60.2424 249.069 55.7198 0.91385 0.0123089
1828000 60.2424 249.082 55.7198 0.91395 0.00324164
1828200 60.2424 249.095 55.7198 0.91405 -0.00850334
1828400 60.2424 249.108 55.7198 0.91415 -0.0049798
1828600 60.2424 249.121 55.7198 0.91425 -0.0123651
1828800 60.2424 249.134 55.7198 0.91435 -0.0120063
1829000 60.2424 249.147 55.7198 0.91445 -0.0132281
1829200 60.2424 249.161 55.7198 0.91455 -0.0214174
1829400 60.2424 249.174 55.7198 0.91465 -0.0185298
1829600 60.2424 249.187 55.7198 0.91475 -0.020409
1829800 60.2424 249.2 55.7198 0.91485 -0.00765179
1830000 60.2424 249.213 55.7198 0.91495 0.00201742
1830200 60.2424 249.226 55.7198 0.91505 0.0111642
1830400 60.2424 249.239 55.7198 0.91515 0.0122125
1830600 60.2424 249.252 55.7198 0.91525 0.0163465
1830800 60.2424 249.265 55.7198 0.91535 0.0225495
1831000 60.2424 249.278 55.7198 0.91545 0.023024
1831200 60.2424 249.291 55.7198 0.91555 0.0315742
1831400 60.2424 249.304 55.7198 0.91565 0.0257767
1831600 60.2424 249.317 55.7198 0.91575 0.0245598
1831800 60.2424 249.33 55.7198 0.91585 0.00881235
1832000 60.2424 249.343 55.7198 0.91595 0.00404646
1832200 60.2424 249.356 55.7198 0.91605 0.0150576
1832400 60.2424 249.369 55.7198 0.91615 -0.0331948
1832600 60.2424 249.382 55.7198 0.91625 -0.0263539
1832800 60.2424 249.395 55.7198 0.91635 -0.0139789
1833000 60.2424 249.408 55.7198 0.91645 -0.0153033
1833200 60.2424 249.421 55.7198 0.91655 -0.0324026
1833400 60.2424 249.434 55.7198 0.91665 -0.0186329
1833600 60.2424 249.447 55.7198 0.91675 -0.0126965
1833800 60.2424 249.46 55.7198 0.91685 -0.0028491
1834000 60.2424 249.473 55.7198 0.91695 0.00510899
1834200 60.2424 249.486 55.7198 0.91705 0.0141947
1834400 60.2424 249.499 55.7198 0.91715 0.00493171
1834600 60.2424 249.512 55.7198 0.91725 0.0423887
1834800 60.2424 249.525 55.7198 0.91735 0.034219
1835000 60.2424 249.538 55.7198 0.91745 0.0174935
1835200 60.2424 249.551 55.7198 0.91755 0.0376209
1835400 60.2424 249.564 55.7198 0.91765 0.0150393
1835600 60.2424 249.577 55.7198 0.91775 0.0207099
1835800 60.2424 249.59 55.7198 0.91785 0.0011086
1836000 60.2424 249.603 55.7198 0.91795 -0.0163648
1836200 60.2424 249.616 55.7198 0.91805 0.0074376
1836400 60.2424 249.629 55.7198 0.91815 -0.0158024
1836600 60.2424 249.642 55.7198 0.91825 -0.0253126
1836800 60.2424 249.655 55.7198 0.91835 -0.0253941
1837000 60.2424 249.668 55.7198 0.91845 -0.0140257
1837200 60.2424 249.681 55.7198 0.91855 -0.0334714
1837400 60.2424 249.694 55.7198 0.91865 -0.00842404
1837600 60.2424 249.707 55.7198 0.91875 -0.00754414
1837800 60.2424 249.72 55.7198 0.91885 0.0053774
1838000 60.2424 249.733 55.7198 0.91895 -0.0161235
1838200 60.2424 249.746 55.7198 0.91905 0.024106
1838400 60.2424 249.759 55.7198 0.91915 0.0280278
1838600 60.2424 249.772 55.7198 0.91925 0.0321681
1838800 60.2424 249.785 55.7198 0.91935 0.0255161
1839000 60.2424 249.798 55.7198 0.91945 0.0276139
1839200 60.2424 249.811 55.7198 0.91955 0.0267157
1839400 60.2424 249.824 55.7198 0.91965 0.0159564
1839600 60.2424 249.837 55.7198 0.91975 0.00295315
1839800 60.2424 249.85 55.7198 0.91985 0.0078828
1840000 60.2424 249.863 55.7198 0.91995 -0.00336419
1840200 60.2424 249.876 55.7198 0.92005 -0.0249214
1840400 60.2424 249.889 55.7198 0.92015 -0.0228776
1840600 60.2424 249.902 55.7198 0.92025 -0.0188952
1840800 60.2424 249.915 55.7198 0.92035 -0.0231732
1841000 60.2424 249.928 55.7198 0.92045 -0.0149662
1841200 60.2424 249.941 55.7198 0.92055 -0.0146209
1841400 60.2424 249.954 55.7198 0.92065 -0.0133336
1841600 60.2424 249.967 55.7198 0.92075 0.00356285
1841800 60.2424 249.98 55.7198 0.92085 0.00854197
1842000 60.2424 249.993 55.7198 0.92095 0.00617442
1842200 60.2424 250.006 55.7198 0.92105 0.0243424
1842400 60.2424 250.019 55.7198 0.92115 0.016351
1842600 60.2424 250.032 55.7198 0.92125 0.0243382
1842800 60.2424 250.045 55.7198 0.92135 0.0316217
1843000 60.2424 250.058 55.7198 0.92145 0.0344121
1843200 60.2424 250.071 55.7198 0.92155 0.00644661
1843400 60.2424 250.084 55.7198 0.92165 0.0151105
1843600 60.2424 250.098 55.7198 0.92175 0.00380043
1843800 60.2424 250.111 55.7198 0.92185 -0.00773787
1844000 60.2424 250.124 55.7198 0.92195 -0.00573333
1844200 60.2424 250.137 55.7198 0.92205 -0.00568833
1844400 60.2424 250.15 55.7198 0.92215 -0.0204488
1844600 60.2424 250.163 55.7198 0.92225 -0.0337066
1844800 60.2424 250.176 55.7198 0.92235 -0.0197257
1845000 60.2424 250.189 55.7198 0.92245 -0.0232513
1845200 60.2424 250.202 55.7198 0.92255 -0.0125591
1845400 60.2424 250.215 55.7198 0.92265 0.0102066
1845600 60.2424 250.228 55.7198 0.92275 -0.0108174
1845800 60.2424 250.241 55.7198 0.92285 0.0120543
1846000 60.2424 250.254 55.7198 0.92295 0.0141666
1846200 60.2424 250.267 55.7198 0.92305 0.0228911
1846400 60.2424 250.28 55.7198 0.92315 0.0196933
1846600 60.2424 250.293 55.7198 0.92325 0.0424439
1846800 60.2424 250.306 55.7198 0.92335 0.0167605
1847000 60.2424 250.319 55.7198 0.92345 0.0161506
1847200 60.2424 250.332 55.7198 0.92355 0.019578
1847400 60.2424 250.345 55.7198 0.92365 -0.00283801
1847600 60.2424 250.358 55.7198 0.92375 0.00990423
1847800 60.2424 250.371 55.7198 0.92385 -0.00744022
1848000 60.2424 250.384 55.7198 0.92395 -0.00728426
1848200 60.2424 250.397 55.7198 0.92405 -0.0235656
1848400 60.2424 250.41 55.7198 0.92415 -0.0277735
1848600 60.2424 250.423 55.7198 0.92425 -0.0111073
1848800 60.2424 250.436 55.7198 0.92435 -0.0102781
1849000 60.2424 250.449 55.7198 0.92445 -0.00888641
1849200 60.2424 250.462 55.7198 0.92455 -0.0101126
1849400 60.2424 250.475 55.7198 0.92465 0.000144364
1849600 60.2424 250.488 55.7198 0.92475 0.000451094
1849800 60.2424 250.501 55.7198 0.92485 0.0116665
1850000 60.2424 250.514 55.7198 0.92495 0.0133906
1850200 60.2424 250.527 55.7198 0.92505 0.0172242
1850400 60.2424 250.54 55.7198 0.92515 0.0369096
1850600 60.2424 250.553 55.7198 0.92525 0.012168
1850800 60.2424 250.566 55.7198 0.92535 0.0125965
1851000 60.2424 250.579 55.7198 0.92545 0.0127185
1851200 60.2424 250.592 55.7198 0.92555 0.0126083
1851400 60.2424 250.605 55.7198 0.92565 0.00749862
1851600 60.2424 250.618 55.7198 0.92575 0.00462453
1851800 60.2424 250.631 55.7198 0.92585 0.00401039
1852000 60.2424 250.644 55.7198 0.92595 -0.0206059
1852200 60.2424 250.657 55.7198 0.92605 -0.03087
1852400 60.2424 250.67 55.7198 0.92615 -0.022649
1852600 60.2424 250.683 55.7198 0.92625 -0.00413355
1852800 60.2424 250.696 55.7198 0.92635 -0.0164621
1853000 60.2424 250.709 55.7198 0.92645 0.00457216
1853200 60.2424 250.722 55.7198 0.92655 -0.0018025
1853400 60.2424 250.735 55.7198 0.92665 -0.000540303
1853600 60.2424 250.748 55.7198 0.92675 -0.0127489
1853800 60.2424 250.761 55.7198 0.92685 0.0182403
1854000 60.2424 250.774 55.7198 0.92695 0.0109789
1854200 60.2424 250.787 55.7198 0.92705 0.0294978
1854400 60.2424 250.8 55.7198 0.92715 0.0342096
1854600 60.2424 250.813 55.7198 0.92725 0.0225285
1854800 60.2424 250.826 55.7198 0.92735 0.0220838
1855000 60.2424 250.839 55.7198 0.92745 -0.0110668
1855200 60.2424 250.852 55.7198 0.92755 0.00912681
1855400 60.2424 250.865 55.7198 0.92765 -0.00675123
1855600 60.2424 250.878 55.7198 0.92775 -0.00288914
1855800 60.2424 250.891 55.7198 0.92785 -0.00130847
1856000 60.2424 250.904 55.7198 0.92795 -0.00719026
1856200 60.2424 250.917 55.7198 0.92805 0.000569899
1856400 60.2424 250.93 55.7198 0.92815 -0.00754886
1856600 60.2424 250.943 55.7198 0.92825 -0.0307716
1856800 60.2424 250.956 55.7198 0.92835 -0.0319885
1857000 60.2424 250.969 55.7198 0.92845 0.00255953
1857200 60.2424 250.982 55.7198 0.92855 0.00313619
1857400 60.2424 250.995 55.7198 0.92865 0.0116192
1857600 60.2424 251.008 55.7198 0.92875 0.00611616
1857800 60.2424 251.022 55.7198 0.92885 0.0180779
1858000 60.2424 251.035 55.7198 0.92895 0.00438511
1858200 60.2424 251.048 55.7198 0.92905 0.00499607
1858400 60.2424 251.061 55.7198 0.92915 0.0151021
1858600 60.2424 251.074 55.7198 0.92925 0.021412
1858800 60.2424 251.087 55.7198 0.92935 0.01794
1859000 60.2424 251.1 55.7198 0.92945 0.0127567
1859200 60.2424 251.113 55.7198 0.92955 0.0117907
1859400 60.2424 251.126 55.7198 0.92965 -0.0193854
1859600 60.2424 251.139 55.7198 0.92975 -0.0101667
1859800 60.2424 251.152 55.7198 0.92985 3.95989e-05
1860000 60.2424 251.165 55.7198 0.92995 0.00160935
1860200 60.2424 251.178 55.7198 0.93005 -0.00392504
1860400 60.2424 251.191 55.7198 0.93015 -0.0116951
1860600 60.2424 251.204 55.7198 0.93025 -0.00713759
1860800 60.2424 251.217 55.7198 0.93035 -0.0100679
1861000 60.2424 251.23 55.7198 0.93045 1.7262e-05
1861200 60.2424 251.243 55.7198 0.93055 -0.00928636
1861400 60.2424 251.256 55.7198 0.93065 0.00834279
1861600 60.2424 251.269 55.7198 0.93075 0.00792563
1861800 60.2424 251.282 55.7198 0.93085 0.0224887
1862000 60.2424 251.295 55.7198 0.93095 -0.00163658
1862200 60.2424 251.308 55.7198 0.93105 0.0185315
1862400 60.2424 251.321 55.7198 0.93115 0.00481831
1862600 60.2424 251.334 55.7198 0.93125 0.012272
1862800 60.2424 251.347 55.7198 0.93135 0.0131198
1863000 60.2424 251.36 55.7198 0.93145 0.00984752
1863200 60.2424 251.373 55.7198 0.93155 0.00457358
1863400 60.2424 251.386 55.7198 0.93165 -0.0168282
1863600 60.2424 251.399 55.7198 0.93175 0.00315257
1863800 60.2424 251.412 55.7198 0.93185 -0.0159141
1864000 60.2424 251.425 55.7198 0.93195 -0.00499319
1864200 60.2424 251.438 55.7198 0.93205 -0.00454687
1864400 60.2424 251.451 55.7198 0.93215 0.00179383
1864600 60.2424 251.464 55.7198 0.93225 -0.0221408
1864800 60.2424 251.477 55.7198 0.93235 -0.012147
1865000 60.2424 251.49 55.7198 0.93245 0.000750284
1865200 60.2424 251.503 55.7198 0.93255 0.0145507
1865400 60.2424 251.516 55.7198 0.93265 0.0243919
1865600 60.2424 251.529 55.7198 0.93275 0.0154912
1865800 60.2424 251.542 55.7198 0.93285 -0.00604017
1866000 60.2424 251.555 55.7198 0.93295 0.0107556
1866200 60.2424 251.568 55.7198 0.93305 0.00962842
1866400 60.2424 251.581 55.7198 0.93315 0.0137464
1866600 60.2424 251.594 55.7198 0.93325 0.016146
1866800 60.2424 251.607 55.7198 0.93335 0.0167855
1867000 60.2424 251.62 55.7198 0.93345 0.00760361
1867200 60.2424 251.633 55.7198 0.93355 -0.00416762
1867400 60.2424 251.646 55.7198 0.93365 -0.0232964
1867600 60.2424 251.659 55.7198 0.93375 -0.0073378
1867800 60.2424 251.672 55.7198 0.93385 -0.0150704
1868000 60.2424 251.685 55.7198 0.93395 0.00170823
1868200 60.2424 251.698 55.7198 0.93405 -0.00668848
1868400 60.2424 251.711 55.7198 0.93415 -0.00371899
1868600 60.2424 251.724 55.7198 0.93425 -0.0165595
1868800 60.2424 251.737 55.7198 0.93435 -0.0104166
1869000 60.2424 251.75 55.7198 0.93445 0.00528247
1869200 60.2424 251.763 55.7198 0.93455 0.0204076
1869400 60.2424 251.776 55.7198 0.93465 0.0103801
1869600 60.2424 251.789 55.7198 0.93475 0.0141778
1869800 60.2424 251.802 55.7198 0.93485 0.0150102
1870000 60.2424 251.815 55.7198 0.93495 0.00564726
1870200 60.2424 251.828 55.7198 0.93505 0.0183321
1870400 60.2424 251.841 55.7198 0.93515 0.0092469
1870600 60.2424 251.854 55.7198 0.93525 0.013585
1870800 60.2424 251.867 55.7198 0.93535 0.00953136
1871000 60.2424 251.88 55.7198 0.93545 -0.00641212
1871200 60.2424 251.893 55.7198 0.93555 -0.00521434
1871400 60.2424 251.906 55.7198 0.93565 -0.00175254
1871600 60.2424 251.919 55.7198 0.93575 -0.00876102
1871800 60.2424 251.932 55.7198 0.93585 -0.0108205
1872000 60.2424 251.946 55.7198 0.93595 -0.0156482
1872200 60.2424 251.959 55.7198 0.93605 -0.00996511
1872400 60.2424 251.972 55.7198 0.93615 0.000182607
1872600 60.2424 251.985 55.7198 0.93625 -0.00136155
1872800 60.2424 251.998 55.7198 0.93635 -0.00580821
1873000 60.2424 252.011 55.7198 0.93645 0.0066261
1873200 60.2424 252.024 55.7198 0.93655 0.00346551
1873400 60.2424 252.037 55.7198 0.93665 0.00715876
1873600 60.2424 252.05 55.7198 0.93675 0.0106642
1873800 60.2424 252.063 55.7198 0.93685 0.0129747
1874000 60.2424 252.076 55.7198 0.93695 0.0249323
1874200 60.2424 252.089 55.7198 0.93705 0.0127332
1874400 60.2424 252.102 55.7198 0.93715 0.0117967
1874600 60.2424 252.115 55.7198 0.93725 3.62501e-05
1874800 60.2424 252.128 55.7198 0.93735 -0.00534668
1875000 60.2424 252.141 55.7198 0.93745 -0.00600317
1875200 60.2424 252.154 55.7198 0.93755 0.014295
1875400 60.2424 252.167 55.7198 0.93765 -0.0034453
1875600 60.2424 252.18 55.7198 0.93775 -0.0100532
1875800 60.2424 252.193 55.7198 0.93785 -0.0028119
1876000 60.2424 252.206 55.7198 0.93795 -0.00903888
1876200 60.2424 252.219 55.7198 0.93805 -0.0187182
1876400 60.2424 252.232 55.7198 0.93815 -0.0149083
1876600 60.2424 252.245 55.7198 0.93825 0.0115213
1876800 60.2424 252.258 55.7198 0.93835 -0.00320415
1877000 60.2424 252.271 55.7198 0.93845 0.0153777
1877200 60.2424 252.284 55.7198 0.93855 0.00160991
1877400 60.2424 252.297 55.7198 0.93865 0.00665969
1877600 60.2424 252.31 55.7198 0.93875 0.0158163
1877800 60.2424 252.323 55.7198 0.93885 0.00602037
1878000 60.2424 252.336 55.7198 0.93895 0.0117295
1878200 60.2424 252.349 55.7198 0.93905 0.0136298
1878400 60.2424 252.362 55.7198 0.93915 0.0137943
1878600 60.2424 252.375 55.7198 0.93925 -0.00385966
1878800 60.2424 252.388 55.7198 0.93935 0.00357056
1879000 60.2424 252.401 55.7198 0.93945 0.00380194
1879200 60.2424 252.414 55.7198 0.93955 -0.00357404
1879400 60.2424 252.427 55.7198 0.93965 -0.00373714
1879600 60.2424 252.44 55.7198 0.93975 -0.00643311
1879800 60.2424 252.453 55.7198 0.93985 -0.00937463
1880000 60.2424 252.466 55.7198 0.93995 -0.0109527
1880200 60.2424 252.479 55.7198 0.94005 -0.00288463
1880400 60.2424 252.492 55.7198 0.94015 -0.00950447
1880600 60.2424 252.505 55.7198 0.94025 -0.00491169
1880800 60.2424 252.518 55.7198 0.94035 0.00760332
1881000 60.2424 252.531 55.7198 0.94045 0.00937684
1881200 60.2424 252.544 55.7198 0.94055 0.0103279
1881400 60.2424 252.557 55.7198 0.94065 0.00305967
1881600 60.2424 252.57 55.7198 0.94075 0.0128378
1881800 60.2424 252.583 55.7198 0.94085 0.0136837
1882000 60.2424 252.596 55.7198 0.94095 0.00922389
1882200 60.2424 252.609 55.7198 0.94105 0.0145106
1882400 60.2424 252.622 55.7198 0.94115 0.00208055
1882600 60.2424 252.635 55.7198 0.94125 0.0133244
1882800 60.2424 252.648 55.7198 0.94135 -0.00201504
1883000 60.2424 252.661 55.7198 0.94145 -0.00552693
1883200 60.2424 252.674 55.7198 0.94155 -0.0075764
1883400 60.2424 252.687 55.7198 0.94165 -0.00891429
1883600 60.2424 252.7 55.7198 0.94175 -0.00426125
1883800 60.2424 252.713 55.7198 0.94185 0.0038786
1884000 60.2424 252.726 55.7198 0.94195 -0.0180967
1884200 60.2424 252.739 55.7198 0.94205 -0.00977556
1884400 60.2424 252.752 55.7198 0.94215 -0.00566645
1884600 60.2424 252.765 55.7198 0.94225 -0.0115271
1884800 60.2424 252.778 55.7198 0.94235 0.00386673
1885000 60.2424 252.791 55.7198 0.94245 0.022058
1885200 60.2424 252.804 55.7198 0.94255 0.0101556
1885400 60.2424 252.817 55.7198 0.94265 0.0175512
1885600 60.2424 252.83 55.7198 0.94275 0.0245229
1885800 60.2424 252.843 55.7198 0.94285 0.00679462
1886000 60.2424 252.856 55.7198 0.94295 0.00340619
1886200 60.2424 252.87 55.7198 0.94305 0.00422681
1886400 60.2424 252.883 55.7198 0.94315 0.0141525
1886600 60.2424 252.896 55.7198 0.94325 0.0026069
1886800 60.2424 252.909 55.7198 0.94335 -0.00473219
1887000 60.2424 252.922 55.7198 0.94345 -0.00152321
1887200 60.2424 252.935 55.7198 0.94355 -0.00946016
1887400 60.2424 252.948 55.7198 0.94365 -0.018563
1887600 60.2424 252.961 55.7198 0.94375 -0.0137374
1887800 60.2424 252.974 55.7198 0.94385 -0.00568253
1888000 60.2424 252.987 55.7198 0.94395 0.00428114
1888200 60.2424 253 55.7198 0.94405 0.00180476
1888400 60.2424 253.013 55.7198 0.94415 -0.00447663
1888600 60.2424 253.026 55.7198 0.94425 -0.00497512
1888800 60.2424 253.039 55.7198 0.94435 0.00300778
1889000 60.2424 253.052 55.7198 0.94445 0.011258
1889200 60.2424 253.065 55.7198 0.94455 0.0145366
1889400 60.2424 253.078 55.7198 0.94465 0.0181522
1889600 60.2424 253.091 55.7198 0.94475 0.0256512
1889800 60.2424 253.104 55.7198 0.94485 0.00397737
1890000 60.2424 253.117 55.7198 0.94495 -0.00189667
1890200 60.2424 253.13 55.7198 0.94505 0.0169892
1890400 60.2424 253.143 55.7198 0.94515 -0.00208003
1890600 60.2424 253.156 55.7198 0.94525 -0.000462214
1890800 60.2424 253.169 55.7198 0.94535 -0.00182468
1891000 60.2424 253.182 55.7198 0.94545 -0.0124054
1891200 60.2424 253.195 55.7198 0.94555 -0.00563286
1891400 60.2424 253.208 55.7198 0.94565 0.000536709
1891600 60.2424 253.221 55.7198 0.94575 -0.0232315
1891800 60.2424 253.234 55.7198 0.94585 -0.00996775
1892000 60.2424 253.247 55.7198 0.94595 -0.00181582
1892200 60.2424 253.26 55.7198 0.94605 0.00152093
1892400 60.2424 253.273 55.7198 0.94615 -0.00833963
1892600 60.2424 253.286 55.7198 0.94625 0.0113579
1892800 60.2424 253.299 55.7198 0.94635 0.0167706
1893000 60.2424 253.312 55.7198 0.94645 0.0104598
1893200 60.2424 253.325 55.7198 0.94655 0.0114767
1893400 60.2424 253.338 55.7198 0.94665 0.0277238
1893600 60.2424 253.351 55.7198 0.94675 0.000895307
1893800 60.2424 253.364 55.7198 0.94685 0.0212441
1894000 60.2424 253.377 55.7198 0.94695 0.0172867
1894200 60.2424 253.39 55.7198 0.94705 -0.00336569
1894400 60.2424 253.403 55.7198 0.94715 0.00814654
1894600 60.2424 253.416 55.7198 0.94725 -0.017229
1894800 60.2424 253.429 55.7198 0.94735 -0.0153575
1895000 60.2424 253.442 55.7198 0.94745 -0.0152271
1895200 60.2424 253.455 55.7198 0.94755 -0.0226603
1895400 60.2424 253.468 55.7198 0.94765 -0.00793554
1895600 60.2424 253.481 55.7198 0.94775 0.00431017
1895800 60.2424 253.494 55.7198 0.94785 -0.00811457
1896000 60.2424 253.507 55.7198 0.94795 -0.00732507
1896200 60.2424 253.52 55.7198 0.94805 0.0112771
1896400 60.2424 253.533 55.7198 0.94815 -0.00656562
1896600 60.2424 253.546 55.7198 0.94825 0.00433492
1896800 60.2424 253.559 55.7198 0.94835 0.0186562
1897000 60.2424 253.572 55.7198 0.94845 0.0174037
1897200 60.2424 253.585 55.7198 0.94855 0.0227919
1897400 60.2424 253.598 55.7198 0.94865 0.029725
1897600 60.2424 253.611 55.7198 0.94875 0.0224712
1897800 60.2424 253.624 55.7198 0.94885 -0.0153805
1898000 60.2424 253.637 55.7198 0.94895 0.00533945
1898200 60.2424 253.65 55.7198 0.94905 -0.00763231
1898400 60.2424 253.663 55.7198 0.94915 0.00487853
1898600 60.2424 253.676 55.7198 0.94925 -0.00511424
1898800 60.2424 253.689 55.7198 0.94935 -0.0120346
1899000 60.2424 253.702 55.7198 0.94945 -0.0254644
1899200 60.2424 253.715 55.7198 0.94955 -0.00628533
1899400 60.2424 253.728 55.7198 0.94965 -0.019513
1899600 60.2424 253.741 55.7198 0.94975 -0.0138771
1899800 60.2424 253.754 55.7198 0.94985 0.0011941
1900000 60.2424 253.767 55.7198 0.94995 0.0178641
1900200 60.2424 253.78 55.7198 0.95005 0.0226256
1900400 60.2424 253.794 55.7198 0.95015 -0.00123058
1900600 60.2424 253.807 55.7198 0.95025 0.0139092
1900800 60.2424 253.82 55.7198 0.95035 0.0102779
1901000 60.2424 253.833 55.7198 0.95045 0.00953049
1901200 60.2424 253.846 55.7198 0.95055 0.0140113
1901400 60.2424 253.859 55.7198 0.95065 0.0292704
1901600 60.2424 253.872 55.7198 0.95075 0.01378
1901800 60.2424 253.885 55.7198 0.95085 0.0147314
1902000 60.2424 253.898 55.7198 0.95095 -0.0176541
1902200 60.2424 253.911 55.7198 0.95105 -0.00318236
1902400 60.2424 253.924 55.7198 0.95115 -0.0215808
1902600 60.2424 253.937 55.7198 0.95125 -0.0179671
1902800 60.2424 253.95 55.7198 0.95135 -0.00257292
1903000 60.2424 253.963 55.7198 0.95145 -0.0211546
1903200 60.2424 253.976 55.7198 0.95155 -0.00148685
1903400 60.2424 253.989 55.7198 0.95165 -0.0130021
1903600 60.2424 254.002 55.7198 0.95175 -0.00523953
1903800 60.2424 254.015 55.7198 0.95185 -0.00142823
1904000 60.2424 254.028 55.7198 0.95195 0.0161193
1904200 60.2424 254.041 55.7198 0.95205 0.00743031
1904400 60.2424 254.054 55.7198 0.95215 0.0203114
1904600 60.2424 254.067 55.7198 0.95225 0.0145347
1904800 60.2424 254.08 55.7198 0.95235 0.0291897
1905000 60.2424 254.093 55.7198 0.95245 -0.00655678
1905200 60.2424 254.106 55.7198 0.95255 0.0131313
1905400 60.2424 254.119 55.7198 0.95265 0.00747575
1905600 60.2424 254.132 55.7198 0.95275 0.0311928
1905800 60.2424 254.145 55.7198 0.95285 0.009588
1906000 60.2424 254.158 55.7198 0.95295 -0.0194886
1906200 60.2424 254.171 55.7198 0.95305 -0.00446657
1906400 60.2424 254.184 55.7198 0.95315 -0.0404497
1906600 60.2424 254.197 55.7198 0.95325 -0.000350421
1906800 60.2424 254.21 55.7198 0.95335 -0.00724017
1907000 60.2424 254.223 55.7198 0.95345 -0.0100838
1907200 60.2424 254.236 55.7198 0.95355 -0.0223993
1907400 60.2424 254.249 55.7198 0.95365 -0.00731803
1907600 60.2424 254.262 55.7198 0.95375 0.00495827
1907800 60.2424 254.275 55.7198 0.95385 0.010751
1908000 60.2424 254.288 55.7198 0.95395 0.0142056
1908200 60.2424 254.301 55.7198 0.95405 0.0163791
1908400 60.2424 254.314 55.7198 0.95415 0.0225939
1908600 60.2424 254.327 55.7198 0.95425 0.0120744
1908800 60.2424 254.34 55.7198 0.95435 0.0219063
1909000 60.2424 254.353 55.7198 0.95445 0.0105867
1909200 60.2424 254.366 55.7198 0.95455 0.0226455
1909400 60.2424 254.379 55.7198 0.95465 0.0065096
1909600 60.2424 254.392 55.7198 0.95475 -0.00527628
1909800 60.2424 254.405 55.7198 0.95485 -0.0233046
1910000 60.2424 254.418 55.7198 0.95495 -0.00463739
1910200 60.2424 254.431 55.7198 0.95505 -0.00514528
1910400 60.2424 254.444 55.7198 0.95515 -0.0156319
1910600 60.2424 254.457 55.7198 0.95525 -0.00502674
1910800 60.2424 254.47 55.7198 0.95535 -0.0119753
1911000 60.2424 254.483 55.7198 0.95545 -0.0261865
1911200 60.2424 254.496 55.7198 0.95555 0.00232075
1911400 60.2424 254.509 55.7198 0.95565 -0.00124698
1911600 60.2424 254.522 55.7198 0.95575 0.0118744
1911800 60.2424 254.535 55.7198 0.95585 0.00233143
1912000 60.2424 254.548 55.7198 0.95595 0.016497
1912200 60.2424 254.561 55.7198 0.95605 0.0191542
1912400 60.2424 254.574 55.7198 0.95615 0.0218999
1912600 60.2424 254.587 55.7198 0.95625 0.00740077
1912800 60.2424 254.6 55.7198 0.95635 0.0149343
1913000 60.2424 254.613 55.7198 0.95645 0.0138165
1913200 60.2424 254.626 55.7198 0.95655 0.0114568
1913400 60.2424 254.639 55.7198 0.95665 -0.0158807
1913600 60.2424 254.652 55.7198 0.95675 0.0081701
1913800 60.2424 254.665 55.7198 0.95685 -0.00167114
1914000 60.2424 254.678 55.7198 0.95695 -0.00638795
1914200 60.2424 254.691 55.7198 0.95705 -0.033843
1914400 60.2424 254.704 55.7198 0.95715 -0.00338111
1914600 60.2424 254.718 55.7198 0.95725 -0.0131979
1914800 60.2424 254.731 55.7198 0.95735 -0.0028833
1915000 60.2424 254.744 55.7198 0.95745 -0.0135072
1915200 60.2424 254.757 55.7198 0.95755 0.0179128
1915400 60.2424 254.77 55.7198 0.95765 -0.00425769
1915600 60.2424 254.783 55.7198 0.95775 0.0156191
1915800 60.2424 254.796 55.7198 0.95785 -0.00582756
1916000 60.2424 254.809 55.7198 0.95795 0.0229482
1916200 60.2424 254.822 55.7198 0.95805 0.0206842
1916400 60.2424 254.835 55.7198 0.95815 0.0244074
1916600 60.2424 254.848 55.7198 0.95825 0.0186343
1916800 60.2424 254.861 55.7198 0.95835 0.00564199
1917000 60.2424 254.874 55.7198 0.95845 -0.0016929
1917200 60.2424 254.887 55.7198 0.95855 -0.00428675
1917400 60.2424 254.9 55.7198 0.95865 -0.0132798
1917600 60.2424 254.913 55.7198 0.95875 0.00302655
1917800 60.2424 254.926 55.7198 0.95885 -0.00254171
1918000 60.2424 254.939 55.7198 0.95895 -0.00747082
1918200 60.2424 254.952 55.7198 0.95905 -0.0266291
1918400 60.2424 254.965 55.7198 0.95915 -0.0144849
1918600 60.2424 254.978 55.7198 0.95925 -0.0101025
1918800 60.2424 254.991 55.7198 0.95935 -0.00504036
1919000 60.2424 255.004 55.7198 0.95945 0.00886381
1919200 60.2424 255.017 55.7198 0.95955 0.00402581
1919400 60.2424 255.03 55.7198 0.95965 0.00737124
1919600 60.2424 255.043 55.7198 0.95975 0.0110451
1919800 60.2424 255.056 55.7198 0.95985 0.0172249
1920000 60.2424 255.069 55.7198 0.95995 0.0181445
1920200 60.2424 255.082 55.7198 0.96005 0.015534
1920400 60.2424 255.095 55.7198 0.96015 0.0153734
1920600 60.2424 255.108 55.7198 0.96025 0.019297
1920800 60.2424 255.121 55.7198 0.96035 -0.000789392
1921000 60.2424 255.134 55.7198 0.96045 0.00320635
1921200 60.2424 255.147 55.7198 0.96055 -0.0141672
1921400 60.2424 255.16 55.7198 0.96065 0.00527287
1921600 60.2424 255.173 55.7198 0.96075 -0.0130487
1921800 60.2424 255.186 55.7198 0.96085 -0.00414364
1922000 60.2424 255.199 55.7198 0.96095 -0.00908012
1922200 60.2424 255.212 55.7198 0.96105 -0.00590263
1922400 60.2424 255.225 55.7198 0.96115 -0.0182156
1922600 60.2424 255.238 55.7198 0.96125 -0.0169735
1922800 60.2424 255.251 55.7198 0.96135 0.000744364
1923000 60.2424 255.264 55.7198 0.96145 0.0102528
1923200 60.2424 255.277 55.7198 0.96155 0.00946508
1923400 60.2424 255.29 55.7198 0.96165 0.00833803
1923600 60.2424 255.303 55.7198 0.96175 0.00525139
1923800 60.2424 255.316 55.7198 0.96185 0.0117127
1924000 60.2424 255.329 55.7198 0.96195 0.0195793
1924200 60.2424 255.342 55.7198 0.96205 0.0161783
1924400 60.2424 255.355 55.7198 0.96215 0.010307
1924600 60.2424 255.368 55.7198 0.96225 0.0102833
1924800 60.2424 255.381 55.7198 0.96235 0.0167737
1925000 60.2424 255.394 55.7198 0.96245 -0.00954147
1925200 60.2424 255.407 55.7198 0.96255 -0.0179448
1925400 60.2424 255.42 55.7198 0.96265 -0.00684341
1925600 60.2424 255.433 55.7198 0.96275 -0.00374424
1925800 60.2424 255.446 55.7198 0.96285 -0.00721327
1926000 60.2424 255.459 55.7198 0.96295 -0.00283149
1926200 60.2424 255.472 55.7198 0.96305 -0.000992277
1926400 60.2424 255.485 55.7198 0.96315 -0.0115992
1926600 60.2424 255.498 55.7198 0.96325 -0.00515765
1926800 60.2424 255.511 55.7198 0.96335 -0.010945
1927000 60.2424 255.524 55.7198 0.96345 0.00194051
1927200 60.2424 255.537 55.7198 0.96355 0.00874248
1927400 60.2424 255.55 55.7198 0.96365 0.017154
1927600 60.2424 255.563 55.7198 0.96375 0.0145293
1927800 60.2424 255.576 55.7198 0.96385 0.0128955
1928000 60.2424 255.589 55.7198 0.96395 -0.00402268
1928200 60.2424 255.602 55.7198 0.96405 0.00862925
1928400 60.2424 255.615 55.7198 0.96415 0.0124217
1928600 60.2424 255.628 55.7198 0.96425 0.0208187
1928800 60.2424 255.641 55.7198 0.96435 0.0150805
1929000 60.2424 255.655 55.7198 0.96445 -0.00364993
1929200 60.2424 255.668 55.7198 0.96455 0.00213706
1929400 60.2424 255.681 55.7198 0.96465 -0.016708
1929600 60.2424 255.694 55.7198 0.96475 -0.00959498
1929800 60.2424 255.707 55.7198 0.96485 -0.0150186
1930000 60.2424 255.72 55.7198 0.96495 0.00214261
1930200 60.2424 255.733 55.7198 0.96505 -0.00276174
1930400 60.2424 255.746 55.7198 0.96515 -0.00535095
1930600 60.2424 255.759 55.7198 0.96525 -0.0165282
1930800 60.2424 255.772 55.7198 0.96535 -0.00377153
1931000 60.2424 255.785 55.7198 0.96545 0.00139059
1931200 60.2424 255.798 55.7198 0.96555 0.00436612
1931400 60.2424 255.811 55.7198 0.96565 0.00659234
1931600 60.2424 255.824 55.7198 0.96575 0.022524
1931800 60.2424 255.837 55.7198 0.96585 0.0123772
1932000 60.2424 255.85 55.7198 0.96595 0.00873445
1932200 60.2424 255.863 55.7198 0.96605 0.00803493
1932400 60.2424 255.876 55.7198 0.96615 0.0150809
1932600 60.2424 255.889 55.7198 0.96625 0.0118602
1932800 60.2424 255.902 55.7198 0.96635 -0.00623288
1933000 60.2424 255.915 55.7198 0.96645 0.00763968
1933200 60.2424 255.928 55.7198 0.96655 0.00815928
1933400 60.2424 255.941 55.7198 0.96665 0.00504196
1933600 60.2424 255.954 55.7198 0.96675 -0.00984034
1933800 60.2424 255.967 55.7198 0.96685 -0.0162685
1934000 60.2424 255.98 55.7198 0.96695 -0.00489278
1934200 60.2424 255.993 55.7198 0.96705 -0.0270286
1934400 60.2424 256.006 55.7198 0.96715 0.00688659
1934600 60.2424 256.019 55.7198 0.96725 0.0041174
1934800 60.2424 256.032 55.7198 0.96735 -0.00950679
1935000 60.2424 256.045 55.7198 0.96745 -0.00432129
1935200 60.2424 256.058 55.7198 0.96755 0.00810612
1935400 60.2424 256.071 55.7198 0.96765 -0.00670007
1935600 60.2424 256.084 55.7198 0.96775 0.023017
1935800 60.2424 256.097 55.7198 0.96785 0.00932378
1936000 60.2424 256.11 55.7198 0.96795 0.0186944
1936200 60.2424 256.123 55.7198 0.96805 0.0130316
1936400 60.2424 256.136 55.7198 0.96815 0.00481131
1936600 60.2424 256.149 55.7198 0.96825 0.0116187
1936800 60.2424 256.162 55.7198 0.96835 0.00744699
1937000 60.2424 256.175 55.7198 0.96845 -0.00267822
1937200 60.2424 256.188 55.7198 0.96855 0.0127851
1937400 60.2424 256.201 55.7198 0.96865 -0.0185094
1937600 60.2424 256.214 55.7198 0.96875 -0.00635509
1937800 60.2424 256.227 55.7198 0.96885 0.00582416
1938000 60.2424 256.24 55.7198 0.96895 -0.0199283
1938200 60.2424 256.253 55.7198 0.96905 -0.00442886
1938400 60.2424 256.266 55.7198 0.96915 -0.00765236
1938600 60.2424 256.279 55.7198 0.96925 -0.00699124
1938800 60.2424 256.292 55.7198 0.96935 -0.00754747
1939000 60.2424 256.305 55.7198 0.96945 0.0016322
1939200 60.2424 256.318 55.7198 0.96955 0.0149758
1939400 60.2424 256.331 55.7198 0.96965 -0.00629089
1939600 60.2424 256.344 55.7198 0.96975 0.0115923
1939800 60.2424 256.357 55.7198 0.96985 0.00841713
1940000 60.2424 256.37 55.7198 0.96995 0.0253405
1940200 60.2424 256.383 55.7198 0.97005 0.00569914
1940400 60.2424 256.396 55.7198 0.97015 0.0106249
1940600 60.2424 256.409 55.7198 0.97025 0.018454
1940800 60.2424 256.422 55.7198 0.97035 0.00277254
1941000 60.2424 256.435 55.7198 0.97045 0.00178933
1941200 60.2424 256.448 55.7198 0.97055 -0.00275728
1941400 60.2424 256.461 55.7198 0.97065 -0.00592517
1941600 60.2424 256.474 55.7198 0.97075 -0.00618178
1941800 60.2424 256.487 55.7198 0.97085 -0.010772
1942000 60.2424 256.5 55.7198 0.97095 -0.00979177
1942200 60.2424 256.513 55.7198 0.97105 -0.0106878
1942400 60.2424 256.526 55.7198 0.97115 -0.000107123
1942600 60.2424 256.539 55.7198 0.97125 -0.00854357
1942800 60.2424 256.552 55.7198 0.97135 -0.0001525
1943000 60.2424 256.565 55.7198 0.97145 -0.00516574
1943200 60.2424 256.579 55.7198 0.97155 0.0112699
1943400 60.2424 256.592 55.7198 0.97165 0.00441777
1943600 60.2424 256.605 55.7198 0.97175 0.0198234
1943800 60.2424 256.618 55.7198 0.97185 0.0117088
1944000 60.2424 256.631 55.7198 0.97195 0.0073372
1944200 60.2424 256.644 55.7198 0.97205 0.00914505
1944400 60.2424 256.657 55.7198 0.97215 0.015943
1944600 60.2424 256.67 55.7198 0.97225 0.00292027
1944800 60.2424 256.683 55.7198 0.97235 0.00323323
1945000 60.2424 256.696 55.7198 0.97245 -0.00583724
1945200 60.2424 256.709 55.7198 0.97255 0.000497787
1945400 60.2424 256.722 55.7198 0.97265 0.00689325
1945600 60.2424 256.735 55.7198 0.97275 -0.0107596
1945800 60.2424 256.748 55.7198 0.97285 -0.00690404
1946000 60.2424 256.761 55.7198 0.97295 -0.0112431
1946200 60.2424 256.774 55.7198 0.97305 -0.00936636
1946400 60.2424 256.787 55.7198 0.97315 0.00611284
1946600 60.2424 256.8 55.7198 0.97325 -0.00130246
1946800 60.2424 256.813 55.7198 0.97335 0.000670877
1947000 60.2424 256.826 55.7198 0.97345 -0.00735465
1947200 60.2424 256.839 55.7198 0.97355 0.00919718
1947400 60.2424 256.852 55.7198 0.97365 0.0153627
1947600 60.2424 256.865 55.7198 0.97375 0.00889387
1947800 60.2424 256.878 55.7198 0.97385 0.0100846
1948000 60.2424 256.891 55.7198 0.97395 0.00413838
1948200 60.2424 256.904 55.7198 0.97405 0.0103804
1948400 60.2424 256.917 55.7198 0.97415 -0.000887811
1948600 60.2424 256.93 55.7198 0.97425 0.0115297
1948800 60.2424 256.943 55.7198 0.97435 -0.00123163
1949000 60.2424 256.956 55.7198 0.97445 0.00409535
1949200 60.2424 256.969 55.7198 0.97455 -0.00340528
1949400 60.2424 256.982 55.7198 0.97465 0.00320026
1949600 60.2424 256.995 55.7198 0.97475 -0.00694156
1949800 60.2424 257.008 55.7198 0.97485 -0.010835
1950000 60.2424 257.021 55.7198 0.97495 -0.0210178
1950200 60.2424 257.034 55.7198 0.97505 0.0101829
1950400 60.2424 257.047 55.7198 0.97515 -0.00891139
1950600 60.2424 257.06 55.7198 0.97525 0.00658156
1950800 60.2424 257.073 55.7198 0.97535 -0.00634617
1951000 60.2424 257.086 55.7198 0.97545 -0.000733693
1951200 60.2424 257.099 55.7198 0.97555 0.0114758
1951400 60.2424 257.112 55.7198 0.97565 0.0116742
1951600 60.2424 257.125 55.7198 0.97575 0.0128217
1951800 60.2424 257.138 55.7198 0.97585 0.0148776
1952000 60.2424 257.151 55.7198 0.97595 0.0215315
1952200 60.2424 257.164 55.7198 0.97605 -0.00243514
1952400 60.2424 257.177 55.7198 0.97615 5.81767e-05
1952600 60.2424 257.19 55.7198 0.97625 -0.00628243
1952800 60.2424 257.203 55.7198 0.97635 0.0214878
1953000 60.2424 257.216 55.7198 0.97645 -0.0103979
1953200 60.2424 257.229 55.7198 0.97655 -0.0125745
1953400 60.2424 257.242 55.7198 0.97665 -0.00858897
1953600 60.2424 257.255 55.7198 0.97675 -0.0103485
1953800 60.2424 257.268 55.7198 0.97685 -0.00301252
1954000 60.2424 257.281 55.7198 0.97695 -0.0106824
1954200 60.2424 257.294 55.7198 0.97705 0.008673
1954400 60.2424 257.307 55.7198 0.97715 -0.00599921
1954600 60.2424 257.32 55.7198 0.97725 0.003845
1954800 60.2424 257.333 55.7198 0.97735 0.00452107
1955000 60.2424 257.346 55.7198 0.97745 0.00458826
1955200 60.2424 257.359 55.7198 0.97755 0.0118021
1955400 60.2424 257.372 55.7198 0.97765 0.0218388
1955600 60.2424 257.385 55.7198 0.97775 0.012825
1955800 60.2424 257.398 55.7198 0.97785 0.00180478
1956000 60.2424 257.411 55.7198 0.97795 0.0164863
1956200 60.2424 257.424 55.7198 0.97805 -0.00550377
1956400 60.2424 257.437 55.7198 0.97815 0.00888866
1956600 60.2424 257.45 55.7198 0.97825 -0.0138219
1956800 60.2424 257.463 55.7198 0.97835 -0.00367612
1957000 60.2424 257.476 55.7198 0.97845 -0.0081123
1957200 60.2424 257.489 55.7198 0.97855 -0.00361732
1957400 60.2424 257.503 55.7198 0.97865 0.00293918
1957600 60.2424 257.516 55.7198 0.97875 -0.0113547
1957800 60.2424 257.529 55.7198 0.97885 -0.0130597
1958000 60.2424 257.542 55.7198 0.97895 0.00153854
1958200 60.2424 257.555 55.7198 0.97905 0.0023277
1958400 60.2424 257.568 55.7198 0.97915 0.00407554
1958600 60.2424 257.581 55.7198 0.97925 0.0098916
1958800 60.2424 257.594 55.7198 0.97935 0.00902413
1959000 60.2424 257.607 55.7198 0.97945 0.0116855
1959200 60.2424 257.62 55.7198 0.97955 0.00926996
1959400 60.2424 257.633 55.7198 0.97965 0.0244664
1959600 60.2424 257.646 55.7198 0.97975 0.00345404
1959800 60.2424 257.659 55.7198 0.97985 -0.00277112
1960000 60.2424 257.672 55.7198 0.97995 0.0123101
1960200 60.2424 257.685 55.7198 0.98005 0.00887344
1960400 60.2424 257.698 55.7198 0.98015 -0.00316136
1960600 60.2424 257.711 55.7198 0.98025 -0.00117324
1960800 60.2424 257.724 55.7198 0.98035 -0.0162116
1961000 60.2424 257.737 55.7198 0.98045 -0.0173094
1961200 60.2424 257.75 55.7198 0.98055 -0.0170614
1961400 60.2424 257.763 55.7198 0.98065 -0.0173527
1961600 60.2424 257.776 55.7198 0.98075 0.00642842
1961800 60.2424 257.789 55.7198 0.98085 -0.00581878
1962000 60.2424 257.802 55.7198 0.98095 -0.00857695
1962200 60.2424 257.815 55.7198 0.98105 0.00972776
1962400 60.2424 257.828 55.7198 0.98115 0.00683231
1962600 60.2424 257.841 55.7198 0.98125 0.0158901
1962800 60.2424 257.854 55.7198 0.98135 0.00312177
1963000 60.2424 257.867 55.7198 0.98145 0.0343535
1963200 60.2424 257.88 55.7198 0.98155 0.0113491
1963400 60.2424 257.893 55.7198 0.98165 0.0182829
1963600 60.2424 257.906 55.7198 0.98175 0.0127674
1963800 60.2424 257.919 55.7198 0.98185 0.00411111
1964000 60.2424 257.932 55.7198 0.98195 -0.0124715
1964200 60.2424 257.945 55.7198 0.98205 0.00314965
1964400 60.2424 257.958 55.7198 0.98215 -0.00421784
1964600 60.2424 257.971 55.7198 0.98225 -0.0217116
1964800 60.2424 257.984 55.7198 0.98235 0.00292843
1965000 60.2424 257.997 55.7198 0.98245 -0.0110698
1965200 60.2424 258.01 55.7198 0.98255 -0.0235057
1965400 60.2424 258.023 55.7198 0.98265 -0.00017706
1965600 60.2424 258.036 55.7198 0.98275 -0.00789933
1965800 60.2424 258.049 55.7198 0.98285 -0.00979657
1966000 60.2424 258.062 55.7198 0.98295 0.000853853
1966200 60.2424 258.075 55.7198 0.98305 0.0146316
1966400 60.2424 258.088 55.7198 0.98315 0.00649513
1966600 60.2424 258.101 55.7198 0.98325 0.0145745
1966800 60.2424 258.114 55.7198 0.98335 0.026948
1967000 60.2424 258.127 55.7198 0.98345 0.00770821
1967200 60.2424 258.14 55.7198 0.98355 0.00815289
1967400 60.2424 258.153 55.7198 0.98365 0.0170558
1967600 60.2424 258.166 55.7198 0.98375 0.0207833
1967800 60.2424 258.179 55.7198 0.98385 -0.00644693
1968000 60.2424 258.192 55.7198 0.98395 0.0051459
1968200 60.2424 258.205 55.7198 0.98405 0.0138688
1968400 60.2424 258.218 55.7198 0.98415 -0.0141012
1968600 60.2424 258.231 55.7198 0.98425 -0.0140314
1968800 60.2424 258.244 55.7198 0.98435 -0.0277364
1969000 60.2424 258.257 55.7198 0.98445 -0.0123102
1969200 60.2424 258.27 55.7198 0.98455 -0.00489782
1969400 60.2424 258.283 55.7198 0.98465 -0.0183506
1969600 60.2424 258.296 55.7198 0.98475 0.00156122
1969800 60.2424 258.309 55.7198 0.98485 -0.00159755
1970000 60.2424 258.322 55.7198 0.98495 -0.00171174
1970200 60.2424 258.335 55.7198 0.98505 0.000218809
1970400 60.2424 258.348 55.7198 0.98515 0.00781999
1970600 60.2424 258.361 55.7198 0.98525 0.0110406
1970800 60.2424 258.374 55.7198 0.98535 0.0282126
1971000 60.2424 258.387 55.7198 0.98545 0.015515
1971200 60.2424 258.4 55.7198 0.98555 0.0227008
1971400 60.2424 258.413 55.7198 0.98565 0.0162892
1971600 60.2424 258.427 55.7198 0.98575 0.0161681
1971800 60.2424 258.44 55.7198 0.98585 -0.00741797
1972000 60.2424 258.453 55.7198 0.98595 -0.000409895
1972200 60.2424 258.466 55.7198 0.98605 -0.000604916
1972400 60.2424 258.479 55.7198 0.98615 -0.0174878
1972600 60.2424 258.492 55.7198 0.98625 -0.0154392
1972800 60.2424 258.505 55.7198 0.98635 -0.0270273
1973000 60.2424 258.518 55.7198 0.98645 -0.0138448
1973200 60.2424 258.531 55.7198 0.98655 0.00107462
1973400 60.2424 258.544 55.7198 0.98665 -0.0122215
1973600 60.2424 258.557 55.7198 0.98675 -0.000617339
1973800 60.2424 258.57 55.7198 0.98685 0.000709663
1974000 60.2424 258.583 55.7198 0.98695 0.0118888
1974200 60.2424 258.596 55.7198 0.98705 0.0152519
1974400 60.2424 258.609 55.7198 0.98715 0.0105554
1974600 60.2424 258.622 55.7198 0.98725 0.0294725
1974800 60.2424 258.635 55.7198 0.98735 -0.0021135
1975000 60.2424 258.648 55.7198 0.98745 0.0198205
1975200 60.2424 258.661 55.7198 0.98755 0.00849396
1975400 60.2424 258.674 55.7198 0.98765 0.0228369
1975600 60.2424 258.687 55.7198 0.98775 -0.0039325
1975800 60.2424 258.7 55.7198 0.98785 -0.00473161
1976000 60.2424 258.713 55.7198 0.98795 0.00374619
1976200 60.2424 258.726 55.7198 0.98805 -0.0118887
1976400 60.2424 258.739 55.7198 0.98815 -0.0105635
1976600 60.2424 258.752 55.7198 0.98825 -0.00938166
1976800 60.2424 258.765 55.7198 0.98835 -0.0156554
1977000 60.2424 258.778 55.7198 0.98845 -0.0189357
1977200 60.2424 258.791 55.7198 0.98855 -0.0132352
1977400 60.2424 258.804 55.7198 0.98865 -0.00240844
1977600 60.2424 258.817 55.7198 0.98875 0.000231796
1977800 60.2424 258.83 55.7198 0.98885 1.35135e-05
1978000 60.2424 258.843 55.7198 0.98895 0.0106306
1978200 60.2424 258.856 55.7198 0.98905 0.0128256
1978400 60.2424 258.869 55.7198 0.98915 0.0257867
1978600 60.2424 258.882 55.7198 0.98925 0.0250565
1978800 60.2424 258.895 55.7198 0.98935 0.0073876
1979000 60.2424 258.908 55.7198 0.98945 0.0125165
1979200 60.2424 258.921 55.7198 0.98955 0.00435319
1979400 60.2424 258.934 55.7198 0.98965 0.00805775
1979600 60.2424 258.947 55.7198 0.98975 -0.00457155
1979800 60.2424 258.96 55.7198 0.98985 -0.000691284
1980000 60.2424 258.973 55.7198 0.98995 -0.000734667
1980200 60.2424 258.986 55.7198 0.99005 -0.0198192
1980400 60.2424 258.999 55.7198 0.99015 -0.0142053
1980600 60.2424 259.012 55.7198 0.99025 -0.0110228
1980800 60.2424 259.025 55.7198 0.99035 -0.00877901
1981000 60.2424 259.038 55.7198 0.99045 -0.0125616
1981200 60.2424 259.051 55.7198 0.99055 0.00295205
1981400 60.2424 259.064 55.7198 0.99065 0.000418148
1981600 60.2424 259.077 55.7198 0.99075 0.00555094
1981800 60.2424 259.09 55.7198 0.99085 -0.00617464
1982000 60.2424 259.103 55.7198 0.99095 0.0137502
1982200 60.2424 259.116 55.7198 0.99105 0.0202485
1982400 60.2424 259.129 55.7198 0.99115 0.0104437
1982600 60.2424 259.142 55.7198 0.99125 0.00602127
1982800 60.2424 259.155 55.7198 0.99135 0.0210948
1983000 60.2424 259.168 55.7198 0.99145 0.0189351
1983200 60.2424 259.181 55.7198 0.99155 0.00797642
1983400 60.2424 259.194 55.7198 0.99165 -0.000340846
1983600 60.2424 259.207 55.7198 0.99175 -0.00842193
1983800 60.2424 259.22 55.7198 0.99185 0.00137242
1984000 60.2424 259.233 55.7198 0.99195 -0.00934529
1984200 60.2424 259.246 55.7198 0.99205 -0.00862292
1984400 60.2424 259.259 55.7198 0.99215 -0.0106537
1984600 60.2424 259.272 55.7198 0.99225 -0.0282446
1984800 60.2424 259.285 55.7198 0.99235 -0.00321886
1985000 60.2424 259.298 55.7198 0.99245 -0.00479844
1985200 60.2424 259.311 55.7198 0.99255 -0.00562116
1985400 60.2424 259.324 55.7198 0.99265 0.00212819
1985600 60.2424 259.337 55.7198 0.99275 0.0044515
1985800 60.2424 259.351 55.7198 0.99285 0.0191986
1986000 60.2424 259.364 55.7198 0.99295 0.00541239
1986200 60.2424 259.377 55.7198 0.99305 0.0170227
1986400 60.2424 259.39 55.7198 0.99315 0.0109189
1986600 60.2424 259.403 55.7198 0.99325 0.00401575
1986800 60.2424 259.416 55.7198 0.99335 0.0239749
1987000 60.2424 259.429 55.7198 0.99345 0.00895568
1987200 60.2424 259.442 55.7198 0.99355 0.00377697
1987400 60.2424 259.455 55.7198 0.99365 -0.00652476
1987600 60.2424 259.468 55.7198 0.99375 0.0075503
1987800 60.2424 259.481 55.7198 0.99385 -0.0103946
1988000 60.2424 259.494 55.7198 0.99395 -0.0305031
1988200 60.2424 259.507 55.7198 0.99405 0.00140605
1988400 60.2424 259.52 55.7198 0.99415 -0.0163962
1988600 60.2424 259.533 55.7198 0.99425 -0.0057377
1988800 60.2424 259.546 55.7198 0.99435 -0.0106501
1989000 60.2424 259.559 55.7198 0.99445 -0.00590355
1989200 60.2424 259.572 55.7198 0.99455 0.00213932
1989400 60.2424 259.585 55.7198 0.99465 0.011251
1989600 60.2424 259.598 55.7198 0.99475 0.0119309
1989800 60.2424 259.611 55.7198 0.99485 0.0225108
1990000 60.2424 259.624 55.7198 0.99495 0.0143137
1990200 60.2424 259.637 55.7198 0.99505 0.0122122
1990400 60.2424 259.65 55.7198 0.99515 0.011822
1990600 60.2424 259.663 55.7198 0.99525 -0.00155795
1990800 60.2424 259.676 55.7198 0.99535 0.00550719
1991000 60.2424 259.689 55.7198 0.99545 0.00579993
1991200 60.2424 259.702 55.7198 0.99555 -0.0163225
1991400 60.2424 259.715 55.7198 0.99565 0.0134436
1991600 60.2424 259.728 55.7198 0.99575 -0.0243604
1991800 60.2424 259.741 55.7198 0.99585 -0.00674107
1992000 60.2424 259.754 55.7198 0.99595 -0.0158337
1992200 60.2424 259.767 55.7198 0.99605 -0.0116785
1992400 60.2424 259.78 55.7198 0.99615 0.000500227
1992600 60.2424 259.793 55.7198 0.99625 -0.0024374
1992800 60.2424 259.806 55.7198 0.99635 0.00954424
1993000 60.2424 259.819 55.7198 0.99645 -0.00215122
1993200 60.2424 259.832 55.7198 0.99655 0.000849569
1993400 60.2424 259.845 55.7198 0.99665 0.00755308
1993600 60.2424 259.858 55.7198 0.99675 0.0011647
1993800 60.2424 259.871 55.7198 0.99685 0.022802
1994000 60.2424 259.884 55.7198 0.99695 0.0186302
1994200 60.2424 259.897 55.7198 0.99705 0.00970424
1994400 60.2424 259.91 55.7198 0.99715 0.010835
1994600 60.2424 259.923 55.7198 0.99725 0.00826991
1994800 60.2424 259.936 55.7198 0.99735 -0.00572485
1995000 60.2424 259.949 55.7198 0.99745 0.00344655
1995200 60.2424 259.962 55.7198 0.99755 -0.0145632
1995400 60.2424 259.975 55.7198 0.99765 -0.00516391
1995600 60.2424 259.988 55.7198 0.99775 -0.00691671
1995800 60.2424 260.001 55.7198 0.99785 -0.00946414
1996000 60.2424 260.014 55.7198 0.99795 -0.00402611
1996200 60.2424 260.027 55.7198 0.99805 -0.0166823
1996400 60.2424 260.04 55.7198 0.99815 -0.0162255
1996600 60.2424 260.053 55.7198 0.99825 -0.00797833
1996800 60.2424 260.066 55.7198 0.99835 -0.00710903
1997000 60.2424 260.079 55.7198 0.99845 0.0198582
1997200 60.2424 260.092 55.7198 0.99855 0.0120243
1997400 60.2424 260.105 55.7198 0.99865 0.00748399
1997600 60.2424 260.118 55.7198 0.99875 0.0225133
1997800 60.2424 260.131 55.7198 0.99885 0.0016921
1998000 60.2424 260.144 55.7198 0.99895 0.0250959
1998200 60.2424 260.157 55.7198 0.99905 0.00590913
1998400 60.2424 260.17 55.7198 0.99915 0.00206053
1998600 60.2424 260.183 55.7198 0.99925 0.0137039
1998800 60.2424 260.196 55.7198 0.99935 0.0011559
1999000 60.2424 260.209 55.7198 0.99945 0.0103435
1999200 60.2424 260.222 55.7198 0.99955 -0.0138465
1999400 60.2424 260.235 55.7198 0.99965 -0.0133382
1999600 60.2424 260.248 55.7198 0.99975 -0.00602646
1999800 60.2424 260.261 55.7198 0.99985 -0.0153343
2000000 60.2424 260.274 55.7198 0.99995 -0.0078445
