# Time-averaged data for fix Re_Primary
Step Lx Ly Lz StrainY StressYY
200 61.217 132.932 55.9385 5.025e-05 0.0272195
400 61.217 132.945 55.9385 0.00015025 0.0183294
600 61.217 132.959 55.9385 0.00025025 0.00667188
800 61.217 132.972 55.9385 0.00035025 0.018394
1000 61.217 132.985 55.9385 0.00045025 0.0135331
1200 61.217 132.999 55.9385 0.00055025 0.047725
1400 61.217 133.012 55.9385 0.00065025 0.0122115
1600 61.217 133.025 55.9385 0.00075025 0.0421294
1800 61.217 133.038 55.9385 0.00085025 0.0392645
2000 61.217 133.052 55.9385 0.00095025 0.0149317
2200 61.217 133.065 55.9385 0.00105025 0.0660498
2400 61.217 133.078 55.9385 0.00115025 0.0385712
2600 61.217 133.092 55.9385 0.00125025 0.0708555
2800 61.217 133.105 55.9385 0.00135025 0.0655901
3000 61.217 133.118 55.9385 0.00145025 0.0401918
3200 61.217 133.131 55.9385 0.00155025 0.0691953
3400 61.217 133.145 55.9385 0.00165025 0.0566085
3600 61.217 133.158 55.9385 0.00175025 0.0707262
3800 61.217 133.171 55.9385 0.00185025 0.105309
4000 61.217 133.185 55.9385 0.00195025 0.0666126
4200 61.217 133.198 55.9385 0.00205025 0.0770493
4400 61.217 133.211 55.9385 0.00215025 0.0874799
4600 61.217 133.225 55.9385 0.00225025 0.086742
4800 61.217 133.238 55.9385 0.00235025 0.101845
5000 61.217 133.251 55.9385 0.00245025 0.091312
5200 61.217 133.264 55.9385 0.00255025 0.122362
5400 61.217 133.278 55.9385 0.00265025 0.0818246
5600 61.217 133.291 55.9385 0.00275025 0.11429
5800 61.217 133.304 55.9385 0.00285025 0.138176
6000 61.217 133.318 55.9385 0.00295025 0.0869452
6200 61.217 133.331 55.9385 0.00305025 0.151272
6400 61.217 133.344 55.9385 0.00315025 0.101859
6600 61.217 133.357 55.9385 0.00325025 0.135527
6800 61.217 133.371 55.9385 0.00335025 0.166655
7000 61.217 133.384 55.9385 0.00345025 0.088228
7200 61.217 133.397 55.9385 0.00355025 0.170848
7400 61.217 133.411 55.9385 0.00365025 0.13271
7600 61.217 133.424 55.9385 0.00375025 0.131475
7800 61.217 133.437 55.9385 0.00385025 0.177353
8000 61.217 133.45 55.9385 0.00395025 0.14835
8200 61.217 133.464 55.9385 0.00405025 0.143972
8400 61.217 133.477 55.9385 0.00415025 0.172147
8600 61.217 133.49 55.9385 0.00425025 0.137485
8800 61.217 133.504 55.9385 0.00435025 0.17767
9000 61.217 133.517 55.9385 0.00445025 0.201867
9200 61.217 133.53 55.9385 0.00455025 0.169976
9400 61.217 133.544 55.9385 0.00465025 0.191942
9600 61.217 133.557 55.9385 0.00475025 0.148243
9800 61.217 133.57 55.9385 0.00485025 0.194567
10000 61.217 133.583 55.9385 0.00495025 0.197123
10200 61.217 133.597 55.9385 0.00505025 0.194679
10400 61.217 133.61 55.9385 0.00515025 0.207924
10600 61.217 133.623 55.9385 0.00525025 0.21527
10800 61.217 133.637 55.9385 0.00535025 0.188995
11000 61.217 133.65 55.9385 0.00545025 0.206417
11200 61.217 133.663 55.9385 0.00555025 0.244595
11400 61.217 133.676 55.9385 0.00565025 0.199328
11600 61.217 133.69 55.9385 0.00575025 0.250796
11800 61.217 133.703 55.9385 0.00585025 0.219024
12000 61.217 133.716 55.9385 0.00595025 0.199155
12200 61.217 133.73 55.9385 0.00605025 0.272698
12400 61.217 133.743 55.9385 0.00615025 0.194322
12600 61.217 133.756 55.9385 0.00625025 0.232566
12800 61.217 133.77 55.9385 0.00635025 0.284795
13000 61.217 133.783 55.9385 0.00645025 0.227709
13200 61.217 133.796 55.9385 0.00655025 0.278643
13400 61.217 133.809 55.9385 0.00665025 0.265036
13600 61.217 133.823 55.9385 0.00675025 0.228881
13800 61.217 133.836 55.9385 0.00685025 0.313644
14000 61.217 133.849 55.9385 0.00695025 0.220085
14200 61.217 133.863 55.9385 0.00705025 0.276356
14400 61.217 133.876 55.9385 0.00715025 0.3096
14600 61.217 133.889 55.9385 0.00725025 0.219505
14800 61.217 133.902 55.9385 0.00735025 0.306326
15000 61.217 133.916 55.9385 0.00745025 0.293293
15200 61.217 133.929 55.9385 0.00755025 0.271052
15400 61.217 133.942 55.9385 0.00765025 0.333827
15600 61.217 133.956 55.9385 0.00775025 0.271959
15800 61.217 133.969 55.9385 0.00785025 0.276834
16000 61.217 133.982 55.9385 0.00795025 0.313226
16200 61.217 133.995 55.9385 0.00805025 0.286571
16400 61.217 134.009 55.9385 0.00815025 0.334537
16600 61.217 134.022 55.9385 0.00825025 0.306619
16800 61.217 134.035 55.9385 0.00835025 0.301279
17000 61.217 134.049 55.9385 0.00845025 0.335892
17200 61.217 134.062 55.9385 0.00855025 0.304008
17400 61.217 134.075 55.9385 0.00865025 0.348455
17600 61.217 134.089 55.9385 0.00875025 0.312411
17800 61.217 134.102 55.9385 0.00885025 0.327787
18000 61.217 134.115 55.9385 0.00895025 0.36257
18200 61.217 134.128 55.9385 0.00905025 0.332192
18400 61.217 134.142 55.9385 0.00915025 0.342363
18600 61.217 134.155 55.9385 0.00925025 0.358517
18800 61.217 134.168 55.9385 0.00935025 0.362591
19000 61.217 134.182 55.9385 0.00945025 0.361268
19200 61.217 134.195 55.9385 0.00955025 0.353686
19400 61.217 134.208 55.9385 0.00965025 0.384128
19600 61.217 134.221 55.9385 0.00975025 0.381264
19800 61.217 134.235 55.9385 0.00985025 0.362996
20000 61.217 134.248 55.9385 0.00995025 0.372011
20200 61.217 134.261 55.9385 0.0100503 0.38305
20400 61.217 134.275 55.9385 0.0101503 0.381853
20600 61.217 134.288 55.9385 0.0102503 0.418385
20800 61.217 134.301 55.9385 0.0103503 0.39147
21000 61.217 134.315 55.9385 0.0104503 0.37087
21200 61.217 134.328 55.9385 0.0105503 0.427213
21400 61.217 134.341 55.9385 0.0106503 0.423827
21600 61.217 134.354 55.9385 0.0107503 0.36759
21800 61.217 134.368 55.9385 0.0108503 0.436644
22000 61.217 134.381 55.9385 0.0109503 0.430036
22200 61.217 134.394 55.9385 0.0110503 0.41125
22400 61.217 134.408 55.9385 0.0111503 0.442197
22600 61.217 134.421 55.9385 0.0112503 0.42031
22800 61.217 134.434 55.9385 0.0113503 0.430692
23000 61.217 134.447 55.9385 0.0114503 0.438357
23200 61.217 134.461 55.9385 0.0115503 0.426898
23400 61.217 134.474 55.9385 0.0116503 0.43811
23600 61.217 134.487 55.9385 0.0117503 0.4447
23800 61.217 134.501 55.9385 0.0118503 0.435063
24000 61.217 134.514 55.9385 0.0119503 0.466671
24200 61.217 134.527 55.9385 0.0120503 0.467511
24400 61.217 134.54 55.9385 0.0121503 0.433887
24600 61.217 134.554 55.9385 0.0122503 0.483876
24800 61.217 134.567 55.9385 0.0123503 0.44714
25000 61.217 134.58 55.9385 0.0124503 0.470667
25200 61.217 134.594 55.9385 0.0125503 0.491475
25400 61.217 134.607 55.9385 0.0126503 0.453387
25600 61.217 134.62 55.9385 0.0127503 0.509347
25800 61.217 134.634 55.9385 0.0128503 0.476473
26000 61.217 134.647 55.9385 0.0129503 0.461828
26200 61.217 134.66 55.9385 0.0130503 0.527093
26400 61.217 134.673 55.9385 0.0131503 0.508227
26600 61.217 134.687 55.9385 0.0132503 0.472398
26800 61.217 134.7 55.9385 0.0133503 0.522151
27000 61.217 134.713 55.9385 0.0134503 0.503418
27200 61.217 134.727 55.9385 0.0135503 0.486183
27400 61.217 134.74 55.9385 0.0136503 0.550779
27600 61.217 134.753 55.9385 0.0137503 0.49234
27800 61.217 134.766 55.9385 0.0138503 0.530567
28000 61.217 134.78 55.9385 0.0139503 0.521144
28200 61.217 134.793 55.9385 0.0140503 0.506214
28400 61.217 134.806 55.9385 0.0141503 0.542128
28600 61.217 134.82 55.9385 0.0142503 0.554291
28800 61.217 134.833 55.9385 0.0143503 0.535471
29000 61.217 134.846 55.9385 0.0144503 0.537623
29200 61.217 134.859 55.9385 0.0145503 0.542456
29400 61.217 134.873 55.9385 0.0146503 0.519624
29600 61.217 134.886 55.9385 0.0147503 0.562211
29800 61.217 134.899 55.9385 0.0148503 0.582058
30000 61.217 134.913 55.9385 0.0149503 0.535754
30200 61.217 134.926 55.9385 0.0150503 0.562288
30400 61.217 134.939 55.9385 0.0151503 0.596664
30600 61.217 134.953 55.9385 0.0152503 0.525849
30800 61.217 134.966 55.9385 0.0153503 0.612745
31000 61.217 134.979 55.9385 0.0154503 0.594494
31200 61.217 134.992 55.9385 0.0155503 0.539513
31400 61.217 135.006 55.9385 0.0156503 0.594466
31600 61.217 135.019 55.9385 0.0157503 0.576143
31800 61.217 135.032 55.9385 0.0158503 0.593059
32000 61.217 135.046 55.9385 0.0159503 0.61776
32200 61.217 135.059 55.9385 0.0160503 0.58276
32400 61.217 135.072 55.9385 0.0161503 0.617736
32600 61.217 135.085 55.9385 0.0162503 0.606592
32800 61.217 135.099 55.9385 0.0163503 0.598032
33000 61.217 135.112 55.9385 0.0164503 0.659395
33200 61.217 135.125 55.9385 0.0165503 0.597776
33400 61.217 135.139 55.9385 0.0166503 0.594714
33600 61.217 135.152 55.9385 0.0167503 0.666395
33800 61.217 135.165 55.9385 0.0168503 0.593514
34000 61.217 135.179 55.9385 0.0169503 0.617781
34200 61.217 135.192 55.9385 0.0170503 0.691499
34400 61.217 135.205 55.9385 0.0171503 0.599158
34600 61.217 135.218 55.9385 0.0172503 0.625864
34800 61.217 135.232 55.9385 0.0173503 0.718562
35000 61.217 135.245 55.9385 0.0174503 0.604153
35200 61.217 135.258 55.9385 0.0175503 0.639147
35400 61.217 135.272 55.9385 0.0176503 0.714782
35600 61.217 135.285 55.9385 0.0177503 0.608091
35800 61.217 135.298 55.9385 0.0178503 0.638859
36000 61.217 135.311 55.9385 0.0179503 0.731706
36200 61.217 135.325 55.9385 0.0180503 0.629587
36400 61.217 135.338 55.9385 0.0181503 0.657337
36600 61.217 135.351 55.9385 0.0182503 0.754187
36800 61.217 135.365 55.9385 0.0183503 0.657429
37000 61.217 135.378 55.9385 0.0184503 0.641535
37200 61.217 135.391 55.9385 0.0185503 0.777976
37400 61.217 135.404 55.9385 0.0186503 0.665986
37600 61.217 135.418 55.9385 0.0187503 0.627133
37800 61.217 135.431 55.9385 0.0188503 0.783624
38000 61.217 135.444 55.9385 0.0189503 0.693991
38200 61.217 135.458 55.9385 0.0190503 0.635917
38400 61.217 135.471 55.9385 0.0191503 0.770374
38600 61.217 135.484 55.9385 0.0192503 0.709702
38800 61.217 135.498 55.9385 0.0193503 0.664109
39000 61.217 135.511 55.9385 0.0194503 0.75381
39200 61.217 135.524 55.9385 0.0195503 0.745485
39400 61.217 135.537 55.9385 0.0196503 0.648076
39600 61.217 135.551 55.9385 0.0197503 0.772485
39800 61.217 135.564 55.9385 0.0198503 0.783704
40000 61.217 135.577 55.9385 0.0199503 0.684149
40200 61.217 135.591 55.9385 0.0200503 0.721661
40400 61.217 135.604 55.9385 0.0201503 0.80318
40600 61.217 135.617 55.9385 0.0202503 0.715228
40800 61.217 135.63 55.9385 0.0203503 0.709183
41000 61.217 135.644 55.9385 0.0204503 0.784999
41200 61.217 135.657 55.9385 0.0205503 0.776257
41400 61.217 135.67 55.9385 0.0206503 0.73902
41600 61.217 135.684 55.9385 0.0207503 0.769209
41800 61.217 135.697 55.9385 0.0208503 0.764721
42000 61.217 135.71 55.9385 0.0209503 0.745534
42200 61.217 135.724 55.9385 0.0210503 0.797587
42400 61.217 135.737 55.9385 0.0211503 0.795576
42600 61.217 135.75 55.9385 0.0212503 0.71893
42800 61.217 135.763 55.9385 0.0213503 0.791594
43000 61.217 135.777 55.9385 0.0214503 0.836897
43200 61.217 135.79 55.9385 0.0215503 0.745263
43400 61.217 135.803 55.9385 0.0216503 0.756999
43600 61.217 135.817 55.9385 0.0217503 0.848378
43800 61.217 135.83 55.9385 0.0218503 0.788781
44000 61.217 135.843 55.9385 0.0219503 0.766441
44200 61.217 135.856 55.9385 0.0220503 0.826162
44400 61.217 135.87 55.9385 0.0221503 0.811943
44600 61.217 135.883 55.9385 0.0222503 0.791263
44800 61.217 135.896 55.9385 0.0223503 0.822312
45000 61.217 135.91 55.9385 0.0224503 0.809228
45200 61.217 135.923 55.9385 0.0225503 0.790339
45400 61.217 135.936 55.9385 0.0226503 0.833318
45600 61.217 135.949 55.9385 0.0227503 0.832745
45800 61.217 135.963 55.9385 0.0228503 0.812469
46000 61.217 135.976 55.9385 0.0229503 0.845486
46200 61.217 135.989 55.9385 0.0230503 0.849959
46400 61.217 136.003 55.9385 0.0231503 0.825429
46600 61.217 136.016 55.9385 0.0232503 0.860807
46800 61.217 136.029 55.9385 0.0233503 0.884798
47000 61.217 136.043 55.9385 0.0234503 0.824156
47200 61.217 136.056 55.9385 0.0235503 0.846635
47400 61.217 136.069 55.9385 0.0236503 0.880956
47600 61.217 136.082 55.9385 0.0237503 0.825234
47800 61.217 136.096 55.9385 0.0238503 0.854978
48000 61.217 136.109 55.9385 0.0239503 0.914443
48200 61.217 136.122 55.9385 0.0240503 0.893815
48400 61.217 136.136 55.9385 0.0241503 0.853363
48600 61.217 136.149 55.9385 0.0242503 0.87701
48800 61.217 136.162 55.9385 0.0243503 0.900072
49000 61.217 136.175 55.9385 0.0244503 0.907804
49200 61.217 136.189 55.9385 0.0245503 0.85375
49400 61.217 136.202 55.9385 0.0246503 0.920661
49600 61.217 136.215 55.9385 0.0247503 0.935242
49800 61.217 136.229 55.9385 0.0248503 0.850102
50000 61.217 136.242 55.9385 0.0249503 0.90993
50200 61.217 136.255 55.9385 0.0250503 0.949529
50400 61.217 136.269 55.9385 0.0251503 0.864826
50600 61.217 136.282 55.9385 0.0252503 0.899574
50800 61.217 136.295 55.9385 0.0253503 0.939606
51000 61.217 136.308 55.9385 0.0254503 0.935697
51200 61.217 136.322 55.9385 0.0255503 0.910011
51400 61.217 136.335 55.9385 0.0256503 0.930753
51600 61.217 136.348 55.9385 0.0257503 0.949564
51800 61.217 136.362 55.9385 0.0258503 0.903217
52000 61.217 136.375 55.9385 0.0259503 0.91989
52200 61.217 136.388 55.9385 0.0260503 0.956758
52400 61.217 136.401 55.9385 0.0261503 0.933848
52600 61.217 136.415 55.9385 0.0262503 0.926278
52800 61.217 136.428 55.9385 0.0263503 0.989763
53000 61.217 136.441 55.9385 0.0264503 1.00045
53200 61.217 136.455 55.9385 0.0265503 0.915516
53400 61.217 136.468 55.9385 0.0266503 0.931871
53600 61.217 136.481 55.9385 0.0267503 0.998661
53800 61.217 136.494 55.9385 0.0268503 0.982279
54000 61.217 136.508 55.9385 0.0269503 0.955813
54200 61.217 136.521 55.9385 0.0270503 0.98912
54400 61.217 136.534 55.9385 0.0271503 0.996204
54600 61.217 136.548 55.9385 0.0272503 0.959671
54800 61.217 136.561 55.9385 0.0273503 0.998429
55000 61.217 136.574 55.9385 0.0274503 1.01735
55200 61.217 136.588 55.9385 0.0275503 0.970711
55400 61.217 136.601 55.9385 0.0276503 0.971528
55600 61.217 136.614 55.9385 0.0277503 1.03724
55800 61.217 136.627 55.9385 0.0278503 1.02269
56000 61.217 136.641 55.9385 0.0279503 0.946206
56200 61.217 136.654 55.9385 0.0280503 0.997634
56400 61.217 136.667 55.9385 0.0281503 1.034
56600 61.217 136.681 55.9385 0.0282503 1.00985
56800 61.217 136.694 55.9385 0.0283503 0.985782
57000 61.217 136.707 55.9385 0.0284503 1.05527
57200 61.217 136.72 55.9385 0.0285503 1.03362
57400 61.217 136.734 55.9385 0.0286503 0.987741
57600 61.217 136.747 55.9385 0.0287503 1.02692
57800 61.217 136.76 55.9385 0.0288503 1.06366
58000 61.217 136.774 55.9385 0.0289503 1.06817
58200 61.217 136.787 55.9385 0.0290503 1.0172
58400 61.217 136.8 55.9385 0.0291503 1.0041
58600 61.217 136.814 55.9385 0.0292503 1.08846
58800 61.217 136.827 55.9385 0.0293503 1.07662
59000 61.217 136.84 55.9385 0.0294503 1.0304
59200 61.217 136.853 55.9385 0.0295503 1.03675
59400 61.217 136.867 55.9385 0.0296503 1.08977
59600 61.217 136.88 55.9385 0.0297503 1.07285
59800 61.217 136.893 55.9385 0.0298503 1.0809
60000 61.217 136.907 55.9385 0.0299503 1.0504
60200 61.217 136.92 55.9385 0.0300503 1.05617
60400 61.217 136.933 55.9385 0.0301503 1.11482
60600 61.217 136.946 55.9385 0.0302503 1.0868
60800 61.217 136.96 55.9385 0.0303503 1.04305
61000 61.217 136.973 55.9385 0.0304503 1.04066
61200 61.217 136.986 55.9385 0.0305503 1.14191
61400 61.217 137 55.9385 0.0306503 1.1282
61600 61.217 137.013 55.9385 0.0307503 1.07159
61800 61.217 137.026 55.9385 0.0308503 1.0637
62000 61.217 137.039 55.9385 0.0309503 1.13514
62200 61.217 137.053 55.9385 0.0310503 1.14962
62400 61.217 137.066 55.9385 0.0311503 1.0589
62600 61.217 137.079 55.9385 0.0312503 1.08859
62800 61.217 137.093 55.9385 0.0313503 1.13984
63000 61.217 137.106 55.9385 0.0314503 1.18768
63200 61.217 137.119 55.9385 0.0315503 1.08542
63400 61.217 137.133 55.9385 0.0316503 1.04831
63600 61.217 137.146 55.9385 0.0317503 1.14507
63800 61.217 137.159 55.9385 0.0318503 1.20991
64000 61.217 137.172 55.9385 0.0319503 1.16091
64200 61.217 137.186 55.9385 0.0320503 1.11894
64400 61.217 137.199 55.9385 0.0321503 1.08341
64600 61.217 137.212 55.9385 0.0322503 1.17257
64800 61.217 137.226 55.9385 0.0323503 1.23407
65000 61.217 137.239 55.9385 0.0324503 1.16532
65200 61.217 137.252 55.9385 0.0325503 1.10363
65400 61.217 137.265 55.9385 0.0326503 1.17934
65600 61.217 137.279 55.9385 0.0327503 1.19972
65800 61.217 137.292 55.9385 0.0328503 1.21169
66000 61.217 137.305 55.9385 0.0329503 1.18464
66200 61.217 137.319 55.9385 0.0330503 1.13596
66400 61.217 137.332 55.9385 0.0331503 1.18128
66600 61.217 137.345 55.9385 0.0332503 1.21533
66800 61.217 137.358 55.9385 0.0333503 1.19982
67000 61.217 137.372 55.9385 0.0334503 1.14189
67200 61.217 137.385 55.9385 0.0335503 1.1855
67400 61.217 137.398 55.9385 0.0336503 1.2605
67600 61.217 137.412 55.9385 0.0337503 1.23537
67800 61.217 137.425 55.9385 0.0338503 1.20224
68000 61.217 137.438 55.9385 0.0339503 1.2008
68200 61.217 137.452 55.9385 0.0340503 1.18829
68400 61.217 137.465 55.9385 0.0341503 1.21002
68600 61.217 137.478 55.9385 0.0342503 1.25595
68800 61.217 137.491 55.9385 0.0343503 1.23975
69000 61.217 137.505 55.9385 0.0344503 1.20432
69200 61.217 137.518 55.9385 0.0345503 1.21799
69400 61.217 137.531 55.9385 0.0346503 1.2337
69600 61.217 137.545 55.9385 0.0347503 1.22327
69800 61.217 137.558 55.9385 0.0348503 1.23202
70000 61.217 137.571 55.9385 0.0349503 1.24782
70200 61.217 137.584 55.9385 0.0350503 1.25347
70400 61.217 137.598 55.9385 0.0351503 1.23249
70600 61.217 137.611 55.9385 0.0352503 1.26214
70800 61.217 137.624 55.9385 0.0353503 1.28694
71000 61.217 137.638 55.9385 0.0354503 1.27528
71200 61.217 137.651 55.9385 0.0355503 1.23039
71400 61.217 137.664 55.9385 0.0356503 1.26787
71600 61.217 137.678 55.9385 0.0357503 1.29431
71800 61.217 137.691 55.9385 0.0358503 1.30653
72000 61.217 137.704 55.9385 0.0359503 1.28944
72200 61.217 137.717 55.9385 0.0360503 1.27766
72400 61.217 137.731 55.9385 0.0361503 1.26513
72600 61.217 137.744 55.9385 0.0362503 1.30205
72800 61.217 137.757 55.9385 0.0363503 1.33573
73000 61.217 137.771 55.9385 0.0364503 1.30349
73200 61.217 137.784 55.9385 0.0365503 1.29292
73400 61.217 137.797 55.9385 0.0366503 1.28625
73600 61.217 137.81 55.9385 0.0367503 1.29762
73800 61.217 137.824 55.9385 0.0368503 1.30745
74000 61.217 137.837 55.9385 0.0369503 1.32783
74200 61.217 137.85 55.9385 0.0370503 1.35655
74400 61.217 137.864 55.9385 0.0371503 1.35486
74600 61.217 137.877 55.9385 0.0372503 1.31835
74800 61.217 137.89 55.9385 0.0373503 1.30152
75000 61.217 137.903 55.9385 0.0374503 1.30389
75200 61.217 137.917 55.9385 0.0375503 1.3322
75400 61.217 137.93 55.9385 0.0376503 1.36111
75600 61.217 137.943 55.9385 0.0377503 1.37249
75800 61.217 137.957 55.9385 0.0378503 1.36129
76000 61.217 137.97 55.9385 0.0379503 1.33477
76200 61.217 137.983 55.9385 0.0380503 1.32274
76400 61.217 137.997 55.9385 0.0381503 1.33706
76600 61.217 138.01 55.9385 0.0382503 1.37598
76800 61.217 138.023 55.9385 0.0383503 1.40521
77000 61.217 138.036 55.9385 0.0384503 1.42196
77200 61.217 138.05 55.9385 0.0385503 1.40057
77400 61.217 138.063 55.9385 0.0386503 1.37369
77600 61.217 138.076 55.9385 0.0387503 1.34306
77800 61.217 138.09 55.9385 0.0388503 1.35477
78000 61.217 138.103 55.9385 0.0389503 1.36613
78200 61.217 138.116 55.9385 0.0390503 1.416
78400 61.217 138.129 55.9385 0.0391503 1.4655
78600 61.217 138.143 55.9385 0.0392503 1.45619
78800 61.217 138.156 55.9385 0.0393503 1.43155
79000 61.217 138.169 55.9385 0.0394503 1.44095
79200 61.217 138.183 55.9385 0.0395503 1.42897
79400 61.217 138.196 55.9385 0.0396503 1.4312
79600 61.217 138.209 55.9385 0.0397503 1.4205
79800 61.217 138.223 55.9385 0.0398503 1.41099
80000 61.217 138.236 55.9385 0.0399503 1.40582
80200 61.217 138.249 55.9385 0.0400503 1.41382
80400 61.217 138.262 55.9385 0.0401503 1.40756
80600 61.217 138.276 55.9385 0.0402503 1.4287
80800 61.217 138.289 55.9385 0.0403503 1.43857
81000 61.217 138.302 55.9385 0.0404503 1.46644
81200 61.217 138.316 55.9385 0.0405503 1.47757
81400 61.217 138.329 55.9385 0.0406503 1.48055
81600 61.217 138.342 55.9385 0.0407503 1.48003
81800 61.217 138.355 55.9385 0.0408503 1.51263
82000 61.217 138.369 55.9385 0.0409503 1.53057
82200 61.217 138.382 55.9385 0.0410503 1.53471
82400 61.217 138.395 55.9385 0.0411503 1.54103
82600 61.217 138.409 55.9385 0.0412503 1.53414
82800 61.217 138.422 55.9385 0.0413503 1.55007
83000 61.217 138.435 55.9385 0.0414503 1.53724
83200 61.217 138.448 55.9385 0.0415503 1.54238
83400 61.217 138.462 55.9385 0.0416503 1.56168
83600 61.217 138.475 55.9385 0.0417503 1.57921
83800 61.217 138.488 55.9385 0.0418503 1.60196
84000 61.217 138.502 55.9385 0.0419503 1.61771
84200 61.217 138.515 55.9385 0.0420503 1.62563
84400 61.217 138.528 55.9385 0.0421503 1.63737
84600 61.217 138.542 55.9385 0.0422503 1.65451
84800 61.217 138.555 55.9385 0.0423503 1.65959
85000 61.217 138.568 55.9385 0.0424503 1.68215
85200 61.217 138.581 55.9385 0.0425503 1.70089
85400 61.217 138.595 55.9385 0.0426503 1.72325
85600 61.217 138.608 55.9385 0.0427503 1.74516
85800 61.217 138.621 55.9385 0.0428503 1.75213
86000 61.217 138.635 55.9385 0.0429503 1.76211
86200 61.217 138.648 55.9385 0.0430503 1.79251
86400 61.217 138.661 55.9385 0.0431503 1.8
86600 61.217 138.674 55.9385 0.0432503 1.82024
86800 61.217 138.688 55.9385 0.0433503 1.83217
87000 61.217 138.701 55.9385 0.0434503 1.86346
87200 61.217 138.714 55.9385 0.0435503 1.88979
87400 61.217 138.728 55.9385 0.0436503 1.88195
87600 61.217 138.741 55.9385 0.0437503 1.90844
87800 61.217 138.754 55.9385 0.0438503 1.92266
88000 61.217 138.768 55.9385 0.0439503 1.93356
88200 61.217 138.781 55.9385 0.0440503 1.95641
88400 61.217 138.794 55.9385 0.0441503 2.00056
88600 61.217 138.807 55.9385 0.0442503 1.98575
88800 61.217 138.821 55.9385 0.0443503 2.00084
89000 61.217 138.834 55.9385 0.0444503 2.05143
89200 61.217 138.847 55.9385 0.0445503 2.0479
89400 61.217 138.861 55.9385 0.0446503 2.05613
89600 61.217 138.874 55.9385 0.0447503 2.08258
89800 61.217 138.887 55.9385 0.0448503 2.10725
90000 61.217 138.9 55.9385 0.0449503 2.12726
90200 61.217 138.914 55.9385 0.0450503 2.14985
90400 61.217 138.927 55.9385 0.0451503 2.16731
90600 61.217 138.94 55.9385 0.0452503 2.18942
90800 61.217 138.954 55.9385 0.0453503 2.21093
91000 61.217 138.967 55.9385 0.0454503 2.21226
91200 61.217 138.98 55.9385 0.0455503 2.2341
91400 61.217 138.993 55.9385 0.0456503 2.25971
91600 61.217 139.007 55.9385 0.0457503 2.26974
91800 61.217 139.02 55.9385 0.0458503 2.29175
92000 61.217 139.033 55.9385 0.0459503 2.31113
92200 61.217 139.047 55.9385 0.0460503 2.34721
92400 61.217 139.06 55.9385 0.0461503 2.35813
92600 61.217 139.073 55.9385 0.0462503 2.36695
92800 61.217 139.087 55.9385 0.0463503 2.39707
93000 61.217 139.1 55.9385 0.0464503 2.41714
93200 61.217 139.113 55.9385 0.0465503 2.4274
93400 61.217 139.126 55.9385 0.0466503 2.44656
93600 61.217 139.14 55.9385 0.0467503 2.46136
93800 61.217 139.153 55.9385 0.0468503 2.48864
94000 61.217 139.166 55.9385 0.0469503 2.49213
94200 61.217 139.18 55.9385 0.0470503 2.51134
94400 61.217 139.193 55.9385 0.0471503 2.5365
94600 61.217 139.206 55.9385 0.0472503 2.56463
94800 61.217 139.219 55.9385 0.0473503 2.56782
95000 61.217 139.233 55.9385 0.0474503 2.58255
95200 61.217 139.246 55.9385 0.0475503 2.62409
95400 61.217 139.259 55.9385 0.0476503 2.6371
95600 61.217 139.273 55.9385 0.0477503 2.65079
95800 61.217 139.286 55.9385 0.0478503 2.65935
96000 61.217 139.299 55.9385 0.0479503 2.68078
96200 61.217 139.312 55.9385 0.0480503 2.70464
96400 61.217 139.326 55.9385 0.0481503 2.72503
96600 61.217 139.339 55.9385 0.0482503 2.74005
96800 61.217 139.352 55.9385 0.0483503 2.75321
97000 61.217 139.366 55.9385 0.0484503 2.78137
97200 61.217 139.379 55.9385 0.0485503 2.79652
97400 61.217 139.392 55.9385 0.0486503 2.82304
97600 61.217 139.406 55.9385 0.0487503 2.83624
97800 61.217 139.419 55.9385 0.0488503 2.85526
98000 61.217 139.432 55.9385 0.0489503 2.85575
98200 61.217 139.445 55.9385 0.0490503 2.88202
98400 61.217 139.459 55.9385 0.0491503 2.90631
98600 61.217 139.472 55.9385 0.0492503 2.92428
98800 61.217 139.485 55.9385 0.0493503 2.95649
99000 61.217 139.499 55.9385 0.0494503 2.9759
99200 61.217 139.512 55.9385 0.0495503 2.97395
99400 61.217 139.525 55.9385 0.0496503 3.01242
99600 61.217 139.538 55.9385 0.0497503 3.03956
99800 61.217 139.552 55.9385 0.0498503 3.04472
100000 61.217 139.565 55.9385 0.0499503 3.05859
100200 61.217 139.578 55.9385 0.0500503 3.08579
100400 61.217 139.592 55.9385 0.0501503 3.09406
100600 61.217 139.605 55.9385 0.0502503 3.1229
100800 61.217 139.618 55.9385 0.0503503 3.13152
101000 61.217 139.632 55.9385 0.0504503 3.14556
101200 61.217 139.645 55.9385 0.0505503 3.17418
101400 61.217 139.658 55.9385 0.0506503 3.18879
101600 61.217 139.671 55.9385 0.0507503 3.21605
101800 61.217 139.685 55.9385 0.0508503 3.24301
102000 61.217 139.698 55.9385 0.0509503 3.24148
102200 61.217 139.711 55.9385 0.0510503 3.27918
102400 61.217 139.725 55.9385 0.0511503 3.30026
102600 61.217 139.738 55.9385 0.0512503 3.29446
102800 61.217 139.751 55.9385 0.0513503 3.32751
103000 61.217 139.764 55.9385 0.0514503 3.34246
103200 61.217 139.778 55.9385 0.0515503 3.35565
103400 61.217 139.791 55.9385 0.0516503 3.39169
103600 61.217 139.804 55.9385 0.0517503 3.40059
103800 61.217 139.818 55.9385 0.0518503 3.40611
104000 61.217 139.831 55.9385 0.0519503 3.44198
104200 61.217 139.844 55.9385 0.0520503 3.4511
104400 61.217 139.857 55.9385 0.0521503 3.469
104600 61.217 139.871 55.9385 0.0522503 3.48222
104800 61.217 139.884 55.9385 0.0523503 3.50899
105000 61.217 139.897 55.9385 0.0524503 3.53038
105200 61.217 139.911 55.9385 0.0525503 3.53855
105400 61.217 139.924 55.9385 0.0526503 3.55746
105600 61.217 139.937 55.9385 0.0527503 3.58356
105800 61.217 139.951 55.9385 0.0528503 3.59915
106000 61.217 139.964 55.9385 0.0529503 3.62066
106200 61.217 139.977 55.9385 0.0530503 3.63143
106400 61.217 139.99 55.9385 0.0531503 3.64448
106600 61.217 140.004 55.9385 0.0532503 3.68054
106800 61.217 140.017 55.9385 0.0533503 3.70183
107000 61.217 140.03 55.9385 0.0534503 3.7025
107200 61.217 140.044 55.9385 0.0535503 3.72224
107400 61.217 140.057 55.9385 0.0536503 3.75671
107600 61.217 140.07 55.9385 0.0537503 3.76449
107800 61.217 140.083 55.9385 0.0538503 3.7862
108000 61.217 140.097 55.9385 0.0539503 3.8153
108200 61.217 140.11 55.9385 0.0540503 3.82529
108400 61.217 140.123 55.9385 0.0541503 3.84715
108600 61.217 140.137 55.9385 0.0542503 3.87317
108800 61.217 140.15 55.9385 0.0543503 3.8861
109000 61.217 140.163 55.9385 0.0544503 3.90249
109200 61.217 140.177 55.9385 0.0545503 3.91937
109400 61.217 140.19 55.9385 0.0546503 3.93219
109600 61.217 140.203 55.9385 0.0547503 3.95701
109800 61.217 140.216 55.9385 0.0548503 3.97768
110000 61.217 140.23 55.9385 0.0549503 3.98719
110200 61.217 140.243 55.9385 0.0550503 4.02217
110400 61.217 140.256 55.9385 0.0551503 4.02138
110600 61.217 140.27 55.9385 0.0552503 4.04837
110800 61.217 140.283 55.9385 0.0553503 4.07017
111000 61.217 140.296 55.9385 0.0554503 4.0729
111200 61.217 140.309 55.9385 0.0555503 4.09411
111400 61.217 140.323 55.9385 0.0556503 4.13411
111600 61.217 140.336 55.9385 0.0557503 4.13774
111800 61.217 140.349 55.9385 0.0558503 4.1613
112000 61.217 140.363 55.9385 0.0559503 4.19415
112200 61.217 140.376 55.9385 0.0560503 4.20595
112400 61.217 140.389 55.9385 0.0561503 4.21708
112600 61.217 140.402 55.9385 0.0562503 4.2399
112800 61.217 140.416 55.9385 0.0563503 4.27504
113000 61.217 140.429 55.9385 0.0564503 4.28392
113200 61.217 140.442 55.9385 0.0565503 4.28143
113400 61.217 140.456 55.9385 0.0566503 4.30611
113600 61.217 140.469 55.9385 0.0567503 4.34372
113800 61.217 140.482 55.9385 0.0568503 4.34354
114000 61.217 140.496 55.9385 0.0569503 4.36899
114200 61.217 140.509 55.9385 0.0570503 4.39454
114400 61.217 140.522 55.9385 0.0571503 4.39545
114600 61.217 140.535 55.9385 0.0572503 4.42807
114800 61.217 140.549 55.9385 0.0573503 4.45468
115000 61.217 140.562 55.9385 0.0574503 4.4558
115200 61.217 140.575 55.9385 0.0575503 4.46267
115400 61.217 140.589 55.9385 0.0576503 4.51734
115600 61.217 140.602 55.9385 0.0577503 4.52526
115800 61.217 140.615 55.9385 0.0578503 4.53627
116000 61.217 140.628 55.9385 0.0579503 4.55721
116200 61.217 140.642 55.9385 0.0580503 4.5844
116400 61.217 140.655 55.9385 0.0581503 4.60302
116600 61.217 140.668 55.9385 0.0582503 4.61775
116800 61.217 140.682 55.9385 0.0583503 4.62376
117000 61.217 140.695 55.9385 0.0584503 4.65724
117200 61.217 140.708 55.9385 0.0585503 4.6764
117400 61.217 140.722 55.9385 0.0586503 4.69948
117600 61.217 140.735 55.9385 0.0587503 4.69406
117800 61.217 140.748 55.9385 0.0588503 4.7394
118000 61.217 140.761 55.9385 0.0589503 4.74701
118200 61.217 140.775 55.9385 0.0590503 4.76241
118400 61.217 140.788 55.9385 0.0591503 4.77905
118600 61.217 140.801 55.9385 0.0592503 4.79069
118800 61.217 140.815 55.9385 0.0593503 4.81429
119000 61.217 140.828 55.9385 0.0594503 4.83476
119200 61.217 140.841 55.9385 0.0595503 4.82726
119400 61.217 140.854 55.9385 0.0596503 4.88128
119600 61.217 140.868 55.9385 0.0597503 4.89467
119800 61.217 140.881 55.9385 0.0598503 4.90096
120000 61.217 140.894 55.9385 0.0599503 4.92515
120200 61.217 140.908 55.9385 0.0600503 4.93488
120400 61.217 140.921 55.9385 0.0601503 4.96522
120600 61.217 140.934 55.9385 0.0602503 4.97578
120800 61.217 140.947 55.9385 0.0603503 5.00342
121000 61.217 140.961 55.9385 0.0604503 5.0225
121200 61.217 140.974 55.9385 0.0605503 5.03755
121400 61.217 140.987 55.9385 0.0606503 5.06174
121600 61.217 141.001 55.9385 0.0607503 5.07116
121800 61.217 141.014 55.9385 0.0608503 5.09698
122000 61.217 141.027 55.9385 0.0609503 5.11818
122200 61.217 141.041 55.9385 0.0610503 5.13566
122400 61.217 141.054 55.9385 0.0611503 5.14577
122600 61.217 141.067 55.9385 0.0612503 5.17486
122800 61.217 141.08 55.9385 0.0613503 5.18864
123000 61.217 141.094 55.9385 0.0614503 5.21111
123200 61.217 141.107 55.9385 0.0615503 5.23247
123400 61.217 141.12 55.9385 0.0616503 5.23011
123600 61.217 141.134 55.9385 0.0617503 5.25953
123800 61.217 141.147 55.9385 0.0618503 5.28442
124000 61.217 141.16 55.9385 0.0619503 5.29131
124200 61.217 141.173 55.9385 0.0620503 5.31033
124400 61.217 141.187 55.9385 0.0621503 5.3416
124600 61.217 141.2 55.9385 0.0622503 5.35223
124800 61.217 141.213 55.9385 0.0623503 5.36808
125000 61.217 141.227 55.9385 0.0624503 5.38785
125200 61.217 141.24 55.9385 0.0625503 5.41348
125400 61.217 141.253 55.9385 0.0626503 5.4348
125600 61.217 141.267 55.9385 0.0627503 5.4516
125800 61.217 141.28 55.9385 0.0628503 5.4711
126000 61.217 141.293 55.9385 0.0629503 5.49969
126200 61.217 141.306 55.9385 0.0630503 5.50004
126400 61.217 141.32 55.9385 0.0631503 5.53031
126600 61.217 141.333 55.9385 0.0632503 5.56094
126800 61.217 141.346 55.9385 0.0633503 5.56537
127000 61.217 141.36 55.9385 0.0634503 5.59136
127200 61.217 141.373 55.9385 0.0635503 5.60896
127400 61.217 141.386 55.9385 0.0636503 5.61377
127600 61.217 141.399 55.9385 0.0637503 5.64542
127800 61.217 141.413 55.9385 0.0638503 5.64928
128000 61.217 141.426 55.9385 0.0639503 5.67461
128200 61.217 141.439 55.9385 0.0640503 5.71267
128400 61.217 141.453 55.9385 0.0641503 5.713
128600 61.217 141.466 55.9385 0.0642503 5.72652
128800 61.217 141.479 55.9385 0.0643503 5.75578
129000 61.217 141.492 55.9385 0.0644503 5.78598
129200 61.217 141.506 55.9385 0.0645503 5.79194
129400 61.217 141.519 55.9385 0.0646503 5.80879
129600 61.217 141.532 55.9385 0.0647503 5.84364
129800 61.217 141.546 55.9385 0.0648503 5.8593
130000 61.217 141.559 55.9385 0.0649503 5.8725
130200 61.217 141.572 55.9385 0.0650503 5.8888
130400 61.217 141.586 55.9385 0.0651503 5.91542
130600 61.217 141.599 55.9385 0.0652503 5.93031
130800 61.217 141.612 55.9385 0.0653503 5.94435
131000 61.217 141.625 55.9385 0.0654503 5.96236
131200 61.217 141.639 55.9385 0.0655503 5.99702
131400 61.217 141.652 55.9385 0.0656503 6.0003
131600 61.217 141.665 55.9385 0.0657503 6.02302
131800 61.217 141.679 55.9385 0.0658503 6.05924
132000 61.217 141.692 55.9385 0.0659503 6.05685
132200 61.217 141.705 55.9385 0.0660503 6.07977
132400 61.217 141.718 55.9385 0.0661503 6.11522
132600 61.217 141.732 55.9385 0.0662503 6.12271
132800 61.217 141.745 55.9385 0.0663503 6.12884
133000 61.217 141.758 55.9385 0.0664503 6.167
133200 61.217 141.772 55.9385 0.0665503 6.18576
133400 61.217 141.785 55.9385 0.0666503 6.18632
133600 61.217 141.798 55.9385 0.0667503 6.22348
133800 61.217 141.811 55.9385 0.0668503 6.24055
134000 61.217 141.825 55.9385 0.0669503 6.24202
134200 61.217 141.838 55.9385 0.0670503 6.26703
134400 61.217 141.851 55.9385 0.0671503 6.29155
134600 61.217 141.865 55.9385 0.0672503 6.29968
134800 61.217 141.878 55.9385 0.0673503 6.34027
135000 61.217 141.891 55.9385 0.0674503 6.34627
135200 61.217 141.905 55.9385 0.0675503 6.35738
135400 61.217 141.918 55.9385 0.0676503 6.36914
135600 61.217 141.931 55.9385 0.0677503 6.40941
135800 61.217 141.944 55.9385 0.0678503 6.42555
136000 61.217 141.958 55.9385 0.0679503 6.4389
136200 61.217 141.971 55.9385 0.0680503 6.45598
136400 61.217 141.984 55.9385 0.0681503 6.46807
136600 61.217 141.998 55.9385 0.0682503 6.50367
136800 61.217 142.011 55.9385 0.0683503 6.5154
137000 61.217 142.024 55.9385 0.0684503 6.51878
137200 61.217 142.037 55.9385 0.0685503 6.55222
137400 61.217 142.051 55.9385 0.0686503 6.57478
137600 61.217 142.064 55.9385 0.0687503 6.58424
137800 61.217 142.077 55.9385 0.0688503 6.59813
138000 61.217 142.091 55.9385 0.0689503 6.61207
138200 61.217 142.104 55.9385 0.0690503 6.64804
138400 61.217 142.117 55.9385 0.0691503 6.67558
138600 61.217 142.131 55.9385 0.0692503 6.6682
138800 61.217 142.144 55.9385 0.0693503 6.70216
139000 61.217 142.157 55.9385 0.0694503 6.72748
139200 61.217 142.17 55.9385 0.0695503 6.74328
139400 61.217 142.184 55.9385 0.0696503 6.74866
139600 61.217 142.197 55.9385 0.0697503 6.79211
139800 61.217 142.21 55.9385 0.0698503 6.79286
140000 61.217 142.224 55.9385 0.0699503 6.80318
140200 61.217 142.237 55.9385 0.0700503 6.84106
140400 61.217 142.25 55.9385 0.0701503 6.85219
140600 61.217 142.263 55.9385 0.0702503 6.86442
140800 61.217 142.277 55.9385 0.0703503 6.89593
141000 61.217 142.29 55.9385 0.0704503 6.90573
141200 61.217 142.303 55.9385 0.0705503 6.92082
141400 61.217 142.317 55.9385 0.0706503 6.94508
141600 61.217 142.33 55.9385 0.0707503 6.96565
141800 61.217 142.343 55.9385 0.0708503 6.97477
142000 61.217 142.356 55.9385 0.0709503 7.00646
142200 61.217 142.37 55.9385 0.0710503 7.03085
142400 61.217 142.383 55.9385 0.0711503 7.03392
142600 61.217 142.396 55.9385 0.0712503 7.05333
142800 61.217 142.41 55.9385 0.0713503 7.08826
143000 61.217 142.423 55.9385 0.0714503 7.08529
143200 61.217 142.436 55.9385 0.0715503 7.11048
143400 61.217 142.45 55.9385 0.0716503 7.13444
143600 61.217 142.463 55.9385 0.0717503 7.15883
143800 61.217 142.476 55.9385 0.0718503 7.17066
144000 61.217 142.489 55.9385 0.0719503 7.18605
144200 61.217 142.503 55.9385 0.0720503 7.20988
144400 61.217 142.516 55.9385 0.0721503 7.22098
144600 61.217 142.529 55.9385 0.0722503 7.25076
144800 61.217 142.543 55.9385 0.0723503 7.26686
145000 61.217 142.556 55.9385 0.0724503 7.2704
145200 61.217 142.569 55.9385 0.0725503 7.298
145400 61.217 142.582 55.9385 0.0726503 7.32985
145600 61.217 142.596 55.9385 0.0727503 7.32506
145800 61.217 142.609 55.9385 0.0728503 7.34293
146000 61.217 142.622 55.9385 0.0729503 7.39384
146200 61.217 142.636 55.9385 0.0730503 7.38959
146400 61.217 142.649 55.9385 0.0731503 7.41841
146600 61.217 142.662 55.9385 0.0732503 7.42749
146800 61.217 142.676 55.9385 0.0733503 7.44724
147000 61.217 142.689 55.9385 0.0734503 7.48627
147200 61.217 142.702 55.9385 0.0735503 7.47578
147400 61.217 142.715 55.9385 0.0736503 7.49479
147600 61.217 142.729 55.9385 0.0737503 7.54183
147800 61.217 142.742 55.9385 0.0738503 7.53377
148000 61.217 142.755 55.9385 0.0739503 7.564
148200 61.217 142.769 55.9385 0.0740503 7.58629
148400 61.217 142.782 55.9385 0.0741503 7.60474
148600 61.217 142.795 55.9385 0.0742503 7.626
148800 61.217 142.808 55.9385 0.0743503 7.63493
149000 61.217 142.822 55.9385 0.0744503 7.65539
149200 61.217 142.835 55.9385 0.0745503 7.69072
149400 61.217 142.848 55.9385 0.0746503 7.69593
149600 61.217 142.862 55.9385 0.0747503 7.71258
149800 61.217 142.875 55.9385 0.0748503 7.73803
150000 61.217 142.888 55.9385 0.0749503 7.75943
150200 61.217 142.901 55.9385 0.0750503 7.77362
150400 61.217 142.915 55.9385 0.0751503 7.79323
150600 61.217 142.928 55.9385 0.0752503 7.81217
150800 61.217 142.941 55.9385 0.0753503 7.82455
151000 61.217 142.955 55.9385 0.0754503 7.85191
151200 61.217 142.968 55.9385 0.0755503 7.87429
151400 61.217 142.981 55.9385 0.0756503 7.87115
151600 61.217 142.995 55.9385 0.0757503 7.91153
151800 61.217 143.008 55.9385 0.0758503 7.93196
152000 61.217 143.021 55.9385 0.0759503 7.93045
152200 61.217 143.034 55.9385 0.0760503 7.96251
152400 61.217 143.048 55.9385 0.0761503 7.97957
152600 61.217 143.061 55.9385 0.0762503 8.00465
152800 61.217 143.074 55.9385 0.0763503 8.01853
153000 61.217 143.088 55.9385 0.0764503 8.04288
153200 61.217 143.101 55.9385 0.0765503 8.06104
153400 61.217 143.114 55.9385 0.0766503 8.06476
153600 61.217 143.127 55.9385 0.0767503 8.11099
153800 61.217 143.141 55.9385 0.0768503 8.10659
154000 61.217 143.154 55.9385 0.0769503 8.13994
154200 61.217 143.167 55.9385 0.0770503 8.16016
154400 61.217 143.181 55.9385 0.0771503 8.16083
154600 61.217 143.194 55.9385 0.0772503 8.18806
154800 61.217 143.207 55.9385 0.0773503 8.2096
155000 61.217 143.221 55.9385 0.0774503 8.21118
155200 61.217 143.234 55.9385 0.0775503 8.25095
155400 61.217 143.247 55.9385 0.0776503 8.25813
155600 61.217 143.26 55.9385 0.0777503 8.27888
155800 61.217 143.274 55.9385 0.0778503 8.30464
156000 61.217 143.287 55.9385 0.0779503 8.32068
156200 61.217 143.3 55.9385 0.0780503 8.34127
156400 61.217 143.314 55.9385 0.0781503 8.34515
156600 61.217 143.327 55.9385 0.0782503 8.3839
156800 61.217 143.34 55.9385 0.0783503 8.39086
157000 61.217 143.353 55.9385 0.0784503 8.39831
157200 61.217 143.367 55.9385 0.0785503 8.42849
157400 61.217 143.38 55.9385 0.0786503 8.46109
157600 61.217 143.393 55.9385 0.0787503 8.4494
157800 61.217 143.407 55.9385 0.0788503 8.48424
158000 61.217 143.42 55.9385 0.0789503 8.50526
158200 61.217 143.433 55.9385 0.0790503 8.51603
158400 61.217 143.446 55.9385 0.0791503 8.53313
158600 61.217 143.46 55.9385 0.0792503 8.5641
158800 61.217 143.473 55.9385 0.0793503 8.57885
159000 61.217 143.486 55.9385 0.0794503 8.59569
159200 61.217 143.5 55.9385 0.0795503 8.61272
159400 61.217 143.513 55.9385 0.0796503 8.63064
159600 61.217 143.526 55.9385 0.0797503 8.64516
159800 61.217 143.54 55.9385 0.0798503 8.687
160000 61.217 143.553 55.9385 0.0799503 8.68844
160200 61.217 143.566 55.9385 0.0800503 8.70328
160400 61.217 143.579 55.9385 0.0801503 8.73787
160600 61.217 143.593 55.9385 0.0802503 8.74212
160800 61.217 143.606 55.9385 0.0803503 8.76949
161000 61.217 143.619 55.9385 0.0804503 8.78302
161200 61.217 143.633 55.9385 0.0805503 8.78582
161400 61.217 143.646 55.9385 0.0806503 8.83269
161600 61.217 143.659 55.9385 0.0807503 8.82764
161800 61.217 143.672 55.9385 0.0808503 8.85849
162000 61.217 143.686 55.9385 0.0809503 8.88497
162200 61.217 143.699 55.9385 0.0810503 8.89943
162400 61.217 143.712 55.9385 0.0811503 8.91061
162600 61.217 143.726 55.9385 0.0812503 8.94143
162800 61.217 143.739 55.9385 0.0813503 8.9558
163000 61.217 143.752 55.9385 0.0814503 8.96597
163200 61.217 143.766 55.9385 0.0815503 8.98678
163400 61.217 143.779 55.9385 0.0816503 9.0115
163600 61.217 143.792 55.9385 0.0817503 9.02654
163800 61.217 143.805 55.9385 0.0818503 9.05188
164000 61.217 143.819 55.9385 0.0819503 9.07898
164200 61.217 143.832 55.9385 0.0820503 9.07428
164400 61.217 143.845 55.9385 0.0821503 9.11657
164600 61.217 143.859 55.9385 0.0822503 9.12471
164800 61.217 143.872 55.9385 0.0823503 9.13213
165000 61.217 143.885 55.9385 0.0824503 9.18326
165200 61.217 143.898 55.9385 0.0825503 9.18422
165400 61.217 143.912 55.9385 0.0826503 9.18732
165600 61.217 143.925 55.9385 0.0827503 9.23795
165800 61.217 143.938 55.9385 0.0828503 9.22701
166000 61.217 143.952 55.9385 0.0829503 9.27659
166200 61.217 143.965 55.9385 0.0830503 9.27171
166400 61.217 143.978 55.9385 0.0831503 9.29994
166600 61.217 143.991 55.9385 0.0832503 9.33751
166800 61.217 144.005 55.9385 0.0833503 9.30698
167000 61.217 144.018 55.9385 0.0834503 9.36388
167200 61.217 144.031 55.9385 0.0835503 9.38287
167400 61.217 144.045 55.9385 0.0836503 9.35857
167600 61.217 144.058 55.9385 0.0837503 9.43881
167800 61.217 144.071 55.9385 0.0838503 9.41744
168000 61.217 144.085 55.9385 0.0839503 9.43873
168200 61.217 144.098 55.9385 0.0840503 9.48953
168400 61.217 144.111 55.9385 0.0841503 9.4627
168600 61.217 144.124 55.9385 0.0842503 9.51905
168800 61.217 144.138 55.9385 0.0843503 9.52496
169000 61.217 144.151 55.9385 0.0844503 9.5318
169200 61.217 144.164 55.9385 0.0845503 9.57958
169400 61.217 144.178 55.9385 0.0846503 9.56224
169600 61.217 144.191 55.9385 0.0847503 9.61076
169800 61.217 144.204 55.9385 0.0848503 9.62467
170000 61.217 144.217 55.9385 0.0849503 9.61552
170200 61.217 144.231 55.9385 0.0850503 9.67538
170400 61.217 144.244 55.9385 0.0851503 9.65624
170600 61.217 144.257 55.9385 0.0852503 9.68929
170800 61.217 144.271 55.9385 0.0853503 9.72834
171000 61.217 144.284 55.9385 0.0854503 9.71082
171200 61.217 144.297 55.9385 0.0855503 9.74728
171400 61.217 144.31 55.9385 0.0856503 9.77946
171600 61.217 144.324 55.9385 0.0857503 9.77197
171800 61.217 144.337 55.9385 0.0858503 9.81154
172000 61.217 144.35 55.9385 0.0859503 9.82496
172200 61.217 144.364 55.9385 0.0860503 9.83729
172400 61.217 144.377 55.9385 0.0861503 9.87645
172600 61.217 144.39 55.9385 0.0862503 9.86658
172800 61.217 144.404 55.9385 0.0863503 9.89505
173000 61.217 144.417 55.9385 0.0864503 9.93632
173200 61.217 144.43 55.9385 0.0865503 9.91157
173400 61.217 144.443 55.9385 0.0866503 9.96405
173600 61.217 144.457 55.9385 0.0867503 9.96957
173800 61.217 144.47 55.9385 0.0868503 10.013
174000 61.217 144.483 55.9385 0.0869503 10.0109
174200 61.217 144.497 55.9385 0.0870503 10.0248
174400 61.217 144.51 55.9385 0.0871503 10.0672
174600 61.217 144.523 55.9385 0.0872503 10.0632
174800 61.217 144.536 55.9385 0.0873503 10.0821
175000 61.217 144.55 55.9385 0.0874503 10.1189
175200 61.217 144.563 55.9385 0.0875503 10.125
175400 61.217 144.576 55.9385 0.0876503 10.1547
175600 61.217 144.59 55.9385 0.0877503 10.166
175800 61.217 144.603 55.9385 0.0878503 10.1912
176000 61.217 144.616 55.9385 0.0879503 10.2118
176200 61.217 144.63 55.9385 0.0880503 10.2141
176400 61.217 144.643 55.9385 0.0881503 10.2443
176600 61.217 144.656 55.9385 0.0882503 10.2532
176800 61.217 144.669 55.9385 0.0883503 10.2883
177000 61.217 144.683 55.9385 0.0884503 10.2978
177200 61.217 144.696 55.9385 0.0885503 10.3098
177400 61.217 144.709 55.9385 0.0886503 10.345
177600 61.217 144.723 55.9385 0.0887503 10.351
177800 61.217 144.736 55.9385 0.0888503 10.3725
178000 61.217 144.749 55.9385 0.0889503 10.3917
178200 61.217 144.762 55.9385 0.0890503 10.4032
178400 61.217 144.776 55.9385 0.0891503 10.4257
178600 61.217 144.789 55.9385 0.0892503 10.4474
178800 61.217 144.802 55.9385 0.0893503 10.4585
179000 61.217 144.816 55.9385 0.0894503 10.4822
179200 61.217 144.829 55.9385 0.0895503 10.5096
179400 61.217 144.842 55.9385 0.0896503 10.5155
179600 61.217 144.855 55.9385 0.0897503 10.5439
179800 61.217 144.869 55.9385 0.0898503 10.5572
180000 61.217 144.882 55.9385 0.0899503 10.5751
180200 61.217 144.895 55.9385 0.0900503 10.6052
180400 61.217 144.909 55.9385 0.0901503 10.6195
180600 61.217 144.922 55.9385 0.0902503 10.6281
180800 61.217 144.935 55.9385 0.0903503 10.6449
181000 61.217 144.949 55.9385 0.0904503 10.6854
181200 61.217 144.962 55.9385 0.0905503 10.6835
181400 61.217 144.975 55.9385 0.0906503 10.7019
181600 61.217 144.988 55.9385 0.0907503 10.7345
181800 61.217 145.002 55.9385 0.0908503 10.7408
182000 61.217 145.015 55.9385 0.0909503 10.7576
182200 61.217 145.028 55.9385 0.0910503 10.7968
182400 61.217 145.042 55.9385 0.0911503 10.7939
182600 61.217 145.055 55.9385 0.0912503 10.8201
182800 61.217 145.068 55.9385 0.0913503 10.8501
183000 61.217 145.081 55.9385 0.0914503 10.8496
183200 61.217 145.095 55.9385 0.0915503 10.8862
183400 61.217 145.108 55.9385 0.0916503 10.8876
183600 61.217 145.121 55.9385 0.0917503 10.9256
183800 61.217 145.135 55.9385 0.0918503 10.9316
184000 61.217 145.148 55.9385 0.0919503 10.9518
184200 61.217 145.161 55.9385 0.0920503 10.9779
184400 61.217 145.175 55.9385 0.0921503 10.9868
184600 61.217 145.188 55.9385 0.0922503 11.0164
184800 61.217 145.201 55.9385 0.0923503 11.0127
185000 61.217 145.214 55.9385 0.0924503 11.0538
185200 61.217 145.228 55.9385 0.0925503 11.0665
185400 61.217 145.241 55.9385 0.0926503 11.0726
185600 61.217 145.254 55.9385 0.0927503 11.1112
185800 61.217 145.268 55.9385 0.0928503 11.1109
186000 61.217 145.281 55.9385 0.0929503 11.1492
186200 61.217 145.294 55.9385 0.0930503 11.1561
186400 61.217 145.307 55.9385 0.0931503 11.1725
186600 61.217 145.321 55.9385 0.0932503 11.1963
186800 61.217 145.334 55.9385 0.0933503 11.213
187000 61.217 145.347 55.9385 0.0934503 11.2226
187200 61.217 145.361 55.9385 0.0935503 11.2603
187400 61.217 145.374 55.9385 0.0936503 11.2577
187600 61.217 145.387 55.9385 0.0937503 11.2924
187800 61.217 145.4 55.9385 0.0938503 11.3049
188000 61.217 145.414 55.9385 0.0939503 11.3183
188200 61.217 145.427 55.9385 0.0940503 11.3523
188400 61.217 145.44 55.9385 0.0941503 11.3516
188600 61.217 145.454 55.9385 0.0942503 11.3932
188800 61.217 145.467 55.9385 0.0943503 11.3842
189000 61.217 145.48 55.9385 0.0944503 11.4289
189200 61.217 145.494 55.9385 0.0945503 11.4309
189400 61.217 145.507 55.9385 0.0946503 11.4595
189600 61.217 145.52 55.9385 0.0947503 11.4842
189800 61.217 145.533 55.9385 0.0948503 11.4729
190000 61.217 145.547 55.9385 0.0949503 11.542
190200 61.217 145.56 55.9385 0.0950503 11.5185
190400 61.217 145.573 55.9385 0.0951503 11.5476
190600 61.217 145.587 55.9385 0.0952503 11.585
190800 61.217 145.6 55.9385 0.0953503 11.5687
191000 61.217 145.613 55.9385 0.0954503 11.6149
191200 61.217 145.626 55.9385 0.0955503 11.615
191400 61.217 145.64 55.9385 0.0956503 11.6598
191600 61.217 145.653 55.9385 0.0957503 11.6658
191800 61.217 145.666 55.9385 0.0958503 11.6647
192000 61.217 145.68 55.9385 0.0959503 11.733
192200 61.217 145.693 55.9385 0.0960503 11.6993
192400 61.217 145.706 55.9385 0.0961503 11.7474
192600 61.217 145.72 55.9385 0.0962503 11.7556
192800 61.217 145.733 55.9385 0.0963503 11.7714
193000 61.217 145.746 55.9385 0.0964503 11.8055
193200 61.217 145.759 55.9385 0.0965503 11.8057
193400 61.217 145.773 55.9385 0.0966503 11.8422
193600 61.217 145.786 55.9385 0.0967503 11.8522
193800 61.217 145.799 55.9385 0.0968503 11.866
194000 61.217 145.813 55.9385 0.0969503 11.8974
194200 61.217 145.826 55.9385 0.0970503 11.8965
194400 61.217 145.839 55.9385 0.0971503 11.944
194600 61.217 145.852 55.9385 0.0972503 11.9316
194800 61.217 145.866 55.9385 0.0973503 11.9684
195000 61.217 145.879 55.9385 0.0974503 11.9948
195200 61.217 145.892 55.9385 0.0975503 11.9901
195400 61.217 145.906 55.9385 0.0976503 12.0278
195600 61.217 145.919 55.9385 0.0977503 12.0293
195800 61.217 145.932 55.9385 0.0978503 12.0739
196000 61.217 145.945 55.9385 0.0979503 12.0756
196200 61.217 145.959 55.9385 0.0980503 12.101
196400 61.217 145.972 55.9385 0.0981503 12.1279
196600 61.217 145.985 55.9385 0.0982503 12.1375
196800 61.217 145.999 55.9385 0.0983503 12.167
197000 61.217 146.012 55.9385 0.0984503 12.1774
197200 61.217 146.025 55.9385 0.0985503 12.2013
197400 61.217 146.039 55.9385 0.0986503 12.2157
197600 61.217 146.052 55.9385 0.0987503 12.2327
197800 61.217 146.065 55.9385 0.0988503 12.2525
198000 61.217 146.078 55.9385 0.0989503 12.2613
198200 61.217 146.092 55.9385 0.0990503 12.3011
198400 61.217 146.105 55.9385 0.0991503 12.3021
198600 61.217 146.118 55.9385 0.0992503 12.343
198800 61.217 146.132 55.9385 0.0993503 12.3387
199000 61.217 146.145 55.9385 0.0994503 12.3793
199200 61.217 146.158 55.9385 0.0995503 12.3785
199400 61.217 146.171 55.9385 0.0996503 12.4039
199600 61.217 146.185 55.9385 0.0997503 12.4344
199800 61.217 146.198 55.9385 0.0998503 12.4254
200000 61.217 146.211 55.9385 0.0999503 12.4762
200200 61.217 146.225 55.9385 0.10005 12.4634
200400 61.217 146.238 55.9385 0.10015 12.5103
200600 61.217 146.251 55.9385 0.10025 12.5129
200800 61.217 146.264 55.9385 0.10035 12.5275
201000 61.217 146.278 55.9385 0.10045 12.5632
201200 61.217 146.291 55.9385 0.10055 12.5636
201400 61.217 146.304 55.9385 0.10065 12.61
201600 61.217 146.318 55.9385 0.10075 12.5974
201800 61.217 146.331 55.9385 0.10085 12.6502
202000 61.217 146.344 55.9385 0.10095 12.6376
202200 61.217 146.358 55.9385 0.10105 12.6699
202400 61.217 146.371 55.9385 0.10115 12.6934
202600 61.217 146.384 55.9385 0.10125 12.6999
202800 61.217 146.397 55.9385 0.10135 12.7323
203000 61.217 146.411 55.9385 0.10145 12.7358
203200 61.217 146.424 55.9385 0.10155 12.7661
203400 61.217 146.437 55.9385 0.10165 12.7889
203600 61.217 146.451 55.9385 0.10175 12.7959
203800 61.217 146.464 55.9385 0.10185 12.8126
204000 61.217 146.477 55.9385 0.10195 12.8391
204200 61.217 146.49 55.9385 0.10205 12.87
204400 61.217 146.504 55.9385 0.10215 12.8696
204600 61.217 146.517 55.9385 0.10225 12.8933
204800 61.217 146.53 55.9385 0.10235 12.9148
205000 61.217 146.544 55.9385 0.10245 12.9295
205200 61.217 146.557 55.9385 0.10255 12.9512
205400 61.217 146.57 55.9385 0.10265 12.9699
205600 61.217 146.584 55.9385 0.10275 12.9932
205800 61.217 146.597 55.9385 0.10285 12.9956
206000 61.217 146.61 55.9385 0.10295 13.0334
206200 61.217 146.623 55.9385 0.10305 13.0357
206400 61.217 146.637 55.9385 0.10315 13.0723
206600 61.217 146.65 55.9385 0.10325 13.0842
206800 61.217 146.663 55.9385 0.10335 13.0926
207000 61.217 146.677 55.9385 0.10345 13.1153
207200 61.217 146.69 55.9385 0.10355 13.1438
207400 61.217 146.703 55.9385 0.10365 13.1595
207600 61.217 146.716 55.9385 0.10375 13.17
207800 61.217 146.73 55.9385 0.10385 13.2022
208000 61.217 146.743 55.9385 0.10395 13.2182
208200 61.217 146.756 55.9385 0.10405 13.2357
208400 61.217 146.77 55.9385 0.10415 13.2491
208600 61.217 146.783 55.9385 0.10425 13.2812
208800 61.217 146.796 55.9385 0.10435 13.2806
209000 61.217 146.809 55.9385 0.10445 13.3154
209200 61.217 146.823 55.9385 0.10455 13.3387
209400 61.217 146.836 55.9385 0.10465 13.3357
209600 61.217 146.849 55.9385 0.10475 13.3846
209800 61.217 146.863 55.9385 0.10485 13.366
210000 61.217 146.876 55.9385 0.10495 13.4226
210200 61.217 146.889 55.9385 0.10505 13.4021
210400 61.217 146.903 55.9385 0.10515 13.4452
210600 61.217 146.916 55.9385 0.10525 13.4587
210800 61.217 146.929 55.9385 0.10535 13.475
211000 61.217 146.942 55.9385 0.10545 13.5053
211200 61.217 146.956 55.9385 0.10555 13.5051
211400 61.217 146.969 55.9385 0.10565 13.5362
211600 61.217 146.982 55.9385 0.10575 13.5515
211800 61.217 146.996 55.9385 0.10585 13.5668
212000 61.217 147.009 55.9385 0.10595 13.5954
212200 61.217 147.022 55.9385 0.10605 13.5845
212400 61.217 147.035 55.9385 0.10615 13.6362
212600 61.217 147.049 55.9385 0.10625 13.6358
212800 61.217 147.062 55.9385 0.10635 13.6654
213000 61.217 147.075 55.9385 0.10645 13.6687
213200 61.217 147.089 55.9385 0.10655 13.7074
213400 61.217 147.102 55.9385 0.10665 13.7162
213600 61.217 147.115 55.9385 0.10675 13.7221
213800 61.217 147.129 55.9385 0.10685 13.7588
214000 61.217 147.142 55.9385 0.10695 13.7654
214200 61.217 147.155 55.9385 0.10705 13.8029
214400 61.217 147.168 55.9385 0.10715 13.7999
214600 61.217 147.182 55.9385 0.10725 13.8272
214800 61.217 147.195 55.9385 0.10735 13.8509
215000 61.217 147.208 55.9385 0.10745 13.8505
215200 61.217 147.222 55.9385 0.10755 13.9037
215400 61.217 147.235 55.9385 0.10765 13.8997
215600 61.217 147.248 55.9385 0.10775 13.9271
215800 61.217 147.261 55.9385 0.10785 13.9463
216000 61.217 147.275 55.9385 0.10795 13.9521
216200 61.217 147.288 55.9385 0.10805 13.9939
216400 61.217 147.301 55.9385 0.10815 13.9901
216600 61.217 147.315 55.9385 0.10825 14.019
216800 61.217 147.328 55.9385 0.10835 14.043
217000 61.217 147.341 55.9385 0.10845 14.0475
217200 61.217 147.354 55.9385 0.10855 14.0886
217400 61.217 147.368 55.9385 0.10865 14.0751
217600 61.217 147.381 55.9385 0.10875 14.1213
217800 61.217 147.394 55.9385 0.10885 14.1111
218000 61.217 147.408 55.9385 0.10895 14.1616
218200 61.217 147.421 55.9385 0.10905 14.1587
218400 61.217 147.434 55.9385 0.10915 14.1824
218600 61.217 147.448 55.9385 0.10925 14.2139
218800 61.217 147.461 55.9385 0.10935 14.2049
219000 61.217 147.474 55.9385 0.10945 14.2522
219200 61.217 147.487 55.9385 0.10955 14.2564
219400 61.217 147.501 55.9385 0.10965 14.2743
219600 61.217 147.514 55.9385 0.10975 14.3018
219800 61.217 147.527 55.9385 0.10985 14.2965
220000 61.217 147.541 55.9385 0.10995 14.3475
220200 61.217 147.554 55.9385 0.11005 14.3356
220400 61.217 147.567 55.9385 0.11015 14.3811
220600 61.217 147.58 55.9385 0.11025 14.3682
220800 61.217 147.594 55.9385 0.11035 14.4178
221000 61.217 147.607 55.9385 0.11045 14.4118
221200 61.217 147.62 55.9385 0.11055 14.4564
221400 61.217 147.634 55.9385 0.11065 14.4554
221600 61.217 147.647 55.9385 0.11075 14.4903
221800 61.217 147.66 55.9385 0.11085 14.4969
222000 61.217 147.674 55.9385 0.11095 14.5142
222200 61.217 147.687 55.9385 0.11105 14.5395
222400 61.217 147.7 55.9385 0.11115 14.5551
222600 61.217 147.713 55.9385 0.11125 14.5793
222800 61.217 147.727 55.9385 0.11135 14.5839
223000 61.217 147.74 55.9385 0.11145 14.6225
223200 61.217 147.753 55.9385 0.11155 14.6235
223400 61.217 147.767 55.9385 0.11165 14.6581
223600 61.217 147.78 55.9385 0.11175 14.6656
223800 61.217 147.793 55.9385 0.11185 14.7101
224000 61.217 147.806 55.9385 0.11195 14.691
224200 61.217 147.82 55.9385 0.11205 14.7472
224400 61.217 147.833 55.9385 0.11215 14.7417
224600 61.217 147.846 55.9385 0.11225 14.7715
224800 61.217 147.86 55.9385 0.11235 14.7835
225000 61.217 147.873 55.9385 0.11245 14.8018
225200 61.217 147.886 55.9385 0.11255 14.834
225400 61.217 147.899 55.9385 0.11265 14.817
225600 61.217 147.913 55.9385 0.11275 14.8904
225800 61.217 147.926 55.9385 0.11285 14.8515
226000 61.217 147.939 55.9385 0.11295 14.9227
226200 61.217 147.953 55.9385 0.11305 14.8929
226400 61.217 147.966 55.9385 0.11315 14.9564
226600 61.217 147.979 55.9385 0.11325 14.9351
226800 61.217 147.993 55.9385 0.11335 14.9701
227000 61.217 148.006 55.9385 0.11345 14.9951
227200 61.217 148.019 55.9385 0.11355 15.0169
227400 61.217 148.032 55.9385 0.11365 15.0218
227600 61.217 148.046 55.9385 0.11375 15.0449
227800 61.217 148.059 55.9385 0.11385 15.071
228000 61.217 148.072 55.9385 0.11395 15.0717
228200 61.217 148.086 55.9385 0.11405 15.1125
228400 61.217 148.099 55.9385 0.11415 15.115
228600 61.217 148.112 55.9385 0.11425 15.1464
228800 61.217 148.125 55.9385 0.11435 15.1491
229000 61.217 148.139 55.9385 0.11445 15.1953
229200 61.217 148.152 55.9385 0.11455 15.183
229400 61.217 148.165 55.9385 0.11465 15.2257
229600 61.217 148.179 55.9385 0.11475 15.2316
229800 61.217 148.192 55.9385 0.11485 15.2558
230000 61.217 148.205 55.9385 0.11495 15.2777
230200 61.217 148.219 55.9385 0.11505 15.2742
230400 61.217 148.232 55.9385 0.11515 15.3299
230600 61.217 148.245 55.9385 0.11525 15.3129
230800 61.217 148.258 55.9385 0.11535 15.3631
231000 61.217 148.272 55.9385 0.11545 15.349
231200 61.217 148.285 55.9385 0.11555 15.4031
231400 61.217 148.298 55.9385 0.11565 15.3755
231600 61.217 148.312 55.9385 0.11575 15.4457
231800 61.217 148.325 55.9385 0.11585 15.4136
232000 61.217 148.338 55.9385 0.11595 15.4822
232200 61.217 148.351 55.9385 0.11605 15.4515
232400 61.217 148.365 55.9385 0.11615 15.5108
232600 61.217 148.378 55.9385 0.11625 15.5008
232800 61.217 148.391 55.9385 0.11635 15.5305
233000 61.217 148.405 55.9385 0.11645 15.5639
233200 61.217 148.418 55.9385 0.11655 15.5405
233400 61.217 148.431 55.9385 0.11665 15.6188
233600 61.217 148.444 55.9385 0.11675 15.5754
233800 61.217 148.458 55.9385 0.11685 15.6571
234000 61.217 148.471 55.9385 0.11695 15.5971
234200 61.217 148.484 55.9385 0.11705 15.7068
234400 61.217 148.498 55.9385 0.11715 15.6407
234600 61.217 148.511 55.9385 0.11725 15.7313
234800 61.217 148.524 55.9385 0.11735 15.6806
235000 61.217 148.538 55.9385 0.11745 15.7715
235200 61.217 148.551 55.9385 0.11755 15.7159
235400 61.217 148.564 55.9385 0.11765 15.8142
235600 61.217 148.577 55.9385 0.11775 15.7553
235800 61.217 148.591 55.9385 0.11785 15.839
236000 61.217 148.604 55.9385 0.11795 15.8106
236200 61.217 148.617 55.9385 0.11805 15.8599
236400 61.217 148.631 55.9385 0.11815 15.8625
236600 61.217 148.644 55.9385 0.11825 15.8882
236800 61.217 148.657 55.9385 0.11835 15.9043
237000 61.217 148.67 55.9385 0.11845 15.9158
237200 61.217 148.684 55.9385 0.11855 15.9486
237400 61.217 148.697 55.9385 0.11865 15.9423
237600 61.217 148.71 55.9385 0.11875 15.9924
237800 61.217 148.724 55.9385 0.11885 15.9764
238000 61.217 148.737 55.9385 0.11895 16.0185
238200 61.217 148.75 55.9385 0.11905 16.0186
238400 61.217 148.763 55.9385 0.11915 16.0631
238600 61.217 148.777 55.9385 0.11925 16.0507
238800 61.217 148.79 55.9385 0.11935 16.0911
239000 61.217 148.803 55.9385 0.11945 16.0857
239200 61.217 148.817 55.9385 0.11955 16.1406
239400 61.217 148.83 55.9385 0.11965 16.1226
239600 61.217 148.843 55.9385 0.11975 16.1703
239800 61.217 148.857 55.9385 0.11985 16.1611
240000 61.217 148.87 55.9385 0.11995 16.2156
240200 61.217 148.883 55.9385 0.12005 16.1926
240400 61.217 148.896 55.9385 0.12015 16.2466
240600 61.217 148.91 55.9385 0.12025 16.2408
240800 61.217 148.923 55.9385 0.12035 16.2833
241000 61.217 148.936 55.9385 0.12045 16.2672
241200 61.217 148.95 55.9385 0.12055 16.3378
241400 61.217 148.963 55.9385 0.12065 16.3044
241600 61.217 148.976 55.9385 0.12075 16.375
241800 61.217 148.989 55.9385 0.12085 16.3459
242000 61.217 149.003 55.9385 0.12095 16.4144
242200 61.217 149.016 55.9385 0.12105 16.3811
242400 61.217 149.029 55.9385 0.12115 16.4403
242600 61.217 149.043 55.9385 0.12125 16.4311
242800 61.217 149.056 55.9385 0.12135 16.4745
243000 61.217 149.069 55.9385 0.12145 16.4652
243200 61.217 149.083 55.9385 0.12155 16.5074
243400 61.217 149.096 55.9385 0.12165 16.5106
243600 61.217 149.109 55.9385 0.12175 16.5381
243800 61.217 149.122 55.9385 0.12185 16.5552
244000 61.217 149.136 55.9385 0.12195 16.5643
244200 61.217 149.149 55.9385 0.12205 16.6003
244400 61.217 149.162 55.9385 0.12215 16.5959
244600 61.217 149.176 55.9385 0.12225 16.6306
244800 61.217 149.189 55.9385 0.12235 16.6348
245000 61.217 149.202 55.9385 0.12245 16.6664
245200 61.217 149.215 55.9385 0.12255 16.6707
245400 61.217 149.229 55.9385 0.12265 16.7031
245600 61.217 149.242 55.9385 0.12275 16.7011
245800 61.217 149.255 55.9385 0.12285 16.7432
246000 61.217 149.269 55.9385 0.12295 16.7481
246200 61.217 149.282 55.9385 0.12305 16.7707
246400 61.217 149.295 55.9385 0.12315 16.7813
246600 61.217 149.308 55.9385 0.12325 16.8169
246800 61.217 149.322 55.9385 0.12335 16.8182
247000 61.217 149.335 55.9385 0.12345 16.8506
247200 61.217 149.348 55.9385 0.12355 16.8529
247400 61.217 149.362 55.9385 0.12365 16.8902
247600 61.217 149.375 55.9385 0.12375 16.9058
247800 61.217 149.388 55.9385 0.12385 16.9068
248000 61.217 149.402 55.9385 0.12395 16.954
248200 61.217 149.415 55.9385 0.12405 16.9516
248400 61.217 149.428 55.9385 0.12415 16.9735
248600 61.217 149.441 55.9385 0.12425 16.9952
248800 61.217 149.455 55.9385 0.12435 17.0047
249000 61.217 149.468 55.9385 0.12445 17.0378
249200 61.217 149.481 55.9385 0.12455 17.0366
249400 61.217 149.495 55.9385 0.12465 17.072
249600 61.217 149.508 55.9385 0.12475 17.0975
249800 61.217 149.521 55.9385 0.12485 17.084
250000 61.217 149.534 55.9385 0.12495 17.1374
250200 61.217 149.548 55.9385 0.12505 17.1322
250400 61.217 149.561 55.9385 0.12515 17.1626
250600 61.217 149.574 55.9385 0.12525 17.1704
250800 61.217 149.588 55.9385 0.12535 17.2023
251000 61.217 149.601 55.9385 0.12545 17.209
251200 61.217 149.614 55.9385 0.12555 17.2276
251400 61.217 149.628 55.9385 0.12565 17.2625
251600 61.217 149.641 55.9385 0.12575 17.2718
251800 61.217 149.654 55.9385 0.12585 17.2792
252000 61.217 149.667 55.9385 0.12595 17.3148
252200 61.217 149.681 55.9385 0.12605 17.3249
252400 61.217 149.694 55.9385 0.12615 17.347
252600 61.217 149.707 55.9385 0.12625 17.366
252800 61.217 149.721 55.9385 0.12635 17.376
253000 61.217 149.734 55.9385 0.12645 17.4077
253200 61.217 149.747 55.9385 0.12655 17.4039
253400 61.217 149.76 55.9385 0.12665 17.4455
253600 61.217 149.774 55.9385 0.12675 17.4513
253800 61.217 149.787 55.9385 0.12685 17.469
254000 61.217 149.8 55.9385 0.12695 17.4946
254200 61.217 149.814 55.9385 0.12705 17.5072
254400 61.217 149.827 55.9385 0.12715 17.5318
254600 61.217 149.84 55.9385 0.12725 17.5451
254800 61.217 149.853 55.9385 0.12735 17.5598
255000 61.217 149.867 55.9385 0.12745 17.5877
255200 61.217 149.88 55.9385 0.12755 17.5902
255400 61.217 149.893 55.9385 0.12765 17.6313
255600 61.217 149.907 55.9385 0.12775 17.6237
255800 61.217 149.92 55.9385 0.12785 17.666
256000 61.217 149.933 55.9385 0.12795 17.6578
256200 61.217 149.947 55.9385 0.12805 17.7075
256400 61.217 149.96 55.9385 0.12815 17.7049
256600 61.217 149.973 55.9385 0.12825 17.7304
256800 61.217 149.986 55.9385 0.12835 17.7525
257000 61.217 150 55.9385 0.12845 17.7622
257200 61.217 150.013 55.9385 0.12855 17.7918
257400 61.217 150.026 55.9385 0.12865 17.7886
257600 61.217 150.04 55.9385 0.12875 17.8466
257800 61.217 150.053 55.9385 0.12885 17.8138
258000 61.217 150.066 55.9385 0.12895 17.8798
258200 61.217 150.079 55.9385 0.12905 17.858
258400 61.217 150.093 55.9385 0.12915 17.9222
258600 61.217 150.106 55.9385 0.12925 17.8892
258800 61.217 150.119 55.9385 0.12935 17.9557
259000 61.217 150.133 55.9385 0.12945 17.9257
259200 61.217 150.146 55.9385 0.12955 17.9826
259400 61.217 150.159 55.9385 0.12965 17.9733
259600 61.217 150.173 55.9385 0.12975 18.0118
259800 61.217 150.186 55.9385 0.12985 18.0157
260000 61.217 150.199 55.9385 0.12995 18.0367
260200 61.217 150.212 55.9385 0.13005 18.0774
260400 61.217 150.226 55.9385 0.13015 18.0535
260600 61.217 150.239 55.9385 0.13025 18.1131
260800 61.217 150.252 55.9385 0.13035 18.0981
261000 61.217 150.266 55.9385 0.13045 18.1505
261200 61.217 150.279 55.9385 0.13055 18.1326
261400 61.217 150.292 55.9385 0.13065 18.183
261600 61.217 150.305 55.9385 0.13075 18.1728
261800 61.217 150.319 55.9385 0.13085 18.2249
262000 61.217 150.332 55.9385 0.13095 18.2048
262200 61.217 150.345 55.9385 0.13105 18.247
262400 61.217 150.359 55.9385 0.13115 18.2602
262600 61.217 150.372 55.9385 0.13125 18.28
262800 61.217 150.385 55.9385 0.13135 18.2958
263000 61.217 150.398 55.9385 0.13145 18.3084
263200 61.217 150.412 55.9385 0.13155 18.3494
263400 61.217 150.425 55.9385 0.13165 18.339
263600 61.217 150.438 55.9385 0.13175 18.3874
263800 61.217 150.452 55.9385 0.13185 18.3759
264000 61.217 150.465 55.9385 0.13195 18.4239
264200 61.217 150.478 55.9385 0.13205 18.3993
264400 61.217 150.492 55.9385 0.13215 18.4607
264600 61.217 150.505 55.9385 0.13225 18.4438
264800 61.217 150.518 55.9385 0.13235 18.4865
265000 61.217 150.531 55.9385 0.13245 18.4871
265200 61.217 150.545 55.9385 0.13255 18.5185
265400 61.217 150.558 55.9385 0.13265 18.5347
265600 61.217 150.571 55.9385 0.13275 18.5401
265800 61.217 150.585 55.9385 0.13285 18.5805
266000 61.217 150.598 55.9385 0.13295 18.5734
266200 61.217 150.611 55.9385 0.13305 18.6276
266400 61.217 150.624 55.9385 0.13315 18.6063
266600 61.217 150.638 55.9385 0.13325 18.6632
266800 61.217 150.651 55.9385 0.13335 18.642
267000 61.217 150.664 55.9385 0.13345 18.6877
267200 61.217 150.678 55.9385 0.13355 18.6902
267400 61.217 150.691 55.9385 0.13365 18.7191
267600 61.217 150.704 55.9385 0.13375 18.74
267800 61.217 150.717 55.9385 0.13385 18.749
268000 61.217 150.731 55.9385 0.13395 18.7832
268200 61.217 150.744 55.9385 0.13405 18.7901
268400 61.217 150.757 55.9385 0.13415 18.8079
268600 61.217 150.771 55.9385 0.13425 18.8231
268800 61.217 150.784 55.9385 0.13435 18.8543
269000 61.217 150.797 55.9385 0.13445 18.8528
269200 61.217 150.811 55.9385 0.13455 18.8948
269400 61.217 150.824 55.9385 0.13465 18.8828
269600 61.217 150.837 55.9385 0.13475 18.9356
269800 61.217 150.85 55.9385 0.13485 18.9179
270000 61.217 150.864 55.9385 0.13495 18.9775
270200 61.217 150.877 55.9385 0.13505 18.9523
270400 61.217 150.89 55.9385 0.13515 18.9986
270600 61.217 150.904 55.9385 0.13525 19.0037
270800 61.217 150.917 55.9385 0.13535 19.0292
271000 61.217 150.93 55.9385 0.13545 19.0441
271200 61.217 150.943 55.9385 0.13555 19.0537
271400 61.217 150.957 55.9385 0.13565 19.0926
271600 61.217 150.97 55.9385 0.13575 19.0869
271800 61.217 150.983 55.9385 0.13585 19.125
272000 61.217 150.997 55.9385 0.13595 19.1082
272200 61.217 151.01 55.9385 0.13605 19.18
272400 61.217 151.023 55.9385 0.13615 19.1385
272600 61.217 151.037 55.9385 0.13625 19.2143
272800 61.217 151.05 55.9385 0.13635 19.1933
273000 61.217 151.063 55.9385 0.13645 19.219
273200 61.217 151.076 55.9385 0.13655 19.2569
273400 61.217 151.09 55.9385 0.13665 19.2368
273600 61.217 151.103 55.9385 0.13675 19.3055
273800 61.217 151.116 55.9385 0.13685 19.2575
274000 61.217 151.13 55.9385 0.13695 19.349
274200 61.217 151.143 55.9385 0.13705 19.2959
274400 61.217 151.156 55.9385 0.13715 19.3735
274600 61.217 151.169 55.9385 0.13725 19.3511
274800 61.217 151.183 55.9385 0.13735 19.3767
275000 61.217 151.196 55.9385 0.13745 19.4239
275200 61.217 151.209 55.9385 0.13755 19.4075
275400 61.217 151.223 55.9385 0.13765 19.446
275600 61.217 151.236 55.9385 0.13775 19.4558
275800 61.217 151.249 55.9385 0.13785 19.4821
276000 61.217 151.262 55.9385 0.13795 19.4909
276200 61.217 151.276 55.9385 0.13805 19.5103
276400 61.217 151.289 55.9385 0.13815 19.5341
276600 61.217 151.302 55.9385 0.13825 19.5405
276800 61.217 151.316 55.9385 0.13835 19.577
277000 61.217 151.329 55.9385 0.13845 19.5666
277200 61.217 151.342 55.9385 0.13855 19.6216
277400 61.217 151.356 55.9385 0.13865 19.6049
277600 61.217 151.369 55.9385 0.13875 19.6422
277800 61.217 151.382 55.9385 0.13885 19.6563
278000 61.217 151.395 55.9385 0.13895 19.6668
278200 61.217 151.409 55.9385 0.13905 19.7003
278400 61.217 151.422 55.9385 0.13915 19.7053
278600 61.217 151.435 55.9385 0.13925 19.7297
278800 61.217 151.449 55.9385 0.13935 19.7548
279000 61.217 151.462 55.9385 0.13945 19.7563
279200 61.217 151.475 55.9385 0.13955 19.7871
279400 61.217 151.488 55.9385 0.13965 19.8099
279600 61.217 151.502 55.9385 0.13975 19.8268
279800 61.217 151.515 55.9385 0.13985 19.8308
280000 61.217 151.528 55.9385 0.13995 19.8549
280200 61.217 151.542 55.9385 0.14005 19.8734
280400 61.217 151.555 55.9385 0.14015 19.8799
280600 61.217 151.568 55.9385 0.14025 19.909
280800 61.217 151.582 55.9385 0.14035 19.9184
281000 61.217 151.595 55.9385 0.14045 19.9462
281200 61.217 151.608 55.9385 0.14055 19.9565
281400 61.217 151.621 55.9385 0.14065 19.9833
281600 61.217 151.635 55.9385 0.14075 19.9967
281800 61.217 151.648 55.9385 0.14085 20.0154
282000 61.217 151.661 55.9385 0.14095 20.0389
282200 61.217 151.675 55.9385 0.14105 20.0378
282400 61.217 151.688 55.9385 0.14115 20.086
282600 61.217 151.701 55.9385 0.14125 20.0767
282800 61.217 151.714 55.9385 0.14135 20.1087
283000 61.217 151.728 55.9385 0.14145 20.1224
283200 61.217 151.741 55.9385 0.14155 20.1339
283400 61.217 151.754 55.9385 0.14165 20.1683
283600 61.217 151.768 55.9385 0.14175 20.1584
283800 61.217 151.781 55.9385 0.14185 20.2107
284000 61.217 151.794 55.9385 0.14195 20.2176
284200 61.217 151.807 55.9385 0.14205 20.2152
284400 61.217 151.821 55.9385 0.14215 20.2738
284600 61.217 151.834 55.9385 0.14225 20.2439
284800 61.217 151.847 55.9385 0.14235 20.3094
285000 61.217 151.861 55.9385 0.14245 20.2916
285200 61.217 151.874 55.9385 0.14255 20.3189
285400 61.217 151.887 55.9385 0.14265 20.3532
285600 61.217 151.901 55.9385 0.14275 20.3408
285800 61.217 151.914 55.9385 0.14285 20.3917
286000 61.217 151.927 55.9385 0.14295 20.3718
286200 61.217 151.94 55.9385 0.14305 20.4268
286400 61.217 151.954 55.9385 0.14315 20.435
286600 61.217 151.967 55.9385 0.14325 20.4245
286800 61.217 151.98 55.9385 0.14335 20.4866
287000 61.217 151.994 55.9385 0.14345 20.4596
287200 61.217 152.007 55.9385 0.14355 20.5121
287400 61.217 152.02 55.9385 0.14365 20.5022
287600 61.217 152.033 55.9385 0.14375 20.5321
287800 61.217 152.047 55.9385 0.14385 20.5516
288000 61.217 152.06 55.9385 0.14395 20.5559
288200 61.217 152.073 55.9385 0.14405 20.5984
288400 61.217 152.087 55.9385 0.14415 20.5946
288600 61.217 152.1 55.9385 0.14425 20.6174
288800 61.217 152.113 55.9385 0.14435 20.6452
289000 61.217 152.127 55.9385 0.14445 20.633
289200 61.217 152.14 55.9385 0.14455 20.697
289400 61.217 152.153 55.9385 0.14465 20.6715
289600 61.217 152.166 55.9385 0.14475 20.7214
289800 61.217 152.18 55.9385 0.14485 20.7253
290000 61.217 152.193 55.9385 0.14495 20.7362
290200 61.217 152.206 55.9385 0.14505 20.7919
290400 61.217 152.22 55.9385 0.14515 20.7365
290600 61.217 152.233 55.9385 0.14525 20.8247
290800 61.217 152.246 55.9385 0.14535 20.8113
291000 61.217 152.259 55.9385 0.14545 20.8198
291200 61.217 152.273 55.9385 0.14555 20.8661
291400 61.217 152.286 55.9385 0.14565 20.8468
291600 61.217 152.299 55.9385 0.14575 20.9044
291800 61.217 152.313 55.9385 0.14585 20.8886
292000 61.217 152.326 55.9385 0.14595 20.9175
292200 61.217 152.339 55.9385 0.14605 20.9625
292400 61.217 152.352 55.9385 0.14615 20.9195
292600 61.217 152.366 55.9385 0.14625 20.9973
292800 61.217 152.379 55.9385 0.14635 20.9851
293000 61.217 152.392 55.9385 0.14645 20.9975
293200 61.217 152.406 55.9385 0.14655 21.0567
293400 61.217 152.419 55.9385 0.14665 21.0157
293600 61.217 152.432 55.9385 0.14675 21.0941
293800 61.217 152.446 55.9385 0.14685 21.0723
294000 61.217 152.459 55.9385 0.14695 21.0854
294200 61.217 152.472 55.9385 0.14705 21.1419
294400 61.217 152.485 55.9385 0.14715 21.1088
294600 61.217 152.499 55.9385 0.14725 21.1608
294800 61.217 152.512 55.9385 0.14735 21.1688
295000 61.217 152.525 55.9385 0.14745 21.1761
295200 61.217 152.539 55.9385 0.14755 21.2194
295400 61.217 152.552 55.9385 0.14765 21.2141
295600 61.217 152.565 55.9385 0.14775 21.2379
295800 61.217 152.578 55.9385 0.14785 21.2624
296000 61.217 152.592 55.9385 0.14795 21.2662
296200 61.217 152.605 55.9385 0.14805 21.3034
296400 61.217 152.618 55.9385 0.14815 21.3016
296600 61.217 152.632 55.9385 0.14825 21.3194
296800 61.217 152.645 55.9385 0.14835 21.3688
297000 61.217 152.658 55.9385 0.14845 21.3446
297200 61.217 152.672 55.9385 0.14855 21.3926
297400 61.217 152.685 55.9385 0.14865 21.4053
297600 61.217 152.698 55.9385 0.14875 21.4032
297800 61.217 152.711 55.9385 0.14885 21.4509
298000 61.217 152.725 55.9385 0.14895 21.4421
298200 61.217 152.738 55.9385 0.14905 21.4649
298400 61.217 152.751 55.9385 0.14915 21.4914
298600 61.217 152.765 55.9385 0.14925 21.4869
298800 61.217 152.778 55.9385 0.14935 21.5409
299000 61.217 152.791 55.9385 0.14945 21.5207
299200 61.217 152.804 55.9385 0.14955 21.5553
299400 61.217 152.818 55.9385 0.14965 21.5856
299600 61.217 152.831 55.9385 0.14975 21.571
299800 61.217 152.844 55.9385 0.14985 21.6177
300000 61.217 152.858 55.9385 0.14995 21.6208
300200 61.217 152.871 55.9385 0.15005 21.6439
300400 61.217 152.884 55.9385 0.15015 21.6622
300600 61.217 152.897 55.9385 0.15025 21.6729
300800 61.217 152.911 55.9385 0.15035 21.7097
301000 61.217 152.924 55.9385 0.15045 21.6998
301200 61.217 152.937 55.9385 0.15055 21.7415
301400 61.217 152.951 55.9385 0.15065 21.7634
301600 61.217 152.964 55.9385 0.15075 21.7615
301800 61.217 152.977 55.9385 0.15085 21.7884
302000 61.217 152.991 55.9385 0.15095 21.8193
302200 61.217 153.004 55.9385 0.15105 21.8019
302400 61.217 153.017 55.9385 0.15115 21.85
302600 61.217 153.03 55.9385 0.15125 21.8611
302800 61.217 153.044 55.9385 0.15135 21.8666
303000 61.217 153.057 55.9385 0.15145 21.8986
303200 61.217 153.07 55.9385 0.15155 21.8992
303400 61.217 153.084 55.9385 0.15165 21.929
303600 61.217 153.097 55.9385 0.15175 21.9544
303800 61.217 153.11 55.9385 0.15185 21.9468
304000 61.217 153.123 55.9385 0.15195 21.9986
304200 61.217 153.137 55.9385 0.15205 21.9862
304400 61.217 153.15 55.9385 0.15215 22.0116
304600 61.217 153.163 55.9385 0.15225 22.0427
304800 61.217 153.177 55.9385 0.15235 22.0393
305000 61.217 153.19 55.9385 0.15245 22.0738
305200 61.217 153.203 55.9385 0.15255 22.0861
305400 61.217 153.216 55.9385 0.15265 22.0851
305600 61.217 153.23 55.9385 0.15275 22.1426
305800 61.217 153.243 55.9385 0.15285 22.109
306000 61.217 153.256 55.9385 0.15295 22.1592
306200 61.217 153.27 55.9385 0.15305 22.1887
306400 61.217 153.283 55.9385 0.15315 22.1546
306600 61.217 153.296 55.9385 0.15325 22.2215
306800 61.217 153.31 55.9385 0.15335 22.2232
307000 61.217 153.323 55.9385 0.15345 22.2209
307200 61.217 153.336 55.9385 0.15355 22.2642
307400 61.217 153.349 55.9385 0.15365 22.2656
307600 61.217 153.363 55.9385 0.15375 22.2854
307800 61.217 153.376 55.9385 0.15385 22.323
308000 61.217 153.389 55.9385 0.15395 22.3108
308200 61.217 153.403 55.9385 0.15405 22.3448
308400 61.217 153.416 55.9385 0.15415 22.3693
308600 61.217 153.429 55.9385 0.15425 22.3694
308800 61.217 153.442 55.9385 0.15435 22.3908
309000 61.217 153.456 55.9385 0.15445 22.4236
309200 61.217 153.469 55.9385 0.15455 22.4157
309400 61.217 153.482 55.9385 0.15465 22.4555
309600 61.217 153.496 55.9385 0.15475 22.4712
309800 61.217 153.509 55.9385 0.15485 22.4675
310000 61.217 153.522 55.9385 0.15495 22.5077
310200 61.217 153.536 55.9385 0.15505 22.5216
310400 61.217 153.549 55.9385 0.15515 22.5124
310600 61.217 153.562 55.9385 0.15525 22.5698
310800 61.217 153.575 55.9385 0.15535 22.5645
311000 61.217 153.589 55.9385 0.15545 22.5599
311200 61.217 153.602 55.9385 0.15555 22.6363
311400 61.217 153.615 55.9385 0.15565 22.6155
311600 61.217 153.629 55.9385 0.15575 22.6126
311800 61.217 153.642 55.9385 0.15585 22.6786
312000 61.217 153.655 55.9385 0.15595 22.6722
312200 61.217 153.668 55.9385 0.15605 22.6732
312400 61.217 153.682 55.9385 0.15615 22.7124
312600 61.217 153.695 55.9385 0.15625 22.7411
312800 61.217 153.708 55.9385 0.15635 22.7281
313000 61.217 153.722 55.9385 0.15645 22.7577
313200 61.217 153.735 55.9385 0.15655 22.7894
313400 61.217 153.748 55.9385 0.15665 22.7972
313600 61.217 153.761 55.9385 0.15675 22.8129
313800 61.217 153.775 55.9385 0.15685 22.844
314000 61.217 153.788 55.9385 0.15695 22.8519
314200 61.217 153.801 55.9385 0.15705 22.8593
314400 61.217 153.815 55.9385 0.15715 22.898
314600 61.217 153.828 55.9385 0.15725 22.8972
314800 61.217 153.841 55.9385 0.15735 22.9176
315000 61.217 153.855 55.9385 0.15745 22.9428
315200 61.217 153.868 55.9385 0.15755 22.9507
315400 61.217 153.881 55.9385 0.15765 22.9648
315600 61.217 153.894 55.9385 0.15775 22.9757
315800 61.217 153.908 55.9385 0.15785 23
316000 61.217 153.921 55.9385 0.15795 23.0187
316200 61.217 153.934 55.9385 0.15805 23.0434
316400 61.217 153.948 55.9385 0.15815 23.0485
316600 61.217 153.961 55.9385 0.15825 23.0771
316800 61.217 153.974 55.9385 0.15835 23.0768
317000 61.217 153.987 55.9385 0.15845 23.1086
317200 61.217 154.001 55.9385 0.15855 23.1407
317400 61.217 154.014 55.9385 0.15865 23.1339
317600 61.217 154.027 55.9385 0.15875 23.1664
317800 61.217 154.041 55.9385 0.15885 23.1854
318000 61.217 154.054 55.9385 0.15895 23.1811
318200 61.217 154.067 55.9385 0.15905 23.2112
318400 61.217 154.081 55.9385 0.15915 23.2328
318600 61.217 154.094 55.9385 0.15925 23.2433
318800 61.217 154.107 55.9385 0.15935 23.2719
319000 61.217 154.12 55.9385 0.15945 23.2827
319200 61.217 154.134 55.9385 0.15955 23.2826
319400 61.217 154.147 55.9385 0.15965 23.3339
319600 61.217 154.16 55.9385 0.15975 23.3413
319800 61.217 154.174 55.9385 0.15985 23.304
320000 61.217 154.187 55.9385 0.15995 23.3874
320200 61.217 154.2 55.9385 0.16005 23.4
320400 61.217 154.213 55.9385 0.16015 23.3507
320600 61.217 154.227 55.9385 0.16025 23.4366
320800 61.217 154.24 55.9385 0.16035 23.4469
321000 61.217 154.253 55.9385 0.16045 23.4019
321200 61.217 154.267 55.9385 0.16055 23.4908
321400 61.217 154.28 55.9385 0.16065 23.5014
321600 61.217 154.293 55.9385 0.16075 23.4535
321800 61.217 154.306 55.9385 0.16085 23.531
322000 61.217 154.32 55.9385 0.16095 23.5667
322200 61.217 154.333 55.9385 0.16105 23.518
322400 61.217 154.346 55.9385 0.16115 23.5671
322600 61.217 154.36 55.9385 0.16125 23.6297
322800 61.217 154.373 55.9385 0.16135 23.5762
323000 61.217 154.386 55.9385 0.16145 23.6077
323200 61.217 154.4 55.9385 0.16155 23.6752
323400 61.217 154.413 55.9385 0.16165 23.6427
323600 61.217 154.426 55.9385 0.16175 23.6409
323800 61.217 154.439 55.9385 0.16185 23.7118
324000 61.217 154.453 55.9385 0.16195 23.7235
324200 61.217 154.466 55.9385 0.16205 23.6882
324400 61.217 154.479 55.9385 0.16215 23.7332
324600 61.217 154.493 55.9385 0.16225 23.7938
324800 61.217 154.506 55.9385 0.16235 23.759
325000 61.217 154.519 55.9385 0.16245 23.7641
325200 61.217 154.532 55.9385 0.16255 23.8523
325400 61.217 154.546 55.9385 0.16265 23.8199
325600 61.217 154.559 55.9385 0.16275 23.8022
325800 61.217 154.572 55.9385 0.16285 23.8909
326000 61.217 154.586 55.9385 0.16295 23.9011
326200 61.217 154.599 55.9385 0.16305 23.8455
326400 61.217 154.612 55.9385 0.16315 23.9335
326600 61.217 154.626 55.9385 0.16325 23.9598
326800 61.217 154.639 55.9385 0.16335 23.9178
327000 61.217 154.652 55.9385 0.16345 23.9602
327200 61.217 154.665 55.9385 0.16355 24.011
327400 61.217 154.679 55.9385 0.16365 23.9816
327600 61.217 154.692 55.9385 0.16375 24.0005
327800 61.217 154.705 55.9385 0.16385 24.0458
328000 61.217 154.719 55.9385 0.16395 24.0492
328200 61.217 154.732 55.9385 0.16405 24.05
328400 61.217 154.745 55.9385 0.16415 24.0848
328600 61.217 154.758 55.9385 0.16425 24.1144
328800 61.217 154.772 55.9385 0.16435 24.116
329000 61.217 154.785 55.9385 0.16445 24.1221
329200 61.217 154.798 55.9385 0.16455 24.1621
329400 61.217 154.812 55.9385 0.16465 24.1849
329600 61.217 154.825 55.9385 0.16475 24.1703
329800 61.217 154.838 55.9385 0.16485 24.1811
330000 61.217 154.851 55.9385 0.16495 24.241
330200 61.217 154.865 55.9385 0.16505 24.2425
330400 61.217 154.878 55.9385 0.16515 24.2306
330600 61.217 154.891 55.9385 0.16525 24.2741
330800 61.217 154.905 55.9385 0.16535 24.2986
331000 61.217 154.918 55.9385 0.16545 24.3089
331200 61.217 154.931 55.9385 0.16555 24.3082
331400 61.217 154.945 55.9385 0.16565 24.3385
331600 61.217 154.958 55.9385 0.16575 24.3725
331800 61.217 154.971 55.9385 0.16585 24.3617
332000 61.217 154.984 55.9385 0.16595 24.3792
332200 61.217 154.998 55.9385 0.16605 24.4284
332400 61.217 155.011 55.9385 0.16615 24.4183
332600 61.217 155.024 55.9385 0.16625 24.4191
332800 61.217 155.038 55.9385 0.16635 24.4573
333000 61.217 155.051 55.9385 0.16645 24.4896
333200 61.217 155.064 55.9385 0.16655 24.4953
333400 61.217 155.077 55.9385 0.16665 24.4905
333600 61.217 155.091 55.9385 0.16675 24.5287
333800 61.217 155.104 55.9385 0.16685 24.5602
334000 61.217 155.117 55.9385 0.16695 24.5508
334200 61.217 155.131 55.9385 0.16705 24.5625
334400 61.217 155.144 55.9385 0.16715 24.6146
334600 61.217 155.157 55.9385 0.16725 24.6233
334800 61.217 155.17 55.9385 0.16735 24.6132
335000 61.217 155.184 55.9385 0.16745 24.6394
335200 61.217 155.197 55.9385 0.16755 24.6769
335400 61.217 155.21 55.9385 0.16765 24.6853
335600 61.217 155.224 55.9385 0.16775 24.6787
335800 61.217 155.237 55.9385 0.16785 24.7146
336000 61.217 155.25 55.9385 0.16795 24.7434
336200 61.217 155.264 55.9385 0.16805 24.7421
336400 61.217 155.277 55.9385 0.16815 24.7653
336600 61.217 155.29 55.9385 0.16825 24.7817
336800 61.217 155.303 55.9385 0.16835 24.7905
337000 61.217 155.317 55.9385 0.16845 24.8088
337200 61.217 155.33 55.9385 0.16855 24.8302
337400 61.217 155.343 55.9385 0.16865 24.8522
337600 61.217 155.357 55.9385 0.16875 24.8627
337800 61.217 155.37 55.9385 0.16885 24.8623
338000 61.217 155.383 55.9385 0.16895 24.9028
338200 61.217 155.396 55.9385 0.16905 24.9185
338400 61.217 155.41 55.9385 0.16915 24.9176
338600 61.217 155.423 55.9385 0.16925 24.9384
338800 61.217 155.436 55.9385 0.16935 24.976
339000 61.217 155.45 55.9385 0.16945 24.9816
339200 61.217 155.463 55.9385 0.16955 24.9904
339400 61.217 155.476 55.9385 0.16965 25.0177
339600 61.217 155.49 55.9385 0.16975 25.0412
339800 61.217 155.503 55.9385 0.16985 25.0516
340000 61.217 155.516 55.9385 0.16995 25.0612
340200 61.217 155.529 55.9385 0.17005 25.0806
340400 61.217 155.543 55.9385 0.17015 25.1024
340600 61.217 155.556 55.9385 0.17025 25.1186
340800 61.217 155.569 55.9385 0.17035 25.1215
341000 61.217 155.583 55.9385 0.17045 25.1517
341200 61.217 155.596 55.9385 0.17055 25.1799
341400 61.217 155.609 55.9385 0.17065 25.1839
341600 61.217 155.622 55.9385 0.17075 25.1852
341800 61.217 155.636 55.9385 0.17085 25.2084
342000 61.217 155.649 55.9385 0.17095 25.2552
342200 61.217 155.662 55.9385 0.17105 25.2642
342400 61.217 155.676 55.9385 0.17115 25.2415
342600 61.217 155.689 55.9385 0.17125 25.2805
342800 61.217 155.702 55.9385 0.17135 25.3327
343000 61.217 155.715 55.9385 0.17145 25.3283
343200 61.217 155.729 55.9385 0.17155 25.3129
343400 61.217 155.742 55.9385 0.17165 25.3432
343600 61.217 155.755 55.9385 0.17175 25.3955
343800 61.217 155.769 55.9385 0.17185 25.4073
344000 61.217 155.782 55.9385 0.17195 25.374
344200 61.217 155.795 55.9385 0.17205 25.3958
344400 61.217 155.809 55.9385 0.17215 25.4628
344600 61.217 155.822 55.9385 0.17225 25.4672
344800 61.217 155.835 55.9385 0.17235 25.4403
345000 61.217 155.848 55.9385 0.17245 25.4656
345200 61.217 155.862 55.9385 0.17255 25.5114
345400 61.217 155.875 55.9385 0.17265 25.5355
345600 61.217 155.888 55.9385 0.17275 25.5222
345800 61.217 155.902 55.9385 0.17285 25.542
346000 61.217 155.915 55.9385 0.17295 25.5722
346200 61.217 155.928 55.9385 0.17305 25.5991
346400 61.217 155.941 55.9385 0.17315 25.6035
346600 61.217 155.955 55.9385 0.17325 25.6002
346800 61.217 155.968 55.9385 0.17335 25.6313
347000 61.217 155.981 55.9385 0.17345 25.6712
347200 61.217 155.995 55.9385 0.17355 25.6798
347400 61.217 156.008 55.9385 0.17365 25.6736
347600 61.217 156.021 55.9385 0.17375 25.7094
347800 61.217 156.035 55.9385 0.17385 25.728
348000 61.217 156.048 55.9385 0.17395 25.7518
348200 61.217 156.061 55.9385 0.17405 25.754
348400 61.217 156.074 55.9385 0.17415 25.7562
348600 61.217 156.088 55.9385 0.17425 25.7767
348800 61.217 156.101 55.9385 0.17435 25.8265
349000 61.217 156.114 55.9385 0.17445 25.8482
349200 61.217 156.128 55.9385 0.17455 25.8338
349400 61.217 156.141 55.9385 0.17465 25.848
349600 61.217 156.154 55.9385 0.17475 25.8995
349800 61.217 156.167 55.9385 0.17485 25.8892
350000 61.217 156.181 55.9385 0.17495 25.8914
350200 61.217 156.194 55.9385 0.17505 25.9156
350400 61.217 156.207 55.9385 0.17515 25.9558
350600 61.217 156.221 55.9385 0.17525 25.962
350800 61.217 156.234 55.9385 0.17535 25.9592
351000 61.217 156.247 55.9385 0.17545 25.9766
351200 61.217 156.26 55.9385 0.17555 26.0214
351400 61.217 156.274 55.9385 0.17565 26.0361
351600 61.217 156.287 55.9385 0.17575 26.0421
351800 61.217 156.3 55.9385 0.17585 26.0459
352000 61.217 156.314 55.9385 0.17595 26.0592
352200 61.217 156.327 55.9385 0.17605 26.0899
352400 61.217 156.34 55.9385 0.17615 26.1298
352600 61.217 156.354 55.9385 0.17625 26.1286
352800 61.217 156.367 55.9385 0.17635 26.1076
353000 61.217 156.38 55.9385 0.17645 26.1473
353200 61.217 156.393 55.9385 0.17655 26.1988
353400 61.217 156.407 55.9385 0.17665 26.2006
353600 61.217 156.42 55.9385 0.17675 26.1986
353800 61.217 156.433 55.9385 0.17685 26.2023
354000 61.217 156.447 55.9385 0.17695 26.2211
354200 61.217 156.46 55.9385 0.17705 26.2571
354400 61.217 156.473 55.9385 0.17715 26.2868
354600 61.217 156.486 55.9385 0.17725 26.2726
354800 61.217 156.5 55.9385 0.17735 26.2809
355000 61.217 156.513 55.9385 0.17745 26.3137
355200 61.217 156.526 55.9385 0.17755 26.3485
355400 61.217 156.54 55.9385 0.17765 26.3719
355600 61.217 156.553 55.9385 0.17775 26.3708
355800 61.217 156.566 55.9385 0.17785 26.3718
356000 61.217 156.58 55.9385 0.17795 26.3927
356200 61.217 156.593 55.9385 0.17805 26.425
356400 61.217 156.606 55.9385 0.17815 26.4498
356600 61.217 156.619 55.9385 0.17825 26.4566
356800 61.217 156.633 55.9385 0.17835 26.4533
357000 61.217 156.646 55.9385 0.17845 26.4789
357200 61.217 156.659 55.9385 0.17855 26.5222
357400 61.217 156.673 55.9385 0.17865 26.5307
357600 61.217 156.686 55.9385 0.17875 26.5242
357800 61.217 156.699 55.9385 0.17885 26.5469
358000 61.217 156.712 55.9385 0.17895 26.5831
358200 61.217 156.726 55.9385 0.17905 26.5953
358400 61.217 156.739 55.9385 0.17915 26.6102
358600 61.217 156.752 55.9385 0.17925 26.6213
358800 61.217 156.766 55.9385 0.17935 26.6466
359000 61.217 156.779 55.9385 0.17945 26.6565
359200 61.217 156.792 55.9385 0.17955 26.6803
359400 61.217 156.805 55.9385 0.17965 26.6954
359600 61.217 156.819 55.9385 0.17975 26.7122
359800 61.217 156.832 55.9385 0.17985 26.7256
360000 61.217 156.845 55.9385 0.17995 26.7335
360200 61.217 156.859 55.9385 0.18005 26.7606
360400 61.217 156.872 55.9385 0.18015 26.7708
360600 61.217 156.885 55.9385 0.18025 26.7868
360800 61.217 156.899 55.9385 0.18035 26.8009
361000 61.217 156.912 55.9385 0.18045 26.8049
361200 61.217 156.925 55.9385 0.18055 26.8293
361400 61.217 156.938 55.9385 0.18065 26.8508
361600 61.217 156.952 55.9385 0.18075 26.8631
361800 61.217 156.965 55.9385 0.18085 26.8731
362000 61.217 156.978 55.9385 0.18095 26.887
362200 61.217 156.992 55.9385 0.18105 26.9184
362400 61.217 157.005 55.9385 0.18115 26.9421
362600 61.217 157.018 55.9385 0.18125 26.9543
362800 61.217 157.031 55.9385 0.18135 26.9601
363000 61.217 157.045 55.9385 0.18145 26.9618
363200 61.217 157.058 55.9385 0.18155 26.9858
363400 61.217 157.071 55.9385 0.18165 27.013
363600 61.217 157.085 55.9385 0.18175 27.0494
363800 61.217 157.098 55.9385 0.18185 27.071
364000 61.217 157.111 55.9385 0.18195 27.0694
364200 61.217 157.125 55.9385 0.18205 27.0696
364400 61.217 157.138 55.9385 0.18215 27.0796
364600 61.217 157.151 55.9385 0.18225 27.0889
364800 61.217 157.164 55.9385 0.18235 27.1332
365000 61.217 157.178 55.9385 0.18245 27.162
365200 61.217 157.191 55.9385 0.18255 27.1789
365400 61.217 157.204 55.9385 0.18265 27.1842
365600 61.217 157.218 55.9385 0.18275 27.1719
365800 61.217 157.231 55.9385 0.18285 27.169
366000 61.217 157.244 55.9385 0.18295 27.1949
366200 61.217 157.257 55.9385 0.18305 27.2489
366400 61.217 157.271 55.9385 0.18315 27.2857
366600 61.217 157.284 55.9385 0.18325 27.3044
366800 61.217 157.297 55.9385 0.18335 27.2955
367000 61.217 157.311 55.9385 0.18345 27.2703
367200 61.217 157.324 55.9385 0.18355 27.2907
367400 61.217 157.337 55.9385 0.18365 27.3247
367600 61.217 157.35 55.9385 0.18375 27.3495
367800 61.217 157.364 55.9385 0.18385 27.3867
368000 61.217 157.377 55.9385 0.18395 27.3994
368200 61.217 157.39 55.9385 0.18405 27.3998
368400 61.217 157.404 55.9385 0.18415 27.4028
368600 61.217 157.417 55.9385 0.18425 27.4104
368800 61.217 157.43 55.9385 0.18435 27.4323
369000 61.217 157.444 55.9385 0.18445 27.4634
369200 61.217 157.457 55.9385 0.18455 27.492
369400 61.217 157.47 55.9385 0.18465 27.5057
369600 61.217 157.483 55.9385 0.18475 27.5232
369800 61.217 157.497 55.9385 0.18485 27.524
370000 61.217 157.51 55.9385 0.18495 27.5311
370200 61.217 157.523 55.9385 0.18505 27.5518
370400 61.217 157.537 55.9385 0.18515 27.5832
370600 61.217 157.55 55.9385 0.18525 27.5883
370800 61.217 157.563 55.9385 0.18535 27.6102
371000 61.217 157.576 55.9385 0.18545 27.6264
371200 61.217 157.59 55.9385 0.18555 27.6344
371400 61.217 157.603 55.9385 0.18565 27.6524
371600 61.217 157.616 55.9385 0.18575 27.6677
371800 61.217 157.63 55.9385 0.18585 27.6816
372000 61.217 157.643 55.9385 0.18595 27.6953
372200 61.217 157.656 55.9385 0.18605 27.723
372400 61.217 157.669 55.9385 0.18615 27.7341
372600 61.217 157.683 55.9385 0.18625 27.7449
372800 61.217 157.696 55.9385 0.18635 27.7531
373000 61.217 157.709 55.9385 0.18645 27.7705
373200 61.217 157.723 55.9385 0.18655 27.7946
373400 61.217 157.736 55.9385 0.18665 27.8174
373600 61.217 157.749 55.9385 0.18675 27.8313
373800 61.217 157.763 55.9385 0.18685 27.8583
374000 61.217 157.776 55.9385 0.18695 27.8829
374200 61.217 157.789 55.9385 0.18705 27.8993
374400 61.217 157.802 55.9385 0.18715 27.913
374600 61.217 157.816 55.9385 0.18725 27.9249
374800 61.217 157.829 55.9385 0.18735 27.9287
375000 61.217 157.842 55.9385 0.18745 27.94
375200 61.217 157.856 55.9385 0.18755 27.9398
375400 61.217 157.869 55.9385 0.18765 27.9698
375600 61.217 157.882 55.9385 0.18775 28.0014
375800 61.217 157.895 55.9385 0.18785 28.0379
376000 61.217 157.909 55.9385 0.18795 28.0594
376200 61.217 157.922 55.9385 0.18805 28.0767
376400 61.217 157.935 55.9385 0.18815 28.0739
376600 61.217 157.949 55.9385 0.18825 28.0766
376800 61.217 157.962 55.9385 0.18835 28.0837
377000 61.217 157.975 55.9385 0.18845 28.1021
377200 61.217 157.989 55.9385 0.18855 28.1288
377400 61.217 158.002 55.9385 0.18865 28.1671
377600 61.217 158.015 55.9385 0.18875 28.1948
377800 61.217 158.028 55.9385 0.18885 28.2146
378000 61.217 158.042 55.9385 0.18895 28.2166
378200 61.217 158.055 55.9385 0.18905 28.227
378400 61.217 158.068 55.9385 0.18915 28.2236
378600 61.217 158.082 55.9385 0.18925 28.2336
378800 61.217 158.095 55.9385 0.18935 28.2504
379000 61.217 158.108 55.9385 0.18945 28.2777
379200 61.217 158.121 55.9385 0.18955 28.3151
379400 61.217 158.135 55.9385 0.18965 28.3389
379600 61.217 158.148 55.9385 0.18975 28.349
379800 61.217 158.161 55.9385 0.18985 28.3726
380000 61.217 158.175 55.9385 0.18995 28.3834
380200 61.217 158.188 55.9385 0.19005 28.383
380400 61.217 158.201 55.9385 0.19015 28.3984
380600 61.217 158.214 55.9385 0.19025 28.4087
380800 61.217 158.228 55.9385 0.19035 28.4419
381000 61.217 158.241 55.9385 0.19045 28.466
381200 61.217 158.254 55.9385 0.19055 28.487
381400 61.217 158.268 55.9385 0.19065 28.5018
381600 61.217 158.281 55.9385 0.19075 28.5209
381800 61.217 158.294 55.9385 0.19085 28.5279
382000 61.217 158.308 55.9385 0.19095 28.542
382200 61.217 158.321 55.9385 0.19105 28.5648
382400 61.217 158.334 55.9385 0.19115 28.5919
382600 61.217 158.347 55.9385 0.19125 28.6011
382800 61.217 158.361 55.9385 0.19135 28.6262
383000 61.217 158.374 55.9385 0.19145 28.6434
383200 61.217 158.387 55.9385 0.19155 28.6578
383400 61.217 158.401 55.9385 0.19165 28.6769
383600 61.217 158.414 55.9385 0.19175 28.6936
383800 61.217 158.427 55.9385 0.19185 28.7108
384000 61.217 158.44 55.9385 0.19195 28.733
384200 61.217 158.454 55.9385 0.19205 28.7448
384400 61.217 158.467 55.9385 0.19215 28.7693
384600 61.217 158.48 55.9385 0.19225 28.7771
384800 61.217 158.494 55.9385 0.19235 28.8003
385000 61.217 158.507 55.9385 0.19245 28.8145
385200 61.217 158.52 55.9385 0.19255 28.8336
385400 61.217 158.534 55.9385 0.19265 28.8589
385600 61.217 158.547 55.9385 0.19275 28.8719
385800 61.217 158.56 55.9385 0.19285 28.8942
386000 61.217 158.573 55.9385 0.19295 28.91
386200 61.217 158.587 55.9385 0.19305 28.9295
386400 61.217 158.6 55.9385 0.19315 28.9485
386600 61.217 158.613 55.9385 0.19325 28.9618
386800 61.217 158.627 55.9385 0.19335 28.9759
387000 61.217 158.64 55.9385 0.19345 28.9991
387200 61.217 158.653 55.9385 0.19355 29.0093
387400 61.217 158.666 55.9385 0.19365 29.0307
387600 61.217 158.68 55.9385 0.19375 29.0454
387800 61.217 158.693 55.9385 0.19385 29.0591
388000 61.217 158.706 55.9385 0.19395 29.0833
388200 61.217 158.72 55.9385 0.19405 29.0909
388400 61.217 158.733 55.9385 0.19415 29.1195
388600 61.217 158.746 55.9385 0.19425 29.1359
388800 61.217 158.759 55.9385 0.19435 29.1511
389000 61.217 158.773 55.9385 0.19445 29.1771
389200 61.217 158.786 55.9385 0.19455 29.1832
389400 61.217 158.799 55.9385 0.19465 29.2099
389600 61.217 158.813 55.9385 0.19475 29.2313
389800 61.217 158.826 55.9385 0.19485 29.2528
390000 61.217 158.839 55.9385 0.19495 29.2707
390200 61.217 158.853 55.9385 0.19505 29.2789
390400 61.217 158.866 55.9385 0.19515 29.2982
390600 61.217 158.879 55.9385 0.19525 29.3301
390800 61.217 158.892 55.9385 0.19535 29.3398
391000 61.217 158.906 55.9385 0.19545 29.3567
391200 61.217 158.919 55.9385 0.19555 29.3723
391400 61.217 158.932 55.9385 0.19565 29.3882
391600 61.217 158.946 55.9385 0.19575 29.4093
391800 61.217 158.959 55.9385 0.19585 29.4314
392000 61.217 158.972 55.9385 0.19595 29.4435
392200 61.217 158.985 55.9385 0.19605 29.4643
392400 61.217 158.999 55.9385 0.19615 29.485
392600 61.217 159.012 55.9385 0.19625 29.5044
392800 61.217 159.025 55.9385 0.19635 29.5225
393000 61.217 159.039 55.9385 0.19645 29.5397
393200 61.217 159.052 55.9385 0.19655 29.5568
393400 61.217 159.065 55.9385 0.19665 29.5773
393600 61.217 159.079 55.9385 0.19675 29.5907
393800 61.217 159.092 55.9385 0.19685 29.616
394000 61.217 159.105 55.9385 0.19695 29.6258
394200 61.217 159.118 55.9385 0.19705 29.6435
394400 61.217 159.132 55.9385 0.19715 29.6637
394600 61.217 159.145 55.9385 0.19725 29.6768
394800 61.217 159.158 55.9385 0.19735 29.6869
395000 61.217 159.172 55.9385 0.19745 29.706
395200 61.217 159.185 55.9385 0.19755 29.7182
395400 61.217 159.198 55.9385 0.19765 29.7353
395600 61.217 159.211 55.9385 0.19775 29.7593
395800 61.217 159.225 55.9385 0.19785 29.7748
396000 61.217 159.238 55.9385 0.19795 29.8
396200 61.217 159.251 55.9385 0.19805 29.8193
396400 61.217 159.265 55.9385 0.19815 29.8356
396600 61.217 159.278 55.9385 0.19825 29.8447
396800 61.217 159.291 55.9385 0.19835 29.8663
397000 61.217 159.304 55.9385 0.19845 29.8862
397200 61.217 159.318 55.9385 0.19855 29.9053
397400 61.217 159.331 55.9385 0.19865 29.9225
397600 61.217 159.344 55.9385 0.19875 29.9313
397800 61.217 159.358 55.9385 0.19885 29.9493
398000 61.217 159.371 55.9385 0.19895 29.9717
398200 61.217 159.384 55.9385 0.19905 29.9845
398400 61.217 159.398 55.9385 0.19915 30.0016
398600 61.217 159.411 55.9385 0.19925 30.0178
398800 61.217 159.424 55.9385 0.19935 30.0382
399000 61.217 159.437 55.9385 0.19945 30.055
399200 61.217 159.451 55.9385 0.19955 30.0735
399400 61.217 159.464 55.9385 0.19965 30.0967
399600 61.217 159.477 55.9385 0.19975 30.1133
399800 61.217 159.491 55.9385 0.19985 30.1233
400000 61.217 159.504 55.9385 0.19995 30.1405
400200 61.217 159.517 55.9385 0.20005 30.1541
400400 61.217 159.53 55.9385 0.20015 30.1708
400600 61.217 159.544 55.9385 0.20025 30.19
400800 61.217 159.557 55.9385 0.20035 30.2083
401000 61.217 159.57 55.9385 0.20045 30.2217
401200 61.217 159.584 55.9385 0.20055 30.2398
401400 61.217 159.597 55.9385 0.20065 30.263
401600 61.217 159.61 55.9385 0.20075 30.281
401800 61.217 159.624 55.9385 0.20085 30.2929
402000 61.217 159.637 55.9385 0.20095 30.3142
402200 61.217 159.65 55.9385 0.20105 30.3335
402400 61.217 159.663 55.9385 0.20115 30.3561
402600 61.217 159.677 55.9385 0.20125 30.3699
402800 61.217 159.69 55.9385 0.20135 30.3821
403000 61.217 159.703 55.9385 0.20145 30.4058
403200 61.217 159.717 55.9385 0.20155 30.4175
403400 61.217 159.73 55.9385 0.20165 30.4346
403600 61.217 159.743 55.9385 0.20175 30.4561
403800 61.217 159.756 55.9385 0.20185 30.4748
404000 61.217 159.77 55.9385 0.20195 30.4824
404200 61.217 159.783 55.9385 0.20205 30.5036
404400 61.217 159.796 55.9385 0.20215 30.5226
404600 61.217 159.81 55.9385 0.20225 30.5397
404800 61.217 159.823 55.9385 0.20235 30.5546
405000 61.217 159.836 55.9385 0.20245 30.57
405200 61.217 159.849 55.9385 0.20255 30.5936
405400 61.217 159.863 55.9385 0.20265 30.6086
405600 61.217 159.876 55.9385 0.20275 30.6288
405800 61.217 159.889 55.9385 0.20285 30.6369
406000 61.217 159.903 55.9385 0.20295 30.6603
406200 61.217 159.916 55.9385 0.20305 30.6682
406400 61.217 159.929 55.9385 0.20315 30.6908
406600 61.217 159.943 55.9385 0.20325 30.7115
406800 61.217 159.956 55.9385 0.20335 30.7272
407000 61.217 159.969 55.9385 0.20345 30.7439
407200 61.217 159.982 55.9385 0.20355 30.7622
407400 61.217 159.996 55.9385 0.20365 30.7738
407600 61.217 160.009 55.9385 0.20375 30.8011
407800 61.217 160.022 55.9385 0.20385 30.8077
408000 61.217 160.036 55.9385 0.20395 30.8343
408200 61.217 160.049 55.9385 0.20405 30.8577
408400 61.217 160.062 55.9385 0.20415 30.8684
408600 61.217 160.075 55.9385 0.20425 30.8791
408800 61.217 160.089 55.9385 0.20435 30.8999
409000 61.217 160.102 55.9385 0.20445 30.9113
409200 61.217 160.115 55.9385 0.20455 30.9263
409400 61.217 160.129 55.9385 0.20465 30.9466
409600 61.217 160.142 55.9385 0.20475 30.9673
409800 61.217 160.155 55.9385 0.20485 30.9778
410000 61.217 160.168 55.9385 0.20495 30.9924
410200 61.217 160.182 55.9385 0.20505 31.0126
410400 61.217 160.195 55.9385 0.20515 31.0253
410600 61.217 160.208 55.9385 0.20525 31.0444
410800 61.217 160.222 55.9385 0.20535 31.062
411000 61.217 160.235 55.9385 0.20545 31.0696
411200 61.217 160.248 55.9385 0.20555 31.0961
411400 61.217 160.262 55.9385 0.20565 31.1169
411600 61.217 160.275 55.9385 0.20575 31.1338
411800 61.217 160.288 55.9385 0.20585 31.1519
412000 61.217 160.301 55.9385 0.20595 31.1711
412200 61.217 160.315 55.9385 0.20605 31.1874
412400 61.217 160.328 55.9385 0.20615 31.2058
412600 61.217 160.341 55.9385 0.20625 31.2284
412800 61.217 160.355 55.9385 0.20635 31.2446
413000 61.217 160.368 55.9385 0.20645 31.2526
413200 61.217 160.381 55.9385 0.20655 31.2664
413400 61.217 160.394 55.9385 0.20665 31.2806
413600 61.217 160.408 55.9385 0.20675 31.2981
413800 61.217 160.421 55.9385 0.20685 31.318
414000 61.217 160.434 55.9385 0.20695 31.3339
414200 61.217 160.448 55.9385 0.20705 31.3473
414400 61.217 160.461 55.9385 0.20715 31.375
414600 61.217 160.474 55.9385 0.20725 31.3789
414800 61.217 160.488 55.9385 0.20735 31.3916
415000 61.217 160.501 55.9385 0.20745 31.4188
415200 61.217 160.514 55.9385 0.20755 31.434
415400 61.217 160.527 55.9385 0.20765 31.4503
415600 61.217 160.541 55.9385 0.20775 31.4604
415800 61.217 160.554 55.9385 0.20785 31.4787
416000 61.217 160.567 55.9385 0.20795 31.5022
416200 61.217 160.581 55.9385 0.20805 31.517
416400 61.217 160.594 55.9385 0.20815 31.5409
416600 61.217 160.607 55.9385 0.20825 31.552
416800 61.217 160.62 55.9385 0.20835 31.5665
417000 61.217 160.634 55.9385 0.20845 31.5849
417200 61.217 160.647 55.9385 0.20855 31.6004
417400 61.217 160.66 55.9385 0.20865 31.617
417600 61.217 160.674 55.9385 0.20875 31.6308
417800 61.217 160.687 55.9385 0.20885 31.6504
418000 61.217 160.7 55.9385 0.20895 31.6661
418200 61.217 160.713 55.9385 0.20905 31.6804
418400 61.217 160.727 55.9385 0.20915 31.6987
418600 61.217 160.74 55.9385 0.20925 31.7157
418800 61.217 160.753 55.9385 0.20935 31.7315
419000 61.217 160.767 55.9385 0.20945 31.7417
419200 61.217 160.78 55.9385 0.20955 31.7587
419400 61.217 160.793 55.9385 0.20965 31.7757
419600 61.217 160.807 55.9385 0.20975 31.7899
419800 61.217 160.82 55.9385 0.20985 31.8057
420000 61.217 160.833 55.9385 0.20995 31.8208
420200 61.217 160.846 55.9385 0.21005 31.836
420400 61.217 160.86 55.9385 0.21015 31.8581
420600 61.217 160.873 55.9385 0.21025 31.8742
420800 61.217 160.886 55.9385 0.21035 31.8841
421000 61.217 160.9 55.9385 0.21045 31.9066
421200 61.217 160.913 55.9385 0.21055 31.9195
421400 61.217 160.926 55.9385 0.21065 31.9353
421600 61.217 160.939 55.9385 0.21075 31.9518
421800 61.217 160.953 55.9385 0.21085 31.9742
422000 61.217 160.966 55.9385 0.21095 31.9819
422200 61.217 160.979 55.9385 0.21105 32.0024
422400 61.217 160.993 55.9385 0.21115 32.0127
422600 61.217 161.006 55.9385 0.21125 32.0374
422800 61.217 161.019 55.9385 0.21135 32.0481
423000 61.217 161.033 55.9385 0.21145 32.0659
423200 61.217 161.046 55.9385 0.21155 32.0842
423400 61.217 161.059 55.9385 0.21165 32.1001
423600 61.217 161.072 55.9385 0.21175 32.1087
423800 61.217 161.086 55.9385 0.21185 32.1281
424000 61.217 161.099 55.9385 0.21195 32.1444
424200 61.217 161.112 55.9385 0.21205 32.1582
424400 61.217 161.126 55.9385 0.21215 32.1771
424600 61.217 161.139 55.9385 0.21225 32.1975
424800 61.217 161.152 55.9385 0.21235 32.2184
425000 61.217 161.165 55.9385 0.21245 32.227
425200 61.217 161.179 55.9385 0.21255 32.2509
425400 61.217 161.192 55.9385 0.21265 32.2669
425600 61.217 161.205 55.9385 0.21275 32.2801
425800 61.217 161.219 55.9385 0.21285 32.2914
426000 61.217 161.232 55.9385 0.21295 32.3134
426200 61.217 161.245 55.9385 0.21305 32.3321
426400 61.217 161.258 55.9385 0.21315 32.3371
426600 61.217 161.272 55.9385 0.21325 32.3575
426800 61.217 161.285 55.9385 0.21335 32.3759
427000 61.217 161.298 55.9385 0.21345 32.393
427200 61.217 161.312 55.9385 0.21355 32.4097
427400 61.217 161.325 55.9385 0.21365 32.4221
427600 61.217 161.338 55.9385 0.21375 32.4387
427800 61.217 161.352 55.9385 0.21385 32.4578
428000 61.217 161.365 55.9385 0.21395 32.4722
428200 61.217 161.378 55.9385 0.21405 32.4921
428400 61.217 161.391 55.9385 0.21415 32.5041
428600 61.217 161.405 55.9385 0.21425 32.5222
428800 61.217 161.418 55.9385 0.21435 32.5433
429000 61.217 161.431 55.9385 0.21445 32.5558
429200 61.217 161.445 55.9385 0.21455 32.5752
429400 61.217 161.458 55.9385 0.21465 32.5934
429600 61.217 161.471 55.9385 0.21475 32.6054
429800 61.217 161.484 55.9385 0.21485 32.6215
430000 61.217 161.498 55.9385 0.21495 32.6352
430200 61.217 161.511 55.9385 0.21505 32.6516
430400 61.217 161.524 55.9385 0.21515 32.6674
430600 61.217 161.538 55.9385 0.21525 32.6843
430800 61.217 161.551 55.9385 0.21535 32.6978
431000 61.217 161.564 55.9385 0.21545 32.7181
431200 61.217 161.578 55.9385 0.21555 32.7348
431400 61.217 161.591 55.9385 0.21565 32.743
431600 61.217 161.604 55.9385 0.21575 32.7636
431800 61.217 161.617 55.9385 0.21585 32.7788
432000 61.217 161.631 55.9385 0.21595 32.7961
432200 61.217 161.644 55.9385 0.21605 32.8113
432400 61.217 161.657 55.9385 0.21615 32.8258
432600 61.217 161.671 55.9385 0.21625 32.8399
432800 61.217 161.684 55.9385 0.21635 32.8599
433000 61.217 161.697 55.9385 0.21645 32.8799
433200 61.217 161.71 55.9385 0.21655 32.8904
433400 61.217 161.724 55.9385 0.21665 32.9097
433600 61.217 161.737 55.9385 0.21675 32.9243
433800 61.217 161.75 55.9385 0.21685 32.9379
434000 61.217 161.764 55.9385 0.21695 32.9546
434200 61.217 161.777 55.9385 0.21705 32.973
434400 61.217 161.79 55.9385 0.21715 32.9867
434600 61.217 161.803 55.9385 0.21725 33.0044
434800 61.217 161.817 55.9385 0.21735 33.0175
435000 61.217 161.83 55.9385 0.21745 33.0301
435200 61.217 161.843 55.9385 0.21755 33.0504
435400 61.217 161.857 55.9385 0.21765 33.0595
435600 61.217 161.87 55.9385 0.21775 33.0673
435800 61.217 161.883 55.9385 0.21785 33.0922
436000 61.217 161.897 55.9385 0.21795 33.1013
436200 61.217 161.91 55.9385 0.21805 33.1147
436400 61.217 161.923 55.9385 0.21815 33.1327
436600 61.217 161.936 55.9385 0.21825 33.1518
436800 61.217 161.95 55.9385 0.21835 33.1715
437000 61.217 161.963 55.9385 0.21845 33.1807
437200 61.217 161.976 55.9385 0.21855 33.1984
437400 61.217 161.99 55.9385 0.21865 33.2116
437600 61.217 162.003 55.9385 0.21875 33.2227
437800 61.217 162.016 55.9385 0.21885 33.2422
438000 61.217 162.029 55.9385 0.21895 33.2552
438200 61.217 162.043 55.9385 0.21905 33.268
438400 61.217 162.056 55.9385 0.21915 33.2895
438600 61.217 162.069 55.9385 0.21925 33.3076
438800 61.217 162.083 55.9385 0.21935 33.3181
439000 61.217 162.096 55.9385 0.21945 33.3386
439200 61.217 162.109 55.9385 0.21955 33.3505
439400 61.217 162.122 55.9385 0.21965 33.3699
439600 61.217 162.136 55.9385 0.21975 33.3838
439800 61.217 162.149 55.9385 0.21985 33.3903
440000 61.217 162.162 55.9385 0.21995 33.4146
440200 61.217 162.176 55.9385 0.22005 33.4259
440400 61.217 162.189 55.9385 0.22015 33.4429
440600 61.217 162.202 55.9385 0.22025 33.4621
440800 61.217 162.216 55.9385 0.22035 33.4794
441000 61.217 162.229 55.9385 0.22045 33.4858
441200 61.217 162.242 55.9385 0.22055 33.5005
441400 61.217 162.255 55.9385 0.22065 33.5153
441600 61.217 162.269 55.9385 0.22075 33.5298
441800 61.217 162.282 55.9385 0.22085 33.5453
442000 61.217 162.295 55.9385 0.22095 33.5652
442200 61.217 162.309 55.9385 0.22105 33.5745
442400 61.217 162.322 55.9385 0.22115 33.5871
442600 61.217 162.335 55.9385 0.22125 33.6085
442800 61.217 162.348 55.9385 0.22135 33.6282
443000 61.217 162.362 55.9385 0.22145 33.6336
443200 61.217 162.375 55.9385 0.22155 33.6532
443400 61.217 162.388 55.9385 0.22165 33.6761
443600 61.217 162.402 55.9385 0.22175 33.6838
443800 61.217 162.415 55.9385 0.22185 33.6948
444000 61.217 162.428 55.9385 0.22195 33.7121
444200 61.217 162.442 55.9385 0.22205 33.7263
444400 61.217 162.455 55.9385 0.22215 33.7433
444600 61.217 162.468 55.9385 0.22225 33.7601
444800 61.217 162.481 55.9385 0.22235 33.7745
445000 61.217 162.495 55.9385 0.22245 33.7954
445200 61.217 162.508 55.9385 0.22255 33.8068
445400 61.217 162.521 55.9385 0.22265 33.8135
445600 61.217 162.535 55.9385 0.22275 33.8346
445800 61.217 162.548 55.9385 0.22285 33.8533
446000 61.217 162.561 55.9385 0.22295 33.8618
446200 61.217 162.574 55.9385 0.22305 33.8827
446400 61.217 162.588 55.9385 0.22315 33.8958
446600 61.217 162.601 55.9385 0.22325 33.9098
446800 61.217 162.614 55.9385 0.22335 33.929
447000 61.217 162.628 55.9385 0.22345 33.9472
447200 61.217 162.641 55.9385 0.22355 33.9555
447400 61.217 162.654 55.9385 0.22365 33.9732
447600 61.217 162.667 55.9385 0.22375 33.9882
447800 61.217 162.681 55.9385 0.22385 34.0005
448000 61.217 162.694 55.9385 0.22395 34.013
448200 61.217 162.707 55.9385 0.22405 34.0303
448400 61.217 162.721 55.9385 0.22415 34.0496
448600 61.217 162.734 55.9385 0.22425 34.0626
448800 61.217 162.747 55.9385 0.22435 34.073
449000 61.217 162.761 55.9385 0.22445 34.0915
449200 61.217 162.774 55.9385 0.22455 34.0993
449400 61.217 162.787 55.9385 0.22465 34.1241
449600 61.217 162.8 55.9385 0.22475 34.1396
449800 61.217 162.814 55.9385 0.22485 34.1508
450000 61.217 162.827 55.9385 0.22495 34.1668
450200 61.217 162.84 55.9385 0.22505 34.1813
450400 61.217 162.854 55.9385 0.22515 34.1971
450600 61.217 162.867 55.9385 0.22525 34.2207
450800 61.217 162.88 55.9385 0.22535 34.2243
451000 61.217 162.893 55.9385 0.22545 34.2335
451200 61.217 162.907 55.9385 0.22555 34.2599
451400 61.217 162.92 55.9385 0.22565 34.2706
451600 61.217 162.933 55.9385 0.22575 34.284
451800 61.217 162.947 55.9385 0.22585 34.2952
452000 61.217 162.96 55.9385 0.22595 34.3096
452200 61.217 162.973 55.9385 0.22605 34.3261
452400 61.217 162.987 55.9385 0.22615 34.3363
452600 61.217 163 55.9385 0.22625 34.3573
452800 61.217 163.013 55.9385 0.22635 34.3739
453000 61.217 163.026 55.9385 0.22645 34.3881
453200 61.217 163.04 55.9385 0.22655 34.4022
453400 61.217 163.053 55.9385 0.22665 34.4238
453600 61.217 163.066 55.9385 0.22675 34.4284
453800 61.217 163.08 55.9385 0.22685 34.4414
454000 61.217 163.093 55.9385 0.22695 34.4627
454200 61.217 163.106 55.9385 0.22705 34.469
454400 61.217 163.119 55.9385 0.22715 34.4876
454600 61.217 163.133 55.9385 0.22725 34.4982
454800 61.217 163.146 55.9385 0.22735 34.5107
455000 61.217 163.159 55.9385 0.22745 34.5275
455200 61.217 163.173 55.9385 0.22755 34.543
455400 61.217 163.186 55.9385 0.22765 34.5553
455600 61.217 163.199 55.9385 0.22775 34.5707
455800 61.217 163.212 55.9385 0.22785 34.5939
456000 61.217 163.226 55.9385 0.22795 34.608
456200 61.217 163.239 55.9385 0.22805 34.6171
456400 61.217 163.252 55.9385 0.22815 34.638
456600 61.217 163.266 55.9385 0.22825 34.6484
456800 61.217 163.279 55.9385 0.22835 34.6604
457000 61.217 163.292 55.9385 0.22845 34.6739
457200 61.217 163.306 55.9385 0.22855 34.689
457400 61.217 163.319 55.9385 0.22865 34.6999
457600 61.217 163.332 55.9385 0.22875 34.7136
457800 61.217 163.345 55.9385 0.22885 34.7343
458000 61.217 163.359 55.9385 0.22895 34.7461
458200 61.217 163.372 55.9385 0.22905 34.7566
458400 61.217 163.385 55.9385 0.22915 34.7714
458600 61.217 163.399 55.9385 0.22925 34.7876
458800 61.217 163.412 55.9385 0.22935 34.8043
459000 61.217 163.425 55.9385 0.22945 34.8213
459200 61.217 163.438 55.9385 0.22955 34.8333
459400 61.217 163.452 55.9385 0.22965 34.8443
459600 61.217 163.465 55.9385 0.22975 34.8649
459800 61.217 163.478 55.9385 0.22985 34.8752
460000 61.217 163.492 55.9385 0.22995 34.884
460200 61.217 163.505 55.9385 0.23005 34.9029
460400 61.217 163.518 55.9385 0.23015 34.9225
460600 61.217 163.532 55.9385 0.23025 34.9364
460800 61.217 163.545 55.9385 0.23035 34.9523
461000 61.217 163.558 55.9385 0.23045 34.9639
461200 61.217 163.571 55.9385 0.23055 34.9796
461400 61.217 163.585 55.9385 0.23065 34.9907
461600 61.217 163.598 55.9385 0.23075 35.0009
461800 61.217 163.611 55.9385 0.23085 35.0219
462000 61.217 163.625 55.9385 0.23095 35.0296
462200 61.217 163.638 55.9385 0.23105 35.0457
462400 61.217 163.651 55.9385 0.23115 35.0593
462600 61.217 163.664 55.9385 0.23125 35.0741
462800 61.217 163.678 55.9385 0.23135 35.0867
463000 61.217 163.691 55.9385 0.23145 35.1003
463200 61.217 163.704 55.9385 0.23155 35.113
463400 61.217 163.718 55.9385 0.23165 35.1303
463600 61.217 163.731 55.9385 0.23175 35.1494
463800 61.217 163.744 55.9385 0.23185 35.1597
464000 61.217 163.757 55.9385 0.23195 35.1759
464200 61.217 163.771 55.9385 0.23205 35.1814
464400 61.217 163.784 55.9385 0.23215 35.199
464600 61.217 163.797 55.9385 0.23225 35.2158
464800 61.217 163.811 55.9385 0.23235 35.2374
465000 61.217 163.824 55.9385 0.23245 35.2416
465200 61.217 163.837 55.9385 0.23255 35.2532
465400 61.217 163.851 55.9385 0.23265 35.2707
465600 61.217 163.864 55.9385 0.23275 35.2843
465800 61.217 163.877 55.9385 0.23285 35.3003
466000 61.217 163.89 55.9385 0.23295 35.3121
466200 61.217 163.904 55.9385 0.23305 35.3244
466400 61.217 163.917 55.9385 0.23315 35.3343
466600 61.217 163.93 55.9385 0.23325 35.3552
466800 61.217 163.944 55.9385 0.23335 35.3717
467000 61.217 163.957 55.9385 0.23345 35.3756
467200 61.217 163.97 55.9385 0.23355 35.3933
467400 61.217 163.983 55.9385 0.23365 35.4058
467600 61.217 163.997 55.9385 0.23375 35.4221
467800 61.217 164.01 55.9385 0.23385 35.4328
468000 61.217 164.023 55.9385 0.23395 35.4501
468200 61.217 164.037 55.9385 0.23405 35.4706
468400 61.217 164.05 55.9385 0.23415 35.4789
468600 61.217 164.063 55.9385 0.23425 35.4839
468800 61.217 164.077 55.9385 0.23435 35.5037
469000 61.217 164.09 55.9385 0.23445 35.519
469200 61.217 164.103 55.9385 0.23455 35.5305
469400 61.217 164.116 55.9385 0.23465 35.5501
469600 61.217 164.13 55.9385 0.23475 35.5636
469800 61.217 164.143 55.9385 0.23485 35.5687
470000 61.217 164.156 55.9385 0.23495 35.5864
470200 61.217 164.17 55.9385 0.23505 35.6067
470400 61.217 164.183 55.9385 0.23515 35.6202
470600 61.217 164.196 55.9385 0.23525 35.6432
470800 61.217 164.209 55.9385 0.23535 35.6501
471000 61.217 164.223 55.9385 0.23545 35.6554
471200 61.217 164.236 55.9385 0.23555 35.674
471400 61.217 164.249 55.9385 0.23565 35.6857
471600 61.217 164.263 55.9385 0.23575 35.6925
471800 61.217 164.276 55.9385 0.23585 35.7062
472000 61.217 164.289 55.9385 0.23595 35.725
472200 61.217 164.302 55.9385 0.23605 35.7346
472400 61.217 164.316 55.9385 0.23615 35.7504
472600 61.217 164.329 55.9385 0.23625 35.7663
472800 61.217 164.342 55.9385 0.23635 35.78
473000 61.217 164.356 55.9385 0.23645 35.7873
473200 61.217 164.369 55.9385 0.23655 35.8004
473400 61.217 164.382 55.9385 0.23665 35.8174
473600 61.217 164.396 55.9385 0.23675 35.8244
473800 61.217 164.409 55.9385 0.23685 35.8406
474000 61.217 164.422 55.9385 0.23695 35.8558
474200 61.217 164.435 55.9385 0.23705 35.8726
474400 61.217 164.449 55.9385 0.23715 35.8754
474600 61.217 164.462 55.9385 0.23725 35.8868
474800 61.217 164.475 55.9385 0.23735 35.9095
475000 61.217 164.489 55.9385 0.23745 35.9239
475200 61.217 164.502 55.9385 0.23755 35.9237
475400 61.217 164.515 55.9385 0.23765 35.9439
475600 61.217 164.528 55.9385 0.23775 35.9595
475800 61.217 164.542 55.9385 0.23785 35.9742
476000 61.217 164.555 55.9385 0.23795 35.9835
476200 61.217 164.568 55.9385 0.23805 36.0001
476400 61.217 164.582 55.9385 0.23815 36.0171
476600 61.217 164.595 55.9385 0.23825 36.0187
476800 61.217 164.608 55.9385 0.23835 36.0417
477000 61.217 164.621 55.9385 0.23845 36.0503
477200 61.217 164.635 55.9385 0.23855 36.0676
477400 61.217 164.648 55.9385 0.23865 36.0731
477600 61.217 164.661 55.9385 0.23875 36.0941
477800 61.217 164.675 55.9385 0.23885 36.1064
478000 61.217 164.688 55.9385 0.23895 36.1179
478200 61.217 164.701 55.9385 0.23905 36.1267
478400 61.217 164.715 55.9385 0.23915 36.1235
478600 61.217 164.728 55.9385 0.23925 36.1131
478800 61.217 164.741 55.9385 0.23935 35.9972
479000 61.217 164.754 55.9385 0.23945 35.288
479200 61.217 164.768 55.9385 0.23955 33.1035
479400 61.217 164.781 55.9385 0.23965 28.4349
479600 61.217 164.794 55.9385 0.23975 21.6661
479800 61.217 164.808 55.9385 0.23985 13.3895
480000 61.217 164.821 55.9385 0.23995 6.90315
480200 61.217 164.834 55.9385 0.24005 2.6484
480400 61.217 164.847 55.9385 0.24015 -0.0182573
480600 61.217 164.861 55.9385 0.24025 -1.52381
480800 61.217 164.874 55.9385 0.24035 -2.03742
481000 61.217 164.887 55.9385 0.24045 -2.29606
481200 61.217 164.901 55.9385 0.24055 -2.79427
481400 61.217 164.914 55.9385 0.24065 -2.96793
481600 61.217 164.927 55.9385 0.24075 -3.20978
481800 61.217 164.941 55.9385 0.24085 -3.42407
482000 61.217 164.954 55.9385 0.24095 -3.45456
482200 61.217 164.967 55.9385 0.24105 -3.34203
482400 61.217 164.98 55.9385 0.24115 -2.93355
482600 61.217 164.994 55.9385 0.24125 -2.33774
482800 61.217 165.007 55.9385 0.24135 -1.64453
483000 61.217 165.02 55.9385 0.24145 -0.923422
483200 61.217 165.034 55.9385 0.24155 -0.339055
483400 61.217 165.047 55.9385 0.24165 0.194681
483600 61.217 165.06 55.9385 0.24175 0.733541
483800 61.217 165.073 55.9385 0.24185 1.25833
484000 61.217 165.087 55.9385 0.24195 1.90789
484200 61.217 165.1 55.9385 0.24205 2.66163
484400 61.217 165.113 55.9385 0.24215 3.27
484600 61.217 165.127 55.9385 0.24225 3.52741
484800 61.217 165.14 55.9385 0.24235 3.0984
485000 61.217 165.153 55.9385 0.24245 1.96594
485200 61.217 165.166 55.9385 0.24255 0.792671
485400 61.217 165.18 55.9385 0.24265 -0.106003
485600 61.217 165.193 55.9385 0.24275 -0.564884
485800 61.217 165.206 55.9385 0.24285 -0.177286
486000 61.217 165.22 55.9385 0.24295 -0.314652
486200 61.217 165.233 55.9385 0.24305 -0.767822
486400 61.217 165.246 55.9385 0.24315 -0.676959
486600 61.217 165.26 55.9385 0.24325 -0.820366
486800 61.217 165.273 55.9385 0.24335 -0.920224
487000 61.217 165.286 55.9385 0.24345 -1.11005
487200 61.217 165.299 55.9385 0.24355 -1.33794
487400 61.217 165.313 55.9385 0.24365 -1.29731
487600 61.217 165.326 55.9385 0.24375 -1.13052
487800 61.217 165.339 55.9385 0.24385 -0.956261
488000 61.217 165.353 55.9385 0.24395 -0.792913
488200 61.217 165.366 55.9385 0.24405 -0.633557
488400 61.217 165.379 55.9385 0.24415 -0.356047
488600 61.217 165.392 55.9385 0.24425 -0.173375
488800 61.217 165.406 55.9385 0.24435 -0.0320203
489000 61.217 165.419 55.9385 0.24445 0.147609
489200 61.217 165.432 55.9385 0.24455 0.208641
489400 61.217 165.446 55.9385 0.24465 0.36223
489600 61.217 165.459 55.9385 0.24475 0.564969
489800 61.217 165.472 55.9385 0.24485 0.628302
490000 61.217 165.486 55.9385 0.24495 0.692092
490200 61.217 165.499 55.9385 0.24505 0.911246
490400 61.217 165.512 55.9385 0.24515 1.06543
490600 61.217 165.525 55.9385 0.24525 0.975195
490800 61.217 165.539 55.9385 0.24535 0.717512
491000 61.217 165.552 55.9385 0.24545 0.467789
491200 61.217 165.565 55.9385 0.24555 0.367487
491400 61.217 165.579 55.9385 0.24565 0.340144
491600 61.217 165.592 55.9385 0.24575 0.281474
491800 61.217 165.605 55.9385 0.24585 0.209298
492000 61.217 165.618 55.9385 0.24595 0.0109814
492200 61.217 165.632 55.9385 0.24605 -0.0911169
492400 61.217 165.645 55.9385 0.24615 -0.112463
492600 61.217 165.658 55.9385 0.24625 -0.268305
492800 61.217 165.672 55.9385 0.24635 -0.299729
493000 61.217 165.685 55.9385 0.24645 -0.419219
493200 61.217 165.698 55.9385 0.24655 -0.549852
493400 61.217 165.711 55.9385 0.24665 -0.517334
493600 61.217 165.725 55.9385 0.24675 -0.665701
493800 61.217 165.738 55.9385 0.24685 -0.622995
494000 61.217 165.751 55.9385 0.24695 -0.518636
494200 61.217 165.765 55.9385 0.24705 -0.451895
494400 61.217 165.778 55.9385 0.24715 -0.375723
494600 61.217 165.791 55.9385 0.24725 -0.315705
494800 61.217 165.805 55.9385 0.24735 -0.194665
495000 61.217 165.818 55.9385 0.24745 -0.124664
495200 61.217 165.831 55.9385 0.24755 0.0142188
495400 61.217 165.844 55.9385 0.24765 0.133017
495600 61.217 165.858 55.9385 0.24775 0.226801
495800 61.217 165.871 55.9385 0.24785 0.303034
496000 61.217 165.884 55.9385 0.24795 0.212692
496200 61.217 165.898 55.9385 0.24805 0.300843
496400 61.217 165.911 55.9385 0.24815 0.43568
496600 61.217 165.924 55.9385 0.24825 0.389772
496800 61.217 165.937 55.9385 0.24835 0.425252
497000 61.217 165.951 55.9385 0.24845 0.423961
497200 61.217 165.964 55.9385 0.24855 0.381466
497400 61.217 165.977 55.9385 0.24865 0.41429
497600 61.217 165.991 55.9385 0.24875 0.358994
497800 61.217 166.004 55.9385 0.24885 0.244596
498000 61.217 166.017 55.9385 0.24895 0.183847
498200 61.217 166.031 55.9385 0.24905 0.074906
498400 61.217 166.044 55.9385 0.24915 0.0315515
498600 61.217 166.057 55.9385 0.24925 -0.00447783
498800 61.217 166.07 55.9385 0.24935 -0.133384
499000 61.217 166.084 55.9385 0.24945 -0.179231
499200 61.217 166.097 55.9385 0.24955 -0.238937
499400 61.217 166.11 55.9385 0.24965 -0.313504
499600 61.217 166.124 55.9385 0.24975 -0.335762
499800 61.217 166.137 55.9385 0.24985 -0.40902
500000 61.217 166.15 55.9385 0.24995 -0.402482
500200 61.217 166.163 55.9385 0.25005 -0.396124
500400 61.217 166.177 55.9385 0.25015 -0.427507
500600 61.217 166.19 55.9385 0.25025 -0.35798
500800 61.217 166.203 55.9385 0.25035 -0.340415
501000 61.217 166.217 55.9385 0.25045 -0.269293
501200 61.217 166.23 55.9385 0.25055 -0.184076
501400 61.217 166.243 55.9385 0.25065 -0.0806024
501600 61.217 166.256 55.9385 0.25075 0.00314579
501800 61.217 166.27 55.9385 0.25085 0.0485526
502000 61.217 166.283 55.9385 0.25095 0.150828
502200 61.217 166.296 55.9385 0.25105 0.195741
502400 61.217 166.31 55.9385 0.25115 0.254362
502600 61.217 166.323 55.9385 0.25125 0.330625
502800 61.217 166.336 55.9385 0.25135 0.331026
503000 61.217 166.35 55.9385 0.25145 0.352184
503200 61.217 166.363 55.9385 0.25155 0.401139
503400 61.217 166.376 55.9385 0.25165 0.390392
503600 61.217 166.389 55.9385 0.25175 0.320665
503800 61.217 166.403 55.9385 0.25185 0.32028
504000 61.217 166.416 55.9385 0.25195 0.251931
504200 61.217 166.429 55.9385 0.25205 0.201245
504400 61.217 166.443 55.9385 0.25215 0.125878
504600 61.217 166.456 55.9385 0.25225 0.0657104
504800 61.217 166.469 55.9385 0.25235 0.0208035
505000 61.217 166.482 55.9385 0.25245 -0.0869262
505200 61.217 166.496 55.9385 0.25255 -0.124494
505400 61.217 166.509 55.9385 0.25265 -0.193959
505600 61.217 166.522 55.9385 0.25275 -0.251555
505800 61.217 166.536 55.9385 0.25285 -0.30447
506000 61.217 166.549 55.9385 0.25295 -0.306401
506200 61.217 166.562 55.9385 0.25305 -0.337483
506400 61.217 166.575 55.9385 0.25315 -0.360821
506600 61.217 166.589 55.9385 0.25325 -0.320364
506800 61.217 166.602 55.9385 0.25335 -0.307108
507000 61.217 166.615 55.9385 0.25345 -0.231187
507200 61.217 166.629 55.9385 0.25355 -0.235696
507400 61.217 166.642 55.9385 0.25365 -0.174626
507600 61.217 166.655 55.9385 0.25375 -0.0989581
507800 61.217 166.669 55.9385 0.25385 -0.0286001
508000 61.217 166.682 55.9385 0.25395 0.0485444
508200 61.217 166.695 55.9385 0.25405 0.0859801
508400 61.217 166.708 55.9385 0.25415 0.148547
508600 61.217 166.722 55.9385 0.25425 0.233697
508800 61.217 166.735 55.9385 0.25435 0.234285
509000 61.217 166.748 55.9385 0.25445 0.281677
509200 61.217 166.762 55.9385 0.25455 0.314069
509400 61.217 166.775 55.9385 0.25465 0.328803
509600 61.217 166.788 55.9385 0.25475 0.324283
509800 61.217 166.801 55.9385 0.25485 0.295696
510000 61.217 166.815 55.9385 0.25495 0.2485
510200 61.217 166.828 55.9385 0.25505 0.26587
510400 61.217 166.841 55.9385 0.25515 0.192904
510600 61.217 166.855 55.9385 0.25525 0.119021
510800 61.217 166.868 55.9385 0.25535 0.104298
511000 61.217 166.881 55.9385 0.25545 0.0129468
511200 61.217 166.895 55.9385 0.25555 -0.0421603
511400 61.217 166.908 55.9385 0.25565 -0.0804366
511600 61.217 166.921 55.9385 0.25575 -0.162389
511800 61.217 166.934 55.9385 0.25585 -0.192685
512000 61.217 166.948 55.9385 0.25595 -0.25763
512200 61.217 166.961 55.9385 0.25605 -0.235991
512400 61.217 166.974 55.9385 0.25615 -0.299537
512600 61.217 166.988 55.9385 0.25625 -0.293536
512800 61.217 167.001 55.9385 0.25635 -0.314314
513000 61.217 167.014 55.9385 0.25645 -0.314072
513200 61.217 167.027 55.9385 0.25655 -0.247916
513400 61.217 167.041 55.9385 0.25665 -0.212553
513600 61.217 167.054 55.9385 0.25675 -0.180733
513800 61.217 167.067 55.9385 0.25685 -0.115887
514000 61.217 167.081 55.9385 0.25695 -0.0618912
514200 61.217 167.094 55.9385 0.25705 0.0390875
514400 61.217 167.107 55.9385 0.25715 0.0658523
514600 61.217 167.12 55.9385 0.25725 0.106151
514800 61.217 167.134 55.9385 0.25735 0.171754
515000 61.217 167.147 55.9385 0.25745 0.218271
515200 61.217 167.16 55.9385 0.25755 0.267332
515400 61.217 167.174 55.9385 0.25765 0.250512
515600 61.217 167.187 55.9385 0.25775 0.288203
515800 61.217 167.2 55.9385 0.25785 0.300526
516000 61.217 167.214 55.9385 0.25795 0.237874
516200 61.217 167.227 55.9385 0.25805 0.257525
516400 61.217 167.24 55.9385 0.25815 0.202135
516600 61.217 167.253 55.9385 0.25825 0.150843
516800 61.217 167.267 55.9385 0.25835 0.126553
517000 61.217 167.28 55.9385 0.25845 0.0431632
517200 61.217 167.293 55.9385 0.25855 0.0100044
517400 61.217 167.307 55.9385 0.25865 -0.0413016
517600 61.217 167.32 55.9385 0.25875 -0.0696295
517800 61.217 167.333 55.9385 0.25885 -0.113903
518000 61.217 167.346 55.9385 0.25895 -0.159953
518200 61.217 167.36 55.9385 0.25905 -0.175421
518400 61.217 167.373 55.9385 0.25915 -0.216232
518600 61.217 167.386 55.9385 0.25925 -0.242176
518800 61.217 167.4 55.9385 0.25935 -0.225555
519000 61.217 167.413 55.9385 0.25945 -0.243987
519200 61.217 167.426 55.9385 0.25955 -0.260052
519400 61.217 167.44 55.9385 0.25965 -0.199395
519600 61.217 167.453 55.9385 0.25975 -0.175197
519800 61.217 167.466 55.9385 0.25985 -0.135334
520000 61.217 167.479 55.9385 0.25995 -0.112139
520200 61.217 167.493 55.9385 0.26005 -0.0322498
520400 61.217 167.506 55.9385 0.26015 0.0104308
520600 61.217 167.519 55.9385 0.26025 0.0478115
520800 61.217 167.533 55.9385 0.26035 0.13123
521000 61.217 167.546 55.9385 0.26045 0.153173
521200 61.217 167.559 55.9385 0.26055 0.19347
521400 61.217 167.572 55.9385 0.26065 0.268309
521600 61.217 167.586 55.9385 0.26075 0.240427
521800 61.217 167.599 55.9385 0.26085 0.292123
522000 61.217 167.612 55.9385 0.26095 0.283435
522200 61.217 167.626 55.9385 0.26105 0.272503
522400 61.217 167.639 55.9385 0.26115 0.214261
522600 61.217 167.652 55.9385 0.26125 0.20248
522800 61.217 167.665 55.9385 0.26135 0.171052
523000 61.217 167.679 55.9385 0.26145 0.0487134
523200 61.217 167.692 55.9385 0.26155 0.00845509
523400 61.217 167.705 55.9385 0.26165 -0.0556157
523600 61.217 167.719 55.9385 0.26175 -0.116123
523800 61.217 167.732 55.9385 0.26185 -0.150983
524000 61.217 167.745 55.9385 0.26195 -0.195113
524200 61.217 167.759 55.9385 0.26205 -0.233536
524400 61.217 167.772 55.9385 0.26215 -0.27469
524600 61.217 167.785 55.9385 0.26225 -0.268803
524800 61.217 167.798 55.9385 0.26235 -0.261376
525000 61.217 167.812 55.9385 0.26245 -0.26228
525200 61.217 167.825 55.9385 0.26255 -0.240648
525400 61.217 167.838 55.9385 0.26265 -0.242655
525600 61.217 167.852 55.9385 0.26275 -0.155329
525800 61.217 167.865 55.9385 0.26285 -0.148656
526000 61.217 167.878 55.9385 0.26295 -0.0637754
526200 61.217 167.891 55.9385 0.26305 -0.0115379
526400 61.217 167.905 55.9385 0.26315 0.00291731
526600 61.217 167.918 55.9385 0.26325 0.11221
526800 61.217 167.931 55.9385 0.26335 0.128594
527000 61.217 167.945 55.9385 0.26345 0.16825
527200 61.217 167.958 55.9385 0.26355 0.268854
527400 61.217 167.971 55.9385 0.26365 0.184328
527600 61.217 167.985 55.9385 0.26375 0.286367
527800 61.217 167.998 55.9385 0.26385 0.292474
528000 61.217 168.011 55.9385 0.26395 0.228243
528200 61.217 168.024 55.9385 0.26405 0.303933
528400 61.217 168.038 55.9385 0.26415 0.266226
528600 61.217 168.051 55.9385 0.26425 0.195931
528800 61.217 168.064 55.9385 0.26435 0.215607
529000 61.217 168.078 55.9385 0.26445 0.138585
529200 61.217 168.091 55.9385 0.26455 0.0712902
529400 61.217 168.104 55.9385 0.26465 0.0661152
529600 61.217 168.117 55.9385 0.26475 -0.0701407
529800 61.217 168.131 55.9385 0.26485 -0.0871531
530000 61.217 168.144 55.9385 0.26495 -0.133233
530200 61.217 168.157 55.9385 0.26505 -0.214548
530400 61.217 168.171 55.9385 0.26515 -0.229745
530600 61.217 168.184 55.9385 0.26525 -0.264314
530800 61.217 168.197 55.9385 0.26535 -0.300001
531000 61.217 168.21 55.9385 0.26545 -0.273074
531200 61.217 168.224 55.9385 0.26555 -0.31365
531400 61.217 168.237 55.9385 0.26565 -0.265348
531600 61.217 168.25 55.9385 0.26575 -0.261341
531800 61.217 168.264 55.9385 0.26585 -0.229393
532000 61.217 168.277 55.9385 0.26595 -0.171217
532200 61.217 168.29 55.9385 0.26605 -0.133627
532400 61.217 168.304 55.9385 0.26615 -0.00336391
532600 61.217 168.317 55.9385 0.26625 -0.0136068
532800 61.217 168.33 55.9385 0.26635 0.080164
533000 61.217 168.343 55.9385 0.26645 0.0932112
533200 61.217 168.357 55.9385 0.26655 0.152137
533400 61.217 168.37 55.9385 0.26665 0.236389
533600 61.217 168.383 55.9385 0.26675 0.232606
533800 61.217 168.397 55.9385 0.26685 0.277842
534000 61.217 168.41 55.9385 0.26695 0.301557
534200 61.217 168.423 55.9385 0.26705 0.262678
534400 61.217 168.436 55.9385 0.26715 0.3006
534600 61.217 168.45 55.9385 0.26725 0.272395
534800 61.217 168.463 55.9385 0.26735 0.199419
535000 61.217 168.476 55.9385 0.26745 0.245681
535200 61.217 168.49 55.9385 0.26755 0.122251
535400 61.217 168.503 55.9385 0.26765 0.116329
535600 61.217 168.516 55.9385 0.26775 0.0693379
535800 61.217 168.53 55.9385 0.26785 -0.0769492
536000 61.217 168.543 55.9385 0.26795 -0.0272218
536200 61.217 168.556 55.9385 0.26805 -0.144392
536400 61.217 168.569 55.9385 0.26815 -0.164914
536600 61.217 168.583 55.9385 0.26825 -0.172056
536800 61.217 168.596 55.9385 0.26835 -0.251711
537000 61.217 168.609 55.9385 0.26845 -0.223262
537200 61.217 168.623 55.9385 0.26855 -0.306738
537400 61.217 168.636 55.9385 0.26865 -0.264033
537600 61.217 168.649 55.9385 0.26875 -0.294359
537800 61.217 168.662 55.9385 0.26885 -0.294547
538000 61.217 168.676 55.9385 0.26895 -0.188325
538200 61.217 168.689 55.9385 0.26905 -0.25824
538400 61.217 168.702 55.9385 0.26915 -0.116704
538600 61.217 168.716 55.9385 0.26925 -0.100373
538800 61.217 168.729 55.9385 0.26935 -0.0441893
539000 61.217 168.742 55.9385 0.26945 0.0591774
539200 61.217 168.755 55.9385 0.26955 0.0691583
539400 61.217 168.769 55.9385 0.26965 0.117693
539600 61.217 168.782 55.9385 0.26975 0.200416
539800 61.217 168.795 55.9385 0.26985 0.199987
540000 61.217 168.809 55.9385 0.26995 0.233386
540200 61.217 168.822 55.9385 0.27005 0.287045
540400 61.217 168.835 55.9385 0.27015 0.2832
540600 61.217 168.849 55.9385 0.27025 0.291574
540800 61.217 168.862 55.9385 0.27035 0.319948
541000 61.217 168.875 55.9385 0.27045 0.262618
541200 61.217 168.888 55.9385 0.27055 0.233959
541400 61.217 168.902 55.9385 0.27065 0.198062
541600 61.217 168.915 55.9385 0.27075 0.157023
541800 61.217 168.928 55.9385 0.27085 0.113576
542000 61.217 168.942 55.9385 0.27095 0.00866753
542200 61.217 168.955 55.9385 0.27105 -0.0648735
542400 61.217 168.968 55.9385 0.27115 -0.0567169
542600 61.217 168.981 55.9385 0.27125 -0.121515
542800 61.217 168.995 55.9385 0.27135 -0.180832
543000 61.217 169.008 55.9385 0.27145 -0.220435
543200 61.217 169.021 55.9385 0.27155 -0.262959
543400 61.217 169.035 55.9385 0.27165 -0.289895
543600 61.217 169.048 55.9385 0.27175 -0.306486
543800 61.217 169.061 55.9385 0.27185 -0.309054
544000 61.217 169.074 55.9385 0.27195 -0.265044
544200 61.217 169.088 55.9385 0.27205 -0.261307
544400 61.217 169.101 55.9385 0.27215 -0.245543
544600 61.217 169.114 55.9385 0.27225 -0.161921
544800 61.217 169.128 55.9385 0.27235 -0.140459
545000 61.217 169.141 55.9385 0.27245 -0.0786299
545200 61.217 169.154 55.9385 0.27255 0.00617706
545400 61.217 169.168 55.9385 0.27265 0.0412311
545600 61.217 169.181 55.9385 0.27275 0.059569
545800 61.217 169.194 55.9385 0.27285 0.153209
546000 61.217 169.207 55.9385 0.27295 0.173429
546200 61.217 169.221 55.9385 0.27305 0.212033
546400 61.217 169.234 55.9385 0.27315 0.24791
546600 61.217 169.247 55.9385 0.27325 0.27302
546800 61.217 169.261 55.9385 0.27335 0.267432
547000 61.217 169.274 55.9385 0.27345 0.267451
547200 61.217 169.287 55.9385 0.27355 0.25395
547400 61.217 169.3 55.9385 0.27365 0.274912
547600 61.217 169.314 55.9385 0.27375 0.214909
547800 61.217 169.327 55.9385 0.27385 0.160423
548000 61.217 169.34 55.9385 0.27395 0.166821
548200 61.217 169.354 55.9385 0.27405 0.0636844
548400 61.217 169.367 55.9385 0.27415 0.0105896
548600 61.217 169.38 55.9385 0.27425 0.0104797
548800 61.217 169.394 55.9385 0.27435 -0.076599
549000 61.217 169.407 55.9385 0.27445 -0.12048
549200 61.217 169.42 55.9385 0.27455 -0.152534
549400 61.217 169.433 55.9385 0.27465 -0.189134
549600 61.217 169.447 55.9385 0.27475 -0.240315
549800 61.217 169.46 55.9385 0.27485 -0.246937
550000 61.217 169.473 55.9385 0.27495 -0.249749
550200 61.217 169.487 55.9385 0.27505 -0.261309
550400 61.217 169.5 55.9385 0.27515 -0.267937
550600 61.217 169.513 55.9385 0.27525 -0.209673
550800 61.217 169.526 55.9385 0.27535 -0.221696
551000 61.217 169.54 55.9385 0.27545 -0.151996
551200 61.217 169.553 55.9385 0.27555 -0.0645666
551400 61.217 169.566 55.9385 0.27565 -0.0664261
551600 61.217 169.58 55.9385 0.27575 -0.0158968
551800 61.217 169.593 55.9385 0.27585 0.0486163
552000 61.217 169.606 55.9385 0.27595 0.116631
552200 61.217 169.619 55.9385 0.27605 0.186653
552400 61.217 169.633 55.9385 0.27615 0.164201
552600 61.217 169.646 55.9385 0.27625 0.215611
552800 61.217 169.659 55.9385 0.27635 0.236362
553000 61.217 169.673 55.9385 0.27645 0.201247
553200 61.217 169.686 55.9385 0.27655 0.242689
553400 61.217 169.699 55.9385 0.27665 0.211812
553600 61.217 169.713 55.9385 0.27675 0.162689
553800 61.217 169.726 55.9385 0.27685 0.127222
554000 61.217 169.739 55.9385 0.27695 0.120971
554200 61.217 169.752 55.9385 0.27705 0.0816189
554400 61.217 169.766 55.9385 0.27715 0.0510108
554600 61.217 169.779 55.9385 0.27725 0.0025009
554800 61.217 169.792 55.9385 0.27735 -0.0515039
555000 61.217 169.806 55.9385 0.27745 -0.0885541
555200 61.217 169.819 55.9385 0.27755 -0.0690308
555400 61.217 169.832 55.9385 0.27765 -0.136481
555600 61.217 169.845 55.9385 0.27775 -0.151202
555800 61.217 169.859 55.9385 0.27785 -0.167318
556000 61.217 169.872 55.9385 0.27795 -0.212193
556200 61.217 169.885 55.9385 0.27805 -0.16363
556400 61.217 169.899 55.9385 0.27815 -0.200119
556600 61.217 169.912 55.9385 0.27825 -0.136086
556800 61.217 169.925 55.9385 0.27835 -0.134893
557000 61.217 169.939 55.9385 0.27845 -0.133674
557200 61.217 169.952 55.9385 0.27855 -0.0793073
557400 61.217 169.965 55.9385 0.27865 -0.0503295
557600 61.217 169.978 55.9385 0.27875 -0.0121725
557800 61.217 169.992 55.9385 0.27885 -0.0193032
558000 61.217 170.005 55.9385 0.27895 0.0282544
558200 61.217 170.018 55.9385 0.27905 0.116401
558400 61.217 170.032 55.9385 0.27915 0.136698
558600 61.217 170.045 55.9385 0.27925 0.170941
558800 61.217 170.058 55.9385 0.27935 0.164317
559000 61.217 170.071 55.9385 0.27945 0.168164
559200 61.217 170.085 55.9385 0.27955 0.221404
559400 61.217 170.098 55.9385 0.27965 0.178989
559600 61.217 170.111 55.9385 0.27975 0.166952
559800 61.217 170.125 55.9385 0.27985 0.154044
560000 61.217 170.138 55.9385 0.27995 0.152576
560200 61.217 170.151 55.9385 0.28005 0.0980416
560400 61.217 170.164 55.9385 0.28015 0.0519951
560600 61.217 170.178 55.9385 0.28025 0.0320739
560800 61.217 170.191 55.9385 0.28035 -0.00759613
561000 61.217 170.204 55.9385 0.28045 -0.049303
561200 61.217 170.218 55.9385 0.28055 -0.0837296
561400 61.217 170.231 55.9385 0.28065 -0.136709
561600 61.217 170.244 55.9385 0.28075 -0.152678
561800 61.217 170.258 55.9385 0.28085 -0.170447
562000 61.217 170.271 55.9385 0.28095 -0.168167
562200 61.217 170.284 55.9385 0.28105 -0.201899
562400 61.217 170.297 55.9385 0.28115 -0.203254
562600 61.217 170.311 55.9385 0.28125 -0.180902
562800 61.217 170.324 55.9385 0.28135 -0.143383
563000 61.217 170.337 55.9385 0.28145 -0.126041
563200 61.217 170.351 55.9385 0.28155 -0.118492
563400 61.217 170.364 55.9385 0.28165 -0.0702311
563600 61.217 170.377 55.9385 0.28175 -0.0381125
563800 61.217 170.39 55.9385 0.28185 0.0161
564000 61.217 170.404 55.9385 0.28195 0.0116896
564200 61.217 170.417 55.9385 0.28205 0.0710341
564400 61.217 170.43 55.9385 0.28215 0.114826
564600 61.217 170.444 55.9385 0.28225 0.134418
564800 61.217 170.457 55.9385 0.28235 0.144973
565000 61.217 170.47 55.9385 0.28245 0.182485
565200 61.217 170.484 55.9385 0.28255 0.219615
565400 61.217 170.497 55.9385 0.28265 0.198465
565600 61.217 170.51 55.9385 0.28275 0.175936
565800 61.217 170.523 55.9385 0.28285 0.200036
566000 61.217 170.537 55.9385 0.28295 0.152294
566200 61.217 170.55 55.9385 0.28305 0.116005
566400 61.217 170.563 55.9385 0.28315 0.104027
566600 61.217 170.577 55.9385 0.28325 0.0398776
566800 61.217 170.59 55.9385 0.28335 0.0433774
567000 61.217 170.603 55.9385 0.28345 -0.000356885
567200 61.217 170.616 55.9385 0.28355 -0.0987622
567400 61.217 170.63 55.9385 0.28365 -0.0449148
567600 61.217 170.643 55.9385 0.28375 -0.11673
567800 61.217 170.656 55.9385 0.28385 -0.170125
568000 61.217 170.67 55.9385 0.28395 -0.157118
568200 61.217 170.683 55.9385 0.28405 -0.205269
568400 61.217 170.696 55.9385 0.28415 -0.176503
568600 61.217 170.709 55.9385 0.28425 -0.204582
568800 61.217 170.723 55.9385 0.28435 -0.196812
569000 61.217 170.736 55.9385 0.28445 -0.141918
569200 61.217 170.749 55.9385 0.28455 -0.168452
569400 61.217 170.763 55.9385 0.28465 -0.0688851
569600 61.217 170.776 55.9385 0.28475 -0.0962975
569800 61.217 170.789 55.9385 0.28485 -0.0532737
570000 61.217 170.803 55.9385 0.28495 0.017488
570200 61.217 170.816 55.9385 0.28505 0.0128697
570400 61.217 170.829 55.9385 0.28515 0.0842937
570600 61.217 170.842 55.9385 0.28525 0.0984018
570800 61.217 170.856 55.9385 0.28535 0.132788
571000 61.217 170.869 55.9385 0.28545 0.172401
571200 61.217 170.882 55.9385 0.28555 0.213518
571400 61.217 170.896 55.9385 0.28565 0.225413
571600 61.217 170.909 55.9385 0.28575 0.175757
571800 61.217 170.922 55.9385 0.28585 0.205255
572000 61.217 170.935 55.9385 0.28595 0.213929
572200 61.217 170.949 55.9385 0.28605 0.177176
572400 61.217 170.962 55.9385 0.28615 0.145312
572600 61.217 170.975 55.9385 0.28625 0.115673
572800 61.217 170.989 55.9385 0.28635 0.0850806
573000 61.217 171.002 55.9385 0.28645 0.00384969
573200 61.217 171.015 55.9385 0.28655 -0.00143064
573400 61.217 171.028 55.9385 0.28665 -0.0616038
573600 61.217 171.042 55.9385 0.28675 -0.126596
573800 61.217 171.055 55.9385 0.28685 -0.145651
574000 61.217 171.068 55.9385 0.28695 -0.166998
574200 61.217 171.082 55.9385 0.28705 -0.216603
574400 61.217 171.095 55.9385 0.28715 -0.20836
574600 61.217 171.108 55.9385 0.28725 -0.235395
574800 61.217 171.122 55.9385 0.28735 -0.241341
575000 61.217 171.135 55.9385 0.28745 -0.216786
575200 61.217 171.148 55.9385 0.28755 -0.189
575400 61.217 171.161 55.9385 0.28765 -0.164659
575600 61.217 171.175 55.9385 0.28775 -0.146381
575800 61.217 171.188 55.9385 0.28785 -0.0687124
576000 61.217 171.201 55.9385 0.28795 -0.0407853
576200 61.217 171.215 55.9385 0.28805 -0.0194507
576400 61.217 171.228 55.9385 0.28815 0.032991
576600 61.217 171.241 55.9385 0.28825 0.104106
576800 61.217 171.254 55.9385 0.28835 0.143913
577000 61.217 171.268 55.9385 0.28845 0.148687
577200 61.217 171.281 55.9385 0.28855 0.171942
577400 61.217 171.294 55.9385 0.28865 0.252226
577600 61.217 171.308 55.9385 0.28875 0.227695
577800 61.217 171.321 55.9385 0.28885 0.202684
578000 61.217 171.334 55.9385 0.28895 0.248764
578200 61.217 171.348 55.9385 0.28905 0.21962
578400 61.217 171.361 55.9385 0.28915 0.206622
578600 61.217 171.374 55.9385 0.28925 0.179357
578800 61.217 171.387 55.9385 0.28935 0.129069
579000 61.217 171.401 55.9385 0.28945 0.121204
579200 61.217 171.414 55.9385 0.28955 0.0221235
579400 61.217 171.427 55.9385 0.28965 0.00439523
579600 61.217 171.441 55.9385 0.28975 -0.0085289
579800 61.217 171.454 55.9385 0.28985 -0.0732199
580000 61.217 171.467 55.9385 0.28995 -0.116397
580200 61.217 171.48 55.9385 0.29005 -0.180431
580400 61.217 171.494 55.9385 0.29015 -0.209327
580600 61.217 171.507 55.9385 0.29025 -0.180608
580800 61.217 171.52 55.9385 0.29035 -0.229882
581000 61.217 171.534 55.9385 0.29045 -0.243409
581200 61.217 171.547 55.9385 0.29055 -0.218027
581400 61.217 171.56 55.9385 0.29065 -0.244044
581600 61.217 171.573 55.9385 0.29075 -0.175453
581800 61.217 171.587 55.9385 0.29085 -0.1657
582000 61.217 171.6 55.9385 0.29095 -0.137766
582200 61.217 171.613 55.9385 0.29105 -0.0869877
582400 61.217 171.627 55.9385 0.29115 -0.0767354
582600 61.217 171.64 55.9385 0.29125 0.0195062
582800 61.217 171.653 55.9385 0.29135 0.0454796
583000 61.217 171.667 55.9385 0.29145 0.0777392
583200 61.217 171.68 55.9385 0.29155 0.133204
583400 61.217 171.693 55.9385 0.29165 0.129461
583600 61.217 171.706 55.9385 0.29175 0.198437
583800 61.217 171.72 55.9385 0.29185 0.19374
584000 61.217 171.733 55.9385 0.29195 0.176421
584200 61.217 171.746 55.9385 0.29205 0.260542
584400 61.217 171.76 55.9385 0.29215 0.201531
584600 61.217 171.773 55.9385 0.29225 0.185863
584800 61.217 171.786 55.9385 0.29235 0.19592
585000 61.217 171.799 55.9385 0.29245 0.139287
585200 61.217 171.813 55.9385 0.29255 0.109899
585400 61.217 171.826 55.9385 0.29265 0.0791697
585600 61.217 171.839 55.9385 0.29275 0.0698375
585800 61.217 171.853 55.9385 0.29285 -0.00777313
586000 61.217 171.866 55.9385 0.29295 -0.0570073
586200 61.217 171.879 55.9385 0.29305 -0.0545218
586400 61.217 171.893 55.9385 0.29315 -0.123661
586600 61.217 171.906 55.9385 0.29325 -0.113814
586800 61.217 171.919 55.9385 0.29335 -0.17514
587000 61.217 171.932 55.9385 0.29345 -0.176158
587200 61.217 171.946 55.9385 0.29355 -0.187176
587400 61.217 171.959 55.9385 0.29365 -0.17743
587600 61.217 171.972 55.9385 0.29375 -0.196143
587800 61.217 171.986 55.9385 0.29385 -0.162829
588000 61.217 171.999 55.9385 0.29395 -0.172759
588200 61.217 172.012 55.9385 0.29405 -0.133579
588400 61.217 172.025 55.9385 0.29415 -0.0932809
588600 61.217 172.039 55.9385 0.29425 -0.0753016
588800 61.217 172.052 55.9385 0.29435 0.0329769
589000 61.217 172.065 55.9385 0.29445 -0.0115601
589200 61.217 172.079 55.9385 0.29455 0.0403327
589400 61.217 172.092 55.9385 0.29465 0.0984541
589600 61.217 172.105 55.9385 0.29475 0.0978895
589800 61.217 172.118 55.9385 0.29485 0.157865
590000 61.217 172.132 55.9385 0.29495 0.152683
590200 61.217 172.145 55.9385 0.29505 0.143527
590400 61.217 172.158 55.9385 0.29515 0.222399
590600 61.217 172.172 55.9385 0.29525 0.142957
590800 61.217 172.185 55.9385 0.29535 0.182314
591000 61.217 172.198 55.9385 0.29545 0.181506
591200 61.217 172.212 55.9385 0.29555 0.0884604
591400 61.217 172.225 55.9385 0.29565 0.118373
591600 61.217 172.238 55.9385 0.29575 0.0716298
591800 61.217 172.251 55.9385 0.29585 0.0351955
592000 61.217 172.265 55.9385 0.29595 0.0383681
592200 61.217 172.278 55.9385 0.29605 -0.0613229
592400 61.217 172.291 55.9385 0.29615 -0.0393189
592600 61.217 172.305 55.9385 0.29625 -0.0605711
592800 61.217 172.318 55.9385 0.29635 -0.136995
593000 61.217 172.331 55.9385 0.29645 -0.128548
593200 61.217 172.344 55.9385 0.29655 -0.178858
593400 61.217 172.358 55.9385 0.29665 -0.172979
593600 61.217 172.371 55.9385 0.29675 -0.155834
593800 61.217 172.384 55.9385 0.29685 -0.163089
594000 61.217 172.398 55.9385 0.29695 -0.135796
594200 61.217 172.411 55.9385 0.29705 -0.147914
594400 61.217 172.424 55.9385 0.29715 -0.0935998
594600 61.217 172.438 55.9385 0.29725 -0.0798542
594800 61.217 172.451 55.9385 0.29735 -0.0899023
595000 61.217 172.464 55.9385 0.29745 -0.0152845
595200 61.217 172.477 55.9385 0.29755 0.0161992
595400 61.217 172.491 55.9385 0.29765 0.0501019
595600 61.217 172.504 55.9385 0.29775 0.0713497
595800 61.217 172.517 55.9385 0.29785 0.103678
596000 61.217 172.531 55.9385 0.29795 0.143399
596200 61.217 172.544 55.9385 0.29805 0.147952
596400 61.217 172.557 55.9385 0.29815 0.148417
596600 61.217 172.57 55.9385 0.29825 0.143045
596800 61.217 172.584 55.9385 0.29835 0.15541
597000 61.217 172.597 55.9385 0.29845 0.128947
597200 61.217 172.61 55.9385 0.29855 0.145863
597400 61.217 172.624 55.9385 0.29865 0.107926
597600 61.217 172.637 55.9385 0.29875 0.0963023
597800 61.217 172.65 55.9385 0.29885 0.0730293
598000 61.217 172.663 55.9385 0.29895 0.0206485
598200 61.217 172.677 55.9385 0.29905 0.030025
598400 61.217 172.69 55.9385 0.29915 -0.0190135
598600 61.217 172.703 55.9385 0.29925 -0.0652429
598800 61.217 172.717 55.9385 0.29935 -0.0789408
599000 61.217 172.73 55.9385 0.29945 -0.0869181
599200 61.217 172.743 55.9385 0.29955 -0.112092
599400 61.217 172.757 55.9385 0.29965 -0.146771
599600 61.217 172.77 55.9385 0.29975 -0.135398
599800 61.217 172.783 55.9385 0.29985 -0.120506
600000 61.217 172.796 55.9385 0.29995 -0.130387
600200 61.217 172.81 55.9385 0.30005 -0.115822
600400 61.217 172.823 55.9385 0.30015 -0.128247
600600 61.217 172.836 55.9385 0.30025 -0.117645
600800 61.217 172.85 55.9385 0.30035 -0.0671435
601000 61.217 172.863 55.9385 0.30045 -0.0377391
601200 61.217 172.876 55.9385 0.30055 -0.0164463
601400 61.217 172.889 55.9385 0.30065 0.0107634
601600 61.217 172.903 55.9385 0.30075 0.0375578
601800 61.217 172.916 55.9385 0.30085 0.0687658
602000 61.217 172.929 55.9385 0.30095 0.119293
602200 61.217 172.943 55.9385 0.30105 0.123801
602400 61.217 172.956 55.9385 0.30115 0.105156
602600 61.217 172.969 55.9385 0.30125 0.144136
602800 61.217 172.983 55.9385 0.30135 0.16053
603000 61.217 172.996 55.9385 0.30145 0.137467
603200 61.217 173.009 55.9385 0.30155 0.134544
603400 61.217 173.022 55.9385 0.30165 0.114406
603600 61.217 173.036 55.9385 0.30175 0.112124
603800 61.217 173.049 55.9385 0.30185 0.0491701
604000 61.217 173.062 55.9385 0.30195 0.00884201
604200 61.217 173.076 55.9385 0.30205 0.0268753
604400 61.217 173.089 55.9385 0.30215 -0.0350325
604600 61.217 173.102 55.9385 0.30225 -0.0297344
604800 61.217 173.115 55.9385 0.30235 -0.111065
605000 61.217 173.129 55.9385 0.30245 -0.102535
605200 61.217 173.142 55.9385 0.30255 -0.116871
605400 61.217 173.155 55.9385 0.30265 -0.153189
605600 61.217 173.169 55.9385 0.30275 -0.109158
605800 61.217 173.182 55.9385 0.30285 -0.149313
606000 61.217 173.195 55.9385 0.30295 -0.134353
606200 61.217 173.208 55.9385 0.30305 -0.119932
606400 61.217 173.222 55.9385 0.30315 -0.122004
606600 61.217 173.235 55.9385 0.30325 -0.0495204
606800 61.217 173.248 55.9385 0.30335 -0.0751059
607000 61.217 173.262 55.9385 0.30345 -0.0288854
607200 61.217 173.275 55.9385 0.30355 -0.0253836
607400 61.217 173.288 55.9385 0.30365 0.0289867
607600 61.217 173.302 55.9385 0.30375 0.0614371
607800 61.217 173.315 55.9385 0.30385 0.0686966
608000 61.217 173.328 55.9385 0.30395 0.11736
608200 61.217 173.341 55.9385 0.30405 0.107755
608400 61.217 173.355 55.9385 0.30415 0.131815
608600 61.217 173.368 55.9385 0.30425 0.163531
608800 61.217 173.381 55.9385 0.30435 0.114682
609000 61.217 173.395 55.9385 0.30445 0.182414
609200 61.217 173.408 55.9385 0.30455 0.122269
609400 61.217 173.421 55.9385 0.30465 0.135686
609600 61.217 173.434 55.9385 0.30475 0.126125
609800 61.217 173.448 55.9385 0.30485 0.0795173
610000 61.217 173.461 55.9385 0.30495 0.0924951
610200 61.217 173.474 55.9385 0.30505 0.0471482
610400 61.217 173.488 55.9385 0.30515 -0.0176397
610600 61.217 173.501 55.9385 0.30525 0.0125588
610800 61.217 173.514 55.9385 0.30535 -0.0652216
611000 61.217 173.527 55.9385 0.30545 -0.0910494
611200 61.217 173.541 55.9385 0.30555 -0.132518
611400 61.217 173.554 55.9385 0.30565 -0.159028
611600 61.217 173.567 55.9385 0.30575 -0.154116
611800 61.217 173.581 55.9385 0.30585 -0.179645
612000 61.217 173.594 55.9385 0.30595 -0.157117
612200 61.217 173.607 55.9385 0.30605 -0.162291
612400 61.217 173.621 55.9385 0.30615 -0.179012
612600 61.217 173.634 55.9385 0.30625 -0.133152
612800 61.217 173.647 55.9385 0.30635 -0.146517
613000 61.217 173.66 55.9385 0.30645 -0.0748322
613200 61.217 173.674 55.9385 0.30655 -0.0563524
613400 61.217 173.687 55.9385 0.30665 -0.0397779
613600 61.217 173.7 55.9385 0.30675 0.0211152
613800 61.217 173.714 55.9385 0.30685 0.00649816
614000 61.217 173.727 55.9385 0.30695 0.0913642
614200 61.217 173.74 55.9385 0.30705 0.110777
614400 61.217 173.753 55.9385 0.30715 0.131458
614600 61.217 173.767 55.9385 0.30725 0.138652
614800 61.217 173.78 55.9385 0.30735 0.12058
615000 61.217 173.793 55.9385 0.30745 0.206578
615200 61.217 173.807 55.9385 0.30755 0.195381
615400 61.217 173.82 55.9385 0.30765 0.146983
615600 61.217 173.833 55.9385 0.30775 0.20201
615800 61.217 173.847 55.9385 0.30785 0.133937
616000 61.217 173.86 55.9385 0.30795 0.130639
616200 61.217 173.873 55.9385 0.30805 0.127142
616400 61.217 173.886 55.9385 0.30815 0.0298386
616600 61.217 173.9 55.9385 0.30825 0.0587911
616800 61.217 173.913 55.9385 0.30835 0.00726199
617000 61.217 173.926 55.9385 0.30845 -0.0472152
617200 61.217 173.94 55.9385 0.30855 -0.0406714
617400 61.217 173.953 55.9385 0.30865 -0.121184
617600 61.217 173.966 55.9385 0.30875 -0.0828537
617800 61.217 173.979 55.9385 0.30885 -0.151459
618000 61.217 173.993 55.9385 0.30895 -0.151057
618200 61.217 174.006 55.9385 0.30905 -0.17955
618400 61.217 174.019 55.9385 0.30915 -0.202508
618600 61.217 174.033 55.9385 0.30925 -0.131013
618800 61.217 174.046 55.9385 0.30935 -0.191475
619000 61.217 174.059 55.9385 0.30945 -0.129859
619200 61.217 174.072 55.9385 0.30955 -0.105485
619400 61.217 174.086 55.9385 0.30965 -0.157843
619600 61.217 174.099 55.9385 0.30975 -0.0251555
619800 61.217 174.112 55.9385 0.30985 -0.0411135
620000 61.217 174.126 55.9385 0.30995 -0.0248366
620200 61.217 174.139 55.9385 0.31005 0.0838979
620400 61.217 174.152 55.9385 0.31015 0.0378708
620600 61.217 174.166 55.9385 0.31025 0.130395
620800 61.217 174.179 55.9385 0.31035 0.134167
621000 61.217 174.192 55.9385 0.31045 0.104586
621200 61.217 174.205 55.9385 0.31055 0.194337
621400 61.217 174.219 55.9385 0.31065 0.167083
621600 61.217 174.232 55.9385 0.31075 0.163754
621800 61.217 174.245 55.9385 0.31085 0.189561
622000 61.217 174.259 55.9385 0.31095 0.112735
622200 61.217 174.272 55.9385 0.31105 0.133656
622400 61.217 174.285 55.9385 0.31115 0.118815
622600 61.217 174.298 55.9385 0.31125 0.0565286
622800 61.217 174.312 55.9385 0.31135 0.0767275
623000 61.217 174.325 55.9385 0.31145 0.0203038
623200 61.217 174.338 55.9385 0.31155 -0.0176639
623400 61.217 174.352 55.9385 0.31165 -0.0463132
623600 61.217 174.365 55.9385 0.31175 -0.0760042
623800 61.217 174.378 55.9385 0.31185 -0.0898042
624000 61.217 174.392 55.9385 0.31195 -0.126954
624200 61.217 174.405 55.9385 0.31205 -0.136437
624400 61.217 174.418 55.9385 0.31215 -0.124904
624600 61.217 174.431 55.9385 0.31225 -0.163243
624800 61.217 174.445 55.9385 0.31235 -0.165653
625000 61.217 174.458 55.9385 0.31245 -0.147143
625200 61.217 174.471 55.9385 0.31255 -0.109551
625400 61.217 174.485 55.9385 0.31265 -0.128088
625600 61.217 174.498 55.9385 0.31275 -0.103442
625800 61.217 174.511 55.9385 0.31285 -0.070151
626000 61.217 174.524 55.9385 0.31295 -0.0614714
626200 61.217 174.538 55.9385 0.31305 0.0266367
626400 61.217 174.551 55.9385 0.31315 0.00783015
626600 61.217 174.564 55.9385 0.31325 0.0338012
626800 61.217 174.578 55.9385 0.31335 0.0885411
627000 61.217 174.591 55.9385 0.31345 0.102817
627200 61.217 174.604 55.9385 0.31355 0.126673
627400 61.217 174.617 55.9385 0.31365 0.106625
627600 61.217 174.631 55.9385 0.31375 0.165092
627800 61.217 174.644 55.9385 0.31385 0.129545
628000 61.217 174.657 55.9385 0.31395 0.134405
628200 61.217 174.671 55.9385 0.31405 0.139267
628400 61.217 174.684 55.9385 0.31415 0.132731
628600 61.217 174.697 55.9385 0.31425 0.127279
628800 61.217 174.711 55.9385 0.31435 0.0907597
629000 61.217 174.724 55.9385 0.31445 0.0800131
629200 61.217 174.737 55.9385 0.31455 0.0332641
629400 61.217 174.75 55.9385 0.31465 0.0264625
629600 61.217 174.764 55.9385 0.31475 -0.0143323
629800 61.217 174.777 55.9385 0.31485 -0.0660951
630000 61.217 174.79 55.9385 0.31495 -0.0611984
630200 61.217 174.804 55.9385 0.31505 -0.104658
630400 61.217 174.817 55.9385 0.31515 -0.0844203
630600 61.217 174.83 55.9385 0.31525 -0.12031
630800 61.217 174.843 55.9385 0.31535 -0.128255
631000 61.217 174.857 55.9385 0.31545 -0.122419
631200 61.217 174.87 55.9385 0.31555 -0.147282
631400 61.217 174.883 55.9385 0.31565 -0.125455
631600 61.217 174.897 55.9385 0.31575 -0.122993
631800 61.217 174.91 55.9385 0.31585 -0.0809293
632000 61.217 174.923 55.9385 0.31595 -0.0870327
632200 61.217 174.937 55.9385 0.31605 -0.0801539
632400 61.217 174.95 55.9385 0.31615 -0.00305148
632600 61.217 174.963 55.9385 0.31625 0.00776978
632800 61.217 174.976 55.9385 0.31635 0.0339148
633000 61.217 174.99 55.9385 0.31645 0.0473721
633200 61.217 175.003 55.9385 0.31655 0.0794648
633400 61.217 175.016 55.9385 0.31665 0.0980122
633600 61.217 175.03 55.9385 0.31675 0.0766666
633800 61.217 175.043 55.9385 0.31685 0.0861521
634000 61.217 175.056 55.9385 0.31695 0.124405
634200 61.217 175.069 55.9385 0.31705 0.079623
634400 61.217 175.083 55.9385 0.31715 0.0990399
634600 61.217 175.096 55.9385 0.31725 0.107123
634800 61.217 175.109 55.9385 0.31735 0.0788124
635000 61.217 175.123 55.9385 0.31745 0.0918207
635200 61.217 175.136 55.9385 0.31755 0.0458159
635400 61.217 175.149 55.9385 0.31765 0.0502107
635600 61.217 175.162 55.9385 0.31775 0.0232591
635800 61.217 175.176 55.9385 0.31785 -0.0230167
636000 61.217 175.189 55.9385 0.31795 0.0022095
636200 61.217 175.202 55.9385 0.31805 -0.0405137
636400 61.217 175.216 55.9385 0.31815 -0.061031
636600 61.217 175.229 55.9385 0.31825 -0.071758
636800 61.217 175.242 55.9385 0.31835 -0.079433
637000 61.217 175.256 55.9385 0.31845 -0.0649826
637200 61.217 175.269 55.9385 0.31855 -0.0795667
637400 61.217 175.282 55.9385 0.31865 -0.0960059
637600 61.217 175.295 55.9385 0.31875 -0.10593
637800 61.217 175.309 55.9385 0.31885 -0.0659395
638000 61.217 175.322 55.9385 0.31895 -0.0574483
638200 61.217 175.335 55.9385 0.31905 -0.0546027
638400 61.217 175.349 55.9385 0.31915 -0.0333427
638600 61.217 175.362 55.9385 0.31925 -0.0412417
638800 61.217 175.375 55.9385 0.31935 -0.0235888
639000 61.217 175.388 55.9385 0.31945 0.0221779
639200 61.217 175.402 55.9385 0.31955 0.0670718
639400 61.217 175.415 55.9385 0.31965 0.0833688
639600 61.217 175.428 55.9385 0.31975 0.0331113
639800 61.217 175.442 55.9385 0.31985 0.115408
640000 61.217 175.455 55.9385 0.31995 0.0816919
640200 61.217 175.468 55.9385 0.32005 0.0925884
640400 61.217 175.482 55.9385 0.32015 0.131869
640600 61.217 175.495 55.9385 0.32025 0.0816178
640800 61.217 175.508 55.9385 0.32035 0.0887762
641000 61.217 175.521 55.9385 0.32045 0.0614883
641200 61.217 175.535 55.9385 0.32055 0.0139521
641400 61.217 175.548 55.9385 0.32065 0.0527816
641600 61.217 175.561 55.9385 0.32075 -0.0151935
641800 61.217 175.575 55.9385 0.32085 -0.0391159
642000 61.217 175.588 55.9385 0.32095 -0.038304
642200 61.217 175.601 55.9385 0.32105 -0.0592825
642400 61.217 175.614 55.9385 0.32115 -0.0790087
642600 61.217 175.628 55.9385 0.32125 -0.0698122
642800 61.217 175.641 55.9385 0.32135 -0.0865088
643000 61.217 175.654 55.9385 0.32145 -0.119126
643200 61.217 175.668 55.9385 0.32155 -0.0926839
643400 61.217 175.681 55.9385 0.32165 -0.095789
643600 61.217 175.694 55.9385 0.32175 -0.0895186
643800 61.217 175.707 55.9385 0.32185 -0.0769116
644000 61.217 175.721 55.9385 0.32195 -0.0570004
644200 61.217 175.734 55.9385 0.32205 -0.0169456
644400 61.217 175.747 55.9385 0.32215 -0.0284776
644600 61.217 175.761 55.9385 0.32225 -0.00391124
644800 61.217 175.774 55.9385 0.32235 0.0467894
645000 61.217 175.787 55.9385 0.32245 0.0215304
645200 61.217 175.801 55.9385 0.32255 0.0478384
645400 61.217 175.814 55.9385 0.32265 0.103827
645600 61.217 175.827 55.9385 0.32275 0.10134
645800 61.217 175.84 55.9385 0.32285 0.0834475
646000 61.217 175.854 55.9385 0.32295 0.113154
646200 61.217 175.867 55.9385 0.32305 0.108685
646400 61.217 175.88 55.9385 0.32315 0.0898478
646600 61.217 175.894 55.9385 0.32325 0.118342
646800 61.217 175.907 55.9385 0.32335 0.0833728
647000 61.217 175.92 55.9385 0.32345 0.0776123
647200 61.217 175.933 55.9385 0.32355 0.0524916
647400 61.217 175.947 55.9385 0.32365 0.0480485
647600 61.217 175.96 55.9385 0.32375 0.0217493
647800 61.217 175.973 55.9385 0.32385 -0.0110262
648000 61.217 175.987 55.9385 0.32395 0.00592095
648200 61.217 176 55.9385 0.32405 -0.0571372
648400 61.217 176.013 55.9385 0.32415 -0.0765793
648600 61.217 176.026 55.9385 0.32425 -0.0797381
648800 61.217 176.04 55.9385 0.32435 -0.0874801
649000 61.217 176.053 55.9385 0.32445 -0.094365
649200 61.217 176.066 55.9385 0.32455 -0.118497
649400 61.217 176.08 55.9385 0.32465 -0.12886
649600 61.217 176.093 55.9385 0.32475 -0.115327
649800 61.217 176.106 55.9385 0.32485 -0.108546
650000 61.217 176.12 55.9385 0.32495 -0.089573
650200 61.217 176.133 55.9385 0.32505 -0.0808841
650400 61.217 176.146 55.9385 0.32515 -0.0638529
650600 61.217 176.159 55.9385 0.32525 -0.0416689
650800 61.217 176.173 55.9385 0.32535 -0.00961436
651000 61.217 176.186 55.9385 0.32545 0.0196551
651200 61.217 176.199 55.9385 0.32555 0.0402203
651400 61.217 176.213 55.9385 0.32565 0.0638158
651600 61.217 176.226 55.9385 0.32575 0.0830601
651800 61.217 176.239 55.9385 0.32585 0.0638209
652000 61.217 176.252 55.9385 0.32595 0.102255
652200 61.217 176.266 55.9385 0.32605 0.115725
652400 61.217 176.279 55.9385 0.32615 0.119048
652600 61.217 176.292 55.9385 0.32625 0.109746
652800 61.217 176.306 55.9385 0.32635 0.127028
653000 61.217 176.319 55.9385 0.32645 0.110722
653200 61.217 176.332 55.9385 0.32655 0.0817739
653400 61.217 176.346 55.9385 0.32665 0.0809407
653600 61.217 176.359 55.9385 0.32675 0.0360746
653800 61.217 176.372 55.9385 0.32685 0.0573823
654000 61.217 176.385 55.9385 0.32695 0.00363159
654200 61.217 176.399 55.9385 0.32705 -0.0121109
654400 61.217 176.412 55.9385 0.32715 -0.0438258
654600 61.217 176.425 55.9385 0.32725 -0.0426464
654800 61.217 176.439 55.9385 0.32735 -0.0726837
655000 61.217 176.452 55.9385 0.32745 -0.0622233
655200 61.217 176.465 55.9385 0.32755 -0.155979
655400 61.217 176.478 55.9385 0.32765 -0.0934676
655600 61.217 176.492 55.9385 0.32775 -0.106927
655800 61.217 176.505 55.9385 0.32785 -0.128049
656000 61.217 176.518 55.9385 0.32795 -0.0953438
656200 61.217 176.532 55.9385 0.32805 -0.126694
656400 61.217 176.545 55.9385 0.32815 -0.0765202
656600 61.217 176.558 55.9385 0.32825 -0.0579088
656800 61.217 176.571 55.9385 0.32835 -0.0653389
657000 61.217 176.585 55.9385 0.32845 -0.0036994
657200 61.217 176.598 55.9385 0.32855 -0.0112096
657400 61.217 176.611 55.9385 0.32865 0.00839337
657600 61.217 176.625 55.9385 0.32875 0.0385188
657800 61.217 176.638 55.9385 0.32885 0.0663733
658000 61.217 176.651 55.9385 0.32895 0.0763933
658200 61.217 176.665 55.9385 0.32905 0.088935
658400 61.217 176.678 55.9385 0.32915 0.114701
658600 61.217 176.691 55.9385 0.32925 0.139876
658800 61.217 176.704 55.9385 0.32935 0.118011
659000 61.217 176.718 55.9385 0.32945 0.127467
659200 61.217 176.731 55.9385 0.32955 0.0875566
659400 61.217 176.744 55.9385 0.32965 0.0973677
659600 61.217 176.758 55.9385 0.32975 0.128397
659800 61.217 176.771 55.9385 0.32985 0.0564532
660000 61.217 176.784 55.9385 0.32995 0.0901119
660200 61.217 176.797 55.9385 0.33005 0.0296047
660400 61.217 176.811 55.9385 0.33015 -0.0365347
660600 61.217 176.824 55.9385 0.33025 0.0105228
660800 61.217 176.837 55.9385 0.33035 -0.0439928
661000 61.217 176.851 55.9385 0.33045 -0.0529878
661200 61.217 176.864 55.9385 0.33055 -0.0638799
661400 61.217 176.877 55.9385 0.33065 -0.127882
661600 61.217 176.891 55.9385 0.33075 -0.104037
661800 61.217 176.904 55.9385 0.33085 -0.142322
662000 61.217 176.917 55.9385 0.33095 -0.0938614
662200 61.217 176.93 55.9385 0.33105 -0.111102
662400 61.217 176.944 55.9385 0.33115 -0.141927
662600 61.217 176.957 55.9385 0.33125 -0.0938903
662800 61.217 176.97 55.9385 0.33135 -0.118947
663000 61.217 176.984 55.9385 0.33145 -0.058629
663200 61.217 176.997 55.9385 0.33155 -0.0556387
663400 61.217 177.01 55.9385 0.33165 -0.0503123
663600 61.217 177.023 55.9385 0.33175 0.012178
663800 61.217 177.037 55.9385 0.33185 -0.0188395
664000 61.217 177.05 55.9385 0.33195 0.0437516
664200 61.217 177.063 55.9385 0.33205 0.0697366
664400 61.217 177.077 55.9385 0.33215 0.0654531
664600 61.217 177.09 55.9385 0.33225 0.139366
664800 61.217 177.103 55.9385 0.33235 0.0697854
665000 61.217 177.116 55.9385 0.33245 0.101927
665200 61.217 177.13 55.9385 0.33255 0.152514
665400 61.217 177.143 55.9385 0.33265 0.122757
665600 61.217 177.156 55.9385 0.33275 0.114382
665800 61.217 177.17 55.9385 0.33285 0.121812
666000 61.217 177.183 55.9385 0.33295 0.0844918
666200 61.217 177.196 55.9385 0.33305 0.0910979
666400 61.217 177.21 55.9385 0.33315 0.0574957
666600 61.217 177.223 55.9385 0.33325 0.0745544
666800 61.217 177.236 55.9385 0.33335 0.01378
667000 61.217 177.249 55.9385 0.33345 -0.015777
667200 61.217 177.263 55.9385 0.33355 -0.0388962
667400 61.217 177.276 55.9385 0.33365 -0.0342106
667600 61.217 177.289 55.9385 0.33375 -0.0484321
667800 61.217 177.303 55.9385 0.33385 -0.099385
668000 61.217 177.316 55.9385 0.33395 -0.105908
668200 61.217 177.329 55.9385 0.33405 -0.123854
668400 61.217 177.342 55.9385 0.33415 -0.119569
668600 61.217 177.356 55.9385 0.33425 -0.101254
668800 61.217 177.369 55.9385 0.33435 -0.133008
669000 61.217 177.382 55.9385 0.33445 -0.0775012
669200 61.217 177.396 55.9385 0.33455 -0.0803811
669400 61.217 177.409 55.9385 0.33465 -0.0822027
669600 61.217 177.422 55.9385 0.33475 -0.0274049
669800 61.217 177.436 55.9385 0.33485 -0.0286801
670000 61.217 177.449 55.9385 0.33495 -0.0138317
670200 61.217 177.462 55.9385 0.33505 0.0180654
670400 61.217 177.475 55.9385 0.33515 0.0269849
670600 61.217 177.489 55.9385 0.33525 0.0643809
670800 61.217 177.502 55.9385 0.33535 0.0830379
671000 61.217 177.515 55.9385 0.33545 0.0474651
671200 61.217 177.529 55.9385 0.33555 0.130291
671400 61.217 177.542 55.9385 0.33565 0.0705119
671600 61.217 177.555 55.9385 0.33575 0.099035
671800 61.217 177.568 55.9385 0.33585 0.124432
672000 61.217 177.582 55.9385 0.33595 0.0286466
672200 61.217 177.595 55.9385 0.33605 0.0798979
672400 61.217 177.608 55.9385 0.33615 0.0593771
672600 61.217 177.622 55.9385 0.33625 0.0467796
672800 61.217 177.635 55.9385 0.33635 0.0325447
673000 61.217 177.648 55.9385 0.33645 0.0086642
673200 61.217 177.661 55.9385 0.33655 0.00691191
673400 61.217 177.675 55.9385 0.33665 -0.00206193
673600 61.217 177.688 55.9385 0.33675 -0.0414971
673800 61.217 177.701 55.9385 0.33685 -0.0465418
674000 61.217 177.715 55.9385 0.33695 -0.0613454
674200 61.217 177.728 55.9385 0.33705 -0.0691695
674400 61.217 177.741 55.9385 0.33715 -0.0712506
674600 61.217 177.755 55.9385 0.33725 -0.0762013
674800 61.217 177.768 55.9385 0.33735 -0.0872807
675000 61.217 177.781 55.9385 0.33745 -0.0766019
675200 61.217 177.794 55.9385 0.33755 -0.0766915
675400 61.217 177.808 55.9385 0.33765 -0.0428844
675600 61.217 177.821 55.9385 0.33775 -0.0349088
675800 61.217 177.834 55.9385 0.33785 -0.0356251
676000 61.217 177.848 55.9385 0.33795 -0.00706326
676200 61.217 177.861 55.9385 0.33805 -0.0075136
676400 61.217 177.874 55.9385 0.33815 0.0131032
676600 61.217 177.887 55.9385 0.33825 0.0149665
676800 61.217 177.901 55.9385 0.33835 0.0620786
677000 61.217 177.914 55.9385 0.33845 0.0809331
677200 61.217 177.927 55.9385 0.33855 0.0570285
677400 61.217 177.941 55.9385 0.33865 0.0743569
677600 61.217 177.954 55.9385 0.33875 0.0977951
677800 61.217 177.967 55.9385 0.33885 0.0883659
678000 61.217 177.98 55.9385 0.33895 0.0745
678200 61.217 177.994 55.9385 0.33905 0.0626198
678400 61.217 178.007 55.9385 0.33915 0.0640415
678600 61.217 178.02 55.9385 0.33925 0.0648611
678800 61.217 178.034 55.9385 0.33935 0.0299527
679000 61.217 178.047 55.9385 0.33945 0.0118848
679200 61.217 178.06 55.9385 0.33955 -0.00361885
679400 61.217 178.074 55.9385 0.33965 -0.0380083
679600 61.217 178.087 55.9385 0.33975 -0.0296854
679800 61.217 178.1 55.9385 0.33985 -0.0351975
680000 61.217 178.113 55.9385 0.33995 -0.0734649
680200 61.217 178.127 55.9385 0.34005 -0.0729268
680400 61.217 178.14 55.9385 0.34015 -0.0544478
680600 61.217 178.153 55.9385 0.34025 -0.120209
680800 61.217 178.167 55.9385 0.34035 -0.0776174
681000 61.217 178.18 55.9385 0.34045 -0.0610027
681200 61.217 178.193 55.9385 0.34055 -0.0674525
681400 61.217 178.206 55.9385 0.34065 -0.0638641
681600 61.217 178.22 55.9385 0.34075 -0.0620307
681800 61.217 178.233 55.9385 0.34085 -0.0309711
682000 61.217 178.246 55.9385 0.34095 -0.0315067
682200 61.217 178.26 55.9385 0.34105 0.0130179
682400 61.217 178.273 55.9385 0.34115 0.0569454
682600 61.217 178.286 55.9385 0.34125 0.0092769
682800 61.217 178.3 55.9385 0.34135 0.0559531
683000 61.217 178.313 55.9385 0.34145 0.0607651
683200 61.217 178.326 55.9385 0.34155 0.0511336
683400 61.217 178.339 55.9385 0.34165 0.0964108
683600 61.217 178.353 55.9385 0.34175 0.104413
683800 61.217 178.366 55.9385 0.34185 0.0671672
684000 61.217 178.379 55.9385 0.34195 0.0805563
684200 61.217 178.393 55.9385 0.34205 0.0675556
684400 61.217 178.406 55.9385 0.34215 0.114225
684600 61.217 178.419 55.9385 0.34225 0.046514
684800 61.217 178.432 55.9385 0.34235 -0.000447658
685000 61.217 178.446 55.9385 0.34245 0.0369062
685200 61.217 178.459 55.9385 0.34255 8.91342e-05
685400 61.217 178.472 55.9385 0.34265 -0.00240653
685600 61.217 178.486 55.9385 0.34275 -0.0141049
685800 61.217 178.499 55.9385 0.34285 -0.0510978
686000 61.217 178.512 55.9385 0.34295 -0.0354164
686200 61.217 178.525 55.9385 0.34305 -0.0990902
686400 61.217 178.539 55.9385 0.34315 -0.0834531
686600 61.217 178.552 55.9385 0.34325 -0.0648594
686800 61.217 178.565 55.9385 0.34335 -0.0864215
687000 61.217 178.579 55.9385 0.34345 -0.0885101
687200 61.217 178.592 55.9385 0.34355 -0.0820976
687400 61.217 178.605 55.9385 0.34365 -0.0697866
687600 61.217 178.619 55.9385 0.34375 -0.0475384
687800 61.217 178.632 55.9385 0.34385 -0.0287939
688000 61.217 178.645 55.9385 0.34395 -0.0419114
688200 61.217 178.658 55.9385 0.34405 -0.00662183
688400 61.217 178.672 55.9385 0.34415 0.0297405
688600 61.217 178.685 55.9385 0.34425 0.0124496
688800 61.217 178.698 55.9385 0.34435 0.0648366
689000 61.217 178.712 55.9385 0.34445 0.0406753
689200 61.217 178.725 55.9385 0.34455 0.0678345
689400 61.217 178.738 55.9385 0.34465 0.076721
689600 61.217 178.751 55.9385 0.34475 0.0877731
689800 61.217 178.765 55.9385 0.34485 0.114428
690000 61.217 178.778 55.9385 0.34495 0.0828208
690200 61.217 178.791 55.9385 0.34505 0.0875021
690400 61.217 178.805 55.9385 0.34515 0.104759
690600 61.217 178.818 55.9385 0.34525 0.0563467
690800 61.217 178.831 55.9385 0.34535 0.0508751
691000 61.217 178.845 55.9385 0.34545 0.0486249
691200 61.217 178.858 55.9385 0.34555 0.00229707
691400 61.217 178.871 55.9385 0.34565 0.00326506
691600 61.217 178.884 55.9385 0.34575 -0.00251455
691800 61.217 178.898 55.9385 0.34585 -0.0752564
692000 61.217 178.911 55.9385 0.34595 -0.0373551
692200 61.217 178.924 55.9385 0.34605 -0.0793754
692400 61.217 178.938 55.9385 0.34615 -0.10942
692600 61.217 178.951 55.9385 0.34625 -0.0902163
692800 61.217 178.964 55.9385 0.34635 -0.121413
693000 61.217 178.977 55.9385 0.34645 -0.108398
693200 61.217 178.991 55.9385 0.34655 -0.100263
693400 61.217 179.004 55.9385 0.34665 -0.0935399
693600 61.217 179.017 55.9385 0.34675 -0.096296
693800 61.217 179.031 55.9385 0.34685 -0.040488
694000 61.217 179.044 55.9385 0.34695 -0.0418274
694200 61.217 179.057 55.9385 0.34705 -0.0247098
694400 61.217 179.07 55.9385 0.34715 0.00611786
694600 61.217 179.084 55.9385 0.34725 0.0105648
694800 61.217 179.097 55.9385 0.34735 0.0367575
695000 61.217 179.11 55.9385 0.34745 0.0578357
695200 61.217 179.124 55.9385 0.34755 0.0543564
695400 61.217 179.137 55.9385 0.34765 0.120405
695600 61.217 179.15 55.9385 0.34775 0.113406
695800 61.217 179.164 55.9385 0.34785 0.0595199
696000 61.217 179.177 55.9385 0.34795 0.117438
696200 61.217 179.19 55.9385 0.34805 0.138886
696400 61.217 179.203 55.9385 0.34815 0.124039
696600 61.217 179.217 55.9385 0.34825 0.0809428
696800 61.217 179.23 55.9385 0.34835 0.0605807
697000 61.217 179.243 55.9385 0.34845 0.0930479
697200 61.217 179.257 55.9385 0.34855 0.0638479
697400 61.217 179.27 55.9385 0.34865 0.015671
697600 61.217 179.283 55.9385 0.34875 0.0212457
697800 61.217 179.296 55.9385 0.34885 -0.0365562
698000 61.217 179.31 55.9385 0.34895 -0.0429822
698200 61.217 179.323 55.9385 0.34905 -0.0240858
698400 61.217 179.336 55.9385 0.34915 -0.0577943
698600 61.217 179.35 55.9385 0.34925 -0.078514
698800 61.217 179.363 55.9385 0.34935 -0.0915513
699000 61.217 179.376 55.9385 0.34945 -0.102783
699200 61.217 179.39 55.9385 0.34955 -0.113812
699400 61.217 179.403 55.9385 0.34965 -0.128869
699600 61.217 179.416 55.9385 0.34975 -0.0947499
699800 61.217 179.429 55.9385 0.34985 -0.0987218
700000 61.217 179.443 55.9385 0.34995 -0.0830081
700200 61.217 179.456 55.9385 0.35005 -0.0602195
700400 61.217 179.469 55.9385 0.35015 -0.0359832
700600 61.217 179.483 55.9385 0.35025 -0.0334754
700800 61.217 179.496 55.9385 0.35035 -0.0198269
701000 61.217 179.509 55.9385 0.35045 0.0262405
701200 61.217 179.522 55.9385 0.35055 0.00510385
701400 61.217 179.536 55.9385 0.35065 0.0159124
701600 61.217 179.549 55.9385 0.35075 0.0673294
701800 61.217 179.562 55.9385 0.35085 0.0703054
702000 61.217 179.576 55.9385 0.35095 0.100151
702200 61.217 179.589 55.9385 0.35105 0.0825247
702400 61.217 179.602 55.9385 0.35115 0.0965178
702600 61.217 179.615 55.9385 0.35125 0.130343
702800 61.217 179.629 55.9385 0.35135 0.0804498
703000 61.217 179.642 55.9385 0.35145 0.0951365
703200 61.217 179.655 55.9385 0.35155 0.0744191
703400 61.217 179.669 55.9385 0.35165 0.0592176
703600 61.217 179.682 55.9385 0.35175 0.0656782
703800 61.217 179.695 55.9385 0.35185 0.0335781
704000 61.217 179.709 55.9385 0.35195 0.0322212
704200 61.217 179.722 55.9385 0.35205 -0.0119795
704400 61.217 179.735 55.9385 0.35215 -0.0247352
704600 61.217 179.748 55.9385 0.35225 0.00429141
704800 61.217 179.762 55.9385 0.35235 -0.0788271
705000 61.217 179.775 55.9385 0.35245 -0.0602068
705200 61.217 179.788 55.9385 0.35255 -0.0582739
705400 61.217 179.802 55.9385 0.35265 -0.0889836
705600 61.217 179.815 55.9385 0.35275 -0.0855066
705800 61.217 179.828 55.9385 0.35285 -0.112345
706000 61.217 179.841 55.9385 0.35295 -0.0852568
706200 61.217 179.855 55.9385 0.35305 -0.0727062
706400 61.217 179.868 55.9385 0.35315 -0.0666998
706600 61.217 179.881 55.9385 0.35325 -0.0561451
706800 61.217 179.895 55.9385 0.35335 -0.0626715
707000 61.217 179.908 55.9385 0.35345 0.00913264
707200 61.217 179.921 55.9385 0.35355 -0.0452217
707400 61.217 179.935 55.9385 0.35365 -0.00535483
707600 61.217 179.948 55.9385 0.35375 0.0578739
707800 61.217 179.961 55.9385 0.35385 0.0281218
708000 61.217 179.974 55.9385 0.35395 0.0603005
708200 61.217 179.988 55.9385 0.35405 0.0651845
708400 61.217 180.001 55.9385 0.35415 0.0715214
708600 61.217 180.014 55.9385 0.35425 0.0981665
708800 61.217 180.028 55.9385 0.35435 0.0709582
709000 61.217 180.041 55.9385 0.35445 0.0768543
709200 61.217 180.054 55.9385 0.35455 0.0817082
709400 61.217 180.067 55.9385 0.35465 0.0588489
709600 61.217 180.081 55.9385 0.35475 0.0792644
709800 61.217 180.094 55.9385 0.35485 0.0463849
710000 61.217 180.107 55.9385 0.35495 0.032863
710200 61.217 180.121 55.9385 0.35505 0.0300138
710400 61.217 180.134 55.9385 0.35515 0.00162326
710600 61.217 180.147 55.9385 0.35525 -0.00938443
710800 61.217 180.16 55.9385 0.35535 -0.030932
711000 61.217 180.174 55.9385 0.35545 -0.0438686
711200 61.217 180.187 55.9385 0.35555 -0.0475824
711400 61.217 180.2 55.9385 0.35565 -0.0488224
711600 61.217 180.214 55.9385 0.35575 -0.0935012
711800 61.217 180.227 55.9385 0.35585 -0.0681952
712000 61.217 180.24 55.9385 0.35595 -0.0813977
712200 61.217 180.254 55.9385 0.35605 -0.0793906
712400 61.217 180.267 55.9385 0.35615 -0.0449959
712600 61.217 180.28 55.9385 0.35625 -0.0462379
712800 61.217 180.293 55.9385 0.35635 -0.0693509
713000 61.217 180.307 55.9385 0.35645 -0.0557378
713200 61.217 180.32 55.9385 0.35655 -0.0187189
713400 61.217 180.333 55.9385 0.35665 -0.0156658
713600 61.217 180.347 55.9385 0.35675 -0.013137
713800 61.217 180.36 55.9385 0.35685 0.0294615
714000 61.217 180.373 55.9385 0.35695 0.0428369
714200 61.217 180.386 55.9385 0.35705 0.0367938
714400 61.217 180.4 55.9385 0.35715 0.0811589
714600 61.217 180.413 55.9385 0.35725 0.0590336
714800 61.217 180.426 55.9385 0.35735 0.0648156
715000 61.217 180.44 55.9385 0.35745 0.0759768
715200 61.217 180.453 55.9385 0.35755 0.0692249
715400 61.217 180.466 55.9385 0.35765 0.0515601
715600 61.217 180.479 55.9385 0.35775 0.0348795
715800 61.217 180.493 55.9385 0.35785 0.0521992
716000 61.217 180.506 55.9385 0.35795 0.0463857
716200 61.217 180.519 55.9385 0.35805 0.0501549
716400 61.217 180.533 55.9385 0.35815 0.0331774
716600 61.217 180.546 55.9385 0.35825 0.000726782
716800 61.217 180.559 55.9385 0.35835 0.0163435
717000 61.217 180.573 55.9385 0.35845 0.00899545
717200 61.217 180.586 55.9385 0.35855 -0.0361708
717400 61.217 180.599 55.9385 0.35865 -0.057756
717600 61.217 180.612 55.9385 0.35875 -0.0450159
717800 61.217 180.626 55.9385 0.35885 -0.0594569
718000 61.217 180.639 55.9385 0.35895 -0.0396457
718200 61.217 180.652 55.9385 0.35905 -0.0444156
718400 61.217 180.666 55.9385 0.35915 -0.0620536
718600 61.217 180.679 55.9385 0.35925 -0.0505974
718800 61.217 180.692 55.9385 0.35935 -0.0682677
719000 61.217 180.705 55.9385 0.35945 -0.0466938
719200 61.217 180.719 55.9385 0.35955 -0.0184369
719400 61.217 180.732 55.9385 0.35965 -0.0176146
719600 61.217 180.745 55.9385 0.35975 -0.0178787
719800 61.217 180.759 55.9385 0.35985 -0.00944046
720000 61.217 180.772 55.9385 0.35995 -0.0323232
720200 61.217 180.785 55.9385 0.36005 0.031759
720400 61.217 180.799 55.9385 0.36015 0.0424843
720600 61.217 180.812 55.9385 0.36025 0.0221352
720800 61.217 180.825 55.9385 0.36035 0.0666624
721000 61.217 180.838 55.9385 0.36045 0.0837026
721200 61.217 180.852 55.9385 0.36055 0.0752319
721400 61.217 180.865 55.9385 0.36065 0.0359503
721600 61.217 180.878 55.9385 0.36075 0.0575605
721800 61.217 180.892 55.9385 0.36085 0.0476745
722000 61.217 180.905 55.9385 0.36095 0.0110677
722200 61.217 180.918 55.9385 0.36105 0.0290275
722400 61.217 180.931 55.9385 0.36115 -0.00170096
722600 61.217 180.945 55.9385 0.36125 0.0143481
722800 61.217 180.958 55.9385 0.36135 0.0411669
723000 61.217 180.971 55.9385 0.36145 -0.0413042
723200 61.217 180.985 55.9385 0.36155 -0.0207124
723400 61.217 180.998 55.9385 0.36165 -0.00468302
723600 61.217 181.011 55.9385 0.36175 -0.0379045
723800 61.217 181.024 55.9385 0.36185 -0.0580166
724000 61.217 181.038 55.9385 0.36195 -0.063817
724200 61.217 181.051 55.9385 0.36205 -0.037905
724400 61.217 181.064 55.9385 0.36215 -0.0848716
724600 61.217 181.078 55.9385 0.36225 -0.0301344
724800 61.217 181.091 55.9385 0.36235 -0.00228418
725000 61.217 181.104 55.9385 0.36245 -0.0769667
725200 61.217 181.118 55.9385 0.36255 -0.00397204
725400 61.217 181.131 55.9385 0.36265 -0.00796404
725600 61.217 181.144 55.9385 0.36275 -0.0102515
725800 61.217 181.157 55.9385 0.36285 0.0217393
726000 61.217 181.171 55.9385 0.36295 0.0141953
726200 61.217 181.184 55.9385 0.36305 -0.00570498
726400 61.217 181.197 55.9385 0.36315 0.0186695
726600 61.217 181.211 55.9385 0.36325 0.0556409
726800 61.217 181.224 55.9385 0.36335 0.0396982
727000 61.217 181.237 55.9385 0.36345 0.0575184
727200 61.217 181.25 55.9385 0.36355 0.0815894
727400 61.217 181.264 55.9385 0.36365 0.0630059
727600 61.217 181.277 55.9385 0.36375 0.0654708
727800 61.217 181.29 55.9385 0.36385 0.0787685
728000 61.217 181.304 55.9385 0.36395 0.0358482
728200 61.217 181.317 55.9385 0.36405 0.0165697
728400 61.217 181.33 55.9385 0.36415 0.0402271
728600 61.217 181.344 55.9385 0.36425 0.00927783
728800 61.217 181.357 55.9385 0.36435 0.023905
729000 61.217 181.37 55.9385 0.36445 -0.0182588
729200 61.217 181.383 55.9385 0.36455 -0.024063
729400 61.217 181.397 55.9385 0.36465 -0.0248837
729600 61.217 181.41 55.9385 0.36475 -0.0361814
729800 61.217 181.423 55.9385 0.36485 -0.0506467
730000 61.217 181.437 55.9385 0.36495 -0.0867113
730200 61.217 181.45 55.9385 0.36505 -0.0803611
730400 61.217 181.463 55.9385 0.36515 -0.0815139
730600 61.217 181.476 55.9385 0.36525 -0.066756
730800 61.217 181.49 55.9385 0.36535 -0.0619424
731000 61.217 181.503 55.9385 0.36545 -0.0571566
731200 61.217 181.516 55.9385 0.36555 -0.0621765
731400 61.217 181.53 55.9385 0.36565 -0.0457352
731600 61.217 181.543 55.9385 0.36575 -0.0173624
731800 61.217 181.556 55.9385 0.36585 -0.0194466
732000 61.217 181.569 55.9385 0.36595 0.00411361
732200 61.217 181.583 55.9385 0.36605 0.0289958
732400 61.217 181.596 55.9385 0.36615 0.0312014
732600 61.217 181.609 55.9385 0.36625 0.0183167
732800 61.217 181.623 55.9385 0.36635 0.0725122
733000 61.217 181.636 55.9385 0.36645 0.0580764
733200 61.217 181.649 55.9385 0.36655 0.0836539
733400 61.217 181.663 55.9385 0.36665 0.0839575
733600 61.217 181.676 55.9385 0.36675 0.0501203
733800 61.217 181.689 55.9385 0.36685 0.0924668
734000 61.217 181.702 55.9385 0.36695 0.0850613
734200 61.217 181.716 55.9385 0.36705 0.0562207
734400 61.217 181.729 55.9385 0.36715 0.0757413
734600 61.217 181.742 55.9385 0.36725 0.0400049
734800 61.217 181.756 55.9385 0.36735 0.0325966
735000 61.217 181.769 55.9385 0.36745 0.0193898
735200 61.217 181.782 55.9385 0.36755 0.023453
735400 61.217 181.795 55.9385 0.36765 -0.0281637
735600 61.217 181.809 55.9385 0.36775 -0.0167699
735800 61.217 181.822 55.9385 0.36785 -0.0511633
736000 61.217 181.835 55.9385 0.36795 -0.0537362
736200 61.217 181.849 55.9385 0.36805 -0.0624602
736400 61.217 181.862 55.9385 0.36815 -0.0834906
736600 61.217 181.875 55.9385 0.36825 -0.0458418
736800 61.217 181.889 55.9385 0.36835 -0.111183
737000 61.217 181.902 55.9385 0.36845 -0.0618893
737200 61.217 181.915 55.9385 0.36855 -0.0601193
737400 61.217 181.928 55.9385 0.36865 -0.0917834
737600 61.217 181.942 55.9385 0.36875 -0.0406465
737800 61.217 181.955 55.9385 0.36885 -0.0475042
738000 61.217 181.968 55.9385 0.36895 -0.0338732
738200 61.217 181.982 55.9385 0.36905 -0.00185513
738400 61.217 181.995 55.9385 0.36915 0.00600398
738600 61.217 182.008 55.9385 0.36925 0.0215532
738800 61.217 182.021 55.9385 0.36935 0.0516223
739000 61.217 182.035 55.9385 0.36945 0.031166
739200 61.217 182.048 55.9385 0.36955 0.061028
739400 61.217 182.061 55.9385 0.36965 0.0785393
739600 61.217 182.075 55.9385 0.36975 0.0490337
739800 61.217 182.088 55.9385 0.36985 0.0555607
740000 61.217 182.101 55.9385 0.36995 0.101598
740200 61.217 182.114 55.9385 0.37005 0.0587088
740400 61.217 182.128 55.9385 0.37015 0.0832975
740600 61.217 182.141 55.9385 0.37025 0.0652189
740800 61.217 182.154 55.9385 0.37035 0.0220169
741000 61.217 182.168 55.9385 0.37045 0.0643351
741200 61.217 182.181 55.9385 0.37055 -0.000988335
741400 61.217 182.194 55.9385 0.37065 0.009205
741600 61.217 182.208 55.9385 0.37075 0.0308942
741800 61.217 182.221 55.9385 0.37085 -0.0354141
742000 61.217 182.234 55.9385 0.37095 -0.0623109
742200 61.217 182.247 55.9385 0.37105 -0.0217044
742400 61.217 182.261 55.9385 0.37115 -0.0723946
742600 61.217 182.274 55.9385 0.37125 -0.0488237
742800 61.217 182.287 55.9385 0.37135 -0.0770397
743000 61.217 182.301 55.9385 0.37145 -0.0710813
743200 61.217 182.314 55.9385 0.37155 -0.0599655
743400 61.217 182.327 55.9385 0.37165 -0.0823338
743600 61.217 182.34 55.9385 0.37175 -0.0490739
743800 61.217 182.354 55.9385 0.37185 -0.0262577
744000 61.217 182.367 55.9385 0.37195 -0.0551754
744200 61.217 182.38 55.9385 0.37205 -0.0339859
744400 61.217 182.394 55.9385 0.37215 -0.0274575
744600 61.217 182.407 55.9385 0.37225 -0.00869629
744800 61.217 182.42 55.9385 0.37235 0.0170742
745000 61.217 182.433 55.9385 0.37245 0.0179038
745200 61.217 182.447 55.9385 0.37255 0.0464122
745400 61.217 182.46 55.9385 0.37265 0.0458627
745600 61.217 182.473 55.9385 0.37275 0.0324579
745800 61.217 182.487 55.9385 0.37285 0.0832345
746000 61.217 182.5 55.9385 0.37295 0.0950208
746200 61.217 182.513 55.9385 0.37305 0.0695776
746400 61.217 182.527 55.9385 0.37315 0.0559668
746600 61.217 182.54 55.9385 0.37325 0.0622372
746800 61.217 182.553 55.9385 0.37335 0.073739
747000 61.217 182.566 55.9385 0.37345 0.0389512
747200 61.217 182.58 55.9385 0.37355 0.0207693
747400 61.217 182.593 55.9385 0.37365 0.0514888
747600 61.217 182.606 55.9385 0.37375 -0.00689256
747800 61.217 182.62 55.9385 0.37385 0.0431953
748000 61.217 182.633 55.9385 0.37395 -0.00211775
748200 61.217 182.646 55.9385 0.37405 -0.028941
748400 61.217 182.659 55.9385 0.37415 0.022529
748600 61.217 182.673 55.9385 0.37425 -0.0590026
748800 61.217 182.686 55.9385 0.37435 -0.0685611
749000 61.217 182.699 55.9385 0.37445 -0.0651274
749200 61.217 182.713 55.9385 0.37455 -0.0592628
749400 61.217 182.726 55.9385 0.37465 -0.0590922
749600 61.217 182.739 55.9385 0.37475 -0.0962316
749800 61.217 182.753 55.9385 0.37485 -0.0380353
750000 61.217 182.766 55.9385 0.37495 -0.0558544
750200 61.217 182.779 55.9385 0.37505 -0.0519841
750400 61.217 182.792 55.9385 0.37515 -0.0292745
750600 61.217 182.806 55.9385 0.37525 -0.0467921
750800 61.217 182.819 55.9385 0.37535 -0.00495075
751000 61.217 182.832 55.9385 0.37545 -0.012312
751200 61.217 182.846 55.9385 0.37555 0.00373147
751400 61.217 182.859 55.9385 0.37565 0.0028066
751600 61.217 182.872 55.9385 0.37575 -0.000426465
751800 61.217 182.885 55.9385 0.37585 0.0547722
752000 61.217 182.899 55.9385 0.37595 0.0238977
752200 61.217 182.912 55.9385 0.37605 0.0578275
752400 61.217 182.925 55.9385 0.37615 0.0753285
752600 61.217 182.939 55.9385 0.37625 0.037348
752800 61.217 182.952 55.9385 0.37635 0.0987243
753000 61.217 182.965 55.9385 0.37645 0.0341175
753200 61.217 182.978 55.9385 0.37655 0.0488149
753400 61.217 182.992 55.9385 0.37665 0.0455828
753600 61.217 183.005 55.9385 0.37675 0.0186908
753800 61.217 183.018 55.9385 0.37685 0.071154
754000 61.217 183.032 55.9385 0.37695 -0.000602182
754200 61.217 183.045 55.9385 0.37705 0.0429853
754400 61.217 183.058 55.9385 0.37715 0.0102125
754600 61.217 183.072 55.9385 0.37725 -0.0233467
754800 61.217 183.085 55.9385 0.37735 0.0184706
755000 61.217 183.098 55.9385 0.37745 -0.0166393
755200 61.217 183.111 55.9385 0.37755 -0.0375265
755400 61.217 183.125 55.9385 0.37765 -0.0478601
755600 61.217 183.138 55.9385 0.37775 -0.0595002
755800 61.217 183.151 55.9385 0.37785 -0.0472946
756000 61.217 183.165 55.9385 0.37795 -0.0569568
756200 61.217 183.178 55.9385 0.37805 -0.0790794
756400 61.217 183.191 55.9385 0.37815 -0.0443738
756600 61.217 183.204 55.9385 0.37825 -0.0256985
756800 61.217 183.218 55.9385 0.37835 -0.0137887
757000 61.217 183.231 55.9385 0.37845 -0.0459386
757200 61.217 183.244 55.9385 0.37855 -0.00427151
757400 61.217 183.258 55.9385 0.37865 -0.00125133
757600 61.217 183.271 55.9385 0.37875 -0.0365623
757800 61.217 183.284 55.9385 0.37885 0.0540494
758000 61.217 183.298 55.9385 0.37895 0.00218443
758200 61.217 183.311 55.9385 0.37905 0.0460197
758400 61.217 183.324 55.9385 0.37915 0.0754449
758600 61.217 183.337 55.9385 0.37925 0.0181092
758800 61.217 183.351 55.9385 0.37935 0.0827721
759000 61.217 183.364 55.9385 0.37945 0.0339317
759200 61.217 183.377 55.9385 0.37955 0.0243808
759400 61.217 183.391 55.9385 0.37965 0.0750424
759600 61.217 183.404 55.9385 0.37975 0.0258287
759800 61.217 183.417 55.9385 0.37985 0.0303042
760000 61.217 183.43 55.9385 0.37995 0.00783337
760200 61.217 183.444 55.9385 0.38005 -0.00889599
760400 61.217 183.457 55.9385 0.38015 0.038016
760600 61.217 183.47 55.9385 0.38025 -0.0460578
760800 61.217 183.484 55.9385 0.38035 -0.0292229
761000 61.217 183.497 55.9385 0.38045 -0.0273746
761200 61.217 183.51 55.9385 0.38055 -0.0542993
761400 61.217 183.523 55.9385 0.38065 -0.0144986
761600 61.217 183.537 55.9385 0.38075 -0.0613807
761800 61.217 183.55 55.9385 0.38085 -0.0504497
762000 61.217 183.563 55.9385 0.38095 -0.0396434
762200 61.217 183.577 55.9385 0.38105 -0.0837854
762400 61.217 183.59 55.9385 0.38115 -0.0215619
762600 61.217 183.603 55.9385 0.38125 -0.0186382
762800 61.217 183.617 55.9385 0.38135 -0.0112854
763000 61.217 183.63 55.9385 0.38145 -0.0110748
763200 61.217 183.643 55.9385 0.38155 -0.0128089
763400 61.217 183.656 55.9385 0.38165 0.0109117
763600 61.217 183.67 55.9385 0.38175 0.0347886
763800 61.217 183.683 55.9385 0.38185 0.0245419
764000 61.217 183.696 55.9385 0.38195 0.0490823
764200 61.217 183.71 55.9385 0.38205 0.0472264
764400 61.217 183.723 55.9385 0.38215 0.0461747
764600 61.217 183.736 55.9385 0.38225 0.0492544
764800 61.217 183.749 55.9385 0.38235 0.0407506
765000 61.217 183.763 55.9385 0.38245 0.0696069
765200 61.217 183.776 55.9385 0.38255 0.074104
765400 61.217 183.789 55.9385 0.38265 0.0121428
765600 61.217 183.803 55.9385 0.38275 0.0464551
765800 61.217 183.816 55.9385 0.38285 0.0292212
766000 61.217 183.829 55.9385 0.38295 0.0323099
766200 61.217 183.843 55.9385 0.38305 0.011387
766400 61.217 183.856 55.9385 0.38315 -0.0126252
766600 61.217 183.869 55.9385 0.38325 -0.0187817
766800 61.217 183.882 55.9385 0.38335 -0.0294425
767000 61.217 183.896 55.9385 0.38345 -0.0356743
767200 61.217 183.909 55.9385 0.38355 -0.0330466
767400 61.217 183.922 55.9385 0.38365 -0.0475155
767600 61.217 183.936 55.9385 0.38375 -0.0601992
767800 61.217 183.949 55.9385 0.38385 -0.0489186
768000 61.217 183.962 55.9385 0.38395 -0.0563037
768200 61.217 183.975 55.9385 0.38405 -0.0607376
768400 61.217 183.989 55.9385 0.38415 -0.0452808
768600 61.217 184.002 55.9385 0.38425 -0.046593
768800 61.217 184.015 55.9385 0.38435 -0.0477944
769000 61.217 184.029 55.9385 0.38445 -0.000993355
769200 61.217 184.042 55.9385 0.38455 -0.0226145
769400 61.217 184.055 55.9385 0.38465 0.00314864
769600 61.217 184.068 55.9385 0.38475 0.0210428
769800 61.217 184.082 55.9385 0.38485 0.0211968
770000 61.217 184.095 55.9385 0.38495 0.018305
770200 61.217 184.108 55.9385 0.38505 0.0369116
770400 61.217 184.122 55.9385 0.38515 0.0467916
770600 61.217 184.135 55.9385 0.38525 0.0541928
770800 61.217 184.148 55.9385 0.38535 0.0463204
771000 61.217 184.162 55.9385 0.38545 0.0631972
771200 61.217 184.175 55.9385 0.38555 0.0515387
771400 61.217 184.188 55.9385 0.38565 0.0576247
771600 61.217 184.201 55.9385 0.38575 0.0449886
771800 61.217 184.215 55.9385 0.38585 0.0141303
772000 61.217 184.228 55.9385 0.38595 0.0476174
772200 61.217 184.241 55.9385 0.38605 0.0313066
772400 61.217 184.255 55.9385 0.38615 0.00455368
772600 61.217 184.268 55.9385 0.38625 0.0203705
772800 61.217 184.281 55.9385 0.38635 0.00329589
773000 61.217 184.294 55.9385 0.38645 -0.0396181
773200 61.217 184.308 55.9385 0.38655 -0.0263551
773400 61.217 184.321 55.9385 0.38665 -0.0584908
773600 61.217 184.334 55.9385 0.38675 -0.025498
773800 61.217 184.348 55.9385 0.38685 -0.055469
774000 61.217 184.361 55.9385 0.38695 -0.0587778
774200 61.217 184.374 55.9385 0.38705 -0.0539772
774400 61.217 184.388 55.9385 0.38715 -0.035491
774600 61.217 184.401 55.9385 0.38725 -0.0577896
774800 61.217 184.414 55.9385 0.38735 -0.0556539
775000 61.217 184.427 55.9385 0.38745 -0.0506763
775200 61.217 184.441 55.9385 0.38755 -0.0312683
775400 61.217 184.454 55.9385 0.38765 -0.0228947
775600 61.217 184.467 55.9385 0.38775 -0.0184098
775800 61.217 184.481 55.9385 0.38785 0.00669875
776000 61.217 184.494 55.9385 0.38795 0.0325076
776200 61.217 184.507 55.9385 0.38805 0.0264257
776400 61.217 184.52 55.9385 0.38815 0.0671389
776600 61.217 184.534 55.9385 0.38825 0.0422508
776800 61.217 184.547 55.9385 0.38835 0.0470241
777000 61.217 184.56 55.9385 0.38845 0.0571092
777200 61.217 184.574 55.9385 0.38855 0.0868115
777400 61.217 184.587 55.9385 0.38865 0.0539849
777600 61.217 184.6 55.9385 0.38875 0.0565077
777800 61.217 184.613 55.9385 0.38885 0.0452259
778000 61.217 184.627 55.9385 0.38895 0.0440064
778200 61.217 184.64 55.9385 0.38905 0.0539784
778400 61.217 184.653 55.9385 0.38915 0.024726
778600 61.217 184.667 55.9385 0.38925 0.0333835
778800 61.217 184.68 55.9385 0.38935 0.0199495
779000 61.217 184.693 55.9385 0.38945 -0.0140277
779200 61.217 184.707 55.9385 0.38955 -0.022663
779400 61.217 184.72 55.9385 0.38965 -0.0240182
779600 61.217 184.733 55.9385 0.38975 -0.0424085
779800 61.217 184.746 55.9385 0.38985 -0.0753658
780000 61.217 184.76 55.9385 0.38995 -0.0544259
780200 61.217 184.773 55.9385 0.39005 -0.0822967
780400 61.217 184.786 55.9385 0.39015 -0.0313591
780600 61.217 184.8 55.9385 0.39025 -0.0655729
780800 61.217 184.813 55.9385 0.39035 -0.0361886
781000 61.217 184.826 55.9385 0.39045 -0.0726863
781200 61.217 184.839 55.9385 0.39055 -0.0834362
781400 61.217 184.853 55.9385 0.39065 -0.0201641
781600 61.217 184.866 55.9385 0.39075 -0.0428724
781800 61.217 184.879 55.9385 0.39085 -0.0342153
782000 61.217 184.893 55.9385 0.39095 -0.0145357
782200 61.217 184.906 55.9385 0.39105 -0.00287771
782400 61.217 184.919 55.9385 0.39115 0.0310968
782600 61.217 184.932 55.9385 0.39125 0.0387288
782800 61.217 184.946 55.9385 0.39135 0.0269124
783000 61.217 184.959 55.9385 0.39145 0.0717897
783200 61.217 184.972 55.9385 0.39155 0.0449508
783400 61.217 184.986 55.9385 0.39165 0.0537381
783600 61.217 184.999 55.9385 0.39175 0.0738078
783800 61.217 185.012 55.9385 0.39185 0.0689574
784000 61.217 185.026 55.9385 0.39195 0.109366
784200 61.217 185.039 55.9385 0.39205 0.0399331
784400 61.217 185.052 55.9385 0.39215 0.0453086
784600 61.217 185.065 55.9385 0.39225 0.057475
784800 61.217 185.079 55.9385 0.39235 0.0282944
785000 61.217 185.092 55.9385 0.39245 0.0601899
785200 61.217 185.105 55.9385 0.39255 0.0252903
785400 61.217 185.119 55.9385 0.39265 0.00149117
785600 61.217 185.132 55.9385 0.39275 -0.00111186
785800 61.217 185.145 55.9385 0.39285 -0.0483023
786000 61.217 185.158 55.9385 0.39295 -0.0298783
786200 61.217 185.172 55.9385 0.39305 -0.0494448
786400 61.217 185.185 55.9385 0.39315 -0.0543077
786600 61.217 185.198 55.9385 0.39325 -0.0493931
786800 61.217 185.212 55.9385 0.39335 -0.07869
787000 61.217 185.225 55.9385 0.39345 -0.0494842
787200 61.217 185.238 55.9385 0.39355 -0.079741
787400 61.217 185.252 55.9385 0.39365 -0.0486574
787600 61.217 185.265 55.9385 0.39375 -0.0649665
787800 61.217 185.278 55.9385 0.39385 -0.075849
788000 61.217 185.291 55.9385 0.39395 -0.00392815
788200 61.217 185.305 55.9385 0.39405 -0.050458
788400 61.217 185.318 55.9385 0.39415 -0.0188669
788600 61.217 185.331 55.9385 0.39425 0.0478444
788800 61.217 185.345 55.9385 0.39435 -0.0121622
789000 61.217 185.358 55.9385 0.39445 0.0382219
789200 61.217 185.371 55.9385 0.39455 0.0373724
789400 61.217 185.384 55.9385 0.39465 0.0436487
789600 61.217 185.398 55.9385 0.39475 0.070304
789800 61.217 185.411 55.9385 0.39485 0.0356547
790000 61.217 185.424 55.9385 0.39495 0.0754172
790200 61.217 185.438 55.9385 0.39505 0.0752805
790400 61.217 185.451 55.9385 0.39515 0.0652372
790600 61.217 185.464 55.9385 0.39525 0.0667564
790800 61.217 185.477 55.9385 0.39535 0.0280429
791000 61.217 185.491 55.9385 0.39545 0.0301752
791200 61.217 185.504 55.9385 0.39555 0.0173337
791400 61.217 185.517 55.9385 0.39565 0.0285919
791600 61.217 185.531 55.9385 0.39575 -0.0263903
791800 61.217 185.544 55.9385 0.39585 -0.0129737
792000 61.217 185.557 55.9385 0.39595 -0.027466
792200 61.217 185.571 55.9385 0.39605 -0.0276757
792400 61.217 185.584 55.9385 0.39615 -0.00884545
792600 61.217 185.597 55.9385 0.39625 -0.0701917
792800 61.217 185.61 55.9385 0.39635 -0.024511
793000 61.217 185.624 55.9385 0.39645 -0.0509852
793200 61.217 185.637 55.9385 0.39655 -0.0917284
793400 61.217 185.65 55.9385 0.39665 -0.0236667
793600 61.217 185.664 55.9385 0.39675 -0.0587342
793800 61.217 185.677 55.9385 0.39685 -0.0548671
794000 61.217 185.69 55.9385 0.39695 -0.0337662
794200 61.217 185.703 55.9385 0.39705 -0.0317046
794400 61.217 185.717 55.9385 0.39715 0.00444128
794600 61.217 185.73 55.9385 0.39725 0.0207738
794800 61.217 185.743 55.9385 0.39735 0.0189488
795000 61.217 185.757 55.9385 0.39745 0.0239791
795200 61.217 185.77 55.9385 0.39755 0.0163958
795400 61.217 185.783 55.9385 0.39765 0.0673374
795600 61.217 185.797 55.9385 0.39775 0.0330486
795800 61.217 185.81 55.9385 0.39785 0.0539462
796000 61.217 185.823 55.9385 0.39795 0.0665218
796200 61.217 185.836 55.9385 0.39805 0.023374
796400 61.217 185.85 55.9385 0.39815 0.0548775
796600 61.217 185.863 55.9385 0.39825 0.0679968
796800 61.217 185.876 55.9385 0.39835 0.0351744
797000 61.217 185.89 55.9385 0.39845 0.0567947
797200 61.217 185.903 55.9385 0.39855 0.032573
797400 61.217 185.916 55.9385 0.39865 0.000426893
797600 61.217 185.929 55.9385 0.39875 0.0132649
797800 61.217 185.943 55.9385 0.39885 -0.0170293
798000 61.217 185.956 55.9385 0.39895 -0.0182237
798200 61.217 185.969 55.9385 0.39905 -0.0263912
798400 61.217 185.983 55.9385 0.39915 -0.0443415
798600 61.217 185.996 55.9385 0.39925 -0.0511976
798800 61.217 186.009 55.9385 0.39935 -0.047719
799000 61.217 186.022 55.9385 0.39945 -0.0491571
799200 61.217 186.036 55.9385 0.39955 -0.0516396
799400 61.217 186.049 55.9385 0.39965 -0.0412516
799600 61.217 186.062 55.9385 0.39975 -0.0717879
799800 61.217 186.076 55.9385 0.39985 -0.0541067
800000 61.217 186.089 55.9385 0.39995 -0.0422924
800200 61.217 186.102 55.9385 0.40005 -0.0528372
800400 61.217 186.116 55.9385 0.40015 0.00388795
800600 61.217 186.129 55.9385 0.40025 -0.0150734
800800 61.217 186.142 55.9385 0.40035 -0.00367693
801000 61.217 186.155 55.9385 0.40045 0.0267332
801200 61.217 186.169 55.9385 0.40055 0.0243097
801400 61.217 186.182 55.9385 0.40065 0.0578523
801600 61.217 186.195 55.9385 0.40075 0.050957
801800 61.217 186.209 55.9385 0.40085 0.0287739
802000 61.217 186.222 55.9385 0.40095 0.0771534
802200 61.217 186.235 55.9385 0.40105 0.0433501
802400 61.217 186.248 55.9385 0.40115 0.071555
802600 61.217 186.262 55.9385 0.40125 0.0605184
802800 61.217 186.275 55.9385 0.40135 0.0393169
803000 61.217 186.288 55.9385 0.40145 0.0482268
803200 61.217 186.302 55.9385 0.40155 0.0226858
803400 61.217 186.315 55.9385 0.40165 0.0134712
803600 61.217 186.328 55.9385 0.40175 0.036153
803800 61.217 186.342 55.9385 0.40185 0.0168322
804000 61.217 186.355 55.9385 0.40195 -0.0310464
804200 61.217 186.368 55.9385 0.40205 -0.00647153
804400 61.217 186.381 55.9385 0.40215 -0.0337012
804600 61.217 186.395 55.9385 0.40225 -0.0588615
804800 61.217 186.408 55.9385 0.40235 -0.0232473
805000 61.217 186.421 55.9385 0.40245 -0.0645712
805200 61.217 186.435 55.9385 0.40255 -0.0478864
805400 61.217 186.448 55.9385 0.40265 -0.0440903
805600 61.217 186.461 55.9385 0.40275 -0.0238709
805800 61.217 186.474 55.9385 0.40285 -0.0526058
806000 61.217 186.488 55.9385 0.40295 -0.049376
806200 61.217 186.501 55.9385 0.40305 -0.0224704
806400 61.217 186.514 55.9385 0.40315 -0.0588396
806600 61.217 186.528 55.9385 0.40325 0.00516049
806800 61.217 186.541 55.9385 0.40335 -0.007527
807000 61.217 186.554 55.9385 0.40345 0.0155686
807200 61.217 186.567 55.9385 0.40355 0.0112366
807400 61.217 186.581 55.9385 0.40365 0.0112058
807600 61.217 186.594 55.9385 0.40375 0.0520443
807800 61.217 186.607 55.9385 0.40385 0.0526257
808000 61.217 186.621 55.9385 0.40395 0.0445113
808200 61.217 186.634 55.9385 0.40405 0.0434532
808400 61.217 186.647 55.9385 0.40415 0.0412668
808600 61.217 186.661 55.9385 0.40425 0.0663089
808800 61.217 186.674 55.9385 0.40435 0.0595544
809000 61.217 186.687 55.9385 0.40445 0.0235227
809200 61.217 186.7 55.9385 0.40455 0.0475591
809400 61.217 186.714 55.9385 0.40465 0.0248725
809600 61.217 186.727 55.9385 0.40475 0.0151473
809800 61.217 186.74 55.9385 0.40485 0.00187469
810000 61.217 186.754 55.9385 0.40495 0.0265249
810200 61.217 186.767 55.9385 0.40505 -0.0120595
810400 61.217 186.78 55.9385 0.40515 -0.0374071
810600 61.217 186.793 55.9385 0.40525 -0.020757
810800 61.217 186.807 55.9385 0.40535 -0.0362953
811000 61.217 186.82 55.9385 0.40545 -0.0747791
811200 61.217 186.833 55.9385 0.40555 -0.0385515
811400 61.217 186.847 55.9385 0.40565 -0.0695644
811600 61.217 186.86 55.9385 0.40575 -0.0492255
811800 61.217 186.873 55.9385 0.40585 -0.0422966
812000 61.217 186.887 55.9385 0.40595 -0.032288
812200 61.217 186.9 55.9385 0.40605 -0.0198656
812400 61.217 186.913 55.9385 0.40615 -0.0590208
812600 61.217 186.926 55.9385 0.40625 -0.00792715
812800 61.217 186.94 55.9385 0.40635 -0.0348167
813000 61.217 186.953 55.9385 0.40645 -0.00608678
813200 61.217 186.966 55.9385 0.40655 0.0140557
813400 61.217 186.98 55.9385 0.40665 -0.00344562
813600 61.217 186.993 55.9385 0.40675 0.0503038
813800 61.217 187.006 55.9385 0.40685 0.00713512
814000 61.217 187.019 55.9385 0.40695 0.0793427
814200 61.217 187.033 55.9385 0.40705 0.0714335
814400 61.217 187.046 55.9385 0.40715 0.0134232
814600 61.217 187.059 55.9385 0.40725 0.0971513
814800 61.217 187.073 55.9385 0.40735 0.0376031
815000 61.217 187.086 55.9385 0.40745 0.050785
815200 61.217 187.099 55.9385 0.40755 0.053319
815400 61.217 187.112 55.9385 0.40765 0.012909
815600 61.217 187.126 55.9385 0.40775 0.0693691
815800 61.217 187.139 55.9385 0.40785 0.0108436
816000 61.217 187.152 55.9385 0.40795 0.031728
816200 61.217 187.166 55.9385 0.40805 0.0191428
816400 61.217 187.179 55.9385 0.40815 -0.0351744
816600 61.217 187.192 55.9385 0.40825 0.0227083
816800 61.217 187.206 55.9385 0.40835 -0.00536863
817000 61.217 187.219 55.9385 0.40845 -0.0213962
817200 61.217 187.232 55.9385 0.40855 -0.0580063
817400 61.217 187.245 55.9385 0.40865 -0.0533775
817600 61.217 187.259 55.9385 0.40875 -0.0400868
817800 61.217 187.272 55.9385 0.40885 -0.0840065
818000 61.217 187.285 55.9385 0.40895 -0.0360674
818200 61.217 187.299 55.9385 0.40905 -0.0627895
818400 61.217 187.312 55.9385 0.40915 -0.0740472
818600 61.217 187.325 55.9385 0.40925 -0.0070611
818800 61.217 187.338 55.9385 0.40935 -0.0332269
819000 61.217 187.352 55.9385 0.40945 -0.0276579
819200 61.217 187.365 55.9385 0.40955 -0.0223136
819400 61.217 187.378 55.9385 0.40965 -0.0488419
819600 61.217 187.392 55.9385 0.40975 0.0328577
819800 61.217 187.405 55.9385 0.40985 -0.0137253
820000 61.217 187.418 55.9385 0.40995 0.00509337
820200 61.217 187.431 55.9385 0.41005 0.0572027
820400 61.217 187.445 55.9385 0.41015 0.0219197
820600 61.217 187.458 55.9385 0.41025 0.0686879
820800 61.217 187.471 55.9385 0.41035 0.018859
821000 61.217 187.485 55.9385 0.41045 0.0562922
821200 61.217 187.498 55.9385 0.41055 0.0880011
821400 61.217 187.511 55.9385 0.41065 0.0197763
821600 61.217 187.525 55.9385 0.41075 0.0789431
821800 61.217 187.538 55.9385 0.41085 0.0422977
822000 61.217 187.551 55.9385 0.41095 0.0183439
822200 61.217 187.564 55.9385 0.41105 0.04296
822400 61.217 187.578 55.9385 0.41115 0.00919364
822600 61.217 187.591 55.9385 0.41125 0.0455236
822800 61.217 187.604 55.9385 0.41135 -0.00212803
823000 61.217 187.618 55.9385 0.41145 0.0168183
823200 61.217 187.631 55.9385 0.41155 -0.00957664
823400 61.217 187.644 55.9385 0.41165 -0.0376694
823600 61.217 187.657 55.9385 0.41175 -0.0171336
823800 61.217 187.671 55.9385 0.41185 -0.0628886
824000 61.217 187.684 55.9385 0.41195 -0.0298018
824200 61.217 187.697 55.9385 0.41205 -0.0524476
824400 61.217 187.711 55.9385 0.41215 -0.0662249
824600 61.217 187.724 55.9385 0.41225 -0.0404027
824800 61.217 187.737 55.9385 0.41235 -0.0732232
825000 61.217 187.751 55.9385 0.41245 -0.0239666
825200 61.217 187.764 55.9385 0.41255 -0.0408854
825400 61.217 187.777 55.9385 0.41265 -0.0412479
825600 61.217 187.79 55.9385 0.41275 0.0151422
825800 61.217 187.804 55.9385 0.41285 -0.0362242
826000 61.217 187.817 55.9385 0.41295 0.0212665
826200 61.217 187.83 55.9385 0.41305 0.0117239
826400 61.217 187.844 55.9385 0.41315 -0.0162151
826600 61.217 187.857 55.9385 0.41325 0.0679752
826800 61.217 187.87 55.9385 0.41335 0.0466011
827000 61.217 187.883 55.9385 0.41345 0.0420799
827200 61.217 187.897 55.9385 0.41355 0.0675421
827400 61.217 187.91 55.9385 0.41365 0.0479969
827600 61.217 187.923 55.9385 0.41375 0.0547852
827800 61.217 187.937 55.9385 0.41385 0.0410165
828000 61.217 187.95 55.9385 0.41395 0.033037
828200 61.217 187.963 55.9385 0.41405 0.0654329
828400 61.217 187.976 55.9385 0.41415 0.0192026
828600 61.217 187.99 55.9385 0.41425 -0.00950559
828800 61.217 188.003 55.9385 0.41435 0.0199322
829000 61.217 188.016 55.9385 0.41445 0.000902048
829200 61.217 188.03 55.9385 0.41455 0.019405
829400 61.217 188.043 55.9385 0.41465 -0.0405295
829600 61.217 188.056 55.9385 0.41475 -0.0262525
829800 61.217 188.07 55.9385 0.41485 -0.0314687
830000 61.217 188.083 55.9385 0.41495 -0.0818894
830200 61.217 188.096 55.9385 0.41505 -0.00474961
830400 61.217 188.109 55.9385 0.41515 -0.0556619
830600 61.217 188.123 55.9385 0.41525 -0.0564829
830800 61.217 188.136 55.9385 0.41535 -0.0481076
831000 61.217 188.149 55.9385 0.41545 -0.0424017
831200 61.217 188.163 55.9385 0.41555 -0.0125878
831400 61.217 188.176 55.9385 0.41565 -0.0360743
831600 61.217 188.189 55.9385 0.41575 -0.0163149
831800 61.217 188.202 55.9385 0.41585 0.0080658
832000 61.217 188.216 55.9385 0.41595 -0.014047
832200 61.217 188.229 55.9385 0.41605 -0.00337619
832400 61.217 188.242 55.9385 0.41615 0.0220519
832600 61.217 188.256 55.9385 0.41625 0.0122226
832800 61.217 188.269 55.9385 0.41635 0.0190841
833000 61.217 188.282 55.9385 0.41645 0.0402642
833200 61.217 188.296 55.9385 0.41655 0.0398727
833400 61.217 188.309 55.9385 0.41665 0.0728094
833600 61.217 188.322 55.9385 0.41675 0.053648
833800 61.217 188.335 55.9385 0.41685 0.0316992
834000 61.217 188.349 55.9385 0.41695 0.0623072
834200 61.217 188.362 55.9385 0.41705 0.020244
834400 61.217 188.375 55.9385 0.41715 0.0345231
834600 61.217 188.389 55.9385 0.41725 0.0286775
834800 61.217 188.402 55.9385 0.41735 0.0063223
835000 61.217 188.415 55.9385 0.41745 0.00990698
835200 61.217 188.428 55.9385 0.41755 -0.00438578
835400 61.217 188.442 55.9385 0.41765 0.0272178
835600 61.217 188.455 55.9385 0.41775 -0.0176108
835800 61.217 188.468 55.9385 0.41785 -0.0341982
836000 61.217 188.482 55.9385 0.41795 -0.0193204
836200 61.217 188.495 55.9385 0.41805 -0.0684814
836400 61.217 188.508 55.9385 0.41815 -0.0166539
836600 61.217 188.521 55.9385 0.41825 -0.035086
836800 61.217 188.535 55.9385 0.41835 -0.0469044
837000 61.217 188.548 55.9385 0.41845 -0.0285723
837200 61.217 188.561 55.9385 0.41855 -0.0540292
837400 61.217 188.575 55.9385 0.41865 -0.00123399
837600 61.217 188.588 55.9385 0.41875 -0.02031
837800 61.217 188.601 55.9385 0.41885 -0.034057
838000 61.217 188.615 55.9385 0.41895 0.0118855
838200 61.217 188.628 55.9385 0.41905 -0.016647
838400 61.217 188.641 55.9385 0.41915 0.0322606
838600 61.217 188.654 55.9385 0.41925 0.0127025
838800 61.217 188.668 55.9385 0.41935 0.0295133
839000 61.217 188.681 55.9385 0.41945 0.0186277
839200 61.217 188.694 55.9385 0.41955 -0.00256233
839400 61.217 188.708 55.9385 0.41965 0.0657395
839600 61.217 188.721 55.9385 0.41975 0.0311551
839800 61.217 188.734 55.9385 0.41985 0.0194579
840000 61.217 188.747 55.9385 0.41995 0.0471373
840200 61.217 188.761 55.9385 0.42005 0.0100654
840400 61.217 188.774 55.9385 0.42015 0.0351704
840600 61.217 188.787 55.9385 0.42025 0.0101751
840800 61.217 188.801 55.9385 0.42035 0.00812976
841000 61.217 188.814 55.9385 0.42045 -0.00546377
841200 61.217 188.827 55.9385 0.42055 0.00983331
841400 61.217 188.841 55.9385 0.42065 -0.00393456
841600 61.217 188.854 55.9385 0.42075 -0.0371624
841800 61.217 188.867 55.9385 0.42085 0.00970135
842000 61.217 188.88 55.9385 0.42095 -0.0319296
842200 61.217 188.894 55.9385 0.42105 -0.0226433
842400 61.217 188.907 55.9385 0.42115 -0.019593
842600 61.217 188.92 55.9385 0.42125 -0.0314405
842800 61.217 188.934 55.9385 0.42135 -0.0240771
843000 61.217 188.947 55.9385 0.42145 -0.00615287
843200 61.217 188.96 55.9385 0.42155 -0.0248321
843400 61.217 188.973 55.9385 0.42165 -0.010153
843600 61.217 188.987 55.9385 0.42175 -0.0252619
843800 61.217 189 55.9385 0.42185 -0.00176631
844000 61.217 189.013 55.9385 0.42195 0.00430183
844200 61.217 189.027 55.9385 0.42205 -0.0119625
844400 61.217 189.04 55.9385 0.42215 0.0234339
844600 61.217 189.053 55.9385 0.42225 0.0192145
844800 61.217 189.066 55.9385 0.42235 -0.00117305
845000 61.217 189.08 55.9385 0.42245 0.0330729
845200 61.217 189.093 55.9385 0.42255 0.0349
845400 61.217 189.106 55.9385 0.42265 0.00984917
845600 61.217 189.12 55.9385 0.42275 0.0285364
845800 61.217 189.133 55.9385 0.42285 0.0514243
846000 61.217 189.146 55.9385 0.42295 0.00954198
846200 61.217 189.16 55.9385 0.42305 0.0199776
846400 61.217 189.173 55.9385 0.42315 0.047422
846600 61.217 189.186 55.9385 0.42325 -0.00510016
846800 61.217 189.199 55.9385 0.42335 0.0450536
847000 61.217 189.213 55.9385 0.42345 0.0071581
847200 61.217 189.226 55.9385 0.42355 -0.00626851
847400 61.217 189.239 55.9385 0.42365 0.00401229
847600 61.217 189.253 55.9385 0.42375 -0.0203315
847800 61.217 189.266 55.9385 0.42385 0.0109973
848000 61.217 189.279 55.9385 0.42395 -0.0251113
848200 61.217 189.292 55.9385 0.42405 -0.0508995
848400 61.217 189.306 55.9385 0.42415 0.010088
848600 61.217 189.319 55.9385 0.42425 -0.0574897
848800 61.217 189.332 55.9385 0.42435 -0.0380213
849000 61.217 189.346 55.9385 0.42445 -0.0311985
849200 61.217 189.359 55.9385 0.42455 -0.0437296
849400 61.217 189.372 55.9385 0.42465 -0.0356263
849600 61.217 189.385 55.9385 0.42475 -0.0233836
849800 61.217 189.399 55.9385 0.42485 -0.0117193
850000 61.217 189.412 55.9385 0.42495 -0.0149819
850200 61.217 189.425 55.9385 0.42505 -0.0304365
850400 61.217 189.439 55.9385 0.42515 0.0188809
850600 61.217 189.452 55.9385 0.42525 -0.00936109
850800 61.217 189.465 55.9385 0.42535 0.0325295
851000 61.217 189.479 55.9385 0.42545 0.0180957
851200 61.217 189.492 55.9385 0.42555 0.0116859
851400 61.217 189.505 55.9385 0.42565 0.0389824
851600 61.217 189.518 55.9385 0.42575 0.0420727
851800 61.217 189.532 55.9385 0.42585 0.0243709
852000 61.217 189.545 55.9385 0.42595 0.0457676
852200 61.217 189.558 55.9385 0.42605 0.0637136
852400 61.217 189.572 55.9385 0.42615 0.0463419
852600 61.217 189.585 55.9385 0.42625 0.0484461
852800 61.217 189.598 55.9385 0.42635 0.0069124
853000 61.217 189.611 55.9385 0.42645 0.0202925
853200 61.217 189.625 55.9385 0.42655 0.0269292
853400 61.217 189.638 55.9385 0.42665 -0.00532904
853600 61.217 189.651 55.9385 0.42675 0.0295565
853800 61.217 189.665 55.9385 0.42685 -0.0247021
854000 61.217 189.678 55.9385 0.42695 0.00138728
854200 61.217 189.691 55.9385 0.42705 -0.0219853
854400 61.217 189.705 55.9385 0.42715 -0.0307082
854600 61.217 189.718 55.9385 0.42725 0.00613537
854800 61.217 189.731 55.9385 0.42735 -0.0679275
855000 61.217 189.744 55.9385 0.42745 -0.0336277
855200 61.217 189.758 55.9385 0.42755 -0.0398565
855400 61.217 189.771 55.9385 0.42765 -0.0331837
855600 61.217 189.784 55.9385 0.42775 -0.0392744
855800 61.217 189.798 55.9385 0.42785 -0.0552315
856000 61.217 189.811 55.9385 0.42795 -0.00488239
856200 61.217 189.824 55.9385 0.42805 -0.0408021
856400 61.217 189.837 55.9385 0.42815 -0.00347298
856600 61.217 189.851 55.9385 0.42825 -0.00704807
856800 61.217 189.864 55.9385 0.42835 -0.0134372
857000 61.217 189.877 55.9385 0.42845 0.0149091
857200 61.217 189.891 55.9385 0.42855 0.0174047
857400 61.217 189.904 55.9385 0.42865 0.0308922
857600 61.217 189.917 55.9385 0.42875 0.0360617
857800 61.217 189.93 55.9385 0.42885 0.00849428
858000 61.217 189.944 55.9385 0.42895 0.059196
858200 61.217 189.957 55.9385 0.42905 0.0480691
858400 61.217 189.97 55.9385 0.42915 0.0314912
858600 61.217 189.984 55.9385 0.42925 0.0236047
858800 61.217 189.997 55.9385 0.42935 0.0452436
859000 61.217 190.01 55.9385 0.42945 0.0715526
859200 61.217 190.024 55.9385 0.42955 -0.0140196
859400 61.217 190.037 55.9385 0.42965 0.0407885
859600 61.217 190.05 55.9385 0.42975 0.0250396
859800 61.217 190.063 55.9385 0.42985 0.0122544
860000 61.217 190.077 55.9385 0.42995 0.0058549
860200 61.217 190.09 55.9385 0.43005 -0.0284699
860400 61.217 190.103 55.9385 0.43015 -0.0124644
860600 61.217 190.117 55.9385 0.43025 -0.0287155
860800 61.217 190.13 55.9385 0.43035 -0.024504
861000 61.217 190.143 55.9385 0.43045 -0.0327113
861200 61.217 190.156 55.9385 0.43055 -0.0407482
861400 61.217 190.17 55.9385 0.43065 -0.0282332
861600 61.217 190.183 55.9385 0.43075 -0.032113
861800 61.217 190.196 55.9385 0.43085 -0.053617
862000 61.217 190.21 55.9385 0.43095 -0.0131967
862200 61.217 190.223 55.9385 0.43105 -0.0510286
862400 61.217 190.236 55.9385 0.43115 -0.00821604
862600 61.217 190.25 55.9385 0.43125 -0.0270843
862800 61.217 190.263 55.9385 0.43135 -0.0343862
863000 61.217 190.276 55.9385 0.43145 0.0217048
863200 61.217 190.289 55.9385 0.43155 -0.0236699
863400 61.217 190.303 55.9385 0.43165 0.0122685
863600 61.217 190.316 55.9385 0.43175 0.031551
863800 61.217 190.329 55.9385 0.43185 0.00969596
864000 61.217 190.343 55.9385 0.43195 0.0456085
864200 61.217 190.356 55.9385 0.43205 0.0328809
864400 61.217 190.369 55.9385 0.43215 0.0254351
864600 61.217 190.382 55.9385 0.43225 0.0425497
864800 61.217 190.396 55.9385 0.43235 0.0306687
865000 61.217 190.409 55.9385 0.43245 0.0603041
865200 61.217 190.422 55.9385 0.43255 0.0290151
865400 61.217 190.436 55.9385 0.43265 0.0323334
865600 61.217 190.449 55.9385 0.43275 0.0309036
865800 61.217 190.462 55.9385 0.43285 0.00851181
866000 61.217 190.475 55.9385 0.43295 0.0251254
866200 61.217 190.489 55.9385 0.43305 0.0168567
866400 61.217 190.502 55.9385 0.43315 0.00471364
866600 61.217 190.515 55.9385 0.43325 0.00472845
866800 61.217 190.529 55.9385 0.43335 0.000205416
867000 61.217 190.542 55.9385 0.43345 -0.0521629
867200 61.217 190.555 55.9385 0.43355 -0.0303679
867400 61.217 190.569 55.9385 0.43365 0.0036882
867600 61.217 190.582 55.9385 0.43375 -0.035367
867800 61.217 190.595 55.9385 0.43385 -0.0177774
868000 61.217 190.608 55.9385 0.43395 -0.0425914
868200 61.217 190.622 55.9385 0.43405 -0.0450125
868400 61.217 190.635 55.9385 0.43415 -0.00670077
868600 61.217 190.648 55.9385 0.43425 -0.0439074
868800 61.217 190.662 55.9385 0.43435 -0.0195744
869000 61.217 190.675 55.9385 0.43445 -0.0270155
869200 61.217 190.688 55.9385 0.43455 -0.00611993
869400 61.217 190.701 55.9385 0.43465 -0.0306331
869600 61.217 190.715 55.9385 0.43475 0.0112028
869800 61.217 190.728 55.9385 0.43485 0.0105738
870000 61.217 190.741 55.9385 0.43495 0.0230079
870200 61.217 190.755 55.9385 0.43505 0.0109709
870400 61.217 190.768 55.9385 0.43515 -0.00287158
870600 61.217 190.781 55.9385 0.43525 0.00553171
870800 61.217 190.795 55.9385 0.43535 0.0326085
871000 61.217 190.808 55.9385 0.43545 0.0375926
871200 61.217 190.821 55.9385 0.43555 0.0200394
871400 61.217 190.834 55.9385 0.43565 0.037207
871600 61.217 190.848 55.9385 0.43575 0.033478
871800 61.217 190.861 55.9385 0.43585 0.0363986
872000 61.217 190.874 55.9385 0.43595 0.00445389
872200 61.217 190.888 55.9385 0.43605 0.0138116
872400 61.217 190.901 55.9385 0.43615 0.0214256
872600 61.217 190.914 55.9385 0.43625 0.00502235
872800 61.217 190.927 55.9385 0.43635 0.0166826
873000 61.217 190.941 55.9385 0.43645 0.000404135
873200 61.217 190.954 55.9385 0.43655 -0.0116987
873400 61.217 190.967 55.9385 0.43665 -0.0104478
873600 61.217 190.981 55.9385 0.43675 0.0132807
873800 61.217 190.994 55.9385 0.43685 -0.0134703
874000 61.217 191.007 55.9385 0.43695 -0.0305053
874200 61.217 191.02 55.9385 0.43705 0.014116
874400 61.217 191.034 55.9385 0.43715 -0.0283834
874600 61.217 191.047 55.9385 0.43725 -0.0428954
874800 61.217 191.06 55.9385 0.43735 -0.0264775
875000 61.217 191.074 55.9385 0.43745 -0.0235749
875200 61.217 191.087 55.9385 0.43755 -0.0132797
875400 61.217 191.1 55.9385 0.43765 -0.010151
875600 61.217 191.114 55.9385 0.43775 0.00385028
875800 61.217 191.127 55.9385 0.43785 -0.00664674
876000 61.217 191.14 55.9385 0.43795 0.0042211
876200 61.217 191.153 55.9385 0.43805 -0.00274351
876400 61.217 191.167 55.9385 0.43815 0.0158766
876600 61.217 191.18 55.9385 0.43825 0.00643444
876800 61.217 191.193 55.9385 0.43835 0.0116722
877000 61.217 191.207 55.9385 0.43845 -0.00266111
877200 61.217 191.22 55.9385 0.43855 0.0621414
877400 61.217 191.233 55.9385 0.43865 -0.00398898
877600 61.217 191.246 55.9385 0.43875 0.0184704
877800 61.217 191.26 55.9385 0.43885 0.0458373
878000 61.217 191.273 55.9385 0.43895 -0.000660306
878200 61.217 191.286 55.9385 0.43905 0.034463
878400 61.217 191.3 55.9385 0.43915 0.0190608
878600 61.217 191.313 55.9385 0.43925 -0.0238816
878800 61.217 191.326 55.9385 0.43935 0.00734088
879000 61.217 191.34 55.9385 0.43945 0.0103961
879200 61.217 191.353 55.9385 0.43955 -0.0110777
879400 61.217 191.366 55.9385 0.43965 -0.00252389
879600 61.217 191.379 55.9385 0.43975 -0.0237181
879800 61.217 191.393 55.9385 0.43985 -0.0158103
880000 61.217 191.406 55.9385 0.43995 -0.024309
880200 61.217 191.419 55.9385 0.44005 -0.0223116
880400 61.217 191.433 55.9385 0.44015 -0.0166209
880600 61.217 191.446 55.9385 0.44025 -0.00892527
880800 61.217 191.459 55.9385 0.44035 -0.00767945
881000 61.217 191.472 55.9385 0.44045 -0.0192603
881200 61.217 191.486 55.9385 0.44055 0.00161965
881400 61.217 191.499 55.9385 0.44065 -0.0117933
881600 61.217 191.512 55.9385 0.44075 -0.0179344
881800 61.217 191.526 55.9385 0.44085 0.0116586
882000 61.217 191.539 55.9385 0.44095 0.00370665
882200 61.217 191.552 55.9385 0.44105 0.00774889
882400 61.217 191.565 55.9385 0.44115 0.0114616
882600 61.217 191.579 55.9385 0.44125 0.00312427
882800 61.217 191.592 55.9385 0.44135 0.0240951
883000 61.217 191.605 55.9385 0.44145 0.0512113
883200 61.217 191.619 55.9385 0.44155 0.006227
883400 61.217 191.632 55.9385 0.44165 0.0350316
883600 61.217 191.645 55.9385 0.44175 0.0269706
883800 61.217 191.659 55.9385 0.44185 0.00929179
884000 61.217 191.672 55.9385 0.44195 0.00942494
884200 61.217 191.685 55.9385 0.44205 0.00621189
884400 61.217 191.698 55.9385 0.44215 0.0161333
884600 61.217 191.712 55.9385 0.44225 0.00958581
884800 61.217 191.725 55.9385 0.44235 -0.0069154
885000 61.217 191.738 55.9385 0.44245 0.0178781
885200 61.217 191.752 55.9385 0.44255 -0.00323487
885400 61.217 191.765 55.9385 0.44265 0.000848036
885600 61.217 191.778 55.9385 0.44275 -0.00258794
885800 61.217 191.791 55.9385 0.44285 -0.0394287
886000 61.217 191.805 55.9385 0.44295 -0.0147554
886200 61.217 191.818 55.9385 0.44305 -0.0149583
886400 61.217 191.831 55.9385 0.44315 -0.0604557
886600 61.217 191.845 55.9385 0.44325 -0.0128979
886800 61.217 191.858 55.9385 0.44335 -0.019796
887000 61.217 191.871 55.9385 0.44345 -0.0264199
887200 61.217 191.884 55.9385 0.44355 0.0190978
887400 61.217 191.898 55.9385 0.44365 -0.0130257
887600 61.217 191.911 55.9385 0.44375 0.0182099
887800 61.217 191.924 55.9385 0.44385 -0.0255942
888000 61.217 191.938 55.9385 0.44395 -0.00908327
888200 61.217 191.951 55.9385 0.44405 0.00963928
888400 61.217 191.964 55.9385 0.44415 -0.00946739
888600 61.217 191.978 55.9385 0.44425 0.0431245
888800 61.217 191.991 55.9385 0.44435 0.00617504
889000 61.217 192.004 55.9385 0.44445 0.0156172
889200 61.217 192.017 55.9385 0.44455 0.0396226
889400 61.217 192.031 55.9385 0.44465 0.0161814
889600 61.217 192.044 55.9385 0.44475 0.0218583
889800 61.217 192.057 55.9385 0.44485 0.0342698
890000 61.217 192.071 55.9385 0.44495 0.0036248
890200 61.217 192.084 55.9385 0.44505 0.0280536
890400 61.217 192.097 55.9385 0.44515 0.0102968
890600 61.217 192.11 55.9385 0.44525 -0.00618564
890800 61.217 192.124 55.9385 0.44535 0.0202907
891000 61.217 192.137 55.9385 0.44545 0.0021965
891200 61.217 192.15 55.9385 0.44555 0.00611037
891400 61.217 192.164 55.9385 0.44565 0.00406466
891600 61.217 192.177 55.9385 0.44575 -0.00172791
891800 61.217 192.19 55.9385 0.44585 -0.0142549
892000 61.217 192.204 55.9385 0.44595 -0.0158571
892200 61.217 192.217 55.9385 0.44605 -0.0169085
892400 61.217 192.23 55.9385 0.44615 -0.0254496
892600 61.217 192.243 55.9385 0.44625 0.00369139
892800 61.217 192.257 55.9385 0.44635 -0.0476631
893000 61.217 192.27 55.9385 0.44645 -0.0308248
893200 61.217 192.283 55.9385 0.44655 -0.0234348
893400 61.217 192.297 55.9385 0.44665 -0.0092064
893600 61.217 192.31 55.9385 0.44675 -6.34684e-05
893800 61.217 192.323 55.9385 0.44685 -0.0255336
894000 61.217 192.336 55.9385 0.44695 0.00735176
894200 61.217 192.35 55.9385 0.44705 0.00621264
894400 61.217 192.363 55.9385 0.44715 -0.0276403
894600 61.217 192.376 55.9385 0.44725 0.0326052
894800 61.217 192.39 55.9385 0.44735 0.0149188
895000 61.217 192.403 55.9385 0.44745 0.00359643
895200 61.217 192.416 55.9385 0.44755 0.0291271
895400 61.217 192.429 55.9385 0.44765 0.00239734
895600 61.217 192.443 55.9385 0.44775 0.038275
895800 61.217 192.456 55.9385 0.44785 0.047533
896000 61.217 192.469 55.9385 0.44795 0.00827292
896200 61.217 192.483 55.9385 0.44805 0.0269879
896400 61.217 192.496 55.9385 0.44815 0.0238929
896600 61.217 192.509 55.9385 0.44825 0.0198334
896800 61.217 192.523 55.9385 0.44835 0.0267041
897000 61.217 192.536 55.9385 0.44845 0.0100465
897200 61.217 192.549 55.9385 0.44855 0.0307543
897400 61.217 192.562 55.9385 0.44865 -0.011988
897600 61.217 192.576 55.9385 0.44875 -0.00676342
897800 61.217 192.589 55.9385 0.44885 0.0103683
898000 61.217 192.602 55.9385 0.44895 -0.0114979
898200 61.217 192.616 55.9385 0.44905 0.00991716
898400 61.217 192.629 55.9385 0.44915 -0.0406772
898600 61.217 192.642 55.9385 0.44925 -0.0243536
898800 61.217 192.655 55.9385 0.44935 -0.0147814
899000 61.217 192.669 55.9385 0.44945 -0.0514575
899200 61.217 192.682 55.9385 0.44955 0.00324657
899400 61.217 192.695 55.9385 0.44965 -0.0575477
899600 61.217 192.709 55.9385 0.44975 -0.0364912
899800 61.217 192.722 55.9385 0.44985 -0.0224392
900000 61.217 192.735 55.9385 0.44995 -0.0521545
900200 61.217 192.749 55.9385 0.45005 0.0158074
900400 61.217 192.762 55.9385 0.45015 -0.0178718
900600 61.217 192.775 55.9385 0.45025 -0.0239414
900800 61.217 192.788 55.9385 0.45035 0.0418237
901000 61.217 192.802 55.9385 0.45045 -0.0328229
901200 61.217 192.815 55.9385 0.45055 0.0395861
901400 61.217 192.828 55.9385 0.45065 0.0281028
901600 61.217 192.842 55.9385 0.45075 -0.00666686
901800 61.217 192.855 55.9385 0.45085 0.0475581
902000 61.217 192.868 55.9385 0.45095 -0.00416086
902200 61.217 192.881 55.9385 0.45105 0.0618302
902400 61.217 192.895 55.9385 0.45115 0.0512558
902600 61.217 192.908 55.9385 0.45125 0.0141209
902800 61.217 192.921 55.9385 0.45135 0.0477698
903000 61.217 192.935 55.9385 0.45145 0.0179825
903200 61.217 192.948 55.9385 0.45155 0.0338893
903400 61.217 192.961 55.9385 0.45165 0.0302765
903600 61.217 192.974 55.9385 0.45175 0.0145758
903800 61.217 192.988 55.9385 0.45185 0.032251
904000 61.217 193.001 55.9385 0.45195 -0.00171916
904200 61.217 193.014 55.9385 0.45205 -0.00308761
904400 61.217 193.028 55.9385 0.45215 0.0117478
904600 61.217 193.041 55.9385 0.45225 -0.0221962
904800 61.217 193.054 55.9385 0.45235 0.000481164
905000 61.217 193.068 55.9385 0.45245 -0.0225445
905200 61.217 193.081 55.9385 0.45255 -0.0489314
905400 61.217 193.094 55.9385 0.45265 -0.017761
905600 61.217 193.107 55.9385 0.45275 -0.0241792
905800 61.217 193.121 55.9385 0.45285 -0.0119716
906000 61.217 193.134 55.9385 0.45295 -0.051074
906200 61.217 193.147 55.9385 0.45305 -0.0410719
906400 61.217 193.161 55.9385 0.45315 -0.0181074
906600 61.217 193.174 55.9385 0.45325 -0.0435555
906800 61.217 193.187 55.9385 0.45335 -0.00823447
907000 61.217 193.2 55.9385 0.45345 -0.0271887
907200 61.217 193.214 55.9385 0.45355 -0.0218333
907400 61.217 193.227 55.9385 0.45365 0.0259314
907600 61.217 193.24 55.9385 0.45375 -0.00237633
907800 61.217 193.254 55.9385 0.45385 0.0077767
908000 61.217 193.267 55.9385 0.45395 0.0191114
908200 61.217 193.28 55.9385 0.45405 0.0127046
908400 61.217 193.294 55.9385 0.45415 0.0388837
908600 61.217 193.307 55.9385 0.45425 0.0186502
908800 61.217 193.32 55.9385 0.45435 0.0265715
909000 61.217 193.333 55.9385 0.45445 0.0433005
909200 61.217 193.347 55.9385 0.45455 0.0449939
909400 61.217 193.36 55.9385 0.45465 0.014073
909600 61.217 193.373 55.9385 0.45475 0.0430742
909800 61.217 193.387 55.9385 0.45485 0.043458
910000 61.217 193.4 55.9385 0.45495 0.015941
910200 61.217 193.413 55.9385 0.45505 -0.00248186
910400 61.217 193.426 55.9385 0.45515 0.0148735
910600 61.217 193.44 55.9385 0.45525 -0.00220081
910800 61.217 193.453 55.9385 0.45535 -0.00805703
911000 61.217 193.466 55.9385 0.45545 -0.00532489
911200 61.217 193.48 55.9385 0.45555 -0.0195602
911400 61.217 193.493 55.9385 0.45565 -0.0122322
911600 61.217 193.506 55.9385 0.45575 -0.0151883
911800 61.217 193.519 55.9385 0.45585 -0.0410415
912000 61.217 193.533 55.9385 0.45595 0.00159315
912200 61.217 193.546 55.9385 0.45605 -0.037652
912400 61.217 193.559 55.9385 0.45615 -0.0335253
912600 61.217 193.573 55.9385 0.45625 -0.0309936
912800 61.217 193.586 55.9385 0.45635 -0.0458487
913000 61.217 193.599 55.9385 0.45645 0.00312591
913200 61.217 193.613 55.9385 0.45655 -0.0153882
913400 61.217 193.626 55.9385 0.45665 -0.019447
913600 61.217 193.639 55.9385 0.45675 0.0173007
913800 61.217 193.652 55.9385 0.45685 -0.00335925
914000 61.217 193.666 55.9385 0.45695 0.015155
914200 61.217 193.679 55.9385 0.45705 0.0036147
914400 61.217 193.692 55.9385 0.45715 0.0118145
914600 61.217 193.706 55.9385 0.45725 0.0210475
914800 61.217 193.719 55.9385 0.45735 0.0311393
915000 61.217 193.732 55.9385 0.45745 0.0255821
915200 61.217 193.745 55.9385 0.45755 0.0291787
915400 61.217 193.759 55.9385 0.45765 0.0227289
915600 61.217 193.772 55.9385 0.45775 0.0484907
915800 61.217 193.785 55.9385 0.45785 0.0599234
916000 61.217 193.799 55.9385 0.45795 0.00980096
916200 61.217 193.812 55.9385 0.45805 0.0253052
916400 61.217 193.825 55.9385 0.45815 -0.00749372
916600 61.217 193.838 55.9385 0.45825 0.0196197
916800 61.217 193.852 55.9385 0.45835 0.0202095
917000 61.217 193.865 55.9385 0.45845 0.00607736
917200 61.217 193.878 55.9385 0.45855 -0.0234465
917400 61.217 193.892 55.9385 0.45865 -0.0208391
917600 61.217 193.905 55.9385 0.45875 -0.0173839
917800 61.217 193.918 55.9385 0.45885 -0.00488669
918000 61.217 193.932 55.9385 0.45895 -0.039431
918200 61.217 193.945 55.9385 0.45905 -0.0270711
918400 61.217 193.958 55.9385 0.45915 -0.0137787
918600 61.217 193.971 55.9385 0.45925 -0.0512696
918800 61.217 193.985 55.9385 0.45935 -0.0431516
919000 61.217 193.998 55.9385 0.45945 -0.0251037
919200 61.217 194.011 55.9385 0.45955 -0.0153268
919400 61.217 194.025 55.9385 0.45965 0.00600615
919600 61.217 194.038 55.9385 0.45975 -0.0282479
919800 61.217 194.051 55.9385 0.45985 0.0193236
920000 61.217 194.064 55.9385 0.45995 0.00358846
920200 61.217 194.078 55.9385 0.46005 0.00342198
920400 61.217 194.091 55.9385 0.46015 0.0212398
920600 61.217 194.104 55.9385 0.46025 -0.00805318
920800 61.217 194.118 55.9385 0.46035 0.0156632
921000 61.217 194.131 55.9385 0.46045 0.044927
921200 61.217 194.144 55.9385 0.46055 0.00979392
921400 61.217 194.158 55.9385 0.46065 0.0379585
921600 61.217 194.171 55.9385 0.46075 0.0221517
921800 61.217 194.184 55.9385 0.46085 0.0453012
922000 61.217 194.197 55.9385 0.46095 0.0111368
922200 61.217 194.211 55.9385 0.46105 0.0214494
922400 61.217 194.224 55.9385 0.46115 0.0209403
922600 61.217 194.237 55.9385 0.46125 -0.00498474
922800 61.217 194.251 55.9385 0.46135 0.0324854
923000 61.217 194.264 55.9385 0.46145 -0.00358264
923200 61.217 194.277 55.9385 0.46155 -0.0171257
923400 61.217 194.29 55.9385 0.46165 -0.00770375
923600 61.217 194.304 55.9385 0.46175 -0.00416158
923800 61.217 194.317 55.9385 0.46185 0.00614165
924000 61.217 194.33 55.9385 0.46195 -0.0217497
924200 61.217 194.344 55.9385 0.46205 -0.00795695
924400 61.217 194.357 55.9385 0.46215 -0.00275367
924600 61.217 194.37 55.9385 0.46225 -0.0316897
924800 61.217 194.383 55.9385 0.46235 -0.0328183
925000 61.217 194.397 55.9385 0.46245 -0.0170045
925200 61.217 194.41 55.9385 0.46255 -0.0078458
925400 61.217 194.423 55.9385 0.46265 -0.0152737
925600 61.217 194.437 55.9385 0.46275 -0.0102649
925800 61.217 194.45 55.9385 0.46285 0.013248
926000 61.217 194.463 55.9385 0.46295 -0.00889868
926200 61.217 194.477 55.9385 0.46305 -0.00514919
926400 61.217 194.49 55.9385 0.46315 0.018588
926600 61.217 194.503 55.9385 0.46325 -0.0118729
926800 61.217 194.516 55.9385 0.46335 0.0114925
927000 61.217 194.53 55.9385 0.46345 0.0323661
927200 61.217 194.543 55.9385 0.46355 0.012884
927400 61.217 194.556 55.9385 0.46365 0.0193742
927600 61.217 194.57 55.9385 0.46375 0.0238003
927800 61.217 194.583 55.9385 0.46385 0.0346766
928000 61.217 194.596 55.9385 0.46395 0.0348729
928200 61.217 194.609 55.9385 0.46405 0.00454868
928400 61.217 194.623 55.9385 0.46415 -0.000239959
928600 61.217 194.636 55.9385 0.46425 0.0080507
928800 61.217 194.649 55.9385 0.46435 -0.00503002
929000 61.217 194.663 55.9385 0.46445 0.00997689
929200 61.217 194.676 55.9385 0.46455 -0.0245796
929400 61.217 194.689 55.9385 0.46465 0.00252941
929600 61.217 194.703 55.9385 0.46475 -0.00546304
929800 61.217 194.716 55.9385 0.46485 -0.0165838
930000 61.217 194.729 55.9385 0.46495 -0.0217391
930200 61.217 194.742 55.9385 0.46505 -0.025378
930400 61.217 194.756 55.9385 0.46515 -0.00827681
930600 61.217 194.769 55.9385 0.46525 -0.0484868
930800 61.217 194.782 55.9385 0.46535 -0.0120226
931000 61.217 194.796 55.9385 0.46545 0.0130723
931200 61.217 194.809 55.9385 0.46555 -0.031124
931400 61.217 194.822 55.9385 0.46565 0.0133107
931600 61.217 194.835 55.9385 0.46575 -0.00687582
931800 61.217 194.849 55.9385 0.46585 -0.00695934
932000 61.217 194.862 55.9385 0.46595 0.0160934
932200 61.217 194.875 55.9385 0.46605 -0.00270736
932400 61.217 194.889 55.9385 0.46615 0.029004
932600 61.217 194.902 55.9385 0.46625 0.034129
932800 61.217 194.915 55.9385 0.46635 0.0202234
933000 61.217 194.928 55.9385 0.46645 0.0125809
933200 61.217 194.942 55.9385 0.46655 0.0217398
933400 61.217 194.955 55.9385 0.46665 0.0354445
933600 61.217 194.968 55.9385 0.46675 0.0137213
933800 61.217 194.982 55.9385 0.46685 0.0312132
934000 61.217 194.995 55.9385 0.46695 0.0511373
934200 61.217 195.008 55.9385 0.46705 -0.010357
934400 61.217 195.022 55.9385 0.46715 0.036059
934600 61.217 195.035 55.9385 0.46725 0.013028
934800 61.217 195.048 55.9385 0.46735 -0.0324372
935000 61.217 195.061 55.9385 0.46745 0.0243378
935200 61.217 195.075 55.9385 0.46755 -0.0115932
935400 61.217 195.088 55.9385 0.46765 -0.00581836
935600 61.217 195.101 55.9385 0.46775 -0.0223558
935800 61.217 195.115 55.9385 0.46785 -0.0380121
936000 61.217 195.128 55.9385 0.46795 -0.00448016
936200 61.217 195.141 55.9385 0.46805 -0.0244419
936400 61.217 195.154 55.9385 0.46815 -0.0398822
936600 61.217 195.168 55.9385 0.46825 -0.0197006
936800 61.217 195.181 55.9385 0.46835 -0.0433412
937000 61.217 195.194 55.9385 0.46845 -0.020199
937200 61.217 195.208 55.9385 0.46855 -0.0356301
937400 61.217 195.221 55.9385 0.46865 0.00118077
937600 61.217 195.234 55.9385 0.46875 -0.0109561
937800 61.217 195.248 55.9385 0.46885 -0.0291391
938000 61.217 195.261 55.9385 0.46895 0.0131056
938200 61.217 195.274 55.9385 0.46905 0.022373
938400 61.217 195.287 55.9385 0.46915 0.00217172
938600 61.217 195.301 55.9385 0.46925 0.0238505
938800 61.217 195.314 55.9385 0.46935 0.0155869
939000 61.217 195.327 55.9385 0.46945 0.0373418
939200 61.217 195.341 55.9385 0.46955 0.00696991
939400 61.217 195.354 55.9385 0.46965 0.0542705
939600 61.217 195.367 55.9385 0.46975 0.0165569
939800 61.217 195.38 55.9385 0.46985 0.0219985
940000 61.217 195.394 55.9385 0.46995 0.0657514
940200 61.217 195.407 55.9385 0.47005 0.020803
940400 61.217 195.42 55.9385 0.47015 0.019343
940600 61.217 195.434 55.9385 0.47025 0.0198273
940800 61.217 195.447 55.9385 0.47035 -0.00638312
941000 61.217 195.46 55.9385 0.47045 0.0213659
941200 61.217 195.473 55.9385 0.47055 -0.0113636
941400 61.217 195.487 55.9385 0.47065 0.0224407
941600 61.217 195.5 55.9385 0.47075 -0.0244874
941800 61.217 195.513 55.9385 0.47085 -0.03509
942000 61.217 195.527 55.9385 0.47095 0.0148796
942200 61.217 195.54 55.9385 0.47105 -0.0447177
942400 61.217 195.553 55.9385 0.47115 -0.01525
942600 61.217 195.567 55.9385 0.47125 -0.000859311
942800 61.217 195.58 55.9385 0.47135 -0.0490956
943000 61.217 195.593 55.9385 0.47145 -0.0193025
943200 61.217 195.606 55.9385 0.47155 -0.0254255
943400 61.217 195.62 55.9385 0.47165 -0.0321525
943600 61.217 195.633 55.9385 0.47175 -0.0167736
943800 61.217 195.646 55.9385 0.47185 -0.0142068
944000 61.217 195.66 55.9385 0.47195 -0.0192563
944200 61.217 195.673 55.9385 0.47205 0.0055649
944400 61.217 195.686 55.9385 0.47215 -0.018516
944600 61.217 195.699 55.9385 0.47225 0.0148651
944800 61.217 195.713 55.9385 0.47235 0.00921257
945000 61.217 195.726 55.9385 0.47245 0.00361379
945200 61.217 195.739 55.9385 0.47255 0.0536427
945400 61.217 195.753 55.9385 0.47265 0.00287834
945600 61.217 195.766 55.9385 0.47275 0.0359123
945800 61.217 195.779 55.9385 0.47285 0.0462851
946000 61.217 195.793 55.9385 0.47295 0.0306201
946200 61.217 195.806 55.9385 0.47305 0.0517871
946400 61.217 195.819 55.9385 0.47315 0.0145915
946600 61.217 195.832 55.9385 0.47325 0.0192309
946800 61.217 195.846 55.9385 0.47335 0.0361365
947000 61.217 195.859 55.9385 0.47345 0.0134085
947200 61.217 195.872 55.9385 0.47355 0.0139685
947400 61.217 195.886 55.9385 0.47365 0.00614305
947600 61.217 195.899 55.9385 0.47375 0.00741657
947800 61.217 195.912 55.9385 0.47385 -0.00102186
948000 61.217 195.925 55.9385 0.47395 -0.0131759
948200 61.217 195.939 55.9385 0.47405 -0.0293625
948400 61.217 195.952 55.9385 0.47415 -0.000386499
948600 61.217 195.965 55.9385 0.47425 -0.0309229
948800 61.217 195.979 55.9385 0.47435 -0.0353102
949000 61.217 195.992 55.9385 0.47445 -0.0280935
949200 61.217 196.005 55.9385 0.47455 -0.0526232
949400 61.217 196.018 55.9385 0.47465 -0.0365229
949600 61.217 196.032 55.9385 0.47475 -0.0129825
949800 61.217 196.045 55.9385 0.47485 -0.0317464
950000 61.217 196.058 55.9385 0.47495 -0.0157842
950200 61.217 196.072 55.9385 0.47505 0.00263956
950400 61.217 196.085 55.9385 0.47515 -0.00893431
950600 61.217 196.098 55.9385 0.47525 -0.0226142
950800 61.217 196.112 55.9385 0.47535 0.0145407
951000 61.217 196.125 55.9385 0.47545 -0.00704404
951200 61.217 196.138 55.9385 0.47555 0.00450086
951400 61.217 196.151 55.9385 0.47565 0.0378146
951600 61.217 196.165 55.9385 0.47575 0.01302
951800 61.217 196.178 55.9385 0.47585 0.0447429
952000 61.217 196.191 55.9385 0.47595 0.0418103
952200 61.217 196.205 55.9385 0.47605 0.00428994
952400 61.217 196.218 55.9385 0.47615 0.0406553
952600 61.217 196.231 55.9385 0.47625 0.0379404
952800 61.217 196.244 55.9385 0.47635 0.0489937
953000 61.217 196.258 55.9385 0.47645 0.035426
953200 61.217 196.271 55.9385 0.47655 0.0152807
953400 61.217 196.284 55.9385 0.47665 0.0196088
953600 61.217 196.298 55.9385 0.47675 0.00982708
953800 61.217 196.311 55.9385 0.47685 0.00387034
954000 61.217 196.324 55.9385 0.47695 0.00124091
954200 61.217 196.337 55.9385 0.47705 -0.00908999
954400 61.217 196.351 55.9385 0.47715 -0.00851907
954600 61.217 196.364 55.9385 0.47725 -0.0257703
954800 61.217 196.377 55.9385 0.47735 -0.0153295
955000 61.217 196.391 55.9385 0.47745 0.00111245
955200 61.217 196.404 55.9385 0.47755 -0.0537066
955400 61.217 196.417 55.9385 0.47765 -0.0116568
955600 61.217 196.431 55.9385 0.47775 -0.0307607
955800 61.217 196.444 55.9385 0.47785 -0.0409818
956000 61.217 196.457 55.9385 0.47795 -0.0167761
956200 61.217 196.47 55.9385 0.47805 -0.0392699
956400 61.217 196.484 55.9385 0.47815 0.0143733
956600 61.217 196.497 55.9385 0.47825 -0.00915638
956800 61.217 196.51 55.9385 0.47835 0.00665203
957000 61.217 196.524 55.9385 0.47845 0.0184059
957200 61.217 196.537 55.9385 0.47855 -0.0105884
957400 61.217 196.55 55.9385 0.47865 0.012099
957600 61.217 196.563 55.9385 0.47875 -0.0126162
957800 61.217 196.577 55.9385 0.47885 0.00629479
958000 61.217 196.59 55.9385 0.47895 0.0562318
958200 61.217 196.603 55.9385 0.47905 -0.00342587
958400 61.217 196.617 55.9385 0.47915 0.0214631
958600 61.217 196.63 55.9385 0.47925 0.00808638
958800 61.217 196.643 55.9385 0.47935 0.024119
959000 61.217 196.657 55.9385 0.47945 0.0348922
959200 61.217 196.67 55.9385 0.47955 0.015793
959400 61.217 196.683 55.9385 0.47965 0.0105777
959600 61.217 196.696 55.9385 0.47975 -0.00958121
959800 61.217 196.71 55.9385 0.47985 0.0105439
960000 61.217 196.723 55.9385 0.47995 0.0254904
960200 61.217 196.736 55.9385 0.48005 -0.0359893
960400 61.217 196.75 55.9385 0.48015 0.0298752
960600 61.217 196.763 55.9385 0.48025 0.000694208
960800 61.217 196.776 55.9385 0.48035 -0.0149098
961000 61.217 196.789 55.9385 0.48045 0.0305354
961200 61.217 196.803 55.9385 0.48055 -0.0435632
961400 61.217 196.816 55.9385 0.48065 -0.00213658
961600 61.217 196.829 55.9385 0.48075 -0.0131797
961800 61.217 196.843 55.9385 0.48085 -0.0491311
962000 61.217 196.856 55.9385 0.48095 0.0172201
962200 61.217 196.869 55.9385 0.48105 -0.0133444
962400 61.217 196.882 55.9385 0.48115 -0.00042775
962600 61.217 196.896 55.9385 0.48125 -0.0163624
962800 61.217 196.909 55.9385 0.48135 -0.00958242
963000 61.217 196.922 55.9385 0.48145 0.0209921
963200 61.217 196.936 55.9385 0.48155 -0.0144419
963400 61.217 196.949 55.9385 0.48165 0.0259645
963600 61.217 196.962 55.9385 0.48175 0.00162552
963800 61.217 196.976 55.9385 0.48185 0.0118781
964000 61.217 196.989 55.9385 0.48195 0.0128578
964200 61.217 197.002 55.9385 0.48205 -0.002645
964400 61.217 197.015 55.9385 0.48215 0.0591288
964600 61.217 197.029 55.9385 0.48225 -0.0126143
964800 61.217 197.042 55.9385 0.48235 0.00210254
965000 61.217 197.055 55.9385 0.48245 0.0270728
965200 61.217 197.069 55.9385 0.48255 0.0124587
965400 61.217 197.082 55.9385 0.48265 0.0197527
965600 61.217 197.095 55.9385 0.48275 0.00193813
965800 61.217 197.108 55.9385 0.48285 -0.00975222
966000 61.217 197.122 55.9385 0.48295 0.00205565
966200 61.217 197.135 55.9385 0.48305 -0.00326391
966400 61.217 197.148 55.9385 0.48315 -0.00427732
966600 61.217 197.162 55.9385 0.48325 0.0154252
966800 61.217 197.175 55.9385 0.48335 -0.00844549
967000 61.217 197.188 55.9385 0.48345 -0.00129494
967200 61.217 197.202 55.9385 0.48355 -0.0203169
967400 61.217 197.215 55.9385 0.48365 -0.0477925
967600 61.217 197.228 55.9385 0.48375 0.0187411
967800 61.217 197.241 55.9385 0.48385 -0.0211923
968000 61.217 197.255 55.9385 0.48395 -0.0182906
968200 61.217 197.268 55.9385 0.48405 0.00454434
968400 61.217 197.281 55.9385 0.48415 -0.0127708
968600 61.217 197.295 55.9385 0.48425 0.00297296
968800 61.217 197.308 55.9385 0.48435 0.015318
969000 61.217 197.321 55.9385 0.48445 -0.0115995
969200 61.217 197.334 55.9385 0.48455 -0.00154638
969400 61.217 197.348 55.9385 0.48465 0.00123072
969600 61.217 197.361 55.9385 0.48475 -0.00549832
969800 61.217 197.374 55.9385 0.48485 0.0128044
970000 61.217 197.388 55.9385 0.48495 0.0244436
970200 61.217 197.401 55.9385 0.48505 0.0147934
970400 61.217 197.414 55.9385 0.48515 0.00477439
970600 61.217 197.427 55.9385 0.48525 0.0121809
970800 61.217 197.441 55.9385 0.48535 0.0369359
971000 61.217 197.454 55.9385 0.48545 0.039015
971200 61.217 197.467 55.9385 0.48555 -0.00396642
971400 61.217 197.481 55.9385 0.48565 0.0129711
971600 61.217 197.494 55.9385 0.48575 0.0168908
971800 61.217 197.507 55.9385 0.48585 -0.00885888
972000 61.217 197.521 55.9385 0.48595 -0.00307263
972200 61.217 197.534 55.9385 0.48605 0.0193612
972400 61.217 197.547 55.9385 0.48615 -0.000499491
972600 61.217 197.56 55.9385 0.48625 0.000667978
972800 61.217 197.574 55.9385 0.48635 0.000601766
973000 61.217 197.587 55.9385 0.48645 0.00195586
973200 61.217 197.6 55.9385 0.48655 -0.00677665
973400 61.217 197.614 55.9385 0.48665 -0.0514818
973600 61.217 197.627 55.9385 0.48675 -0.00320057
973800 61.217 197.64 55.9385 0.48685 -0.00394026
974000 61.217 197.653 55.9385 0.48695 -0.0182289
974200 61.217 197.667 55.9385 0.48705 -0.0131862
974400 61.217 197.68 55.9385 0.48715 -0.00540037
974600 61.217 197.693 55.9385 0.48725 -0.0103976
974800 61.217 197.707 55.9385 0.48735 -0.0124636
975000 61.217 197.72 55.9385 0.48745 0.00393047
975200 61.217 197.733 55.9385 0.48755 -0.00634791
975400 61.217 197.747 55.9385 0.48765 -0.00579381
975600 61.217 197.76 55.9385 0.48775 0.0274082
975800 61.217 197.773 55.9385 0.48785 0.00789138
976000 61.217 197.786 55.9385 0.48795 -0.00627384
976200 61.217 197.8 55.9385 0.48805 0.0311955
976400 61.217 197.813 55.9385 0.48815 0.0132481
976600 61.217 197.826 55.9385 0.48825 0.0342312
976800 61.217 197.84 55.9385 0.48835 0.0078825
977000 61.217 197.853 55.9385 0.48845 0.0109774
977200 61.217 197.866 55.9385 0.48855 0.0452306
977400 61.217 197.879 55.9385 0.48865 0.00786749
977600 61.217 197.893 55.9385 0.48875 0.0271803
977800 61.217 197.906 55.9385 0.48885 -0.00200988
978000 61.217 197.919 55.9385 0.48895 -0.00280409
978200 61.217 197.933 55.9385 0.48905 0.0127994
978400 61.217 197.946 55.9385 0.48915 0.00371554
978600 61.217 197.959 55.9385 0.48925 -0.010063
978800 61.217 197.972 55.9385 0.48935 -0.00347079
979000 61.217 197.986 55.9385 0.48945 -0.0189298
979200 61.217 197.999 55.9385 0.48955 -0.000868352
979400 61.217 198.012 55.9385 0.48965 -0.0209077
979600 61.217 198.026 55.9385 0.48975 -0.0214177
979800 61.217 198.039 55.9385 0.48985 -0.0201079
980000 61.217 198.052 55.9385 0.48995 -0.0481136
980200 61.217 198.066 55.9385 0.49005 -0.005443
980400 61.217 198.079 55.9385 0.49015 -0.0211424
980600 61.217 198.092 55.9385 0.49025 -0.0185217
980800 61.217 198.105 55.9385 0.49035 0.00361556
981000 61.217 198.119 55.9385 0.49045 -0.0215943
981200 61.217 198.132 55.9385 0.49055 0.00184583
981400 61.217 198.145 55.9385 0.49065 0.000352628
981600 61.217 198.159 55.9385 0.49075 0.0241423
981800 61.217 198.172 55.9385 0.49085 0.00833972
982000 61.217 198.185 55.9385 0.49095 0.00820945
982200 61.217 198.198 55.9385 0.49105 0.0151334
982400 61.217 198.212 55.9385 0.49115 0.00932163
982600 61.217 198.225 55.9385 0.49125 0.0213411
982800 61.217 198.238 55.9385 0.49135 0.0345541
983000 61.217 198.252 55.9385 0.49145 0.0478285
983200 61.217 198.265 55.9385 0.49155 0.0159101
983400 61.217 198.278 55.9385 0.49165 0.0574711
983600 61.217 198.291 55.9385 0.49175 0.0149756
983800 61.217 198.305 55.9385 0.49185 0.0192293
984000 61.217 198.318 55.9385 0.49195 0.0282085
984200 61.217 198.331 55.9385 0.49205 -0.0265568
984400 61.217 198.345 55.9385 0.49215 0.02392
984600 61.217 198.358 55.9385 0.49225 0.0189971
984800 61.217 198.371 55.9385 0.49235 0.0117884
985000 61.217 198.385 55.9385 0.49245 0.0108293
985200 61.217 198.398 55.9385 0.49255 -0.0312012
985400 61.217 198.411 55.9385 0.49265 0.00056226
985600 61.217 198.424 55.9385 0.49275 -0.0357356
985800 61.217 198.438 55.9385 0.49285 -0.0406065
986000 61.217 198.451 55.9385 0.49295 0.013742
986200 61.217 198.464 55.9385 0.49305 -0.0504458
986400 61.217 198.478 55.9385 0.49315 -0.0410016
986600 61.217 198.491 55.9385 0.49325 -0.00204086
986800 61.217 198.504 55.9385 0.49335 -0.0498099
987000 61.217 198.517 55.9385 0.49345 0.0145159
987200 61.217 198.531 55.9385 0.49355 -0.0240359
987400 61.217 198.544 55.9385 0.49365 -0.0447906
987600 61.217 198.557 55.9385 0.49375 0.0233542
987800 61.217 198.571 55.9385 0.49385 -0.0257925
988000 61.217 198.584 55.9385 0.49395 0.00506679
988200 61.217 198.597 55.9385 0.49405 0.0298572
988400 61.217 198.611 55.9385 0.49415 -0.0065786
988600 61.217 198.624 55.9385 0.49425 -0.00460923
988800 61.217 198.637 55.9385 0.49435 0.0282635
989000 61.217 198.65 55.9385 0.49445 0.0451843
989200 61.217 198.664 55.9385 0.49455 0.0113114
989400 61.217 198.677 55.9385 0.49465 0.0349925
989600 61.217 198.69 55.9385 0.49475 0.02946
989800 61.217 198.704 55.9385 0.49485 0.0201334
990000 61.217 198.717 55.9385 0.49495 0.0511357
990200 61.217 198.73 55.9385 0.49505 0.0122275
990400 61.217 198.743 55.9385 0.49515 0.0313438
990600 61.217 198.757 55.9385 0.49525 0.0119607
990800 61.217 198.77 55.9385 0.49535 -0.00426633
991000 61.217 198.783 55.9385 0.49545 0.0164498
991200 61.217 198.797 55.9385 0.49555 -0.00127165
991400 61.217 198.81 55.9385 0.49565 0.0105294
991600 61.217 198.823 55.9385 0.49575 -0.00630175
991800 61.217 198.836 55.9385 0.49585 -0.0187137
992000 61.217 198.85 55.9385 0.49595 -0.013573
992200 61.217 198.863 55.9385 0.49605 -0.0298178
992400 61.217 198.876 55.9385 0.49615 -0.0305663
992600 61.217 198.89 55.9385 0.49625 0.0014313
992800 61.217 198.903 55.9385 0.49635 -0.00423362
993000 61.217 198.916 55.9385 0.49645 -0.04494
993200 61.217 198.93 55.9385 0.49655 -0.00177007
993400 61.217 198.943 55.9385 0.49665 -0.0364937
993600 61.217 198.956 55.9385 0.49675 -0.020094
993800 61.217 198.969 55.9385 0.49685 0.0247192
994000 61.217 198.983 55.9385 0.49695 -0.0270883
994200 61.217 198.996 55.9385 0.49705 -0.00991146
994400 61.217 199.009 55.9385 0.49715 0.026436
994600 61.217 199.023 55.9385 0.49725 0.00292321
994800 61.217 199.036 55.9385 0.49735 0.00616518
995000 61.217 199.049 55.9385 0.49745 0.0177584
995200 61.217 199.062 55.9385 0.49755 0.0240542
995400 61.217 199.076 55.9385 0.49765 -0.00593223
995600 61.217 199.089 55.9385 0.49775 0.0229005
995800 61.217 199.102 55.9385 0.49785 0.0406116
996000 61.217 199.116 55.9385 0.49795 0.0222278
996200 61.217 199.129 55.9385 0.49805 0.00996591
996400 61.217 199.142 55.9385 0.49815 0.0253102
996600 61.217 199.156 55.9385 0.49825 0.0102945
996800 61.217 199.169 55.9385 0.49835 0.0175835
997000 61.217 199.182 55.9385 0.49845 0.00990581
997200 61.217 199.195 55.9385 0.49855 0.00912886
997400 61.217 199.209 55.9385 0.49865 0.0053058
997600 61.217 199.222 55.9385 0.49875 0.00611873
997800 61.217 199.235 55.9385 0.49885 -0.00300507
998000 61.217 199.249 55.9385 0.49895 -0.0140591
998200 61.217 199.262 55.9385 0.49905 -0.0116749
998400 61.217 199.275 55.9385 0.49915 -0.00623371
998600 61.217 199.288 55.9385 0.49925 -0.0238196
998800 61.217 199.302 55.9385 0.49935 0.00153736
999000 61.217 199.315 55.9385 0.49945 -0.0304388
999200 61.217 199.328 55.9385 0.49955 -0.0131165
999400 61.217 199.342 55.9385 0.49965 -0.0213361
999600 61.217 199.355 55.9385 0.49975 -0.0153472
999800 61.217 199.368 55.9385 0.49985 0.00387058
1000000 61.217 199.381 55.9385 0.49995 -0.0210133
1000200 61.217 199.395 55.9385 0.50005 0.00323907
1000400 61.217 199.408 55.9385 0.50015 -0.0191278
1000600 61.217 199.421 55.9385 0.50025 0.0198789
1000800 61.217 199.435 55.9385 0.50035 0.0287132
1001000 61.217 199.448 55.9385 0.50045 -0.0108079
1001200 61.217 199.461 55.9385 0.50055 0.035233
1001400 61.217 199.475 55.9385 0.50065 0.00911551
1001600 61.217 199.488 55.9385 0.50075 -0.00236291
1001800 61.217 199.501 55.9385 0.50085 0.0485481
1002000 61.217 199.514 55.9385 0.50095 -0.00467451
1002200 61.217 199.528 55.9385 0.50105 0.0246452
1002400 61.217 199.541 55.9385 0.50115 0.0135153
1002600 61.217 199.554 55.9385 0.50125 -0.00376817
1002800 61.217 199.568 55.9385 0.50135 0.0309703
1003000 61.217 199.581 55.9385 0.50145 0.0106288
1003200 61.217 199.594 55.9385 0.50155 -0.0104115
1003400 61.217 199.607 55.9385 0.50165 0.0201015
1003600 61.217 199.621 55.9385 0.50175 0.0110613
1003800 61.217 199.634 55.9385 0.50185 0.0071431
1004000 61.217 199.647 55.9385 0.50195 -0.0109085
1004200 61.217 199.661 55.9385 0.50205 -0.00980953
1004400 61.217 199.674 55.9385 0.50215 -0.0220356
1004600 61.217 199.687 55.9385 0.50225 -0.0189278
1004800 61.217 199.701 55.9385 0.50235 0.00576368
1005000 61.217 199.714 55.9385 0.50245 -0.0121322
1005200 61.217 199.727 55.9385 0.50255 0.0111017
1005400 61.217 199.74 55.9385 0.50265 -0.0200509
1005600 61.217 199.754 55.9385 0.50275 -0.0161557
1005800 61.217 199.767 55.9385 0.50285 -0.0167445
1006000 61.217 199.78 55.9385 0.50295 0.00900272
1006200 61.217 199.794 55.9385 0.50305 -0.00523033
1006400 61.217 199.807 55.9385 0.50315 -0.0153356
1006600 61.217 199.82 55.9385 0.50325 0.0112797
1006800 61.217 199.833 55.9385 0.50335 0.013156
1007000 61.217 199.847 55.9385 0.50345 -0.0038544
1007200 61.217 199.86 55.9385 0.50355 0.0161118
1007400 61.217 199.873 55.9385 0.50365 -0.00225396
1007600 61.217 199.887 55.9385 0.50375 0.0333194
1007800 61.217 199.9 55.9385 0.50385 0.0101072
1008000 61.217 199.913 55.9385 0.50395 -0.0141537
1008200 61.217 199.926 55.9385 0.50405 0.0178339
1008400 61.217 199.94 55.9385 0.50415 0.00807184
1008600 61.217 199.953 55.9385 0.50425 0.00842194
1008800 61.217 199.966 55.9385 0.50435 0.0382326
1009000 61.217 199.98 55.9385 0.50445 0.0126732
1009200 61.217 199.993 55.9385 0.50455 -0.0023909
1009400 61.217 200.006 55.9385 0.50465 0.00813178
1009600 61.217 200.02 55.9385 0.50475 0.0187768
1009800 61.217 200.033 55.9385 0.50485 0.0191659
1010000 61.217 200.046 55.9385 0.50495 0.00145279
1010200 61.217 200.059 55.9385 0.50505 -0.0258838
1010400 61.217 200.073 55.9385 0.50515 0.00649813
1010600 61.217 200.086 55.9385 0.50525 -0.000737623
1010800 61.217 200.099 55.9385 0.50535 -0.0194898
1011000 61.217 200.113 55.9385 0.50545 -0.00162049
1011200 61.217 200.126 55.9385 0.50555 -0.0247331
1011400 61.217 200.139 55.9385 0.50565 -0.00961772
1011600 61.217 200.152 55.9385 0.50575 -0.00102003
1011800 61.217 200.166 55.9385 0.50585 -0.0129246
1012000 61.217 200.179 55.9385 0.50595 0.0121482
1012200 61.217 200.192 55.9385 0.50605 -0.0203438
1012400 61.217 200.206 55.9385 0.50615 -0.0307675
1012600 61.217 200.219 55.9385 0.50625 0.00424229
1012800 61.217 200.232 55.9385 0.50635 0.00224618
1013000 61.217 200.246 55.9385 0.50645 0.0221039
1013200 61.217 200.259 55.9385 0.50655 0.0136936
1013400 61.217 200.272 55.9385 0.50665 -0.00918637
1013600 61.217 200.285 55.9385 0.50675 0.0269679
1013800 61.217 200.299 55.9385 0.50685 0.00617122
1014000 61.217 200.312 55.9385 0.50695 -0.00301379
1014200 61.217 200.325 55.9385 0.50705 0.0262855
1014400 61.217 200.339 55.9385 0.50715 0.00426565
1014600 61.217 200.352 55.9385 0.50725 0.0155629
1014800 61.217 200.365 55.9385 0.50735 0.0122367
1015000 61.217 200.378 55.9385 0.50745 0.0252058
1015200 61.217 200.392 55.9385 0.50755 0.0281783
1015400 61.217 200.405 55.9385 0.50765 0.011965
1015600 61.217 200.418 55.9385 0.50775 0.0152053
1015800 61.217 200.432 55.9385 0.50785 -0.000429132
1016000 61.217 200.445 55.9385 0.50795 -0.0102716
1016200 61.217 200.458 55.9385 0.50805 0.0113419
1016400 61.217 200.471 55.9385 0.50815 -0.00515126
1016600 61.217 200.485 55.9385 0.50825 -0.00188857
1016800 61.217 200.498 55.9385 0.50835 0.00102287
1017000 61.217 200.511 55.9385 0.50845 -0.017755
1017200 61.217 200.525 55.9385 0.50855 -0.017652
1017400 61.217 200.538 55.9385 0.50865 0.00186603
1017600 61.217 200.551 55.9385 0.50875 -0.0106077
1017800 61.217 200.565 55.9385 0.50885 -0.0369087
1018000 61.217 200.578 55.9385 0.50895 -0.0338897
1018200 61.217 200.591 55.9385 0.50905 0.00533629
1018400 61.217 200.604 55.9385 0.50915 -0.0161258
1018600 61.217 200.618 55.9385 0.50925 0.00126837
1018800 61.217 200.631 55.9385 0.50935 -0.00673797
1019000 61.217 200.644 55.9385 0.50945 0.00415752
1019200 61.217 200.658 55.9385 0.50955 -0.0024169
1019400 61.217 200.671 55.9385 0.50965 0.00697095
1019600 61.217 200.684 55.9385 0.50975 0.00801956
1019800 61.217 200.697 55.9385 0.50985 0.0148394
1020000 61.217 200.711 55.9385 0.50995 0.00129935
1020200 61.217 200.724 55.9385 0.51005 0.0347758
1020400 61.217 200.737 55.9385 0.51015 -0.00533436
1020600 61.217 200.751 55.9385 0.51025 0.0510892
1020800 61.217 200.764 55.9385 0.51035 0.0100863
1021000 61.217 200.777 55.9385 0.51045 -0.00597678
1021200 61.217 200.79 55.9385 0.51055 0.0467353
1021400 61.217 200.804 55.9385 0.51065 0.00597089
1021600 61.217 200.817 55.9385 0.51075 0.0362883
1021800 61.217 200.83 55.9385 0.51085 0.0191505
1022000 61.217 200.844 55.9385 0.51095 -0.00404003
1022200 61.217 200.857 55.9385 0.51105 0.0176226
1022400 61.217 200.87 55.9385 0.51115 -0.00578683
1022600 61.217 200.884 55.9385 0.51125 -0.00199651
1022800 61.217 200.897 55.9385 0.51135 0.00704645
1023000 61.217 200.91 55.9385 0.51145 -0.00994493
1023200 61.217 200.923 55.9385 0.51155 -0.00451776
1023400 61.217 200.937 55.9385 0.51165 0.00146919
1023600 61.217 200.95 55.9385 0.51175 -0.00820229
1023800 61.217 200.963 55.9385 0.51185 -0.0200485
1024000 61.217 200.977 55.9385 0.51195 -0.0267834
1024200 61.217 200.99 55.9385 0.51205 -0.0216645
1024400 61.217 201.003 55.9385 0.51215 -0.0180793
1024600 61.217 201.016 55.9385 0.51225 -0.0112238
1024800 61.217 201.03 55.9385 0.51235 0.00059061
1025000 61.217 201.043 55.9385 0.51245 -0.0260016
1025200 61.217 201.056 55.9385 0.51255 -0.0136096
1025400 61.217 201.07 55.9385 0.51265 0.00544349
1025600 61.217 201.083 55.9385 0.51275 0.00440057
1025800 61.217 201.096 55.9385 0.51285 -0.012578
1026000 61.217 201.11 55.9385 0.51295 0.0087563
1026200 61.217 201.123 55.9385 0.51305 -0.0147718
1026400 61.217 201.136 55.9385 0.51315 0.0231126
1026600 61.217 201.149 55.9385 0.51325 0.0302373
1026800 61.217 201.163 55.9385 0.51335 -0.0199002
1027000 61.217 201.176 55.9385 0.51345 0.0298325
1027200 61.217 201.189 55.9385 0.51355 0.0288735
1027400 61.217 201.203 55.9385 0.51365 0.0132353
1027600 61.217 201.216 55.9385 0.51375 0.0363076
1027800 61.217 201.229 55.9385 0.51385 0.0343906
1028000 61.217 201.242 55.9385 0.51395 0.0119358
1028200 61.217 201.256 55.9385 0.51405 0.0155659
1028400 61.217 201.269 55.9385 0.51415 -0.00227423
1028600 61.217 201.282 55.9385 0.51425 0.0147591
1028800 61.217 201.296 55.9385 0.51435 0.00518202
1029000 61.217 201.309 55.9385 0.51445 0.0112325
1029200 61.217 201.322 55.9385 0.51455 0.0368356
1029400 61.217 201.335 55.9385 0.51465 -0.00866385
1029600 61.217 201.349 55.9385 0.51475 -0.00930991
1029800 61.217 201.362 55.9385 0.51485 0.00129225
1030000 61.217 201.375 55.9385 0.51495 -0.00986874
1030200 61.217 201.389 55.9385 0.51505 -0.00610473
1030400 61.217 201.402 55.9385 0.51515 -0.0279195
1030600 61.217 201.415 55.9385 0.51525 -0.0266799
1030800 61.217 201.429 55.9385 0.51535 -0.0246778
1031000 61.217 201.442 55.9385 0.51545 0.01548
1031200 61.217 201.455 55.9385 0.51555 -0.027561
1031400 61.217 201.468 55.9385 0.51565 0.00414774
1031600 61.217 201.482 55.9385 0.51575 -0.0116023
1031800 61.217 201.495 55.9385 0.51585 -0.0186254
1032000 61.217 201.508 55.9385 0.51595 0.00491151
1032200 61.217 201.522 55.9385 0.51605 -0.000106836
1032400 61.217 201.535 55.9385 0.51615 -0.00181829
1032600 61.217 201.548 55.9385 0.51625 0.0264066
1032800 61.217 201.561 55.9385 0.51635 0.00172229
1033000 61.217 201.575 55.9385 0.51645 0.00137998
1033200 61.217 201.588 55.9385 0.51655 0.027624
1033400 61.217 201.601 55.9385 0.51665 0.00373351
1033600 61.217 201.615 55.9385 0.51675 0.0323018
1033800 61.217 201.628 55.9385 0.51685 -0.0012939
1034000 61.217 201.641 55.9385 0.51695 -0.00210966
1034200 61.217 201.655 55.9385 0.51705 0.0218117
1034400 61.217 201.668 55.9385 0.51715 0.0185631
1034600 61.217 201.681 55.9385 0.51725 0.0197832
1034800 61.217 201.694 55.9385 0.51735 0.0119151
1035000 61.217 201.708 55.9385 0.51745 -0.00126328
1035200 61.217 201.721 55.9385 0.51755 0.0155645
1035400 61.217 201.734 55.9385 0.51765 0.00168565
1035600 61.217 201.748 55.9385 0.51775 0.00427699
1035800 61.217 201.761 55.9385 0.51785 0.0113103
1036000 61.217 201.774 55.9385 0.51795 -0.0164048
1036200 61.217 201.787 55.9385 0.51805 0.0245425
1036400 61.217 201.801 55.9385 0.51815 -0.0388726
1036600 61.217 201.814 55.9385 0.51825 0.00584278
1036800 61.217 201.827 55.9385 0.51835 0.00464942
1037000 61.217 201.841 55.9385 0.51845 -0.0345524
1037200 61.217 201.854 55.9385 0.51855 -0.0201618
1037400 61.217 201.867 55.9385 0.51865 -0.0138612
1037600 61.217 201.88 55.9385 0.51875 -0.00881179
1037800 61.217 201.894 55.9385 0.51885 0.00348586
1038000 61.217 201.907 55.9385 0.51895 -0.00797404
1038200 61.217 201.92 55.9385 0.51905 -0.00507976
1038400 61.217 201.934 55.9385 0.51915 -0.00250423
1038600 61.217 201.947 55.9385 0.51925 -0.00341297
1038800 61.217 201.96 55.9385 0.51935 0.0163615
1039000 61.217 201.974 55.9385 0.51945 0.00634043
1039200 61.217 201.987 55.9385 0.51955 -0.000392294
1039400 61.217 202 55.9385 0.51965 0.0240638
1039600 61.217 202.013 55.9385 0.51975 0.0245323
1039800 61.217 202.027 55.9385 0.51985 0.0138096
1040000 61.217 202.04 55.9385 0.51995 0.0154257
1040200 61.217 202.053 55.9385 0.52005 0.0374454
1040400 61.217 202.067 55.9385 0.52015 -0.00203763
1040600 61.217 202.08 55.9385 0.52025 0.0170297
1040800 61.217 202.093 55.9385 0.52035 0.0106096
1041000 61.217 202.106 55.9385 0.52045 0.0110502
1041200 61.217 202.12 55.9385 0.52055 0.00403017
1041400 61.217 202.133 55.9385 0.52065 0.0152309
1041600 61.217 202.146 55.9385 0.52075 0.00263687
1041800 61.217 202.16 55.9385 0.52085 0.0182577
1042000 61.217 202.173 55.9385 0.52095 0.00132382
1042200 61.217 202.186 55.9385 0.52105 0.000680329
1042400 61.217 202.2 55.9385 0.52115 -0.0206932
1042600 61.217 202.213 55.9385 0.52125 -0.000766848
1042800 61.217 202.226 55.9385 0.52135 -0.0114485
1043000 61.217 202.239 55.9385 0.52145 -0.0125337
1043200 61.217 202.253 55.9385 0.52155 -0.0111054
1043400 61.217 202.266 55.9385 0.52165 0.00748
1043600 61.217 202.279 55.9385 0.52175 -0.0401097
1043800 61.217 202.293 55.9385 0.52185 0.0042755
1044000 61.217 202.306 55.9385 0.52195 0.00148871
1044200 61.217 202.319 55.9385 0.52205 -0.00952756
1044400 61.217 202.332 55.9385 0.52215 -0.0096359
1044600 61.217 202.346 55.9385 0.52225 -0.0112764
1044800 61.217 202.359 55.9385 0.52235 0.0245823
1045000 61.217 202.372 55.9385 0.52245 0.0149923
1045200 61.217 202.386 55.9385 0.52255 0.00273073
1045400 61.217 202.399 55.9385 0.52265 0.012842
1045600 61.217 202.412 55.9385 0.52275 -0.0175426
1045800 61.217 202.425 55.9385 0.52285 0.0278173
1046000 61.217 202.439 55.9385 0.52295 0.0219702
1046200 61.217 202.452 55.9385 0.52305 0.00538022
1046400 61.217 202.465 55.9385 0.52315 0.0354924
1046600 61.217 202.479 55.9385 0.52325 -0.000227866
1046800 61.217 202.492 55.9385 0.52335 0.00735892
1047000 61.217 202.505 55.9385 0.52345 0.0155039
1047200 61.217 202.519 55.9385 0.52355 0.00176334
1047400 61.217 202.532 55.9385 0.52365 0.0113163
1047600 61.217 202.545 55.9385 0.52375 -0.01714
1047800 61.217 202.558 55.9385 0.52385 0.00536978
1048000 61.217 202.572 55.9385 0.52395 0.0133048
1048200 61.217 202.585 55.9385 0.52405 -0.00823721
1048400 61.217 202.598 55.9385 0.52415 -0.00693701
1048600 61.217 202.612 55.9385 0.52425 -0.00161278
1048800 61.217 202.625 55.9385 0.52435 -0.0044269
1049000 61.217 202.638 55.9385 0.52445 -0.017368
1049200 61.217 202.651 55.9385 0.52455 -0.00585165
1049400 61.217 202.665 55.9385 0.52465 -0.00370616
1049600 61.217 202.678 55.9385 0.52475 -0.015971
1049800 61.217 202.691 55.9385 0.52485 -0.00436574
1050000 61.217 202.705 55.9385 0.52495 -0.0200302
1050200 61.217 202.718 55.9385 0.52505 0.00477617
1050400 61.217 202.731 55.9385 0.52515 0.0120761
1050600 61.217 202.745 55.9385 0.52525 0.0169402
1050800 61.217 202.758 55.9385 0.52535 0.0139255
1051000 61.217 202.771 55.9385 0.52545 -0.0151141
1051200 61.217 202.784 55.9385 0.52555 0.0207733
1051400 61.217 202.798 55.9385 0.52565 0.023942
1051600 61.217 202.811 55.9385 0.52575 0.0149887
1051800 61.217 202.824 55.9385 0.52585 0.0366572
1052000 61.217 202.838 55.9385 0.52595 0.015473
1052200 61.217 202.851 55.9385 0.52605 0.0115176
1052400 61.217 202.864 55.9385 0.52615 0.0303079
1052600 61.217 202.877 55.9385 0.52625 0.00376478
1052800 61.217 202.891 55.9385 0.52635 0.0178706
1053000 61.217 202.904 55.9385 0.52645 -0.000915532
1053200 61.217 202.917 55.9385 0.52655 0.00783869
1053400 61.217 202.931 55.9385 0.52665 0.0185309
1053600 61.217 202.944 55.9385 0.52675 0.0196473
1053800 61.217 202.957 55.9385 0.52685 -0.00531441
1054000 61.217 202.97 55.9385 0.52695 -0.0140923
1054200 61.217 202.984 55.9385 0.52705 -0.0134212
1054400 61.217 202.997 55.9385 0.52715 -0.0239267
1054600 61.217 203.01 55.9385 0.52725 -0.018594
1054800 61.217 203.024 55.9385 0.52735 -0.0195959
1055000 61.217 203.037 55.9385 0.52745 -0.0206185
1055200 61.217 203.05 55.9385 0.52755 -0.00865341
1055400 61.217 203.064 55.9385 0.52765 -0.0109003
1055600 61.217 203.077 55.9385 0.52775 -0.025524
1055800 61.217 203.09 55.9385 0.52785 -0.0191941
1056000 61.217 203.103 55.9385 0.52795 -0.00531555
1056200 61.217 203.117 55.9385 0.52805 -0.0177
1056400 61.217 203.13 55.9385 0.52815 -0.000367269
1056600 61.217 203.143 55.9385 0.52825 0.0162137
1056800 61.217 203.157 55.9385 0.52835 -0.0136956
1057000 61.217 203.17 55.9385 0.52845 0.0428135
1057200 61.217 203.183 55.9385 0.52855 0.0115158
1057400 61.217 203.196 55.9385 0.52865 0.00760671
1057600 61.217 203.21 55.9385 0.52875 0.0481723
1057800 61.217 203.223 55.9385 0.52885 0.0200818
1058000 61.217 203.236 55.9385 0.52895 0.0221441
1058200 61.217 203.25 55.9385 0.52905 0.0414671
1058400 61.217 203.263 55.9385 0.52915 0.019159
1058600 61.217 203.276 55.9385 0.52925 0.0311049
1058800 61.217 203.289 55.9385 0.52935 -0.00577142
1059000 61.217 203.303 55.9385 0.52945 0.0247661
1059200 61.217 203.316 55.9385 0.52955 0.0214204
1059400 61.217 203.329 55.9385 0.52965 0.00225304
1059600 61.217 203.343 55.9385 0.52975 0.0430015
1059800 61.217 203.356 55.9385 0.52985 -0.0072717
1060000 61.217 203.369 55.9385 0.52995 -0.0246195
1060200 61.217 203.383 55.9385 0.53005 0.00360757
1060400 61.217 203.396 55.9385 0.53015 -0.00990653
1060600 61.217 203.409 55.9385 0.53025 -0.0153107
1060800 61.217 203.422 55.9385 0.53035 -0.0427799
1061000 61.217 203.436 55.9385 0.53045 0.00340137
1061200 61.217 203.449 55.9385 0.53055 -0.0423416
1061400 61.217 203.462 55.9385 0.53065 -0.0348876
1061600 61.217 203.476 55.9385 0.53075 -0.0174056
1061800 61.217 203.489 55.9385 0.53085 -0.00752591
1062000 61.217 203.502 55.9385 0.53095 -0.00975744
1062200 61.217 203.515 55.9385 0.53105 -0.0286752
1062400 61.217 203.529 55.9385 0.53115 -0.0164535
1062600 61.217 203.542 55.9385 0.53125 0.00459773
1062800 61.217 203.555 55.9385 0.53135 -0.00704392
1063000 61.217 203.569 55.9385 0.53145 0.0228556
1063200 61.217 203.582 55.9385 0.53155 0.00986246
1063400 61.217 203.595 55.9385 0.53165 0.0163345
1063600 61.217 203.609 55.9385 0.53175 0.0304834
1063800 61.217 203.622 55.9385 0.53185 0.0476616
1064000 61.217 203.635 55.9385 0.53195 0.0270891
1064200 61.217 203.648 55.9385 0.53205 -0.0040336
1064400 61.217 203.662 55.9385 0.53215 0.0558166
1064600 61.217 203.675 55.9385 0.53225 0.03234
1064800 61.217 203.688 55.9385 0.53235 0.021684
1065000 61.217 203.702 55.9385 0.53245 0.0553343
1065200 61.217 203.715 55.9385 0.53255 -0.0178572
1065400 61.217 203.728 55.9385 0.53265 0.0425181
1065600 61.217 203.741 55.9385 0.53275 0.0354356
1065800 61.217 203.755 55.9385 0.53285 -0.00687862
1066000 61.217 203.768 55.9385 0.53295 0.0260085
1066200 61.217 203.781 55.9385 0.53305 -0.0249016
1066400 61.217 203.795 55.9385 0.53315 -0.0288667
1066600 61.217 203.808 55.9385 0.53325 -0.0187277
1066800 61.217 203.821 55.9385 0.53335 -0.0253943
1067000 61.217 203.834 55.9385 0.53345 -0.0123275
1067200 61.217 203.848 55.9385 0.53355 -0.0137831
1067400 61.217 203.861 55.9385 0.53365 -0.0277046
1067600 61.217 203.874 55.9385 0.53375 -0.0267205
1067800 61.217 203.888 55.9385 0.53385 -0.0547668
1068000 61.217 203.901 55.9385 0.53395 -0.0127075
1068200 61.217 203.914 55.9385 0.53405 -0.0218644
1068400 61.217 203.928 55.9385 0.53415 -0.0217218
1068600 61.217 203.941 55.9385 0.53425 -0.00741757
1068800 61.217 203.954 55.9385 0.53435 -0.0233084
1069000 61.217 203.967 55.9385 0.53445 -0.00472511
1069200 61.217 203.981 55.9385 0.53455 0.0166528
1069400 61.217 203.994 55.9385 0.53465 0.0249463
1069600 61.217 204.007 55.9385 0.53475 0.0282058
1069800 61.217 204.021 55.9385 0.53485 -0.00044282
1070000 61.217 204.034 55.9385 0.53495 0.0283778
1070200 61.217 204.047 55.9385 0.53505 0.0515044
1070400 61.217 204.06 55.9385 0.53515 0.0193986
1070600 61.217 204.074 55.9385 0.53525 0.0441667
1070800 61.217 204.087 55.9385 0.53535 0.031661
1071000 61.217 204.1 55.9385 0.53545 0.0287244
1071200 61.217 204.114 55.9385 0.53555 0.0414373
1071400 61.217 204.127 55.9385 0.53565 0.0201636
1071600 61.217 204.14 55.9385 0.53575 0.0377363
1071800 61.217 204.154 55.9385 0.53585 0.0256396
1072000 61.217 204.167 55.9385 0.53595 -0.000953173
1072200 61.217 204.18 55.9385 0.53605 0.0309788
1072400 61.217 204.193 55.9385 0.53615 -0.000300953
1072600 61.217 204.207 55.9385 0.53625 -0.0171357
1072800 61.217 204.22 55.9385 0.53635 0.00644934
1073000 61.217 204.233 55.9385 0.53645 -0.0249729
1073200 61.217 204.247 55.9385 0.53655 -0.00254246
1073400 61.217 204.26 55.9385 0.53665 -0.0360147
1073600 61.217 204.273 55.9385 0.53675 -0.0205135
1073800 61.217 204.286 55.9385 0.53685 -0.0308899
1074000 61.217 204.3 55.9385 0.53695 -0.0449746
1074200 61.217 204.313 55.9385 0.53705 -0.0321053
1074400 61.217 204.326 55.9385 0.53715 -0.0197411
1074600 61.217 204.34 55.9385 0.53725 -0.031928
1074800 61.217 204.353 55.9385 0.53735 -0.0111774
1075000 61.217 204.366 55.9385 0.53745 -0.0272341
1075200 61.217 204.379 55.9385 0.53755 0.00506328
1075400 61.217 204.393 55.9385 0.53765 -0.00969106
1075600 61.217 204.406 55.9385 0.53775 -0.00785995
1075800 61.217 204.419 55.9385 0.53785 0.0474973
1076000 61.217 204.433 55.9385 0.53795 -0.0107039
1076200 61.217 204.446 55.9385 0.53805 0.0474675
1076400 61.217 204.459 55.9385 0.53815 0.0218066
1076600 61.217 204.473 55.9385 0.53825 0.02953
1076800 61.217 204.486 55.9385 0.53835 0.0227327
1077000 61.217 204.499 55.9385 0.53845 0.0247127
1077200 61.217 204.512 55.9385 0.53855 0.0318658
1077400 61.217 204.526 55.9385 0.53865 0.0464437
1077600 61.217 204.539 55.9385 0.53875 0.0356401
1077800 61.217 204.552 55.9385 0.53885 0.0201075
1078000 61.217 204.566 55.9385 0.53895 0.0260358
1078200 61.217 204.579 55.9385 0.53905 0.0486684
1078400 61.217 204.592 55.9385 0.53915 -0.0129667
1078600 61.217 204.605 55.9385 0.53925 0.00624239
1078800 61.217 204.619 55.9385 0.53935 0.00125323
1079000 61.217 204.632 55.9385 0.53945 -0.0167726
1079200 61.217 204.645 55.9385 0.53955 -0.00226368
1079400 61.217 204.659 55.9385 0.53965 -0.0109668
1079600 61.217 204.672 55.9385 0.53975 -0.0215553
1079800 61.217 204.685 55.9385 0.53985 -0.0187596
1080000 61.217 204.699 55.9385 0.53995 -0.0222024
1080200 61.217 204.712 55.9385 0.54005 -0.00971717
1080400 61.217 204.725 55.9385 0.54015 -0.0363687
1080600 61.217 204.738 55.9385 0.54025 -0.0198693
1080800 61.217 204.752 55.9385 0.54035 -0.0192281
1081000 61.217 204.765 55.9385 0.54045 -0.0271395
1081200 61.217 204.778 55.9385 0.54055 -0.00519681
1081400 61.217 204.792 55.9385 0.54065 -0.014592
1081600 61.217 204.805 55.9385 0.54075 0.00620078
1081800 61.217 204.818 55.9385 0.54085 -0.00656751
1082000 61.217 204.831 55.9385 0.54095 0.00213591
1082200 61.217 204.845 55.9385 0.54105 0.0433635
1082400 61.217 204.858 55.9385 0.54115 0.0101527
1082600 61.217 204.871 55.9385 0.54125 0.0161561
1082800 61.217 204.885 55.9385 0.54135 0.0307673
1083000 61.217 204.898 55.9385 0.54145 0.0262681
1083200 61.217 204.911 55.9385 0.54155 0.0516084
1083400 61.217 204.924 55.9385 0.54165 0.0171028
1083600 61.217 204.938 55.9385 0.54175 0.0293266
1083800 61.217 204.951 55.9385 0.54185 0.0388775
1084000 61.217 204.964 55.9385 0.54195 -0.00575995
1084200 61.217 204.978 55.9385 0.54205 0.0250327
1084400 61.217 204.991 55.9385 0.54215 0.0129209
1084600 61.217 205.004 55.9385 0.54225 -0.00381238
1084800 61.217 205.018 55.9385 0.54235 -0.0091313
1085000 61.217 205.031 55.9385 0.54245 0.00156388
1085200 61.217 205.044 55.9385 0.54255 -0.000815439
1085400 61.217 205.057 55.9385 0.54265 -0.0181272
1085600 61.217 205.071 55.9385 0.54275 -0.00220129
1085800 61.217 205.084 55.9385 0.54285 -0.0178898
1086000 61.217 205.097 55.9385 0.54295 -0.0200027
1086200 61.217 205.111 55.9385 0.54305 -0.0252524
1086400 61.217 205.124 55.9385 0.54315 -0.0366678
1086600 61.217 205.137 55.9385 0.54325 -0.0236562
1086800 61.217 205.15 55.9385 0.54335 -0.00525277
1087000 61.217 205.164 55.9385 0.54345 -0.0271371
1087200 61.217 205.177 55.9385 0.54355 0.0143735
1087400 61.217 205.19 55.9385 0.54365 -0.00743244
1087600 61.217 205.204 55.9385 0.54375 -0.000585257
1087800 61.217 205.217 55.9385 0.54385 0.0197634
1088000 61.217 205.23 55.9385 0.54395 0.00427925
1088200 61.217 205.243 55.9385 0.54405 0.0314718
1088400 61.217 205.257 55.9385 0.54415 0.0124362
1088600 61.217 205.27 55.9385 0.54425 -0.00351249
1088800 61.217 205.283 55.9385 0.54435 0.0457228
1089000 61.217 205.297 55.9385 0.54445 0.0318766
1089200 61.217 205.31 55.9385 0.54455 0.0232131
1089400 61.217 205.323 55.9385 0.54465 0.057375
1089600 61.217 205.337 55.9385 0.54475 0.0178545
1089800 61.217 205.35 55.9385 0.54485 0.03255
1090000 61.217 205.363 55.9385 0.54495 0.021789
1090200 61.217 205.376 55.9385 0.54505 0.018615
1090400 61.217 205.39 55.9385 0.54515 0.0326845
1090600 61.217 205.403 55.9385 0.54525 -0.00742989
1090800 61.217 205.416 55.9385 0.54535 -0.0247529
1091000 61.217 205.43 55.9385 0.54545 0.0235661
1091200 61.217 205.443 55.9385 0.54555 -0.0316546
1091400 61.217 205.456 55.9385 0.54565 -0.0094992
1091600 61.217 205.469 55.9385 0.54575 -0.0168636
1091800 61.217 205.483 55.9385 0.54585 -0.0267086
1092000 61.217 205.496 55.9385 0.54595 0.0126287
1092200 61.217 205.509 55.9385 0.54605 -0.052572
1092400 61.217 205.523 55.9385 0.54615 -0.00751494
1092600 61.217 205.536 55.9385 0.54625 -0.0194421
1092800 61.217 205.549 55.9385 0.54635 -0.0491636
1093000 61.217 205.563 55.9385 0.54645 -0.00777389
1093200 61.217 205.576 55.9385 0.54655 -0.036181
1093400 61.217 205.589 55.9385 0.54665 0.0199338
1093600 61.217 205.602 55.9385 0.54675 0.0124324
1093800 61.217 205.616 55.9385 0.54685 -0.0219448
1094000 61.217 205.629 55.9385 0.54695 0.0368411
1094200 61.217 205.642 55.9385 0.54705 0.00270463
1094400 61.217 205.656 55.9385 0.54715 0.00863814
1094600 61.217 205.669 55.9385 0.54725 0.0349332
1094800 61.217 205.682 55.9385 0.54735 0.0130849
1095000 61.217 205.695 55.9385 0.54745 0.0398043
1095200 61.217 205.709 55.9385 0.54755 0.00859235
1095400 61.217 205.722 55.9385 0.54765 0.0391523
1095600 61.217 205.735 55.9385 0.54775 0.0336572
1095800 61.217 205.749 55.9385 0.54785 0.0388255
1096000 61.217 205.762 55.9385 0.54795 0.0158825
1096200 61.217 205.775 55.9385 0.54805 0.00668342
1096400 61.217 205.788 55.9385 0.54815 0.00847448
1096600 61.217 205.802 55.9385 0.54825 0.0511789
1096800 61.217 205.815 55.9385 0.54835 0.0188237
1097000 61.217 205.828 55.9385 0.54845 -0.00371911
1097200 61.217 205.842 55.9385 0.54855 0.0242215
1097400 61.217 205.855 55.9385 0.54865 -0.0294965
1097600 61.217 205.868 55.9385 0.54875 -0.0323139
1097800 61.217 205.882 55.9385 0.54885 0.0136267
1098000 61.217 205.895 55.9385 0.54895 -0.00258021
1098200 61.217 205.908 55.9385 0.54905 -0.0305624
1098400 61.217 205.921 55.9385 0.54915 -0.0300938
1098600 61.217 205.935 55.9385 0.54925 -0.0381955
1098800 61.217 205.948 55.9385 0.54935 -0.0411207
1099000 61.217 205.961 55.9385 0.54945 -0.00718346
1099200 61.217 205.975 55.9385 0.54955 -0.00822606
1099400 61.217 205.988 55.9385 0.54965 -0.0365383
1099600 61.217 206.001 55.9385 0.54975 -0.0166652
1099800 61.217 206.014 55.9385 0.54985 -0.0159896
1100000 61.217 206.028 55.9385 0.54995 0.000560031
1100200 61.217 206.041 55.9385 0.55005 0.0335455
1100400 61.217 206.054 55.9385 0.55015 -0.00544067
1100600 61.217 206.068 55.9385 0.55025 0.00627002
1100800 61.217 206.081 55.9385 0.55035 0.0180475
1101000 61.217 206.094 55.9385 0.55045 0.0331244
1101200 61.217 206.108 55.9385 0.55055 0.0648331
1101400 61.217 206.121 55.9385 0.55065 0.011808
1101600 61.217 206.134 55.9385 0.55075 0.0366652
1101800 61.217 206.147 55.9385 0.55085 0.0564564
1102000 61.217 206.161 55.9385 0.55095 0.0191244
1102200 61.217 206.174 55.9385 0.55105 0.0473998
1102400 61.217 206.187 55.9385 0.55115 0.0284242
1102600 61.217 206.201 55.9385 0.55125 0.0178801
1102800 61.217 206.214 55.9385 0.55135 0.0186381
1103000 61.217 206.227 55.9385 0.55145 0.00880538
1103200 61.217 206.24 55.9385 0.55155 0.0480641
1103400 61.217 206.254 55.9385 0.55165 -0.0116555
1103600 61.217 206.267 55.9385 0.55175 0.00770203
1103800 61.217 206.28 55.9385 0.55185 0.0059334
1104000 61.217 206.294 55.9385 0.55195 -0.0469859
1104200 61.217 206.307 55.9385 0.55205 0.00918911
1104400 61.217 206.32 55.9385 0.55215 -0.0361274
1104600 61.217 206.333 55.9385 0.55225 -0.049884
1104800 61.217 206.347 55.9385 0.55235 -0.0283102
1105000 61.217 206.36 55.9385 0.55245 -0.0383455
1105200 61.217 206.373 55.9385 0.55255 -0.0432304
1105400 61.217 206.387 55.9385 0.55265 -0.0235284
1105600 61.217 206.4 55.9385 0.55275 -0.0191861
1105800 61.217 206.413 55.9385 0.55285 -0.0057175
1106000 61.217 206.427 55.9385 0.55295 -0.0385741
1106200 61.217 206.44 55.9385 0.55305 -0.0241467
1106400 61.217 206.453 55.9385 0.55315 -0.0084077
1106600 61.217 206.466 55.9385 0.55325 0.00665705
1106800 61.217 206.48 55.9385 0.55335 0.00340574
1107000 61.217 206.493 55.9385 0.55345 0.0215829
1107200 61.217 206.506 55.9385 0.55355 0.0361378
1107400 61.217 206.52 55.9385 0.55365 0.043603
1107600 61.217 206.533 55.9385 0.55375 0.0211791
1107800 61.217 206.546 55.9385 0.55385 0.0433866
1108000 61.217 206.559 55.9385 0.55395 0.0485946
1108200 61.217 206.573 55.9385 0.55405 0.0318462
1108400 61.217 206.586 55.9385 0.55415 0.0670105
1108600 61.217 206.599 55.9385 0.55425 0.0459095
1108800 61.217 206.613 55.9385 0.55435 0.0321358
1109000 61.217 206.626 55.9385 0.55445 0.0382605
1109200 61.217 206.639 55.9385 0.55455 0.0354
1109400 61.217 206.653 55.9385 0.55465 0.018452
1109600 61.217 206.666 55.9385 0.55475 0.0218991
1109800 61.217 206.679 55.9385 0.55485 0.0197949
1110000 61.217 206.692 55.9385 0.55495 -0.0170915
1110200 61.217 206.706 55.9385 0.55505 -0.0159466
1110400 61.217 206.719 55.9385 0.55515 0.000887071
1110600 61.217 206.732 55.9385 0.55525 -0.0136021
1110800 61.217 206.746 55.9385 0.55535 -0.0374408
1111000 61.217 206.759 55.9385 0.55545 -0.0502257
1111200 61.217 206.772 55.9385 0.55555 -0.049418
1111400 61.217 206.785 55.9385 0.55565 -0.022094
1111600 61.217 206.799 55.9385 0.55575 -0.028466
1111800 61.217 206.812 55.9385 0.55585 -0.0312328
1112000 61.217 206.825 55.9385 0.55595 -0.0506114
1112200 61.217 206.839 55.9385 0.55605 -0.0356304
1112400 61.217 206.852 55.9385 0.55615 -0.0324924
1112600 61.217 206.865 55.9385 0.55625 0.0135315
1112800 61.217 206.878 55.9385 0.55635 0.0098501
1113000 61.217 206.892 55.9385 0.55645 0.00315343
1113200 61.217 206.905 55.9385 0.55655 0.00915327
1113400 61.217 206.918 55.9385 0.55665 0.0158103
1113600 61.217 206.932 55.9385 0.55675 0.0314187
1113800 61.217 206.945 55.9385 0.55685 0.0342953
1114000 61.217 206.958 55.9385 0.55695 0.0268728
1114200 61.217 206.972 55.9385 0.55705 0.0368672
1114400 61.217 206.985 55.9385 0.55715 0.0414261
1114600 61.217 206.998 55.9385 0.55725 0.0358375
1114800 61.217 207.011 55.9385 0.55735 0.0366995
1115000 61.217 207.025 55.9385 0.55745 0.0523805
1115200 61.217 207.038 55.9385 0.55755 0.0243411
1115400 61.217 207.051 55.9385 0.55765 0.0335346
1115600 61.217 207.065 55.9385 0.55775 0.0427946
1115800 61.217 207.078 55.9385 0.55785 -0.0154272
1116000 61.217 207.091 55.9385 0.55795 0.0314593
1116200 61.217 207.104 55.9385 0.55805 -0.00568439
1116400 61.217 207.118 55.9385 0.55815 -0.0226117
1116600 61.217 207.131 55.9385 0.55825 0.0090642
1116800 61.217 207.144 55.9385 0.55835 -0.0462426
1117000 61.217 207.158 55.9385 0.55845 -0.000888932
1117200 61.217 207.171 55.9385 0.55855 -0.0190786
1117400 61.217 207.184 55.9385 0.55865 -0.0159552
1117600 61.217 207.198 55.9385 0.55875 -0.00767554
1117800 61.217 207.211 55.9385 0.55885 -0.0551746
1118000 61.217 207.224 55.9385 0.55895 -0.016158
1118200 61.217 207.237 55.9385 0.55905 -0.0380164
1118400 61.217 207.251 55.9385 0.55915 -0.0297594
1118600 61.217 207.264 55.9385 0.55925 0.0042686
1118800 61.217 207.277 55.9385 0.55935 -0.0275818
1119000 61.217 207.291 55.9385 0.55945 0.037442
1119200 61.217 207.304 55.9385 0.55955 -0.00942428
1119400 61.217 207.317 55.9385 0.55965 0.00738146
1119600 61.217 207.33 55.9385 0.55975 0.0404112
1119800 61.217 207.344 55.9385 0.55985 -0.0111915
1120000 61.217 207.357 55.9385 0.55995 0.0440138
1120200 61.217 207.37 55.9385 0.56005 0.0368822
1120400 61.217 207.384 55.9385 0.56015 -0.000984639
1120600 61.217 207.397 55.9385 0.56025 0.0429782
1120800 61.217 207.41 55.9385 0.56035 0.0328615
1121000 61.217 207.423 55.9385 0.56045 0.0275055
1121200 61.217 207.437 55.9385 0.56055 0.0440598
1121400 61.217 207.45 55.9385 0.56065 -0.0140453
1121600 61.217 207.463 55.9385 0.56075 0.0556239
1121800 61.217 207.477 55.9385 0.56085 0.021733
1122000 61.217 207.49 55.9385 0.56095 0.0010392
1122200 61.217 207.503 55.9385 0.56105 0.0328904
1122400 61.217 207.517 55.9385 0.56115 -0.0220669
1122600 61.217 207.53 55.9385 0.56125 0.0141758
1122800 61.217 207.543 55.9385 0.56135 -0.0100759
1123000 61.217 207.556 55.9385 0.56145 -0.0241635
1123200 61.217 207.57 55.9385 0.56155 0.0111973
1123400 61.217 207.583 55.9385 0.56165 -0.0431663
1123600 61.217 207.596 55.9385 0.56175 -0.00979752
1123800 61.217 207.61 55.9385 0.56185 -0.0243244
1124000 61.217 207.623 55.9385 0.56195 -0.00630831
1124200 61.217 207.636 55.9385 0.56205 -0.019685
1124400 61.217 207.649 55.9385 0.56215 -0.0325342
1124600 61.217 207.663 55.9385 0.56225 -0.0163036
1124800 61.217 207.676 55.9385 0.56235 -0.0285503
1125000 61.217 207.689 55.9385 0.56245 0.0145203
1125200 61.217 207.703 55.9385 0.56255 -0.00743698
1125400 61.217 207.716 55.9385 0.56265 0.00554526
1125600 61.217 207.729 55.9385 0.56275 0.0141811
1125800 61.217 207.742 55.9385 0.56285 0.0116502
1126000 61.217 207.756 55.9385 0.56295 0.0368704
1126200 61.217 207.769 55.9385 0.56305 0.0225123
1126400 61.217 207.782 55.9385 0.56315 0.0301187
1126600 61.217 207.796 55.9385 0.56325 0.0169089
1126800 61.217 207.809 55.9385 0.56335 0.0175646
1127000 61.217 207.822 55.9385 0.56345 0.0429945
1127200 61.217 207.836 55.9385 0.56355 0.0458358
1127400 61.217 207.849 55.9385 0.56365 0.0114847
1127600 61.217 207.862 55.9385 0.56375 0.00911874
1127800 61.217 207.875 55.9385 0.56385 0.0242017
1128000 61.217 207.889 55.9385 0.56395 0.030398
1128200 61.217 207.902 55.9385 0.56405 -0.0129888
1128400 61.217 207.915 55.9385 0.56415 0.00189225
1128600 61.217 207.929 55.9385 0.56425 0.0245975
1128800 61.217 207.942 55.9385 0.56435 -0.0242666
1129000 61.217 207.955 55.9385 0.56445 -0.0123383
1129200 61.217 207.968 55.9385 0.56455 -0.0153673
1129400 61.217 207.982 55.9385 0.56465 -0.0297194
1129600 61.217 207.995 55.9385 0.56475 -0.00667468
1129800 61.217 208.008 55.9385 0.56485 -0.0170403
1130000 61.217 208.022 55.9385 0.56495 -0.0216396
1130200 61.217 208.035 55.9385 0.56505 -0.0120224
1130400 61.217 208.048 55.9385 0.56515 -0.0213549
1130600 61.217 208.062 55.9385 0.56525 0.02142
1130800 61.217 208.075 55.9385 0.56535 -0.0229996
1131000 61.217 208.088 55.9385 0.56545 -0.000559035
1131200 61.217 208.101 55.9385 0.56555 -0.00975142
1131400 61.217 208.115 55.9385 0.56565 0.00194116
1131600 61.217 208.128 55.9385 0.56575 0.0349035
1131800 61.217 208.141 55.9385 0.56585 -0.0273588
1132000 61.217 208.155 55.9385 0.56595 0.0655605
1132200 61.217 208.168 55.9385 0.56605 0.0312087
1132400 61.217 208.181 55.9385 0.56615 0.00695484
1132600 61.217 208.194 55.9385 0.56625 0.0584544
1132800 61.217 208.208 55.9385 0.56635 -0.0041331
1133000 61.217 208.221 55.9385 0.56645 0.0368218
1133200 61.217 208.234 55.9385 0.56655 0.0524791
1133400 61.217 208.248 55.9385 0.56665 -5.84768e-05
1133600 61.217 208.261 55.9385 0.56675 0.0330473
1133800 61.217 208.274 55.9385 0.56685 0.00333349
1134000 61.217 208.287 55.9385 0.56695 0.0239186
1134200 61.217 208.301 55.9385 0.56705 0.0151639
1134400 61.217 208.314 55.9385 0.56715 -0.00111409
1134600 61.217 208.327 55.9385 0.56725 0.00408734
1134800 61.217 208.341 55.9385 0.56735 -0.0147162
1135000 61.217 208.354 55.9385 0.56745 -0.0128558
1135200 61.217 208.367 55.9385 0.56755 -0.0273621
1135400 61.217 208.381 55.9385 0.56765 -0.0222928
1135600 61.217 208.394 55.9385 0.56775 -0.0220616
1135800 61.217 208.407 55.9385 0.56785 -0.0315027
1136000 61.217 208.42 55.9385 0.56795 -0.0226867
1136200 61.217 208.434 55.9385 0.56805 -0.0279133
1136400 61.217 208.447 55.9385 0.56815 -0.0140134
1136600 61.217 208.46 55.9385 0.56825 -0.0152174
1136800 61.217 208.474 55.9385 0.56835 -0.0158623
1137000 61.217 208.487 55.9385 0.56845 0.00358138
1137200 61.217 208.5 55.9385 0.56855 -0.00298536
1137400 61.217 208.513 55.9385 0.56865 0.010977
1137600 61.217 208.527 55.9385 0.56875 0.00824842
1137800 61.217 208.54 55.9385 0.56885 0.0116818
1138000 61.217 208.553 55.9385 0.56895 0.0557664
1138200 61.217 208.567 55.9385 0.56905 0.0208133
1138400 61.217 208.58 55.9385 0.56915 0.051618
1138600 61.217 208.593 55.9385 0.56925 0.018064
1138800 61.217 208.607 55.9385 0.56935 0.028248
1139000 61.217 208.62 55.9385 0.56945 0.0646443
1139200 61.217 208.633 55.9385 0.56955 -0.00286828
1139400 61.217 208.646 55.9385 0.56965 0.0716661
1139600 61.217 208.66 55.9385 0.56975 0.0179985
1139800 61.217 208.673 55.9385 0.56985 -0.0047245
1140000 61.217 208.686 55.9385 0.56995 0.0483894
1140200 61.217 208.7 55.9385 0.57005 0.0083137
1140400 61.217 208.713 55.9385 0.57015 -0.000936619
1140600 61.217 208.726 55.9385 0.57025 0.0090304
1140800 61.217 208.739 55.9385 0.57035 -0.00445186
1141000 61.217 208.753 55.9385 0.57045 0.00393867
1141200 61.217 208.766 55.9385 0.57055 -0.0228714
1141400 61.217 208.779 55.9385 0.57065 -0.0216333
1141600 61.217 208.793 55.9385 0.57075 -0.0276005
1141800 61.217 208.806 55.9385 0.57085 -0.0492731
1142000 61.217 208.819 55.9385 0.57095 -0.0225944
1142200 61.217 208.832 55.9385 0.57105 -0.0148034
1142400 61.217 208.846 55.9385 0.57115 -0.0281491
1142600 61.217 208.859 55.9385 0.57125 -0.0160782
1142800 61.217 208.872 55.9385 0.57135 -0.0329511
1143000 61.217 208.886 55.9385 0.57145 -0.0192148
1143200 61.217 208.899 55.9385 0.57155 -0.00976991
1143400 61.217 208.912 55.9385 0.57165 -0.0137763
1143600 61.217 208.926 55.9385 0.57175 0.0109161
1143800 61.217 208.939 55.9385 0.57185 -0.00368972
1144000 61.217 208.952 55.9385 0.57195 0.0169015
1144200 61.217 208.965 55.9385 0.57205 0.0367762
1144400 61.217 208.979 55.9385 0.57215 0.0179562
1144600 61.217 208.992 55.9385 0.57225 0.0430806
1144800 61.217 209.005 55.9385 0.57235 0.0220765
1145000 61.217 209.019 55.9385 0.57245 0.0388904
1145200 61.217 209.032 55.9385 0.57255 0.0476759
1145400 61.217 209.045 55.9385 0.57265 0.0254252
1145600 61.217 209.058 55.9385 0.57275 0.0386939
1145800 61.217 209.072 55.9385 0.57285 0.0408652
1146000 61.217 209.085 55.9385 0.57295 0.0253918
1146200 61.217 209.098 55.9385 0.57305 0.0241861
1146400 61.217 209.112 55.9385 0.57315 0.0323115
1146600 61.217 209.125 55.9385 0.57325 0.0134851
1146800 61.217 209.138 55.9385 0.57335 0.0217517
1147000 61.217 209.152 55.9385 0.57345 0.0180938
1147200 61.217 209.165 55.9385 0.57355 0.00246817
1147400 61.217 209.178 55.9385 0.57365 -0.0196145
1147600 61.217 209.191 55.9385 0.57375 -0.0176016
1147800 61.217 209.205 55.9385 0.57385 -0.0358993
1148000 61.217 209.218 55.9385 0.57395 -0.00756294
1148200 61.217 209.231 55.9385 0.57405 -0.0293203
1148400 61.217 209.245 55.9385 0.57415 -0.0325939
1148600 61.217 209.258 55.9385 0.57425 -0.0209311
1148800 61.217 209.271 55.9385 0.57435 -0.0300897
1149000 61.217 209.284 55.9385 0.57445 -0.0363605
1149200 61.217 209.298 55.9385 0.57455 -0.0121904
1149400 61.217 209.311 55.9385 0.57465 -0.0168127
1149600 61.217 209.324 55.9385 0.57475 -0.0122295
1149800 61.217 209.338 55.9385 0.57485 -0.00415475
1150000 61.217 209.351 55.9385 0.57495 -0.00682242
1150200 61.217 209.364 55.9385 0.57505 0.00633998
1150400 61.217 209.377 55.9385 0.57515 0.0232921
1150600 61.217 209.391 55.9385 0.57525 0.0268494
1150800 61.217 209.404 55.9385 0.57535 0.0465312
1151000 61.217 209.417 55.9385 0.57545 0.000514426
1151200 61.217 209.431 55.9385 0.57555 0.0574771
1151400 61.217 209.444 55.9385 0.57565 0.0356667
1151600 61.217 209.457 55.9385 0.57575 0.0286567
1151800 61.217 209.471 55.9385 0.57585 0.0427018
1152000 61.217 209.484 55.9385 0.57595 0.0117161
1152200 61.217 209.497 55.9385 0.57605 0.0400685
1152400 61.217 209.51 55.9385 0.57615 0.0228517
1152600 61.217 209.524 55.9385 0.57625 0.0236509
1152800 61.217 209.537 55.9385 0.57635 0.0149584
1153000 61.217 209.55 55.9385 0.57645 0.0210058
1153200 61.217 209.564 55.9385 0.57655 0.0137654
1153400 61.217 209.577 55.9385 0.57665 0.00188838
1153600 61.217 209.59 55.9385 0.57675 -0.00315256
1153800 61.217 209.603 55.9385 0.57685 -0.00844567
1154000 61.217 209.617 55.9385 0.57695 -0.0219319
1154200 61.217 209.63 55.9385 0.57705 -0.0196758
1154400 61.217 209.643 55.9385 0.57715 -0.0321626
1154600 61.217 209.657 55.9385 0.57725 -0.0242693
1154800 61.217 209.67 55.9385 0.57735 -0.0235364
1155000 61.217 209.683 55.9385 0.57745 -0.00834791
1155200 61.217 209.696 55.9385 0.57755 -0.0176829
1155400 61.217 209.71 55.9385 0.57765 -0.0364493
1155600 61.217 209.723 55.9385 0.57775 0.0122254
1155800 61.217 209.736 55.9385 0.57785 -0.0178327
1156000 61.217 209.75 55.9385 0.57795 -0.0306136
1156200 61.217 209.763 55.9385 0.57805 0.0265431
1156400 61.217 209.776 55.9385 0.57815 -0.00834514
1156600 61.217 209.79 55.9385 0.57825 -0.00208694
1156800 61.217 209.803 55.9385 0.57835 0.0495338
1157000 61.217 209.816 55.9385 0.57845 -0.00965758
1157200 61.217 209.829 55.9385 0.57855 0.0424967
1157400 61.217 209.843 55.9385 0.57865 0.0471001
1157600 61.217 209.856 55.9385 0.57875 0.00674931
1157800 61.217 209.869 55.9385 0.57885 0.0308987
1158000 61.217 209.883 55.9385 0.57895 0.0278921
1158200 61.217 209.896 55.9385 0.57905 0.0429057
1158400 61.217 209.909 55.9385 0.57915 0.0111952
1158600 61.217 209.922 55.9385 0.57925 0.0449646
1158800 61.217 209.936 55.9385 0.57935 0.0281325
1159000 61.217 209.949 55.9385 0.57945 0.00224716
1159200 61.217 209.962 55.9385 0.57955 0.00710252
1159400 61.217 209.976 55.9385 0.57965 0.0186394
1159600 61.217 209.989 55.9385 0.57975 0.0101075
1159800 61.217 210.002 55.9385 0.57985 0.0134591
1160000 61.217 210.016 55.9385 0.57995 0.00116536
1160200 61.217 210.029 55.9385 0.58005 -0.0026376
1160400 61.217 210.042 55.9385 0.58015 -0.0251294
1160600 61.217 210.055 55.9385 0.58025 -0.00313448
1160800 61.217 210.069 55.9385 0.58035 -0.00648444
1161000 61.217 210.082 55.9385 0.58045 -0.0154149
1161200 61.217 210.095 55.9385 0.58055 -0.0254911
1161400 61.217 210.109 55.9385 0.58065 -0.012523
1161600 61.217 210.122 55.9385 0.58075 -0.0074156
1161800 61.217 210.135 55.9385 0.58085 -0.0122715
1162000 61.217 210.148 55.9385 0.58095 0.00386243
1162200 61.217 210.162 55.9385 0.58105 0.00104078
1162400 61.217 210.175 55.9385 0.58115 -0.020525
1162600 61.217 210.188 55.9385 0.58125 0.0038948
1162800 61.217 210.202 55.9385 0.58135 -0.000821172
1163000 61.217 210.215 55.9385 0.58145 0.0173901
1163200 61.217 210.228 55.9385 0.58155 0.0104664
1163400 61.217 210.241 55.9385 0.58165 0.0302616
1163600 61.217 210.255 55.9385 0.58175 0.00696856
1163800 61.217 210.268 55.9385 0.58185 0.012268
1164000 61.217 210.281 55.9385 0.58195 0.0307702
1164200 61.217 210.295 55.9385 0.58205 0.0101309
1164400 61.217 210.308 55.9385 0.58215 0.0209427
1164600 61.217 210.321 55.9385 0.58225 4.99984e-05
1164800 61.217 210.335 55.9385 0.58235 0.0244336
1165000 61.217 210.348 55.9385 0.58245 0.0247917
1165200 61.217 210.361 55.9385 0.58255 0.00847546
1165400 61.217 210.374 55.9385 0.58265 0.00884729
1165600 61.217 210.388 55.9385 0.58275 0.00750774
1165800 61.217 210.401 55.9385 0.58285 0.0230713
1166000 61.217 210.414 55.9385 0.58295 -0.004598
1166200 61.217 210.428 55.9385 0.58305 0.00354238
1166400 61.217 210.441 55.9385 0.58315 -0.00390451
1166600 61.217 210.454 55.9385 0.58325 -0.00961414
1166800 61.217 210.467 55.9385 0.58335 0.00647988
1167000 61.217 210.481 55.9385 0.58345 -0.0177409
1167200 61.217 210.494 55.9385 0.58355 0.0110955
1167400 61.217 210.507 55.9385 0.58365 -0.00397652
1167600 61.217 210.521 55.9385 0.58375 -0.0066552
1167800 61.217 210.534 55.9385 0.58385 -0.00363034
1168000 61.217 210.547 55.9385 0.58395 -0.0044177
1168200 61.217 210.561 55.9385 0.58405 0.0177889
1168400 61.217 210.574 55.9385 0.58415 -0.00866459
1168600 61.217 210.587 55.9385 0.58425 0.00565215
1168800 61.217 210.6 55.9385 0.58435 0.0220811
1169000 61.217 210.614 55.9385 0.58445 -0.00775679
1169200 61.217 210.627 55.9385 0.58455 0.0341397
1169400 61.217 210.64 55.9385 0.58465 -0.0118528
1169600 61.217 210.654 55.9385 0.58475 0.0283275
1169800 61.217 210.667 55.9385 0.58485 0.0357595
1170000 61.217 210.68 55.9385 0.58495 0.0078383
1170200 61.217 210.693 55.9385 0.58505 0.046825
1170400 61.217 210.707 55.9385 0.58515 0.00669161
1170600 61.217 210.72 55.9385 0.58525 -0.00212272
1170800 61.217 210.733 55.9385 0.58535 0.0257451
1171000 61.217 210.747 55.9385 0.58545 0.000992214
1171200 61.217 210.76 55.9385 0.58555 0.0106324
1171400 61.217 210.773 55.9385 0.58565 0.000339066
1171600 61.217 210.786 55.9385 0.58575 0.025185
1171800 61.217 210.8 55.9385 0.58585 0.00381416
1172000 61.217 210.813 55.9385 0.58595 -0.0270384
1172200 61.217 210.826 55.9385 0.58605 -0.00266385
1172400 61.217 210.84 55.9385 0.58615 0.00210129
1172600 61.217 210.853 55.9385 0.58625 -0.0252977
1172800 61.217 210.866 55.9385 0.58635 0.0039071
1173000 61.217 210.88 55.9385 0.58645 -0.0281684
1173200 61.217 210.893 55.9385 0.58655 -0.0220748
1173400 61.217 210.906 55.9385 0.58665 0.0222283
1173600 61.217 210.919 55.9385 0.58675 -0.0143247
1173800 61.217 210.933 55.9385 0.58685 0.00590367
1174000 61.217 210.946 55.9385 0.58695 0.00582871
1174200 61.217 210.959 55.9385 0.58705 -0.015185
1174400 61.217 210.973 55.9385 0.58715 0.0228292
1174600 61.217 210.986 55.9385 0.58725 -0.012085
1174800 61.217 210.999 55.9385 0.58735 0.0301624
1175000 61.217 211.012 55.9385 0.58745 0.0249629
1175200 61.217 211.026 55.9385 0.58755 0.00532968
1175400 61.217 211.039 55.9385 0.58765 0.0211247
1175600 61.217 211.052 55.9385 0.58775 0.0152568
1175800 61.217 211.066 55.9385 0.58785 0.0118715
1176000 61.217 211.079 55.9385 0.58795 0.0422922
1176200 61.217 211.092 55.9385 0.58805 0.0175157
1176400 61.217 211.106 55.9385 0.58815 0.0120866
1176600 61.217 211.119 55.9385 0.58825 0.0325255
1176800 61.217 211.132 55.9385 0.58835 0.00694813
1177000 61.217 211.145 55.9385 0.58845 0.00237639
1177200 61.217 211.159 55.9385 0.58855 0.0413979
1177400 61.217 211.172 55.9385 0.58865 -0.00134824
1177600 61.217 211.185 55.9385 0.58875 0.003138
1177800 61.217 211.199 55.9385 0.58885 0.0356099
1178000 61.217 211.212 55.9385 0.58895 0.00342924
1178200 61.217 211.225 55.9385 0.58905 -0.00693986
1178400 61.217 211.238 55.9385 0.58915 -0.0169646
1178600 61.217 211.252 55.9385 0.58925 0.00977203
1178800 61.217 211.265 55.9385 0.58935 -0.0062128
1179000 61.217 211.278 55.9385 0.58945 -0.0183739
1179200 61.217 211.292 55.9385 0.58955 -0.00522795
1179400 61.217 211.305 55.9385 0.58965 -0.0142243
1179600 61.217 211.318 55.9385 0.58975 -0.0224794
1179800 61.217 211.331 55.9385 0.58985 -0.00762369
1180000 61.217 211.345 55.9385 0.58995 0.00184043
1180200 61.217 211.358 55.9385 0.59005 -0.0183099
1180400 61.217 211.371 55.9385 0.59015 0.00625163
1180600 61.217 211.385 55.9385 0.59025 -0.0142574
1180800 61.217 211.398 55.9385 0.59035 0.00556164
1181000 61.217 211.411 55.9385 0.59045 0.0328143
1181200 61.217 211.425 55.9385 0.59055 -0.0174207
1181400 61.217 211.438 55.9385 0.59065 0.0183526
1181600 61.217 211.451 55.9385 0.59075 0.00355358
1181800 61.217 211.464 55.9385 0.59085 0.0304007
1182000 61.217 211.478 55.9385 0.59095 0.0362462
1182200 61.217 211.491 55.9385 0.59105 0.0156946
1182400 61.217 211.504 55.9385 0.59115 0.0486236
1182600 61.217 211.518 55.9385 0.59125 -0.00616631
1182800 61.217 211.531 55.9385 0.59135 0.0265637
1183000 61.217 211.544 55.9385 0.59145 0.0646222
1183200 61.217 211.557 55.9385 0.59155 -0.008212
1183400 61.217 211.571 55.9385 0.59165 0.0353417
1183600 61.217 211.584 55.9385 0.59175 0.00665687
1183800 61.217 211.597 55.9385 0.59185 -0.00321879
1184000 61.217 211.611 55.9385 0.59195 0.0502979
1184200 61.217 211.624 55.9385 0.59205 -0.00220606
1184400 61.217 211.637 55.9385 0.59215 0.00405095
1184600 61.217 211.651 55.9385 0.59225 0.00695644
1184800 61.217 211.664 55.9385 0.59235 -0.0138493
1185000 61.217 211.677 55.9385 0.59245 0.00744181
1185200 61.217 211.69 55.9385 0.59255 -0.0285546
1185400 61.217 211.704 55.9385 0.59265 -0.0175452
1185600 61.217 211.717 55.9385 0.59275 -0.0271506
1185800 61.217 211.73 55.9385 0.59285 -0.0174765
1186000 61.217 211.744 55.9385 0.59295 -0.00528121
1186200 61.217 211.757 55.9385 0.59305 -0.0293009
1186400 61.217 211.77 55.9385 0.59315 -0.00853362
1186600 61.217 211.783 55.9385 0.59325 -0.0124425
1186800 61.217 211.797 55.9385 0.59335 -0.00460761
1187000 61.217 211.81 55.9385 0.59345 0.00988048
1187200 61.217 211.823 55.9385 0.59355 -0.0179604
1187400 61.217 211.837 55.9385 0.59365 0.0225032
1187600 61.217 211.85 55.9385 0.59375 0.0146739
1187800 61.217 211.863 55.9385 0.59385 -0.00870535
1188000 61.217 211.876 55.9385 0.59395 0.0587133
1188200 61.217 211.89 55.9385 0.59405 0.00430575
1188400 61.217 211.903 55.9385 0.59415 0.0497802
1188600 61.217 211.916 55.9385 0.59425 0.0273594
1188800 61.217 211.93 55.9385 0.59435 0.0244653
1189000 61.217 211.943 55.9385 0.59445 0.032912
1189200 61.217 211.956 55.9385 0.59455 0.035167
1189400 61.217 211.97 55.9385 0.59465 0.0288972
1189600 61.217 211.983 55.9385 0.59475 0.0440858
1189800 61.217 211.996 55.9385 0.59485 0.0131855
1190000 61.217 212.009 55.9385 0.59495 0.0105104
1190200 61.217 212.023 55.9385 0.59505 -0.00171307
1190400 61.217 212.036 55.9385 0.59515 0.0186593
1190600 61.217 212.049 55.9385 0.59525 0.0183925
1190800 61.217 212.063 55.9385 0.59535 0.00829234
1191000 61.217 212.076 55.9385 0.59545 -0.0125575
1191200 61.217 212.089 55.9385 0.59555 -0.0115373
1191400 61.217 212.102 55.9385 0.59565 -0.00376335
1191600 61.217 212.116 55.9385 0.59575 -0.0160344
1191800 61.217 212.129 55.9385 0.59585 -0.0239442
1192000 61.217 212.142 55.9385 0.59595 -0.0170889
1192200 61.217 212.156 55.9385 0.59605 -0.0315651
1192400 61.217 212.169 55.9385 0.59615 -0.0147472
1192600 61.217 212.182 55.9385 0.59625 -0.00271477
1192800 61.217 212.195 55.9385 0.59635 -0.0284986
1193000 61.217 212.209 55.9385 0.59645 0.0123014
1193200 61.217 212.222 55.9385 0.59655 0.00275728
1193400 61.217 212.235 55.9385 0.59665 -0.0202163
1193600 61.217 212.249 55.9385 0.59675 0.00636378
1193800 61.217 212.262 55.9385 0.59685 0.0214828
1194000 61.217 212.275 55.9385 0.59695 0.00412728
1194200 61.217 212.289 55.9385 0.59705 0.00929199
1194400 61.217 212.302 55.9385 0.59715 0.0100099
1194600 61.217 212.315 55.9385 0.59725 0.0167183
1194800 61.217 212.328 55.9385 0.59735 0.0188248
1195000 61.217 212.342 55.9385 0.59745 0.0430107
1195200 61.217 212.355 55.9385 0.59755 0.0130715
1195400 61.217 212.368 55.9385 0.59765 0.055185
1195600 61.217 212.382 55.9385 0.59775 0.0412912
1195800 61.217 212.395 55.9385 0.59785 0.02417
1196000 61.217 212.408 55.9385 0.59795 0.0256038
1196200 61.217 212.421 55.9385 0.59805 0.0107226
1196400 61.217 212.435 55.9385 0.59815 0.0191589
1196600 61.217 212.448 55.9385 0.59825 0.00393356
1196800 61.217 212.461 55.9385 0.59835 0.00956104
1197000 61.217 212.475 55.9385 0.59845 0.0041411
1197200 61.217 212.488 55.9385 0.59855 0.0206279
1197400 61.217 212.501 55.9385 0.59865 0.036901
1197600 61.217 212.515 55.9385 0.59875 -0.0248523
1197800 61.217 212.528 55.9385 0.59885 0.0100598
1198000 61.217 212.541 55.9385 0.59895 -0.0192679
1198200 61.217 212.554 55.9385 0.59905 -0.0142851
1198400 61.217 212.568 55.9385 0.59915 -0.0312502
1198600 61.217 212.581 55.9385 0.59925 -0.0104192
1198800 61.217 212.594 55.9385 0.59935 -0.0169289
1199000 61.217 212.608 55.9385 0.59945 -0.0195939
1199200 61.217 212.621 55.9385 0.59955 0.00398753
1199400 61.217 212.634 55.9385 0.59965 -0.0152861
1199600 61.217 212.647 55.9385 0.59975 0.0169964
1199800 61.217 212.661 55.9385 0.59985 0.0156843
1200000 61.217 212.674 55.9385 0.59995 -0.0209223
1200200 61.217 212.687 55.9385 0.60005 0.0368581
1200400 61.217 212.701 55.9385 0.60015 -0.011853
1200600 61.217 212.714 55.9385 0.60025 0.0312148
1200800 61.217 212.727 55.9385 0.60035 0.0179961
1201000 61.217 212.74 55.9385 0.60045 0.00148554
1201200 61.217 212.754 55.9385 0.60055 0.0262758
1201400 61.217 212.767 55.9385 0.60065 0.0401871
1201600 61.217 212.78 55.9385 0.60075 0.0130692
1201800 61.217 212.794 55.9385 0.60085 0.0433988
1202000 61.217 212.807 55.9385 0.60095 0.0214045
1202200 61.217 212.82 55.9385 0.60105 0.0147816
1202400 61.217 212.834 55.9385 0.60115 0.01127
1202600 61.217 212.847 55.9385 0.60125 0.0288969
1202800 61.217 212.86 55.9385 0.60135 0.00116874
1203000 61.217 212.873 55.9385 0.60145 -0.0157403
1203200 61.217 212.887 55.9385 0.60155 -0.012914
1203400 61.217 212.9 55.9385 0.60165 0.00782846
1203600 61.217 212.913 55.9385 0.60175 0.012756
1203800 61.217 212.927 55.9385 0.60185 -0.0214109
1204000 61.217 212.94 55.9385 0.60195 -0.00577857
1204200 61.217 212.953 55.9385 0.60205 -0.0104078
1204400 61.217 212.966 55.9385 0.60215 -0.0058407
1204600 61.217 212.98 55.9385 0.60225 0.00491961
1204800 61.217 212.993 55.9385 0.60235 -0.0246513
1205000 61.217 213.006 55.9385 0.60245 0.00506528
1205200 61.217 213.02 55.9385 0.60255 -0.0397616
1205400 61.217 213.033 55.9385 0.60265 0.0219949
1205600 61.217 213.046 55.9385 0.60275 0.00543873
1205800 61.217 213.06 55.9385 0.60285 0.0146833
1206000 61.217 213.073 55.9385 0.60295 0.051163
1206200 61.217 213.086 55.9385 0.60305 -0.018104
1206400 61.217 213.099 55.9385 0.60315 0.0144717
1206600 61.217 213.113 55.9385 0.60325 0.0502609
1206800 61.217 213.126 55.9385 0.60335 0.00476992
1207000 61.217 213.139 55.9385 0.60345 0.0382849
1207200 61.217 213.153 55.9385 0.60355 0.0314521
1207400 61.217 213.166 55.9385 0.60365 0.0103572
1207600 61.217 213.179 55.9385 0.60375 0.028333
1207800 61.217 213.192 55.9385 0.60385 0.0219745
1208000 61.217 213.206 55.9385 0.60395 0.0143682
1208200 61.217 213.219 55.9385 0.60405 0.0241432
1208400 61.217 213.232 55.9385 0.60415 0.0200577
1208600 61.217 213.246 55.9385 0.60425 0.00915297
1208800 61.217 213.259 55.9385 0.60435 -0.0108072
1209000 61.217 213.272 55.9385 0.60445 0.00239149
1209200 61.217 213.285 55.9385 0.60455 -0.0128282
1209400 61.217 213.299 55.9385 0.60465 -0.00429489
1209600 61.217 213.312 55.9385 0.60475 0.00840783
1209800 61.217 213.325 55.9385 0.60485 -0.0306456
1210000 61.217 213.339 55.9385 0.60495 -0.00526215
1210200 61.217 213.352 55.9385 0.60505 -0.0133767
1210400 61.217 213.365 55.9385 0.60515 -0.00749193
1210600 61.217 213.379 55.9385 0.60525 -0.0191603
1210800 61.217 213.392 55.9385 0.60535 -0.0234344
1211000 61.217 213.405 55.9385 0.60545 0.0174299
1211200 61.217 213.418 55.9385 0.60555 -0.022461
1211400 61.217 213.432 55.9385 0.60565 0.00565592
1211600 61.217 213.445 55.9385 0.60575 0.010079
1211800 61.217 213.458 55.9385 0.60585 0.00758272
1212000 61.217 213.472 55.9385 0.60595 0.00989045
1212200 61.217 213.485 55.9385 0.60605 0.0146911
1212400 61.217 213.498 55.9385 0.60615 0.00418969
1212600 61.217 213.511 55.9385 0.60625 0.0157026
1212800 61.217 213.525 55.9385 0.60635 0.0295714
1213000 61.217 213.538 55.9385 0.60645 0.0488685
1213200 61.217 213.551 55.9385 0.60655 0.00306595
1213400 61.217 213.565 55.9385 0.60665 0.0432387
1213600 61.217 213.578 55.9385 0.60675 0.0563623
1213800 61.217 213.591 55.9385 0.60685 0.0299538
1214000 61.217 213.605 55.9385 0.60695 0.0503903
1214200 61.217 213.618 55.9385 0.60705 0.0106906
1214400 61.217 213.631 55.9385 0.60715 0.0318564
1214600 61.217 213.644 55.9385 0.60725 -0.00582007
1214800 61.217 213.658 55.9385 0.60735 -0.00421486
1215000 61.217 213.671 55.9385 0.60745 0.022614
1215200 61.217 213.684 55.9385 0.60755 0.0100032
1215400 61.217 213.698 55.9385 0.60765 -0.0255295
1215600 61.217 213.711 55.9385 0.60775 0.00733056
1215800 61.217 213.724 55.9385 0.60785 -0.0188907
1216000 61.217 213.737 55.9385 0.60795 -0.00846914
1216200 61.217 213.751 55.9385 0.60805 -0.03377
1216400 61.217 213.764 55.9385 0.60815 -0.0241875
1216600 61.217 213.777 55.9385 0.60825 -1.10352e-06
1216800 61.217 213.791 55.9385 0.60835 -0.0453291
1217000 61.217 213.804 55.9385 0.60845 0.00961295
1217200 61.217 213.817 55.9385 0.60855 -0.0313981
1217400 61.217 213.83 55.9385 0.60865 -0.0155265
1217600 61.217 213.844 55.9385 0.60875 -0.000903711
1217800 61.217 213.857 55.9385 0.60885 -0.0165562
1218000 61.217 213.87 55.9385 0.60895 0.0224864
1218200 61.217 213.884 55.9385 0.60905 0.0207699
1218400 61.217 213.897 55.9385 0.60915 0.0178883
1218600 61.217 213.91 55.9385 0.60925 0.0358325
1218800 61.217 213.924 55.9385 0.60935 0.0166693
1219000 61.217 213.937 55.9385 0.60945 0.0360417
1219200 61.217 213.95 55.9385 0.60955 0.0290286
1219400 61.217 213.963 55.9385 0.60965 0.0243893
1219600 61.217 213.977 55.9385 0.60975 0.0415311
1219800 61.217 213.99 55.9385 0.60985 0.0288868
1220000 61.217 214.003 55.9385 0.60995 0.0642523
1220200 61.217 214.017 55.9385 0.61005 0.0529493
1220400 61.217 214.03 55.9385 0.61015 0.0235618
1220600 61.217 214.043 55.9385 0.61025 0.0347561
1220800 61.217 214.056 55.9385 0.61035 -0.00687054
1221000 61.217 214.07 55.9385 0.61045 -0.0010575
1221200 61.217 214.083 55.9385 0.61055 0.0350576
1221400 61.217 214.096 55.9385 0.61065 -0.0129924
1221600 61.217 214.11 55.9385 0.61075 -0.0100225
1221800 61.217 214.123 55.9385 0.61085 -0.00572438
1222000 61.217 214.136 55.9385 0.61095 -0.0441213
1222200 61.217 214.149 55.9385 0.61105 0.00590657
1222400 61.217 214.163 55.9385 0.61115 -0.0115228
1222600 61.217 214.176 55.9385 0.61125 -0.0497952
1222800 61.217 214.189 55.9385 0.61135 0.0142243
1223000 61.217 214.203 55.9385 0.61145 -0.0674991
1223200 61.217 214.216 55.9385 0.61155 -0.00491773
1223400 61.217 214.229 55.9385 0.61165 -0.0138836
1223600 61.217 214.243 55.9385 0.61175 -0.0389975
1223800 61.217 214.256 55.9385 0.61185 0.0227654
1224000 61.217 214.269 55.9385 0.61195 -0.0247211
1224200 61.217 214.282 55.9385 0.61205 0.00116519
1224400 61.217 214.296 55.9385 0.61215 0.0295605
1224600 61.217 214.309 55.9385 0.61225 -0.000876927
1224800 61.217 214.322 55.9385 0.61235 0.0512822
1225000 61.217 214.336 55.9385 0.61245 -0.00645551
1225200 61.217 214.349 55.9385 0.61255 0.0404726
1225400 61.217 214.362 55.9385 0.61265 0.0475747
1225600 61.217 214.375 55.9385 0.61275 0.022685
1225800 61.217 214.389 55.9385 0.61285 0.0480724
1226000 61.217 214.402 55.9385 0.61295 0.0504625
1226200 61.217 214.415 55.9385 0.61305 0.035943
1226400 61.217 214.429 55.9385 0.61315 0.0253439
1226600 61.217 214.442 55.9385 0.61325 0.0382846
1226800 61.217 214.455 55.9385 0.61335 0.0468871
1227000 61.217 214.469 55.9385 0.61345 0.0270488
1227200 61.217 214.482 55.9385 0.61355 0.0182253
1227400 61.217 214.495 55.9385 0.61365 0.0179646
1227600 61.217 214.508 55.9385 0.61375 -0.017289
1227800 61.217 214.522 55.9385 0.61385 0.0156451
1228000 61.217 214.535 55.9385 0.61395 -0.0192301
1228200 61.217 214.548 55.9385 0.61405 -0.0122338
1228400 61.217 214.562 55.9385 0.61415 -0.0197908
1228600 61.217 214.575 55.9385 0.61425 -0.0212002
1228800 61.217 214.588 55.9385 0.61435 -0.0248561
1229000 61.217 214.601 55.9385 0.61445 -0.00814072
1229200 61.217 214.615 55.9385 0.61455 -0.0435253
1229400 61.217 214.628 55.9385 0.61465 -0.0137821
1229600 61.217 214.641 55.9385 0.61475 -0.0323626
1229800 61.217 214.655 55.9385 0.61485 -0.0158909
1230000 61.217 214.668 55.9385 0.61495 0.0176533
1230200 61.217 214.681 55.9385 0.61505 -0.011554
1230400 61.217 214.694 55.9385 0.61515 -0.0067606
1230600 61.217 214.708 55.9385 0.61525 -0.002558
1230800 61.217 214.721 55.9385 0.61535 0.02994
1231000 61.217 214.734 55.9385 0.61545 0.0234622
1231200 61.217 214.748 55.9385 0.61555 0.0167352
1231400 61.217 214.761 55.9385 0.61565 0.0385114
1231600 61.217 214.774 55.9385 0.61575 0.0275211
1231800 61.217 214.788 55.9385 0.61585 0.0276061
1232000 61.217 214.801 55.9385 0.61595 0.042512
1232200 61.217 214.814 55.9385 0.61605 0.0630725
1232400 61.217 214.827 55.9385 0.61615 0.0278703
1232600 61.217 214.841 55.9385 0.61625 0.0318794
1232800 61.217 214.854 55.9385 0.61635 0.0346711
1233000 61.217 214.867 55.9385 0.61645 0.0144612
1233200 61.217 214.881 55.9385 0.61655 0.0216388
1233400 61.217 214.894 55.9385 0.61665 0.0280078
1233600 61.217 214.907 55.9385 0.61675 0.00670309
1233800 61.217 214.92 55.9385 0.61685 -0.0295678
1234000 61.217 214.934 55.9385 0.61695 0.00322576
1234200 61.217 214.947 55.9385 0.61705 -0.00593195
1234400 61.217 214.96 55.9385 0.61715 -0.00786147
1234600 61.217 214.974 55.9385 0.61725 -0.0111869
1234800 61.217 214.987 55.9385 0.61735 -0.0158144
1235000 61.217 215 55.9385 0.61745 -0.0203074
1235200 61.217 215.014 55.9385 0.61755 -0.0263767
1235400 61.217 215.027 55.9385 0.61765 -0.0188006
1235600 61.217 215.04 55.9385 0.61775 -0.00729086
1235800 61.217 215.053 55.9385 0.61785 -0.0117843
1236000 61.217 215.067 55.9385 0.61795 0.000315083
1236200 61.217 215.08 55.9385 0.61805 -0.000549402
1236400 61.217 215.093 55.9385 0.61815 -0.00421128
1236600 61.217 215.107 55.9385 0.61825 0.0220121
1236800 61.217 215.12 55.9385 0.61835 0.0145883
1237000 61.217 215.133 55.9385 0.61845 0.0398392
1237200 61.217 215.146 55.9385 0.61855 0.00318556
1237400 61.217 215.16 55.9385 0.61865 0.0245192
1237600 61.217 215.173 55.9385 0.61875 0.0221838
1237800 61.217 215.186 55.9385 0.61885 0.040615
1238000 61.217 215.2 55.9385 0.61895 0.0265416
1238200 61.217 215.213 55.9385 0.61905 0.0471232
1238400 61.217 215.226 55.9385 0.61915 0.0271673
1238600 61.217 215.239 55.9385 0.61925 0.0403498
1238800 61.217 215.253 55.9385 0.61935 0.0402419
1239000 61.217 215.266 55.9385 0.61945 -0.000417366
1239200 61.217 215.279 55.9385 0.61955 7.11995e-06
1239400 61.217 215.293 55.9385 0.61965 0.0216837
1239600 61.217 215.306 55.9385 0.61975 -0.00456919
1239800 61.217 215.319 55.9385 0.61985 0.0208304
1240000 61.217 215.333 55.9385 0.61995 -0.0156347
1240200 61.217 215.346 55.9385 0.62005 -0.0336513
1240400 61.217 215.359 55.9385 0.62015 0.0145896
1240600 61.217 215.372 55.9385 0.62025 -0.00469199
1240800 61.217 215.386 55.9385 0.62035 -0.0160336
1241000 61.217 215.399 55.9385 0.62045 -0.0125905
1241200 61.217 215.412 55.9385 0.62055 -0.038306
1241400 61.217 215.426 55.9385 0.62065 0.0233277
1241600 61.217 215.439 55.9385 0.62075 0.00831035
1241800 61.217 215.452 55.9385 0.62085 -0.0248583
1242000 61.217 215.465 55.9385 0.62095 0.000717428
1242200 61.217 215.479 55.9385 0.62105 -0.0206668
1242400 61.217 215.492 55.9385 0.62115 0.00895955
1242600 61.217 215.505 55.9385 0.62125 0.00778999
1242800 61.217 215.519 55.9385 0.62135 0.0234764
1243000 61.217 215.532 55.9385 0.62145 0.0461664
1243200 61.217 215.545 55.9385 0.62155 0.00377421
1243400 61.217 215.559 55.9385 0.62165 0.0303662
1243600 61.217 215.572 55.9385 0.62175 0.033872
1243800 61.217 215.585 55.9385 0.62185 0.0365398
1244000 61.217 215.598 55.9385 0.62195 0.0362187
1244200 61.217 215.612 55.9385 0.62205 0.00810852
1244400 61.217 215.625 55.9385 0.62215 0.0336829
1244600 61.217 215.638 55.9385 0.62225 0.0108077
1244800 61.217 215.652 55.9385 0.62235 0.00569261
1245000 61.217 215.665 55.9385 0.62245 0.0325131
1245200 61.217 215.678 55.9385 0.62255 0.0429289
1245400 61.217 215.691 55.9385 0.62265 -0.00855785
1245600 61.217 215.705 55.9385 0.62275 -0.00420944
1245800 61.217 215.718 55.9385 0.62285 0.0116315
1246000 61.217 215.731 55.9385 0.62295 0.0082977
1246200 61.217 215.745 55.9385 0.62305 -0.00555524
1246400 61.217 215.758 55.9385 0.62315 -0.0228672
1246600 61.217 215.771 55.9385 0.62325 -0.0310535
1246800 61.217 215.784 55.9385 0.62335 -0.0014763
1247000 61.217 215.798 55.9385 0.62345 -0.0179593
1247200 61.217 215.811 55.9385 0.62355 0.000121666
1247400 61.217 215.824 55.9385 0.62365 0.00432204
1247600 61.217 215.838 55.9385 0.62375 -0.0234378
1247800 61.217 215.851 55.9385 0.62385 0.0123108
1248000 61.217 215.864 55.9385 0.62395 -0.00126493
1248200 61.217 215.878 55.9385 0.62405 0.00956064
1248400 61.217 215.891 55.9385 0.62415 0.00522116
1248600 61.217 215.904 55.9385 0.62425 -0.00723601
1248800 61.217 215.917 55.9385 0.62435 0.0193035
1249000 61.217 215.931 55.9385 0.62445 0.0173588
1249200 61.217 215.944 55.9385 0.62455 0.0249385
1249400 61.217 215.957 55.9385 0.62465 0.0372853
1249600 61.217 215.971 55.9385 0.62475 0.0235558
1249800 61.217 215.984 55.9385 0.62485 0.0616171
1250000 61.217 215.997 55.9385 0.62495 0.00238237
1250200 61.217 216.01 55.9385 0.62505 0.0426985
1250400 61.217 216.024 55.9385 0.62515 0.0337745
1250600 61.217 216.037 55.9385 0.62525 -0.00345818
1250800 61.217 216.05 55.9385 0.62535 0.043928
1251000 61.217 216.064 55.9385 0.62545 -0.00742909
1251200 61.217 216.077 55.9385 0.62555 0.026248
1251400 61.217 216.09 55.9385 0.62565 0.0270325
1251600 61.217 216.104 55.9385 0.62575 -0.00292767
1251800 61.217 216.117 55.9385 0.62585 0.0139112
1252000 61.217 216.13 55.9385 0.62595 0.0145105
1252200 61.217 216.143 55.9385 0.62605 -0.0204131
1252400 61.217 216.157 55.9385 0.62615 -0.00728112
1252600 61.217 216.17 55.9385 0.62625 -0.0134214
1252800 61.217 216.183 55.9385 0.62635 -0.032418
1253000 61.217 216.197 55.9385 0.62645 -0.0146449
1253200 61.217 216.21 55.9385 0.62655 -0.020034
1253400 61.217 216.223 55.9385 0.62665 -0.0024627
1253600 61.217 216.236 55.9385 0.62675 -0.00643996
1253800 61.217 216.25 55.9385 0.62685 0.000352486
1254000 61.217 216.263 55.9385 0.62695 0.000145298
1254200 61.217 216.276 55.9385 0.62705 -0.0130046
1254400 61.217 216.29 55.9385 0.62715 0.0281065
1254600 61.217 216.303 55.9385 0.62725 -0.00851154
1254800 61.217 216.316 55.9385 0.62735 -0.000998217
1255000 61.217 216.329 55.9385 0.62745 0.0309132
1255200 61.217 216.343 55.9385 0.62755 -0.00575216
1255400 61.217 216.356 55.9385 0.62765 0.0437026
1255600 61.217 216.369 55.9385 0.62775 0.0515163
1255800 61.217 216.383 55.9385 0.62785 0.0225067
1256000 61.217 216.396 55.9385 0.62795 0.035597
1256200 61.217 216.409 55.9385 0.62805 0.0307116
1256400 61.217 216.423 55.9385 0.62815 0.0351133
1256600 61.217 216.436 55.9385 0.62825 0.0206341
1256800 61.217 216.449 55.9385 0.62835 0.0326505
1257000 61.217 216.462 55.9385 0.62845 0.0464648
1257200 61.217 216.476 55.9385 0.62855 -0.00294012
1257400 61.217 216.489 55.9385 0.62865 0.0316152
1257600 61.217 216.502 55.9385 0.62875 0.0129592
1257800 61.217 216.516 55.9385 0.62885 0.0008228
1258000 61.217 216.529 55.9385 0.62895 0.00314806
1258200 61.217 216.542 55.9385 0.62905 0.0127341
1258400 61.217 216.555 55.9385 0.62915 0.0013042
1258600 61.217 216.569 55.9385 0.62925 -0.00444753
1258800 61.217 216.582 55.9385 0.62935 -0.0217205
1259000 61.217 216.595 55.9385 0.62945 0.000810733
1259200 61.217 216.609 55.9385 0.62955 -0.0152495
1259400 61.217 216.622 55.9385 0.62965 -0.0192542
1259600 61.217 216.635 55.9385 0.62975 -0.00632519
1259800 61.217 216.648 55.9385 0.62985 -0.0186885
1260000 61.217 216.662 55.9385 0.62995 -0.00857175
1260200 61.217 216.675 55.9385 0.63005 -0.0120029
1260400 61.217 216.688 55.9385 0.63015 -0.00874403
1260600 61.217 216.702 55.9385 0.63025 -0.00164188
1260800 61.217 216.715 55.9385 0.63035 0.000584361
1261000 61.217 216.728 55.9385 0.63045 -0.0046666
1261200 61.217 216.742 55.9385 0.63055 0.0244731
1261400 61.217 216.755 55.9385 0.63065 0.00798029
1261600 61.217 216.768 55.9385 0.63075 0.0167395
1261800 61.217 216.781 55.9385 0.63085 0.0180019
1262000 61.217 216.795 55.9385 0.63095 0.0257756
1262200 61.217 216.808 55.9385 0.63105 0.0424091
1262400 61.217 216.821 55.9385 0.63115 0.00256887
1262600 61.217 216.835 55.9385 0.63125 0.0367838
1262800 61.217 216.848 55.9385 0.63135 0.0455298
1263000 61.217 216.861 55.9385 0.63145 0.0287404
1263200 61.217 216.874 55.9385 0.63155 0.057757
1263400 61.217 216.888 55.9385 0.63165 0.0169534
1263600 61.217 216.901 55.9385 0.63175 0.0270809
1263800 61.217 216.914 55.9385 0.63185 0.039258
1264000 61.217 216.928 55.9385 0.63195 0.00790771
1264200 61.217 216.941 55.9385 0.63205 0.0226048
1264400 61.217 216.954 55.9385 0.63215 -0.000314822
1264600 61.217 216.968 55.9385 0.63225 0.00372408
1264800 61.217 216.981 55.9385 0.63235 0.00483451
1265000 61.217 216.994 55.9385 0.63245 0.00892063
1265200 61.217 217.007 55.9385 0.63255 -0.0174869
1265400 61.217 217.021 55.9385 0.63265 -0.0240281
1265600 61.217 217.034 55.9385 0.63275 0.000470263
1265800 61.217 217.047 55.9385 0.63285 -0.0369019
1266000 61.217 217.061 55.9385 0.63295 -0.00996364
1266200 61.217 217.074 55.9385 0.63305 -0.00787767
1266400 61.217 217.087 55.9385 0.63315 -0.00532054
1266600 61.217 217.1 55.9385 0.63325 -0.0178812
1266800 61.217 217.114 55.9385 0.63335 -0.0281928
1267000 61.217 217.127 55.9385 0.63345 0.00390925
1267200 61.217 217.14 55.9385 0.63355 0.022369
1267400 61.217 217.154 55.9385 0.63365 -0.00896779
1267600 61.217 217.167 55.9385 0.63375 0.0325257
1267800 61.217 217.18 55.9385 0.63385 0.0186616
1268000 61.217 217.193 55.9385 0.63395 0.0189607
1268200 61.217 217.207 55.9385 0.63405 0.0320104
1268400 61.217 217.22 55.9385 0.63415 0.0168829
1268600 61.217 217.233 55.9385 0.63425 0.0293002
1268800 61.217 217.247 55.9385 0.63435 0.0430472
1269000 61.217 217.26 55.9385 0.63445 -0.00315067
1269200 61.217 217.273 55.9385 0.63455 0.0608456
1269400 61.217 217.287 55.9385 0.63465 0.0352522
1269600 61.217 217.3 55.9385 0.63475 0.0317246
1269800 61.217 217.313 55.9385 0.63485 0.0332215
1270000 61.217 217.326 55.9385 0.63495 -0.00436301
1270200 61.217 217.34 55.9385 0.63505 0.0406644
1270400 61.217 217.353 55.9385 0.63515 -0.000685863
1270600 61.217 217.366 55.9385 0.63525 0.011467
1270800 61.217 217.38 55.9385 0.63535 0.00878969
1271000 61.217 217.393 55.9385 0.63545 -0.0169266
1271200 61.217 217.406 55.9385 0.63555 0.0280373
1271400 61.217 217.419 55.9385 0.63565 -0.043953
1271600 61.217 217.433 55.9385 0.63575 0.0128277
1271800 61.217 217.446 55.9385 0.63585 0.0025019
1272000 61.217 217.459 55.9385 0.63595 -0.0399073
1272200 61.217 217.473 55.9385 0.63605 0.0104394
1272400 61.217 217.486 55.9385 0.63615 -0.0339188
1272600 61.217 217.499 55.9385 0.63625 -0.00742885
1272800 61.217 217.513 55.9385 0.63635 0.0244846
1273000 61.217 217.526 55.9385 0.63645 -0.0405735
1273200 61.217 217.539 55.9385 0.63655 0.0131206
1273400 61.217 217.552 55.9385 0.63665 -0.0172438
1273600 61.217 217.566 55.9385 0.63675 -0.00229378
1273800 61.217 217.579 55.9385 0.63685 0.0470962
1274000 61.217 217.592 55.9385 0.63695 0.00772802
1274200 61.217 217.606 55.9385 0.63705 0.0340122
1274400 61.217 217.619 55.9385 0.63715 0.0238591
1274600 61.217 217.632 55.9385 0.63725 -0.013168
1274800 61.217 217.645 55.9385 0.63735 0.0583201
1275000 61.217 217.659 55.9385 0.63745 0.0233095
1275200 61.217 217.672 55.9385 0.63755 0.0414372
1275400 61.217 217.685 55.9385 0.63765 0.0420881
1275600 61.217 217.699 55.9385 0.63775 -0.00272233
1275800 61.217 217.712 55.9385 0.63785 0.0397139
1276000 61.217 217.725 55.9385 0.63795 0.0243996
1276200 61.217 217.738 55.9385 0.63805 0.041854
1276400 61.217 217.752 55.9385 0.63815 0.0126958
1276600 61.217 217.765 55.9385 0.63825 0.0023068
1276800 61.217 217.778 55.9385 0.63835 0.0102147
1277000 61.217 217.792 55.9385 0.63845 -0.0169927
1277200 61.217 217.805 55.9385 0.63855 0.0168944
1277400 61.217 217.818 55.9385 0.63865 0.0140108
1277600 61.217 217.832 55.9385 0.63875 -0.0245973
1277800 61.217 217.845 55.9385 0.63885 0.0247426
1278000 61.217 217.858 55.9385 0.63895 -0.0321374
1278200 61.217 217.871 55.9385 0.63905 -0.0167703
1278400 61.217 217.885 55.9385 0.63915 0.0117551
1278600 61.217 217.898 55.9385 0.63925 -0.0154604
1278800 61.217 217.911 55.9385 0.63935 0.00245571
1279000 61.217 217.925 55.9385 0.63945 -0.0270234
1279200 61.217 217.938 55.9385 0.63955 -0.00502692
1279400 61.217 217.951 55.9385 0.63965 0.0153361
1279600 61.217 217.964 55.9385 0.63975 0.00454754
1279800 61.217 217.978 55.9385 0.63985 0.0098605
1280000 61.217 217.991 55.9385 0.63995 0.00737691
1280200 61.217 218.004 55.9385 0.64005 0.0176108
1280400 61.217 218.018 55.9385 0.64015 0.0281005
1280600 61.217 218.031 55.9385 0.64025 0.020201
1280800 61.217 218.044 55.9385 0.64035 0.0192721
1281000 61.217 218.058 55.9385 0.64045 0.0333924
1281200 61.217 218.071 55.9385 0.64055 0.0317339
1281400 61.217 218.084 55.9385 0.64065 0.0359027
1281600 61.217 218.097 55.9385 0.64075 0.0235293
1281800 61.217 218.111 55.9385 0.64085 0.0341533
1282000 61.217 218.124 55.9385 0.64095 0.037336
1282200 61.217 218.137 55.9385 0.64105 -0.00144711
1282400 61.217 218.151 55.9385 0.64115 0.0302228
1282600 61.217 218.164 55.9385 0.64125 0.0201469
1282800 61.217 218.177 55.9385 0.64135 -0.0041447
1283000 61.217 218.19 55.9385 0.64145 -0.00704679
1283200 61.217 218.204 55.9385 0.64155 -0.0121815
1283400 61.217 218.217 55.9385 0.64165 -0.00468798
1283600 61.217 218.23 55.9385 0.64175 0.00344348
1283800 61.217 218.244 55.9385 0.64185 -0.0179124
1284000 61.217 218.257 55.9385 0.64195 0.0128049
1284200 61.217 218.27 55.9385 0.64205 -0.0269435
1284400 61.217 218.283 55.9385 0.64215 -0.0105427
1284600 61.217 218.297 55.9385 0.64225 -0.0177212
1284800 61.217 218.31 55.9385 0.64235 0.00700528
1285000 61.217 218.323 55.9385 0.64245 0.000557977
1285200 61.217 218.337 55.9385 0.64255 -0.0044001
1285400 61.217 218.35 55.9385 0.64265 0.0174654
1285600 61.217 218.363 55.9385 0.64275 -0.00435461
1285800 61.217 218.377 55.9385 0.64285 -0.000336513
1286000 61.217 218.39 55.9385 0.64295 0.00970621
1286200 61.217 218.403 55.9385 0.64305 0.0500733
1286400 61.217 218.416 55.9385 0.64315 0.0222278
1286600 61.217 218.43 55.9385 0.64325 0.0211376
1286800 61.217 218.443 55.9385 0.64335 0.0468551
1287000 61.217 218.456 55.9385 0.64345 0.00944446
1287200 61.217 218.47 55.9385 0.64355 0.0456107
1287400 61.217 218.483 55.9385 0.64365 0.0411051
1287600 61.217 218.496 55.9385 0.64375 0.019022
1287800 61.217 218.509 55.9385 0.64385 0.0368126
1288000 61.217 218.523 55.9385 0.64395 0.0154719
1288200 61.217 218.536 55.9385 0.64405 0.0368374
1288400 61.217 218.549 55.9385 0.64415 0.0298489
1288600 61.217 218.563 55.9385 0.64425 -0.0112438
1288800 61.217 218.576 55.9385 0.64435 0.0287389
1289000 61.217 218.589 55.9385 0.64445 -0.0113707
1289200 61.217 218.603 55.9385 0.64455 -0.0118517
1289400 61.217 218.616 55.9385 0.64465 0.0342995
1289600 61.217 218.629 55.9385 0.64475 -0.0335911
1289800 61.217 218.642 55.9385 0.64485 0.010718
1290000 61.217 218.656 55.9385 0.64495 -0.0172497
1290200 61.217 218.669 55.9385 0.64505 -0.0335297
1290400 61.217 218.682 55.9385 0.64515 -0.0208655
1290600 61.217 218.696 55.9385 0.64525 0.000922127
1290800 61.217 218.709 55.9385 0.64535 -0.00209386
1291000 61.217 218.722 55.9385 0.64545 -0.0275558
1291200 61.217 218.735 55.9385 0.64555 -0.00884368
1291400 61.217 218.749 55.9385 0.64565 -0.0184757
1291600 61.217 218.762 55.9385 0.64575 -0.0165267
1291800 61.217 218.775 55.9385 0.64585 0.0117701
1292000 61.217 218.789 55.9385 0.64595 0.00649379
1292200 61.217 218.802 55.9385 0.64605 0.0194263
1292400 61.217 218.815 55.9385 0.64615 0.0272334
1292600 61.217 218.828 55.9385 0.64625 0.0638447
1292800 61.217 218.842 55.9385 0.64635 0.0107686
1293000 61.217 218.855 55.9385 0.64645 0.0385103
1293200 61.217 218.868 55.9385 0.64655 0.0444269
1293400 61.217 218.882 55.9385 0.64665 0.0339679
1293600 61.217 218.895 55.9385 0.64675 0.0344209
1293800 61.217 218.908 55.9385 0.64685 0.0493422
1294000 61.217 218.922 55.9385 0.64695 0.0406922
1294200 61.217 218.935 55.9385 0.64705 0.0447772
1294400 61.217 218.948 55.9385 0.64715 0.0265111
1294600 61.217 218.961 55.9385 0.64725 0.025623
1294800 61.217 218.975 55.9385 0.64735 0.0209527
1295000 61.217 218.988 55.9385 0.64745 0.00699626
1295200 61.217 219.001 55.9385 0.64755 0.00359631
1295400 61.217 219.015 55.9385 0.64765 -0.0174033
1295600 61.217 219.028 55.9385 0.64775 0.00446221
1295800 61.217 219.041 55.9385 0.64785 -0.00346989
1296000 61.217 219.054 55.9385 0.64795 -0.0418806
1296200 61.217 219.068 55.9385 0.64805 0.0117017
1296400 61.217 219.081 55.9385 0.64815 -0.0292442
1296600 61.217 219.094 55.9385 0.64825 -0.0384948
1296800 61.217 219.108 55.9385 0.64835 -0.0111068
1297000 61.217 219.121 55.9385 0.64845 -0.0244278
1297200 61.217 219.134 55.9385 0.64855 0.000980251
1297400 61.217 219.147 55.9385 0.64865 -0.0282974
1297600 61.217 219.161 55.9385 0.64875 -0.025199
1297800 61.217 219.174 55.9385 0.64885 0.000857834
1298000 61.217 219.187 55.9385 0.64895 -0.00841886
1298200 61.217 219.201 55.9385 0.64905 0.0531948
1298400 61.217 219.214 55.9385 0.64915 0.0175005
1298600 61.217 219.227 55.9385 0.64925 0.0113327
1298800 61.217 219.241 55.9385 0.64935 0.0282057
1299000 61.217 219.254 55.9385 0.64945 0.0430021
1299200 61.217 219.267 55.9385 0.64955 0.0434982
1299400 61.217 219.28 55.9385 0.64965 0.0360347
1299600 61.217 219.294 55.9385 0.64975 0.0395602
1299800 61.217 219.307 55.9385 0.64985 0.0510205
1300000 61.217 219.32 55.9385 0.64995 0.043191
1300200 61.217 219.334 55.9385 0.65005 0.0350954
1300400 61.217 219.347 55.9385 0.65015 0.0496102
1300600 61.217 219.36 55.9385 0.65025 0.0370498
1300800 61.217 219.373 55.9385 0.65035 0.0283753
1301000 61.217 219.387 55.9385 0.65045 -0.00389242
1301200 61.217 219.4 55.9385 0.65055 0.00981162
1301400 61.217 219.413 55.9385 0.65065 0.0183399
1301600 61.217 219.427 55.9385 0.65075 0.0187332
1301800 61.217 219.44 55.9385 0.65085 -0.0220213
1302000 61.217 219.453 55.9385 0.65095 -0.00501589
1302200 61.217 219.467 55.9385 0.65105 -0.0134407
1302400 61.217 219.48 55.9385 0.65115 -0.0209901
1302600 61.217 219.493 55.9385 0.65125 -0.0153051
1302800 61.217 219.506 55.9385 0.65135 -0.0484015
1303000 61.217 219.52 55.9385 0.65145 -0.00638013
1303200 61.217 219.533 55.9385 0.65155 -0.0306095
1303400 61.217 219.546 55.9385 0.65165 -0.0109194
1303600 61.217 219.56 55.9385 0.65175 -0.0170144
1303800 61.217 219.573 55.9385 0.65185 -0.00245714
1304000 61.217 219.586 55.9385 0.65195 -0.00771316
1304200 61.217 219.599 55.9385 0.65205 -0.0023463
1304400 61.217 219.613 55.9385 0.65215 0.0113411
1304600 61.217 219.626 55.9385 0.65225 -0.00217818
1304800 61.217 219.639 55.9385 0.65235 0.0230252
1305000 61.217 219.653 55.9385 0.65245 0.0413733
1305200 61.217 219.666 55.9385 0.65255 0.0152872
1305400 61.217 219.679 55.9385 0.65265 0.0235744
1305600 61.217 219.692 55.9385 0.65275 0.0477117
1305800 61.217 219.706 55.9385 0.65285 0.0439753
1306000 61.217 219.719 55.9385 0.65295 0.0556121
1306200 61.217 219.732 55.9385 0.65305 0.0737723
1306400 61.217 219.746 55.9385 0.65315 0.0370432
1306600 61.217 219.759 55.9385 0.65325 0.036683
1306800 61.217 219.772 55.9385 0.65335 0.0262806
1307000 61.217 219.786 55.9385 0.65345 0.0240251
1307200 61.217 219.799 55.9385 0.65355 0.049031
1307400 61.217 219.812 55.9385 0.65365 -0.0117164
1307600 61.217 219.825 55.9385 0.65375 0.0167002
1307800 61.217 219.839 55.9385 0.65385 0.0243635
1308000 61.217 219.852 55.9385 0.65395 -0.0283655
1308200 61.217 219.865 55.9385 0.65405 0.00969293
1308400 61.217 219.879 55.9385 0.65415 0.0236646
1308600 61.217 219.892 55.9385 0.65425 -0.0452082
1308800 61.217 219.905 55.9385 0.65435 -0.0104241
1309000 61.217 219.918 55.9385 0.65445 -0.0155184
1309200 61.217 219.932 55.9385 0.65455 -0.0471968
1309400 61.217 219.945 55.9385 0.65465 -0.0154412
1309600 61.217 219.958 55.9385 0.65475 -0.0279845
1309800 61.217 219.972 55.9385 0.65485 -5.80547e-06
1310000 61.217 219.985 55.9385 0.65495 -0.00784046
1310200 61.217 219.998 55.9385 0.65505 -0.00834706
1310400 61.217 220.012 55.9385 0.65515 0.0181254
1310600 61.217 220.025 55.9385 0.65525 -0.00863412
1310800 61.217 220.038 55.9385 0.65535 0.0115638
1311000 61.217 220.051 55.9385 0.65545 0.01066
1311200 61.217 220.065 55.9385 0.65555 0.0167414
1311400 61.217 220.078 55.9385 0.65565 0.0252522
1311600 61.217 220.091 55.9385 0.65575 0.0131234
1311800 61.217 220.105 55.9385 0.65585 0.0371215
1312000 61.217 220.118 55.9385 0.65595 0.0420612
1312200 61.217 220.131 55.9385 0.65605 0.0387499
1312400 61.217 220.144 55.9385 0.65615 0.0637377
1312600 61.217 220.158 55.9385 0.65625 0.0133383
1312800 61.217 220.171 55.9385 0.65635 0.0466122
1313000 61.217 220.184 55.9385 0.65645 0.0544694
1313200 61.217 220.198 55.9385 0.65655 0.0192594
1313400 61.217 220.211 55.9385 0.65665 0.0374382
1313600 61.217 220.224 55.9385 0.65675 0.00703144
1313800 61.217 220.237 55.9385 0.65685 0.0185582
1314000 61.217 220.251 55.9385 0.65695 0.0167101
1314200 61.217 220.264 55.9385 0.65705 -0.00158023
1314400 61.217 220.277 55.9385 0.65715 0.0222875
1314600 61.217 220.291 55.9385 0.65725 -0.0327146
1314800 61.217 220.304 55.9385 0.65735 -0.0152958
1315000 61.217 220.317 55.9385 0.65745 0.0100324
1315200 61.217 220.331 55.9385 0.65755 -0.0375308
1315400 61.217 220.344 55.9385 0.65765 0.0159631
1315600 61.217 220.357 55.9385 0.65775 -0.0324275
1315800 61.217 220.37 55.9385 0.65785 -0.00973309
1316000 61.217 220.384 55.9385 0.65795 -0.00945207
1316200 61.217 220.397 55.9385 0.65805 -0.0286098
1316400 61.217 220.41 55.9385 0.65815 0.0200727
1316600 61.217 220.424 55.9385 0.65825 -0.0045672
1316800 61.217 220.437 55.9385 0.65835 -0.00570339
1317000 61.217 220.45 55.9385 0.65845 0.0357802
1317200 61.217 220.463 55.9385 0.65855 0.00223095
1317400 61.217 220.477 55.9385 0.65865 0.0358561
1317600 61.217 220.49 55.9385 0.65875 0.0274608
1317800 61.217 220.503 55.9385 0.65885 0.0185613
1318000 61.217 220.517 55.9385 0.65895 0.0415233
1318200 61.217 220.53 55.9385 0.65905 0.018915
1318400 61.217 220.543 55.9385 0.65915 0.0461263
1318600 61.217 220.557 55.9385 0.65925 0.0354988
1318800 61.217 220.57 55.9385 0.65935 0.0285618
1319000 61.217 220.583 55.9385 0.65945 0.0345432
1319200 61.217 220.596 55.9385 0.65955 0.0285999
1319400 61.217 220.61 55.9385 0.65965 0.0106034
1319600 61.217 220.623 55.9385 0.65975 0.0289683
1319800 61.217 220.636 55.9385 0.65985 -0.00101879
1320000 61.217 220.65 55.9385 0.65995 0.0205668
1320200 61.217 220.663 55.9385 0.66005 -0.00863373
1320400 61.217 220.676 55.9385 0.66015 0.00275737
1320600 61.217 220.689 55.9385 0.66025 -0.00937499
1320800 61.217 220.703 55.9385 0.66035 0.0195988
1321000 61.217 220.716 55.9385 0.66045 -0.00706655
1321200 61.217 220.729 55.9385 0.66055 -0.0117134
1321400 61.217 220.743 55.9385 0.66065 -0.00532073
1321600 61.217 220.756 55.9385 0.66075 -0.0117407
1321800 61.217 220.769 55.9385 0.66085 -0.00586301
1322000 61.217 220.782 55.9385 0.66095 -0.0180482
1322200 61.217 220.796 55.9385 0.66105 -0.00341145
1322400 61.217 220.809 55.9385 0.66115 -0.00155713
1322600 61.217 220.822 55.9385 0.66125 0.0130815
1322800 61.217 220.836 55.9385 0.66135 0.02082
1323000 61.217 220.849 55.9385 0.66145 -0.0118055
1323200 61.217 220.862 55.9385 0.66155 0.0425948
1323400 61.217 220.876 55.9385 0.66165 0.0215948
1323600 61.217 220.889 55.9385 0.66175 -0.0133004
1323800 61.217 220.902 55.9385 0.66185 0.045631
1324000 61.217 220.915 55.9385 0.66195 0.0275063
1324200 61.217 220.929 55.9385 0.66205 0.0419235
1324400 61.217 220.942 55.9385 0.66215 0.00982564
1324600 61.217 220.955 55.9385 0.66225 0.0340505
1324800 61.217 220.969 55.9385 0.66235 0.0474356
1325000 61.217 220.982 55.9385 0.66245 0.0198241
1325200 61.217 220.995 55.9385 0.66255 0.0213803
1325400 61.217 221.008 55.9385 0.66265 0.0378411
1325600 61.217 221.022 55.9385 0.66275 0.0168878
1325800 61.217 221.035 55.9385 0.66285 0.0151043
1326000 61.217 221.048 55.9385 0.66295 0.0101996
1326200 61.217 221.062 55.9385 0.66305 0.0269082
1326400 61.217 221.075 55.9385 0.66315 2.415e-05
1326600 61.217 221.088 55.9385 0.66325 -0.00110007
1326800 61.217 221.101 55.9385 0.66335 -0.0151992
1327000 61.217 221.115 55.9385 0.66345 0.0208586
1327200 61.217 221.128 55.9385 0.66355 -0.0144199
1327400 61.217 221.141 55.9385 0.66365 -0.00532411
1327600 61.217 221.155 55.9385 0.66375 -0.0126974
1327800 61.217 221.168 55.9385 0.66385 -0.0240348
1328000 61.217 221.181 55.9385 0.66395 -0.00397221
1328200 61.217 221.195 55.9385 0.66405 -0.00543613
1328400 61.217 221.208 55.9385 0.66415 -0.00676675
1328600 61.217 221.221 55.9385 0.66425 0.0130319
1328800 61.217 221.234 55.9385 0.66435 -0.0049511
1329000 61.217 221.248 55.9385 0.66445 0.00439125
1329200 61.217 221.261 55.9385 0.66455 0.00385521
1329400 61.217 221.274 55.9385 0.66465 0.0157831
1329600 61.217 221.288 55.9385 0.66475 0.0190041
1329800 61.217 221.301 55.9385 0.66485 0.0230693
1330000 61.217 221.314 55.9385 0.66495 0.0485121
1330200 61.217 221.327 55.9385 0.66505 0.0306204
1330400 61.217 221.341 55.9385 0.66515 0.0477719
1330600 61.217 221.354 55.9385 0.66525 0.0332135
1330800 61.217 221.367 55.9385 0.66535 0.0293316
1331000 61.217 221.381 55.9385 0.66545 0.044253
1331200 61.217 221.394 55.9385 0.66555 0.0129438
1331400 61.217 221.407 55.9385 0.66565 0.0484005
1331600 61.217 221.421 55.9385 0.66575 0.0249179
1331800 61.217 221.434 55.9385 0.66585 0.00281808
1332000 61.217 221.447 55.9385 0.66595 0.0396793
1332200 61.217 221.46 55.9385 0.66605 -0.0027271
1332400 61.217 221.474 55.9385 0.66615 0.0169189
1332600 61.217 221.487 55.9385 0.66625 0.00610544
1332800 61.217 221.5 55.9385 0.66635 -0.0295498
1333000 61.217 221.514 55.9385 0.66645 0.0257863
1333200 61.217 221.527 55.9385 0.66655 -0.0279417
1333400 61.217 221.54 55.9385 0.66665 -0.024295
1333600 61.217 221.553 55.9385 0.66675 -0.00676315
1333800 61.217 221.567 55.9385 0.66685 -0.0175172
1334000 61.217 221.58 55.9385 0.66695 -0.0146305
1334200 61.217 221.593 55.9385 0.66705 -0.00666013
1334400 61.217 221.607 55.9385 0.66715 -0.0222269
1334600 61.217 221.62 55.9385 0.66725 0.000226089
1334800 61.217 221.633 55.9385 0.66735 0.0034405
1335000 61.217 221.646 55.9385 0.66745 0.0102836
1335200 61.217 221.66 55.9385 0.66755 0.0261113
1335400 61.217 221.673 55.9385 0.66765 0.0172313
1335600 61.217 221.686 55.9385 0.66775 0.00406692
1335800 61.217 221.7 55.9385 0.66785 0.0243904
1336000 61.217 221.713 55.9385 0.66795 0.0210645
1336200 61.217 221.726 55.9385 0.66805 0.021969
1336400 61.217 221.74 55.9385 0.66815 0.0587752
1336600 61.217 221.753 55.9385 0.66825 0.020551
1336800 61.217 221.766 55.9385 0.66835 0.0505324
1337000 61.217 221.779 55.9385 0.66845 0.0402168
1337200 61.217 221.793 55.9385 0.66855 0.0286179
1337400 61.217 221.806 55.9385 0.66865 0.0569832
1337600 61.217 221.819 55.9385 0.66875 0.0362089
1337800 61.217 221.833 55.9385 0.66885 0.0165395
1338000 61.217 221.846 55.9385 0.66895 0.0290255
1338200 61.217 221.859 55.9385 0.66905 0.008603
1338400 61.217 221.872 55.9385 0.66915 0.0184989
1338600 61.217 221.886 55.9385 0.66925 0.00631899
1338800 61.217 221.899 55.9385 0.66935 0.0155054
1339000 61.217 221.912 55.9385 0.66945 0.00479486
1339200 61.217 221.926 55.9385 0.66955 -0.00957209
1339400 61.217 221.939 55.9385 0.66965 -0.0191675
1339600 61.217 221.952 55.9385 0.66975 -0.0120675
1339800 61.217 221.966 55.9385 0.66985 -0.00951509
1340000 61.217 221.979 55.9385 0.66995 -0.0232542
1340200 61.217 221.992 55.9385 0.67005 -0.0258188
1340400 61.217 222.005 55.9385 0.67015 -0.0147183
1340600 61.217 222.019 55.9385 0.67025 -0.0144719
1340800 61.217 222.032 55.9385 0.67035 -0.00177743
1341000 61.217 222.045 55.9385 0.67045 0.000586558
1341200 61.217 222.059 55.9385 0.67055 -0.000611395
1341400 61.217 222.072 55.9385 0.67065 -0.00827503
1341600 61.217 222.085 55.9385 0.67075 0.0207029
1341800 61.217 222.098 55.9385 0.67085 0.0355849
1342000 61.217 222.112 55.9385 0.67095 0.0107867
1342200 61.217 222.125 55.9385 0.67105 0.0305634
1342400 61.217 222.138 55.9385 0.67115 0.0377253
1342600 61.217 222.152 55.9385 0.67125 0.0197673
1342800 61.217 222.165 55.9385 0.67135 0.0319779
1343000 61.217 222.178 55.9385 0.67145 0.042763
1343200 61.217 222.191 55.9385 0.67155 0.0441541
1343400 61.217 222.205 55.9385 0.67165 0.0279315
1343600 61.217 222.218 55.9385 0.67175 0.0296076
1343800 61.217 222.231 55.9385 0.67185 0.0420786
1344000 61.217 222.245 55.9385 0.67195 0.0290226
1344200 61.217 222.258 55.9385 0.67205 0.0283984
1344400 61.217 222.271 55.9385 0.67215 0.0178284
1344600 61.217 222.285 55.9385 0.67225 0.0210741
1344800 61.217 222.298 55.9385 0.67235 0.00891928
1345000 61.217 222.311 55.9385 0.67245 -0.00444636
1345200 61.217 222.324 55.9385 0.67255 0.0295238
1345400 61.217 222.338 55.9385 0.67265 -0.0194055
1345600 61.217 222.351 55.9385 0.67275 0.00557148
1345800 61.217 222.364 55.9385 0.67285 0.0045205
1346000 61.217 222.378 55.9385 0.67295 -0.0288943
1346200 61.217 222.391 55.9385 0.67305 0.00543897
1346400 61.217 222.404 55.9385 0.67315 -0.0240548
1346600 61.217 222.417 55.9385 0.67325 -0.0260905
1346800 61.217 222.431 55.9385 0.67335 0.0243052
1347000 61.217 222.444 55.9385 0.67345 -0.0175491
1347200 61.217 222.457 55.9385 0.67355 -0.00509185
1347400 61.217 222.471 55.9385 0.67365 0.0127244
1347600 61.217 222.484 55.9385 0.67375 -0.0129125
1347800 61.217 222.497 55.9385 0.67385 0.0238864
1348000 61.217 222.511 55.9385 0.67395 -0.00404827
1348200 61.217 222.524 55.9385 0.67405 0.026028
1348400 61.217 222.537 55.9385 0.67415 0.0345777
1348600 61.217 222.55 55.9385 0.67425 -0.00115315
1348800 61.217 222.564 55.9385 0.67435 0.0509677
1349000 61.217 222.577 55.9385 0.67445 0.0221199
1349200 61.217 222.59 55.9385 0.67455 0.026545
1349400 61.217 222.604 55.9385 0.67465 0.0283062
1349600 61.217 222.617 55.9385 0.67475 0.019255
1349800 61.217 222.63 55.9385 0.67485 0.0518508
1350000 61.217 222.643 55.9385 0.67495 0.0206501
1350200 61.217 222.657 55.9385 0.67505 0.0391937
1350400 61.217 222.67 55.9385 0.67515 0.0181412
1350600 61.217 222.683 55.9385 0.67525 0.0150601
1350800 61.217 222.697 55.9385 0.67535 0.0370482
1351000 61.217 222.71 55.9385 0.67545 -0.0114779
1351200 61.217 222.723 55.9385 0.67555 0.00370501
1351400 61.217 222.736 55.9385 0.67565 0.0237563
1351600 61.217 222.75 55.9385 0.67575 -0.00629495
1351800 61.217 222.763 55.9385 0.67585 0.0108596
1352000 61.217 222.776 55.9385 0.67595 -0.0235031
1352200 61.217 222.79 55.9385 0.67605 0.00211406
1352400 61.217 222.803 55.9385 0.67615 0.013756
1352600 61.217 222.816 55.9385 0.67625 -0.0240468
1352800 61.217 222.83 55.9385 0.67635 0.0174477
1353000 61.217 222.843 55.9385 0.67645 -0.0265491
1353200 61.217 222.856 55.9385 0.67655 -0.0127022
1353400 61.217 222.869 55.9385 0.67665 0.00768851
1353600 61.217 222.883 55.9385 0.67675 0.00226523
1353800 61.217 222.896 55.9385 0.67685 0.0118751
1354000 61.217 222.909 55.9385 0.67695 -0.0032987
1354200 61.217 222.923 55.9385 0.67705 -0.00598359
1354400 61.217 222.936 55.9385 0.67715 0.0529918
1354600 61.217 222.949 55.9385 0.67725 0.0196624
1354800 61.217 222.962 55.9385 0.67735 0.0175869
1355000 61.217 222.976 55.9385 0.67745 0.0331267
1355200 61.217 222.989 55.9385 0.67755 0.0287432
1355400 61.217 223.002 55.9385 0.67765 0.0331981
1355600 61.217 223.016 55.9385 0.67775 0.0123076
1355800 61.217 223.029 55.9385 0.67785 0.0525453
1356000 61.217 223.042 55.9385 0.67795 0.0370583
1356200 61.217 223.056 55.9385 0.67805 0.03043
1356400 61.217 223.069 55.9385 0.67815 0.0354269
1356600 61.217 223.082 55.9385 0.67825 0.0103948
1356800 61.217 223.095 55.9385 0.67835 0.0229027
1357000 61.217 223.109 55.9385 0.67845 0.0263797
1357200 61.217 223.122 55.9385 0.67855 0.0121604
1357400 61.217 223.135 55.9385 0.67865 -0.00321865
1357600 61.217 223.149 55.9385 0.67875 0.00231377
1357800 61.217 223.162 55.9385 0.67885 -0.00306996
1358000 61.217 223.175 55.9385 0.67895 0.00108797
1358200 61.217 223.188 55.9385 0.67905 -0.000210502
1358400 61.217 223.202 55.9385 0.67915 -0.0151971
1358600 61.217 223.215 55.9385 0.67925 0.00621195
1358800 61.217 223.228 55.9385 0.67935 -0.0207863
1359000 61.217 223.242 55.9385 0.67945 -0.00073534
1359200 61.217 223.255 55.9385 0.67955 -0.0151765
1359400 61.217 223.268 55.9385 0.67965 -0.00922003
1359600 61.217 223.281 55.9385 0.67975 0.00155665
1359800 61.217 223.295 55.9385 0.67985 -0.0189995
1360000 61.217 223.308 55.9385 0.67995 0.0403565
1360200 61.217 223.321 55.9385 0.68005 0.00189593
1360400 61.217 223.335 55.9385 0.68015 0.00333404
1360600 61.217 223.348 55.9385 0.68025 0.0319355
1360800 61.217 223.361 55.9385 0.68035 0.022875
1361000 61.217 223.375 55.9385 0.68045 0.0360139
1361200 61.217 223.388 55.9385 0.68055 0.0115745
1361400 61.217 223.401 55.9385 0.68065 0.0402146
1361600 61.217 223.414 55.9385 0.68075 0.0587455
1361800 61.217 223.428 55.9385 0.68085 0.00438022
1362000 61.217 223.441 55.9385 0.68095 0.0400042
1362200 61.217 223.454 55.9385 0.68105 0.0390423
1362400 61.217 223.468 55.9385 0.68115 0.0157771
1362600 61.217 223.481 55.9385 0.68125 0.0358685
1362800 61.217 223.494 55.9385 0.68135 0.017331
1363000 61.217 223.507 55.9385 0.68145 0.0117479
1363200 61.217 223.521 55.9385 0.68155 0.00884854
1363400 61.217 223.534 55.9385 0.68165 0.0047341
1363600 61.217 223.547 55.9385 0.68175 -0.00444228
1363800 61.217 223.561 55.9385 0.68185 0.0284225
1364000 61.217 223.574 55.9385 0.68195 -0.0172717
1364200 61.217 223.587 55.9385 0.68205 0.00119212
1364400 61.217 223.6 55.9385 0.68215 -0.00401247
1364600 61.217 223.614 55.9385 0.68225 -0.000185106
1364800 61.217 223.627 55.9385 0.68235 -0.00267163
1365000 61.217 223.64 55.9385 0.68245 -0.0172999
1365200 61.217 223.654 55.9385 0.68255 0.0057006
1365400 61.217 223.667 55.9385 0.68265 -0.0205129
1365600 61.217 223.68 55.9385 0.68275 0.0169818
1365800 61.217 223.694 55.9385 0.68285 0.000809259
1366000 61.217 223.707 55.9385 0.68295 0.00382603
1366200 61.217 223.72 55.9385 0.68305 0.0338714
1366400 61.217 223.733 55.9385 0.68315 -0.0243252
1366600 61.217 223.747 55.9385 0.68325 0.0345309
1366800 61.217 223.76 55.9385 0.68335 0.0487439
1367000 61.217 223.773 55.9385 0.68345 -0.000902592
1367200 61.217 223.787 55.9385 0.68355 0.0279758
1367400 61.217 223.8 55.9385 0.68365 0.0436556
1367600 61.217 223.813 55.9385 0.68375 0.0214331
1367800 61.217 223.826 55.9385 0.68385 0.0374349
1368000 61.217 223.84 55.9385 0.68395 0.019633
1368200 61.217 223.853 55.9385 0.68405 0.0323813
1368400 61.217 223.866 55.9385 0.68415 0.0325282
1368600 61.217 223.88 55.9385 0.68425 0.0262518
1368800 61.217 223.893 55.9385 0.68435 0.013842
1369000 61.217 223.906 55.9385 0.68445 0.0215674
1369200 61.217 223.92 55.9385 0.68455 0.029849
1369400 61.217 223.933 55.9385 0.68465 -0.00785734
1369600 61.217 223.946 55.9385 0.68475 0.0257209
1369800 61.217 223.959 55.9385 0.68485 -0.0211851
1370000 61.217 223.973 55.9385 0.68495 0.00319269
1370200 61.217 223.986 55.9385 0.68505 0.0068904
1370400 61.217 223.999 55.9385 0.68515 -0.0188702
1370600 61.217 224.013 55.9385 0.68525 -0.00357926
1370800 61.217 224.026 55.9385 0.68535 0.011834
1371000 61.217 224.039 55.9385 0.68545 -0.024571
1371200 61.217 224.052 55.9385 0.68555 -0.01718
1371400 61.217 224.066 55.9385 0.68565 0.00217664
1371600 61.217 224.079 55.9385 0.68575 -0.00135128
1371800 61.217 224.092 55.9385 0.68585 0.0189394
1372000 61.217 224.106 55.9385 0.68595 -0.0123771
1372200 61.217 224.119 55.9385 0.68605 0.00814251
1372400 61.217 224.132 55.9385 0.68615 0.0115288
1372600 61.217 224.145 55.9385 0.68625 0.0196024
1372800 61.217 224.159 55.9385 0.68635 0.0349294
1373000 61.217 224.172 55.9385 0.68645 0.00963039
1373200 61.217 224.185 55.9385 0.68655 0.0253735
1373400 61.217 224.199 55.9385 0.68665 0.0304749
1373600 61.217 224.212 55.9385 0.68675 0.0447628
1373800 61.217 224.225 55.9385 0.68685 0.0348518
1374000 61.217 224.239 55.9385 0.68695 0.041571
1374200 61.217 224.252 55.9385 0.68705 0.0275212
1374400 61.217 224.265 55.9385 0.68715 0.0270332
1374600 61.217 224.278 55.9385 0.68725 0.0332664
1374800 61.217 224.292 55.9385 0.68735 0.0360961
1375000 61.217 224.305 55.9385 0.68745 0.0339252
1375200 61.217 224.318 55.9385 0.68755 0.0172037
1375400 61.217 224.332 55.9385 0.68765 0.0158594
1375600 61.217 224.345 55.9385 0.68775 -0.000688529
1375800 61.217 224.358 55.9385 0.68785 -0.00267882
1376000 61.217 224.371 55.9385 0.68795 0.00563357
1376200 61.217 224.385 55.9385 0.68805 0.00246348
1376400 61.217 224.398 55.9385 0.68815 0.00378634
1376600 61.217 224.411 55.9385 0.68825 -0.00861689
1376800 61.217 224.425 55.9385 0.68835 -0.0207332
1377000 61.217 224.438 55.9385 0.68845 -0.00272036
1377200 61.217 224.451 55.9385 0.68855 -0.00938829
1377400 61.217 224.465 55.9385 0.68865 -0.0145941
1377600 61.217 224.478 55.9385 0.68875 0.00628124
1377800 61.217 224.491 55.9385 0.68885 -0.011805
1378000 61.217 224.504 55.9385 0.68895 -0.00973794
1378200 61.217 224.518 55.9385 0.68905 0.00362747
1378400 61.217 224.531 55.9385 0.68915 0.0384051
1378600 61.217 224.544 55.9385 0.68925 -0.0158001
1378800 61.217 224.558 55.9385 0.68935 0.00976419
1379000 61.217 224.571 55.9385 0.68945 0.0264205
1379200 61.217 224.584 55.9385 0.68955 0.0476718
1379400 61.217 224.597 55.9385 0.68965 0.0340749
1379600 61.217 224.611 55.9385 0.68975 -0.000888008
1379800 61.217 224.624 55.9385 0.68985 0.0187067
1380000 61.217 224.637 55.9385 0.68995 0.0467725
1380200 61.217 224.651 55.9385 0.69005 0.0211736
1380400 61.217 224.664 55.9385 0.69015 0.0419181
1380600 61.217 224.677 55.9385 0.69025 0.0360644
1380800 61.217 224.69 55.9385 0.69035 0.0106418
1381000 61.217 224.704 55.9385 0.69045 0.0252033
1381200 61.217 224.717 55.9385 0.69055 0.0171856
1381400 61.217 224.73 55.9385 0.69065 0.0325379
1381600 61.217 224.744 55.9385 0.69075 0.0329971
1381800 61.217 224.757 55.9385 0.69085 -0.0106019
1382000 61.217 224.77 55.9385 0.69095 0.0240675
1382200 61.217 224.784 55.9385 0.69105 0.0137383
1382400 61.217 224.797 55.9385 0.69115 -0.0156405
1382600 61.217 224.81 55.9385 0.69125 0.0198345
1382800 61.217 224.823 55.9385 0.69135 -0.00530066
1383000 61.217 224.837 55.9385 0.69145 0.0126152
1383200 61.217 224.85 55.9385 0.69155 0.0122318
1383400 61.217 224.863 55.9385 0.69165 -0.00279449
1383600 61.217 224.877 55.9385 0.69175 -0.00612537
1383800 61.217 224.89 55.9385 0.69185 -0.0101806
1384000 61.217 224.903 55.9385 0.69195 0.00665941
1384200 61.217 224.916 55.9385 0.69205 0.00229901
1384400 61.217 224.93 55.9385 0.69215 0.00290627
1384600 61.217 224.943 55.9385 0.69225 -0.015111
1384800 61.217 224.956 55.9385 0.69235 0.00552377
1385000 61.217 224.97 55.9385 0.69245 0.0185144
1385200 61.217 224.983 55.9385 0.69255 0.0253012
1385400 61.217 224.996 55.9385 0.69265 0.0174384
1385600 61.217 225.01 55.9385 0.69275 0.00895969
1385800 61.217 225.023 55.9385 0.69285 0.0151187
1386000 61.217 225.036 55.9385 0.69295 0.0318937
1386200 61.217 225.049 55.9385 0.69305 0.0300521
1386400 61.217 225.063 55.9385 0.69315 0.0194931
1386600 61.217 225.076 55.9385 0.69325 0.00667812
1386800 61.217 225.089 55.9385 0.69335 0.0448214
1387000 61.217 225.103 55.9385 0.69345 0.0296847
1387200 61.217 225.116 55.9385 0.69355 0.018751
1387400 61.217 225.129 55.9385 0.69365 0.051276
1387600 61.217 225.142 55.9385 0.69375 0.0123886
1387800 61.217 225.156 55.9385 0.69385 0.0255683
1388000 61.217 225.169 55.9385 0.69395 0.028689
1388200 61.217 225.182 55.9385 0.69405 -0.000495026
1388400 61.217 225.196 55.9385 0.69415 0.0256047
1388600 61.217 225.209 55.9385 0.69425 -0.00225865
1388800 61.217 225.222 55.9385 0.69435 0.00527936
1389000 61.217 225.235 55.9385 0.69445 -0.00737416
1389200 61.217 225.249 55.9385 0.69455 -0.0159407
1389400 61.217 225.262 55.9385 0.69465 0.0263707
1389600 61.217 225.275 55.9385 0.69475 0.00487939
1389800 61.217 225.289 55.9385 0.69485 -0.00328288
1390000 61.217 225.302 55.9385 0.69495 0.0125232
1390200 61.217 225.315 55.9385 0.69505 -0.0341337
1390400 61.217 225.329 55.9385 0.69515 0.00428761
1390600 61.217 225.342 55.9385 0.69525 0.0065102
1390800 61.217 225.355 55.9385 0.69535 0.00931139
1391000 61.217 225.368 55.9385 0.69545 0.00294435
1391200 61.217 225.382 55.9385 0.69555 0.00910907
1391400 61.217 225.395 55.9385 0.69565 0.0218135
1391600 61.217 225.408 55.9385 0.69575 0.032384
1391800 61.217 225.422 55.9385 0.69585 0.0135154
1392000 61.217 225.435 55.9385 0.69595 0.010709
1392200 61.217 225.448 55.9385 0.69605 0.0252479
1392400 61.217 225.461 55.9385 0.69615 0.0153673
1392600 61.217 225.475 55.9385 0.69625 0.0490542
1392800 61.217 225.488 55.9385 0.69635 0.00946659
1393000 61.217 225.501 55.9385 0.69645 0.0194989
1393200 61.217 225.515 55.9385 0.69655 0.0433601
1393400 61.217 225.528 55.9385 0.69665 0.0181564
1393600 61.217 225.541 55.9385 0.69675 0.0322422
1393800 61.217 225.554 55.9385 0.69685 0.040373
1394000 61.217 225.568 55.9385 0.69695 0.00467785
1394200 61.217 225.581 55.9385 0.69705 -0.00502586
1394400 61.217 225.594 55.9385 0.69715 0.041997
1394600 61.217 225.608 55.9385 0.69725 0.00456553
1394800 61.217 225.621 55.9385 0.69735 0.00117449
1395000 61.217 225.634 55.9385 0.69745 -0.00314293
1395200 61.217 225.648 55.9385 0.69755 -0.00162026
1395400 61.217 225.661 55.9385 0.69765 0.0011388
1395600 61.217 225.674 55.9385 0.69775 0.00840659
1395800 61.217 225.687 55.9385 0.69785 0.00438708
1396000 61.217 225.701 55.9385 0.69795 -0.00627235
1396200 61.217 225.714 55.9385 0.69805 -0.00543343
1396400 61.217 225.727 55.9385 0.69815 0.021932
1396600 61.217 225.741 55.9385 0.69825 0.0142638
1396800 61.217 225.754 55.9385 0.69835 -0.0290192
1397000 61.217 225.767 55.9385 0.69845 0.0150205
1397200 61.217 225.78 55.9385 0.69855 0.0169066
1397400 61.217 225.794 55.9385 0.69865 0.00964705
1397600 61.217 225.807 55.9385 0.69875 0.0349413
1397800 61.217 225.82 55.9385 0.69885 0.0288994
1398000 61.217 225.834 55.9385 0.69895 0.0263913
1398200 61.217 225.847 55.9385 0.69905 0.0297064
1398400 61.217 225.86 55.9385 0.69915 0.00452139
1398600 61.217 225.874 55.9385 0.69925 0.0412331
1398800 61.217 225.887 55.9385 0.69935 0.0132098
1399000 61.217 225.9 55.9385 0.69945 0.0230911
1399200 61.217 225.913 55.9385 0.69955 0.0356956
1399400 61.217 225.927 55.9385 0.69965 0.00135618
1399600 61.217 225.94 55.9385 0.69975 0.0544718
1399800 61.217 225.953 55.9385 0.69985 0.0241692
1400000 61.217 225.967 55.9385 0.69995 -0.00309766
1400200 61.217 225.98 55.9385 0.70005 0.0257253
1400400 61.217 225.993 55.9385 0.70015 0.00473143
1400600 61.217 226.006 55.9385 0.70025 -0.00817519
1400800 61.217 226.02 55.9385 0.70035 0.0073652
1401000 61.217 226.033 55.9385 0.70045 -0.000978752
1401200 61.217 226.046 55.9385 0.70055 0.016083
1401400 61.217 226.06 55.9385 0.70065 -0.000326426
1401600 61.217 226.073 55.9385 0.70075 -0.0102692
1401800 61.217 226.086 55.9385 0.70085 -0.0030611
1402000 61.217 226.099 55.9385 0.70095 0.000690094
1402200 61.217 226.113 55.9385 0.70105 -0.00736344
1402400 61.217 226.126 55.9385 0.70115 -0.0122705
1402600 61.217 226.139 55.9385 0.70125 0.00802689
1402800 61.217 226.153 55.9385 0.70135 0.00878704
1403000 61.217 226.166 55.9385 0.70145 0.0201986
1403200 61.217 226.179 55.9385 0.70155 0.0324352
1403400 61.217 226.193 55.9385 0.70165 0.0115905
1403600 61.217 226.206 55.9385 0.70175 0.02184
1403800 61.217 226.219 55.9385 0.70185 0.0285204
1404000 61.217 226.232 55.9385 0.70195 0.0258632
1404200 61.217 226.246 55.9385 0.70205 0.0431541
1404400 61.217 226.259 55.9385 0.70215 0.0212825
1404600 61.217 226.272 55.9385 0.70225 0.0398573
1404800 61.217 226.286 55.9385 0.70235 0.0330882
1405000 61.217 226.299 55.9385 0.70245 0.0237398
1405200 61.217 226.312 55.9385 0.70255 0.0400244
1405400 61.217 226.325 55.9385 0.70265 0.024654
1405600 61.217 226.339 55.9385 0.70275 0.0467289
1405800 61.217 226.352 55.9385 0.70285 0.0203931
1406000 61.217 226.365 55.9385 0.70295 -0.00640833
1406200 61.217 226.379 55.9385 0.70305 -0.00417605
1406400 61.217 226.392 55.9385 0.70315 0.0246468
1406600 61.217 226.405 55.9385 0.70325 0.0146065
1406800 61.217 226.419 55.9385 0.70335 0.00194499
1407000 61.217 226.432 55.9385 0.70345 -0.00816707
1407200 61.217 226.445 55.9385 0.70355 -0.0107668
1407400 61.217 226.458 55.9385 0.70365 0.00918441
1407600 61.217 226.472 55.9385 0.70375 -0.0134699
1407800 61.217 226.485 55.9385 0.70385 0.000333277
1408000 61.217 226.498 55.9385 0.70395 -0.0195735
1408200 61.217 226.512 55.9385 0.70405 0.00737676
1408400 61.217 226.525 55.9385 0.70415 -0.0134996
1408600 61.217 226.538 55.9385 0.70425 -0.013764
1408800 61.217 226.551 55.9385 0.70435 0.0165671
1409000 61.217 226.565 55.9385 0.70445 0.00798699
1409200 61.217 226.578 55.9385 0.70455 0.0173165
1409400 61.217 226.591 55.9385 0.70465 0.0247924
1409600 61.217 226.605 55.9385 0.70475 0.00488973
1409800 61.217 226.618 55.9385 0.70485 0.0384521
1410000 61.217 226.631 55.9385 0.70495 0.0329767
1410200 61.217 226.644 55.9385 0.70505 0.00880357
1410400 61.217 226.658 55.9385 0.70515 0.053988
1410600 61.217 226.671 55.9385 0.70525 0.00987799
1410800 61.217 226.684 55.9385 0.70535 0.0278048
1411000 61.217 226.698 55.9385 0.70545 0.0319089
1411200 61.217 226.711 55.9385 0.70555 0.0434208
1411400 61.217 226.724 55.9385 0.70565 0.0370378
1411600 61.217 226.738 55.9385 0.70575 0.0237761
1411800 61.217 226.751 55.9385 0.70585 0.020101
1412000 61.217 226.764 55.9385 0.70595 0.0310534
1412200 61.217 226.777 55.9385 0.70605 0.0278825
1412400 61.217 226.791 55.9385 0.70615 0.0118391
1412600 61.217 226.804 55.9385 0.70625 0.0217491
1412800 61.217 226.817 55.9385 0.70635 0.00956977
1413000 61.217 226.831 55.9385 0.70645 0.00486762
1413200 61.217 226.844 55.9385 0.70655 0.0132829
1413400 61.217 226.857 55.9385 0.70665 -0.00965865
1413600 61.217 226.87 55.9385 0.70675 -0.00314043
1413800 61.217 226.884 55.9385 0.70685 0.00630919
1414000 61.217 226.897 55.9385 0.70695 -0.000331182
1414200 61.217 226.91 55.9385 0.70705 0.0132516
1414400 61.217 226.924 55.9385 0.70715 -0.0162244
1414600 61.217 226.937 55.9385 0.70725 -0.0180866
1414800 61.217 226.95 55.9385 0.70735 -0.00891362
1415000 61.217 226.964 55.9385 0.70745 0.000845075
1415200 61.217 226.977 55.9385 0.70755 0.0157012
1415400 61.217 226.99 55.9385 0.70765 0.0034802
1415600 61.217 227.003 55.9385 0.70775 0.00745448
1415800 61.217 227.017 55.9385 0.70785 0.016769
1416000 61.217 227.03 55.9385 0.70795 0.000401473
1416200 61.217 227.043 55.9385 0.70805 0.0218411
1416400 61.217 227.057 55.9385 0.70815 0.0329724
1416600 61.217 227.07 55.9385 0.70825 0.0318415
1416800 61.217 227.083 55.9385 0.70835 0.0379251
1417000 61.217 227.096 55.9385 0.70845 0.012982
1417200 61.217 227.11 55.9385 0.70855 0.0362667
1417400 61.217 227.123 55.9385 0.70865 0.0288879
1417600 61.217 227.136 55.9385 0.70875 0.0287599
1417800 61.217 227.15 55.9385 0.70885 0.0280631
1418000 61.217 227.163 55.9385 0.70895 0.0256515
1418200 61.217 227.176 55.9385 0.70905 0.0331583
1418400 61.217 227.189 55.9385 0.70915 0.0323412
1418600 61.217 227.203 55.9385 0.70925 0.00622575
1418800 61.217 227.216 55.9385 0.70935 0.0448249
1419000 61.217 227.229 55.9385 0.70945 -0.00585461
1419200 61.217 227.243 55.9385 0.70955 -0.00287888
1419400 61.217 227.256 55.9385 0.70965 0.0128517
1419600 61.217 227.269 55.9385 0.70975 0.0134449
1419800 61.217 227.283 55.9385 0.70985 0.00568308
1420000 61.217 227.296 55.9385 0.70995 -0.0137036
1420200 61.217 227.309 55.9385 0.71005 0.0196636
1420400 61.217 227.322 55.9385 0.71015 -0.0102635
1420600 61.217 227.336 55.9385 0.71025 0.00650209
1420800 61.217 227.349 55.9385 0.71035 0.00289582
1421000 61.217 227.362 55.9385 0.71045 -0.00535064
1421200 61.217 227.376 55.9385 0.71055 0.00763156
1421400 61.217 227.389 55.9385 0.71065 0.0129702
1421600 61.217 227.402 55.9385 0.71075 -0.00336713
1421800 61.217 227.415 55.9385 0.71085 0.0119062
1422000 61.217 227.429 55.9385 0.71095 0.00973457
1422200 61.217 227.442 55.9385 0.71105 0.00949297
1422400 61.217 227.455 55.9385 0.71115 0.0143899
1422600 61.217 227.469 55.9385 0.71125 0.0264924
1422800 61.217 227.482 55.9385 0.71135 0.0264441
1423000 61.217 227.495 55.9385 0.71145 0.0214025
1423200 61.217 227.509 55.9385 0.71155 0.0193233
1423400 61.217 227.522 55.9385 0.71165 0.0404431
1423600 61.217 227.535 55.9385 0.71175 0.0244171
1423800 61.217 227.548 55.9385 0.71185 0.0219886
1424000 61.217 227.562 55.9385 0.71195 0.0291382
1424200 61.217 227.575 55.9385 0.71205 0.00909901
1424400 61.217 227.588 55.9385 0.71215 0.0344001
1424600 61.217 227.602 55.9385 0.71225 0.00816408
1424800 61.217 227.615 55.9385 0.71235 0.0333711
1425000 61.217 227.628 55.9385 0.71245 0.0150254
1425200 61.217 227.641 55.9385 0.71255 0.00768353
1425400 61.217 227.655 55.9385 0.71265 0.0255094
1425600 61.217 227.668 55.9385 0.71275 0.00572963
1425800 61.217 227.681 55.9385 0.71285 0.0261842
1426000 61.217 227.695 55.9385 0.71295 0.0131269
1426200 61.217 227.708 55.9385 0.71305 -0.00836112
1426400 61.217 227.721 55.9385 0.71315 0.00419223
1426600 61.217 227.734 55.9385 0.71325 0.00627775
1426800 61.217 227.748 55.9385 0.71335 0.0199352
1427000 61.217 227.761 55.9385 0.71345 -0.012662
1427200 61.217 227.774 55.9385 0.71355 0.018139
1427400 61.217 227.788 55.9385 0.71365 -0.0122385
1427600 61.217 227.801 55.9385 0.71375 -0.0104605
1427800 61.217 227.814 55.9385 0.71385 0.0417445
1428000 61.217 227.828 55.9385 0.71395 -0.0136384
1428200 61.217 227.841 55.9385 0.71405 0.0170912
1428400 61.217 227.854 55.9385 0.71415 0.0120874
1428600 61.217 227.867 55.9385 0.71425 0.0106107
1428800 61.217 227.881 55.9385 0.71435 0.019952
1429000 61.217 227.894 55.9385 0.71445 -0.00362957
1429200 61.217 227.907 55.9385 0.71455 0.0495242
1429400 61.217 227.921 55.9385 0.71465 0.0179061
1429600 61.217 227.934 55.9385 0.71475 0.00898421
1429800 61.217 227.947 55.9385 0.71485 0.0367964
1430000 61.217 227.96 55.9385 0.71495 0.0391512
1430200 61.217 227.974 55.9385 0.71505 0.0240364
1430400 61.217 227.987 55.9385 0.71515 0.025937
1430600 61.217 228 55.9385 0.71525 0.0310045
1430800 61.217 228.014 55.9385 0.71535 0.012192
1431000 61.217 228.027 55.9385 0.71545 0.000222666
1431200 61.217 228.04 55.9385 0.71555 0.0355329
1431400 61.217 228.053 55.9385 0.71565 0.00669116
1431600 61.217 228.067 55.9385 0.71575 0.00600189
1431800 61.217 228.08 55.9385 0.71585 0.0111189
1432000 61.217 228.093 55.9385 0.71595 0.0104351
1432200 61.217 228.107 55.9385 0.71605 0.0165245
1432400 61.217 228.12 55.9385 0.71615 0.0186678
1432600 61.217 228.133 55.9385 0.71625 0.0135168
1432800 61.217 228.147 55.9385 0.71635 -0.0111642
1433000 61.217 228.16 55.9385 0.71645 -0.0160263
1433200 61.217 228.173 55.9385 0.71655 0.0146321
1433400 61.217 228.186 55.9385 0.71665 -0.0153077
1433600 61.217 228.2 55.9385 0.71675 0.01394
1433800 61.217 228.213 55.9385 0.71685 0.0286813
1434000 61.217 228.226 55.9385 0.71695 -0.0129918
1434200 61.217 228.24 55.9385 0.71705 0.0340529
1434400 61.217 228.253 55.9385 0.71715 0.0120925
1434600 61.217 228.266 55.9385 0.71725 0.000462687
1434800 61.217 228.279 55.9385 0.71735 0.0267655
1435000 61.217 228.293 55.9385 0.71745 0.0311627
1435200 61.217 228.306 55.9385 0.71755 0.0192582
1435400 61.217 228.319 55.9385 0.71765 -0.00219758
1435600 61.217 228.333 55.9385 0.71775 0.0333838
1435800 61.217 228.346 55.9385 0.71785 0.0360621
1436000 61.217 228.359 55.9385 0.71795 0.0217272
1436200 61.217 228.373 55.9385 0.71805 0.0147683
1436400 61.217 228.386 55.9385 0.71815 0.0357638
1436600 61.217 228.399 55.9385 0.71825 0.0267605
1436800 61.217 228.412 55.9385 0.71835 0.0266363
1437000 61.217 228.426 55.9385 0.71845 0.013712
1437200 61.217 228.439 55.9385 0.71855 0.0210798
1437400 61.217 228.452 55.9385 0.71865 0.0208199
1437600 61.217 228.466 55.9385 0.71875 -0.00168524
1437800 61.217 228.479 55.9385 0.71885 0.019065
1438000 61.217 228.492 55.9385 0.71895 0.00168166
1438200 61.217 228.505 55.9385 0.71905 0.0116848
1438400 61.217 228.519 55.9385 0.71915 0.00565781
1438600 61.217 228.532 55.9385 0.71925 0.00368096
1438800 61.217 228.545 55.9385 0.71935 0.000826204
1439000 61.217 228.559 55.9385 0.71945 0.0124581
1439200 61.217 228.572 55.9385 0.71955 0.00298246
1439400 61.217 228.585 55.9385 0.71965 -0.000337426
1439600 61.217 228.598 55.9385 0.71975 -0.00425863
1439800 61.217 228.612 55.9385 0.71985 0.0219043
1440000 61.217 228.625 55.9385 0.71995 -0.00611972
1440200 61.217 228.638 55.9385 0.72005 0.00781964
1440400 61.217 228.652 55.9385 0.72015 0.00755391
1440600 61.217 228.665 55.9385 0.72025 0.0186494
1440800 61.217 228.678 55.9385 0.72035 0.0389307
1441000 61.217 228.692 55.9385 0.72045 0.00364792
1441200 61.217 228.705 55.9385 0.72055 0.0222554
1441400 61.217 228.718 55.9385 0.72065 0.0338162
1441600 61.217 228.731 55.9385 0.72075 0.0140238
1441800 61.217 228.745 55.9385 0.72085 0.0200546
1442000 61.217 228.758 55.9385 0.72095 0.01696
1442200 61.217 228.771 55.9385 0.72105 0.0376636
1442400 61.217 228.785 55.9385 0.72115 0.0311439
1442600 61.217 228.798 55.9385 0.72125 0.0167916
1442800 61.217 228.811 55.9385 0.72135 0.0415597
1443000 61.217 228.824 55.9385 0.72145 5.93851e-05
1443200 61.217 228.838 55.9385 0.72155 0.0309648
1443400 61.217 228.851 55.9385 0.72165 0.021092
1443600 61.217 228.864 55.9385 0.72175 0.00144005
1443800 61.217 228.878 55.9385 0.72185 0.0165493
1444000 61.217 228.891 55.9385 0.72195 -0.00218508
1444200 61.217 228.904 55.9385 0.72205 0.0204798
1444400 61.217 228.918 55.9385 0.72215 0.0218751
1444600 61.217 228.931 55.9385 0.72225 -0.017268
1444800 61.217 228.944 55.9385 0.72235 0.00353542
1445000 61.217 228.957 55.9385 0.72245 0.014476
1445200 61.217 228.971 55.9385 0.72255 -0.0142768
1445400 61.217 228.984 55.9385 0.72265 0.0084721
1445600 61.217 228.997 55.9385 0.72275 0.0118384
1445800 61.217 229.011 55.9385 0.72285 -0.000678113
1446000 61.217 229.024 55.9385 0.72295 0.0101707
1446200 61.217 229.037 55.9385 0.72305 -0.00358653
1446400 61.217 229.05 55.9385 0.72315 0.0192687
1446600 61.217 229.064 55.9385 0.72325 0.0116309
1446800 61.217 229.077 55.9385 0.72335 0.0132569
1447000 61.217 229.09 55.9385 0.72345 0.0250981
1447200 61.217 229.104 55.9385 0.72355 -0.0107297
1447400 61.217 229.117 55.9385 0.72365 0.0448696
1447600 61.217 229.13 55.9385 0.72375 0.00191831
1447800 61.217 229.143 55.9385 0.72385 0.022832
1448000 61.217 229.157 55.9385 0.72395 0.0247865
1448200 61.217 229.17 55.9385 0.72405 0.0327029
1448400 61.217 229.183 55.9385 0.72415 0.0457846
1448600 61.217 229.197 55.9385 0.72425 0.0182823
1448800 61.217 229.21 55.9385 0.72435 0.0190482
1449000 61.217 229.223 55.9385 0.72445 0.0266088
1449200 61.217 229.237 55.9385 0.72455 0.0255756
1449400 61.217 229.25 55.9385 0.72465 0.00767756
1449600 61.217 229.263 55.9385 0.72475 0.0157287
1449800 61.217 229.276 55.9385 0.72485 0.025057
1450000 61.217 229.29 55.9385 0.72495 0.0131167
1450200 61.217 229.303 55.9385 0.72505 0.0339085
1450400 61.217 229.316 55.9385 0.72515 0.0122514
1450600 61.217 229.33 55.9385 0.72525 -0.000644085
1450800 61.217 229.343 55.9385 0.72535 0.0306883
1451000 61.217 229.356 55.9385 0.72545 -0.00489243
1451200 61.217 229.369 55.9385 0.72555 -0.0273509
1451400 61.217 229.383 55.9385 0.72565 0.00639242
1451600 61.217 229.396 55.9385 0.72575 -0.00678803
1451800 61.217 229.409 55.9385 0.72585 0.0219744
1452000 61.217 229.423 55.9385 0.72595 0.0148914
1452200 61.217 229.436 55.9385 0.72605 -0.0198752
1452400 61.217 229.449 55.9385 0.72615 0.027689
1452600 61.217 229.463 55.9385 0.72625 0.0150206
1452800 61.217 229.476 55.9385 0.72635 0.0119192
1453000 61.217 229.489 55.9385 0.72645 -0.000319303
1453200 61.217 229.502 55.9385 0.72655 0.0170467
1453400 61.217 229.516 55.9385 0.72665 0.0262582
1453600 61.217 229.529 55.9385 0.72675 -0.00130181
1453800 61.217 229.542 55.9385 0.72685 0.037521
1454000 61.217 229.556 55.9385 0.72695 0.0106303
1454200 61.217 229.569 55.9385 0.72705 0.0278824
1454400 61.217 229.582 55.9385 0.72715 0.0297886
1454600 61.217 229.595 55.9385 0.72725 0.0370214
1454800 61.217 229.609 55.9385 0.72735 0.00171802
1455000 61.217 229.622 55.9385 0.72745 0.0283579
1455200 61.217 229.635 55.9385 0.72755 0.0319452
1455400 61.217 229.649 55.9385 0.72765 0.0165051
1455600 61.217 229.662 55.9385 0.72775 -0.00295222
1455800 61.217 229.675 55.9385 0.72785 0.0346349
1456000 61.217 229.688 55.9385 0.72795 0.00895323
1456200 61.217 229.702 55.9385 0.72805 0.00625826
1456400 61.217 229.715 55.9385 0.72815 0.0145117
1456600 61.217 229.728 55.9385 0.72825 -0.00899039
1456800 61.217 229.742 55.9385 0.72835 0.0276374
1457000 61.217 229.755 55.9385 0.72845 0.0114364
1457200 61.217 229.768 55.9385 0.72855 0.0103182
1457400 61.217 229.782 55.9385 0.72865 0.0164275
1457600 61.217 229.795 55.9385 0.72875 -0.020717
1457800 61.217 229.808 55.9385 0.72885 0.0134889
1458000 61.217 229.821 55.9385 0.72895 0.00487159
1458200 61.217 229.835 55.9385 0.72905 -0.00847812
1458400 61.217 229.848 55.9385 0.72915 0.0416132
1458600 61.217 229.861 55.9385 0.72925 0.0115238
1458800 61.217 229.875 55.9385 0.72935 0.0193731
1459000 61.217 229.888 55.9385 0.72945 0.0328655
1459200 61.217 229.901 55.9385 0.72955 0.00259343
1459400 61.217 229.914 55.9385 0.72965 0.0217862
1459600 61.217 229.928 55.9385 0.72975 0.00750111
1459800 61.217 229.941 55.9385 0.72985 0.0256416
1460000 61.217 229.954 55.9385 0.72995 0.0274489
1460200 61.217 229.968 55.9385 0.73005 -0.00625368
1460400 61.217 229.981 55.9385 0.73015 0.0201003
1460600 61.217 229.994 55.9385 0.73025 0.0438107
1460800 61.217 230.008 55.9385 0.73035 -0.00417437
1461000 61.217 230.021 55.9385 0.73045 0.0156805
1461200 61.217 230.034 55.9385 0.73055 0.0308024
1461400 61.217 230.047 55.9385 0.73065 0.00830165
1461600 61.217 230.061 55.9385 0.73075 0.0418619
1461800 61.217 230.074 55.9385 0.73085 -0.00833509
1462000 61.217 230.087 55.9385 0.73095 0.0212053
1462200 61.217 230.101 55.9385 0.73105 0.0194466
1462400 61.217 230.114 55.9385 0.73115 -0.0123523
1462600 61.217 230.127 55.9385 0.73125 0.0284206
1462800 61.217 230.14 55.9385 0.73135 -0.00817611
1463000 61.217 230.154 55.9385 0.73145 0.0213106
1463200 61.217 230.167 55.9385 0.73155 0.0307347
1463400 61.217 230.18 55.9385 0.73165 0.00216062
1463600 61.217 230.194 55.9385 0.73175 0.0150538
1463800 61.217 230.207 55.9385 0.73185 0.00274582
1464000 61.217 230.22 55.9385 0.73195 0.00933853
1464200 61.217 230.233 55.9385 0.73205 0.00891586
1464400 61.217 230.247 55.9385 0.73215 0.0131128
1464600 61.217 230.26 55.9385 0.73225 0.0151514
1464800 61.217 230.273 55.9385 0.73235 0.00312648
1465000 61.217 230.287 55.9385 0.73245 0.0177848
1465200 61.217 230.3 55.9385 0.73255 0.0164679
1465400 61.217 230.313 55.9385 0.73265 0.0262012
1465600 61.217 230.327 55.9385 0.73275 0.00740555
1465800 61.217 230.34 55.9385 0.73285 -0.0102784
1466000 61.217 230.353 55.9385 0.73295 0.0503857
1466200 61.217 230.366 55.9385 0.73305 0.0172061
1466400 61.217 230.38 55.9385 0.73315 0.0084921
1466600 61.217 230.393 55.9385 0.73325 0.0251061
1466800 61.217 230.406 55.9385 0.73335 0.0212467
1467000 61.217 230.42 55.9385 0.73345 0.0316477
1467200 61.217 230.433 55.9385 0.73355 0.014555
1467400 61.217 230.446 55.9385 0.73365 0.022089
1467600 61.217 230.459 55.9385 0.73375 0.0198204
1467800 61.217 230.473 55.9385 0.73385 0.022746
1468000 61.217 230.486 55.9385 0.73395 0.0202589
1468200 61.217 230.499 55.9385 0.73405 -0.00214284
1468400 61.217 230.513 55.9385 0.73415 0.0224475
1468600 61.217 230.526 55.9385 0.73425 0.020296
1468800 61.217 230.539 55.9385 0.73435 -0.00208631
1469000 61.217 230.552 55.9385 0.73445 0.000688106
1469200 61.217 230.566 55.9385 0.73455 0.00479708
1469400 61.217 230.579 55.9385 0.73465 0.0056867
1469600 61.217 230.592 55.9385 0.73475 0.0221758
1469800 61.217 230.606 55.9385 0.73485 0.0093667
1470000 61.217 230.619 55.9385 0.73495 0.000439986
1470200 61.217 230.632 55.9385 0.73505 0.013885
1470400 61.217 230.646 55.9385 0.73515 0.0118787
1470600 61.217 230.659 55.9385 0.73525 0.00609259
1470800 61.217 230.672 55.9385 0.73535 0.0154586
1471000 61.217 230.685 55.9385 0.73545 0.021314
1471200 61.217 230.699 55.9385 0.73555 0.0150987
1471400 61.217 230.712 55.9385 0.73565 0.0160299
1471600 61.217 230.725 55.9385 0.73575 0.0114255
1471800 61.217 230.739 55.9385 0.73585 0.000627101
1472000 61.217 230.752 55.9385 0.73595 0.0298469
1472200 61.217 230.765 55.9385 0.73605 0.00865455
1472400 61.217 230.778 55.9385 0.73615 0.0355712
1472600 61.217 230.792 55.9385 0.73625 0.0333239
1472800 61.217 230.805 55.9385 0.73635 -0.013501
1473000 61.217 230.818 55.9385 0.73645 0.0281581
1473200 61.217 230.832 55.9385 0.73655 0.0336407
1473400 61.217 230.845 55.9385 0.73665 0.0195245
1473600 61.217 230.858 55.9385 0.73675 0.0213385
1473800 61.217 230.872 55.9385 0.73685 0.0133489
1474000 61.217 230.885 55.9385 0.73695 0.0344205
1474200 61.217 230.898 55.9385 0.73705 0.0212979
1474400 61.217 230.911 55.9385 0.73715 0.00215367
1474600 61.217 230.925 55.9385 0.73725 0.0205955
1474800 61.217 230.938 55.9385 0.73735 -0.000799593
1475000 61.217 230.951 55.9385 0.73745 0.030395
1475200 61.217 230.965 55.9385 0.73755 0.0183811
1475400 61.217 230.978 55.9385 0.73765 -0.015863
1475600 61.217 230.991 55.9385 0.73775 0.0124779
1475800 61.217 231.004 55.9385 0.73785 0.0104538
1476000 61.217 231.018 55.9385 0.73795 0.00785469
1476200 61.217 231.031 55.9385 0.73805 0.0160712
1476400 61.217 231.044 55.9385 0.73815 0.00323999
1476600 61.217 231.058 55.9385 0.73825 0.00262306
1476800 61.217 231.071 55.9385 0.73835 -0.00106542
1477000 61.217 231.084 55.9385 0.73845 0.036012
1477200 61.217 231.097 55.9385 0.73855 0.0372921
1477400 61.217 231.111 55.9385 0.73865 -0.0181555
1477600 61.217 231.124 55.9385 0.73875 0.0214697
1477800 61.217 231.137 55.9385 0.73885 0.0205109
1478000 61.217 231.151 55.9385 0.73895 -0.0157152
1478200 61.217 231.164 55.9385 0.73905 0.0327788
1478400 61.217 231.177 55.9385 0.73915 0.023926
1478600 61.217 231.191 55.9385 0.73925 0.0318476
1478800 61.217 231.204 55.9385 0.73935 0.0211198
1479000 61.217 231.217 55.9385 0.73945 0.00101238
1479200 61.217 231.23 55.9385 0.73955 0.0312732
1479400 61.217 231.244 55.9385 0.73965 0.0142802
1479600 61.217 231.257 55.9385 0.73975 0.0200045
1479800 61.217 231.27 55.9385 0.73985 0.00714389
1480000 61.217 231.284 55.9385 0.73995 0.0227047
1480200 61.217 231.297 55.9385 0.74005 0.0300871
1480400 61.217 231.31 55.9385 0.74015 0.0170286
1480600 61.217 231.323 55.9385 0.74025 0.0105026
1480800 61.217 231.337 55.9385 0.74035 0.036495
1481000 61.217 231.35 55.9385 0.74045 -0.00918975
1481200 61.217 231.363 55.9385 0.74055 0.0232388
1481400 61.217 231.377 55.9385 0.74065 0.0181659
1481600 61.217 231.39 55.9385 0.74075 0.0233626
1481800 61.217 231.403 55.9385 0.74085 0.025465
1482000 61.217 231.417 55.9385 0.74095 0.00591777
1482200 61.217 231.43 55.9385 0.74105 0.0075172
1482400 61.217 231.443 55.9385 0.74115 -0.00626581
1482600 61.217 231.456 55.9385 0.74125 0.0269703
1482800 61.217 231.47 55.9385 0.74135 0.0136411
1483000 61.217 231.483 55.9385 0.74145 0.0112946
1483200 61.217 231.496 55.9385 0.74155 -0.0076624
1483400 61.217 231.51 55.9385 0.74165 0.011176
1483600 61.217 231.523 55.9385 0.74175 0.00472536
1483800 61.217 231.536 55.9385 0.74185 0.00702881
1484000 61.217 231.549 55.9385 0.74195 0.0229688
1484200 61.217 231.563 55.9385 0.74205 -0.00500036
1484400 61.217 231.576 55.9385 0.74215 0.0190519
1484600 61.217 231.589 55.9385 0.74225 0.0224458
1484800 61.217 231.603 55.9385 0.74235 0.0306232
1485000 61.217 231.616 55.9385 0.74245 0.015128
1485200 61.217 231.629 55.9385 0.74255 0.00505064
1485400 61.217 231.642 55.9385 0.74265 0.0283771
1485600 61.217 231.656 55.9385 0.74275 0.0127608
1485800 61.217 231.669 55.9385 0.74285 0.00499174
1486000 61.217 231.682 55.9385 0.74295 0.0273024
1486200 61.217 231.696 55.9385 0.74305 0.0231629
1486400 61.217 231.709 55.9385 0.74315 0.0348658
1486600 61.217 231.722 55.9385 0.74325 0.0170506
1486800 61.217 231.736 55.9385 0.74335 0.0185125
1487000 61.217 231.749 55.9385 0.74345 0.0237266
1487200 61.217 231.762 55.9385 0.74355 0.00800761
1487400 61.217 231.775 55.9385 0.74365 0.0486693
1487600 61.217 231.789 55.9385 0.74375 0.0234928
1487800 61.217 231.802 55.9385 0.74385 -0.0239647
1488000 61.217 231.815 55.9385 0.74395 0.040086
1488200 61.217 231.829 55.9385 0.74405 0.00519932
1488400 61.217 231.842 55.9385 0.74415 0.00480629
1488600 61.217 231.855 55.9385 0.74425 0.0437053
1488800 61.217 231.868 55.9385 0.74435 -0.01373
1489000 61.217 231.882 55.9385 0.74445 0.0210078
1489200 61.217 231.895 55.9385 0.74455 -0.00369854
1489400 61.217 231.908 55.9385 0.74465 0.00880763
1489600 61.217 231.922 55.9385 0.74475 0.0227495
1489800 61.217 231.935 55.9385 0.74485 -0.021988
1490000 61.217 231.948 55.9385 0.74495 0.0139596
1490200 61.217 231.962 55.9385 0.74505 0.0150253
1490400 61.217 231.975 55.9385 0.74515 -0.0147984
1490600 61.217 231.988 55.9385 0.74525 0.0343213
1490800 61.217 232.001 55.9385 0.74535 0.0116435
1491000 61.217 232.015 55.9385 0.74545 0.0164147
1491200 61.217 232.028 55.9385 0.74555 0.0299828
1491400 61.217 232.041 55.9385 0.74565 0.000198409
1491600 61.217 232.055 55.9385 0.74575 0.0130644
1491800 61.217 232.068 55.9385 0.74585 0.00569187
1492000 61.217 232.081 55.9385 0.74595 0.0272784
1492200 61.217 232.094 55.9385 0.74605 0.0165508
1492400 61.217 232.108 55.9385 0.74615 0.0313312
1492600 61.217 232.121 55.9385 0.74625 0.0507059
1492800 61.217 232.134 55.9385 0.74635 0.0306712
1493000 61.217 232.148 55.9385 0.74645 0.0225069
1493200 61.217 232.161 55.9385 0.74655 0.0288206
1493400 61.217 232.174 55.9385 0.74665 0.0266335
1493600 61.217 232.187 55.9385 0.74675 0.0243791
1493800 61.217 232.201 55.9385 0.74685 0.0175658
1494000 61.217 232.214 55.9385 0.74695 0.015668
1494200 61.217 232.227 55.9385 0.74705 0.0348527
1494400 61.217 232.241 55.9385 0.74715 -0.0112116
1494600 61.217 232.254 55.9385 0.74725 0.0263369
1494800 61.217 232.267 55.9385 0.74735 0.034682
1495000 61.217 232.281 55.9385 0.74745 -0.0116599
1495200 61.217 232.294 55.9385 0.74755 0.0176828
1495400 61.217 232.307 55.9385 0.74765 -0.0118924
1495600 61.217 232.32 55.9385 0.74775 -0.00700534
1495800 61.217 232.334 55.9385 0.74785 0.00547217
1496000 61.217 232.347 55.9385 0.74795 0.00983889
1496200 61.217 232.36 55.9385 0.74805 -0.00871148
1496400 61.217 232.374 55.9385 0.74815 0.00160942
1496600 61.217 232.387 55.9385 0.74825 -0.0151329
1496800 61.217 232.4 55.9385 0.74835 0.00366722
1497000 61.217 232.413 55.9385 0.74845 0.027852
1497200 61.217 232.427 55.9385 0.74855 -0.0165544
1497400 61.217 232.44 55.9385 0.74865 0.0362801
1497600 61.217 232.453 55.9385 0.74875 0.0129838
1497800 61.217 232.467 55.9385 0.74885 0.00237739
1498000 61.217 232.48 55.9385 0.74895 0.0261966
1498200 61.217 232.493 55.9385 0.74905 0.0373112
1498400 61.217 232.506 55.9385 0.74915 0.036622
1498600 61.217 232.52 55.9385 0.74925 0.0184664
1498800 61.217 232.533 55.9385 0.74935 0.0411896
1499000 61.217 232.546 55.9385 0.74945 0.0426746
1499200 61.217 232.56 55.9385 0.74955 0.00647931
1499400 61.217 232.573 55.9385 0.74965 0.0385401
1499600 61.217 232.586 55.9385 0.74975 0.0375147
1499800 61.217 232.6 55.9385 0.74985 0.0138256
1500000 61.217 232.613 55.9385 0.74995 0.0359681
1500200 61.217 232.626 55.9385 0.75005 0.0228384
1500400 61.217 232.639 55.9385 0.75015 0.0200809
1500600 61.217 232.653 55.9385 0.75025 0.0290216
1500800 61.217 232.666 55.9385 0.75035 0.0184114
1501000 61.217 232.679 55.9385 0.75045 0.0313853
1501200 61.217 232.693 55.9385 0.75055 0.00012306
1501400 61.217 232.706 55.9385 0.75065 0.00164015
1501600 61.217 232.719 55.9385 0.75075 0.0204708
1501800 61.217 232.732 55.9385 0.75085 -0.015735
1502000 61.217 232.746 55.9385 0.75095 0.0107154
1502200 61.217 232.759 55.9385 0.75105 -0.00471423
1502400 61.217 232.772 55.9385 0.75115 0.0178666
1502600 61.217 232.786 55.9385 0.75125 -0.00715177
1502800 61.217 232.799 55.9385 0.75135 -0.0165563
1503000 61.217 232.812 55.9385 0.75145 0.0196093
1503200 61.217 232.826 55.9385 0.75155 -0.0145345
1503400 61.217 232.839 55.9385 0.75165 0.00806629
1503600 61.217 232.852 55.9385 0.75175 0.0140018
1503800 61.217 232.865 55.9385 0.75185 -0.0121557
1504000 61.217 232.879 55.9385 0.75195 0.0321389
1504200 61.217 232.892 55.9385 0.75205 0.00598372
1504400 61.217 232.905 55.9385 0.75215 0.0110216
1504600 61.217 232.919 55.9385 0.75225 0.0450894
1504800 61.217 232.932 55.9385 0.75235 0.0122814
1505000 61.217 232.945 55.9385 0.75245 0.0203155
1505200 61.217 232.958 55.9385 0.75255 0.0307953
1505400 61.217 232.972 55.9385 0.75265 0.0140043
1505600 61.217 232.985 55.9385 0.75275 0.0587215
1505800 61.217 232.998 55.9385 0.75285 0.0158054
1506000 61.217 233.012 55.9385 0.75295 0.0392873
1506200 61.217 233.025 55.9385 0.75305 0.0317021
1506400 61.217 233.038 55.9385 0.75315 0.0051565
1506600 61.217 233.051 55.9385 0.75325 0.0437482
1506800 61.217 233.065 55.9385 0.75335 0.0152074
1507000 61.217 233.078 55.9385 0.75345 0.0201833
1507200 61.217 233.091 55.9385 0.75355 0.0325895
1507400 61.217 233.105 55.9385 0.75365 -0.0152327
1507600 61.217 233.118 55.9385 0.75375 0.0244112
1507800 61.217 233.131 55.9385 0.75385 0.0168189
1508000 61.217 233.145 55.9385 0.75395 -0.00483031
1508200 61.217 233.158 55.9385 0.75405 0.0127995
1508400 61.217 233.171 55.9385 0.75415 0.00107998
1508600 61.217 233.184 55.9385 0.75425 0.00391927
1508800 61.217 233.198 55.9385 0.75435 0.00111282
1509000 61.217 233.211 55.9385 0.75445 0.00745412
1509200 61.217 233.224 55.9385 0.75455 0.00182602
1509400 61.217 233.238 55.9385 0.75465 0.00966572
1509600 61.217 233.251 55.9385 0.75475 -0.00917379
1509800 61.217 233.264 55.9385 0.75485 0.0176309
1510000 61.217 233.277 55.9385 0.75495 0.0260007
1510200 61.217 233.291 55.9385 0.75505 0.0127264
1510400 61.217 233.304 55.9385 0.75515 0.0302724
1510600 61.217 233.317 55.9385 0.75525 0.0155898
1510800 61.217 233.331 55.9385 0.75535 0.0126309
1511000 61.217 233.344 55.9385 0.75545 0.0181796
1511200 61.217 233.357 55.9385 0.75555 0.0258462
1511400 61.217 233.371 55.9385 0.75565 0.031483
1511600 61.217 233.384 55.9385 0.75575 0.0256635
1511800 61.217 233.397 55.9385 0.75585 0.021114
1512000 61.217 233.41 55.9385 0.75595 0.0152411
1512200 61.217 233.424 55.9385 0.75605 0.008041
1512400 61.217 233.437 55.9385 0.75615 0.0393288
1512600 61.217 233.45 55.9385 0.75625 0.0368844
1512800 61.217 233.464 55.9385 0.75635 -0.00790983
1513000 61.217 233.477 55.9385 0.75645 0.0364754
1513200 61.217 233.49 55.9385 0.75655 0.00868443
1513400 61.217 233.503 55.9385 0.75665 0.0263167
1513600 61.217 233.517 55.9385 0.75675 0.0163278
1513800 61.217 233.53 55.9385 0.75685 0.00526821
1514000 61.217 233.543 55.9385 0.75695 0.0106863
1514200 61.217 233.557 55.9385 0.75705 0.017816
1514400 61.217 233.57 55.9385 0.75715 0.0121001
1514600 61.217 233.583 55.9385 0.75725 -0.00407118
1514800 61.217 233.596 55.9385 0.75735 0.0235294
1515000 61.217 233.61 55.9385 0.75745 0.00914223
1515200 61.217 233.623 55.9385 0.75755 -0.00589222
1515400 61.217 233.636 55.9385 0.75765 0.0137958
1515600 61.217 233.65 55.9385 0.75775 -0.00188964
1515800 61.217 233.663 55.9385 0.75785 0.00429547
1516000 61.217 233.676 55.9385 0.75795 0.0181124
1516200 61.217 233.69 55.9385 0.75805 0.0147009
1516400 61.217 233.703 55.9385 0.75815 0.0152624
1516600 61.217 233.716 55.9385 0.75825 0.0200572
1516800 61.217 233.729 55.9385 0.75835 0.00967259
1517000 61.217 233.743 55.9385 0.75845 0.0111222
1517200 61.217 233.756 55.9385 0.75855 0.0357522
1517400 61.217 233.769 55.9385 0.75865 0.0100264
1517600 61.217 233.783 55.9385 0.75875 0.016472
1517800 61.217 233.796 55.9385 0.75885 0.0340571
1518000 61.217 233.809 55.9385 0.75895 0.0291011
1518200 61.217 233.822 55.9385 0.75905 0.00450393
1518400 61.217 233.836 55.9385 0.75915 0.0278572
1518600 61.217 233.849 55.9385 0.75925 0.0200662
1518800 61.217 233.862 55.9385 0.75935 0.0262653
1519000 61.217 233.876 55.9385 0.75945 0.0258971
1519200 61.217 233.889 55.9385 0.75955 0.0127092
1519400 61.217 233.902 55.9385 0.75965 0.00935354
1519600 61.217 233.916 55.9385 0.75975 0.0191514
1519800 61.217 233.929 55.9385 0.75985 0.027693
1520000 61.217 233.942 55.9385 0.75995 0.0102989
1520200 61.217 233.955 55.9385 0.76005 0.0302149
1520400 61.217 233.969 55.9385 0.76015 0.0176592
1520600 61.217 233.982 55.9385 0.76025 -0.0171336
1520800 61.217 233.995 55.9385 0.76035 0.0172857
1521000 61.217 234.009 55.9385 0.76045 0.000249667
1521200 61.217 234.022 55.9385 0.76055 0.00246877
1521400 61.217 234.035 55.9385 0.76065 0.0130159
1521600 61.217 234.048 55.9385 0.76075 0.012221
1521800 61.217 234.062 55.9385 0.76085 0.0046816
1522000 61.217 234.075 55.9385 0.76095 0.00733401
1522200 61.217 234.088 55.9385 0.76105 0.0333375
1522400 61.217 234.102 55.9385 0.76115 0.0124583
1522600 61.217 234.115 55.9385 0.76125 0.00262442
1522800 61.217 234.128 55.9385 0.76135 0.0293047
1523000 61.217 234.141 55.9385 0.76145 -0.0155349
1523200 61.217 234.155 55.9385 0.76155 0.0356994
1523400 61.217 234.168 55.9385 0.76165 0.0318239
1523600 61.217 234.181 55.9385 0.76175 0.0302926
1523800 61.217 234.195 55.9385 0.76185 0.0318863
1524000 61.217 234.208 55.9385 0.76195 -0.010116
1524200 61.217 234.221 55.9385 0.76205 0.0368598
1524400 61.217 234.235 55.9385 0.76215 0.0283934
1524600 61.217 234.248 55.9385 0.76225 0.00154158
1524800 61.217 234.261 55.9385 0.76235 0.0260644
1525000 61.217 234.274 55.9385 0.76245 0.0184587
1525200 61.217 234.288 55.9385 0.76255 0.0117884
1525400 61.217 234.301 55.9385 0.76265 0.0111909
1525600 61.217 234.314 55.9385 0.76275 0.0197713
1525800 61.217 234.328 55.9385 0.76285 0.0236812
1526000 61.217 234.341 55.9385 0.76295 -0.0037757
1526200 61.217 234.354 55.9385 0.76305 0.034428
1526400 61.217 234.367 55.9385 0.76315 -0.00510475
1526600 61.217 234.381 55.9385 0.76325 0.0114718
1526800 61.217 234.394 55.9385 0.76335 0.0138166
1527000 61.217 234.407 55.9385 0.76345 0.00218798
1527200 61.217 234.421 55.9385 0.76355 0.0197602
1527400 61.217 234.434 55.9385 0.76365 -0.0037279
1527600 61.217 234.447 55.9385 0.76375 0.00648738
1527800 61.217 234.461 55.9385 0.76385 0.0263714
1528000 61.217 234.474 55.9385 0.76395 -0.0172216
1528200 61.217 234.487 55.9385 0.76405 0.0251378
1528400 61.217 234.5 55.9385 0.76415 0.0127297
1528600 61.217 234.514 55.9385 0.76425 0.0213318
1528800 61.217 234.527 55.9385 0.76435 0.0248329
1529000 61.217 234.54 55.9385 0.76445 -0.00151196
1529200 61.217 234.554 55.9385 0.76455 0.0228751
1529400 61.217 234.567 55.9385 0.76465 0.0161348
1529600 61.217 234.58 55.9385 0.76475 0.0372245
1529800 61.217 234.593 55.9385 0.76485 0.0107914
1530000 61.217 234.607 55.9385 0.76495 -0.000658777
1530200 61.217 234.62 55.9385 0.76505 0.0432911
1530400 61.217 234.633 55.9385 0.76515 0.0183165
1530600 61.217 234.647 55.9385 0.76525 0.0225278
1530800 61.217 234.66 55.9385 0.76535 0.0574881
1531000 61.217 234.673 55.9385 0.76545 0.00960554
1531200 61.217 234.686 55.9385 0.76555 0.00155532
1531400 61.217 234.7 55.9385 0.76565 0.0403286
1531600 61.217 234.713 55.9385 0.76575 0.0126032
1531800 61.217 234.726 55.9385 0.76585 0.0119674
1532000 61.217 234.74 55.9385 0.76595 0.0334618
1532200 61.217 234.753 55.9385 0.76605 -0.00669533
1532400 61.217 234.766 55.9385 0.76615 0.00994725
1532600 61.217 234.78 55.9385 0.76625 0.00257251
1532800 61.217 234.793 55.9385 0.76635 0.0177757
1533000 61.217 234.806 55.9385 0.76645 0.0168349
1533200 61.217 234.819 55.9385 0.76655 -0.0139513
1533400 61.217 234.833 55.9385 0.76665 0.014904
1533600 61.217 234.846 55.9385 0.76675 0.00584769
1533800 61.217 234.859 55.9385 0.76685 0.00254292
1534000 61.217 234.873 55.9385 0.76695 0.00422212
1534200 61.217 234.886 55.9385 0.76705 -0.000513084
1534400 61.217 234.899 55.9385 0.76715 0.00960103
1534600 61.217 234.912 55.9385 0.76725 0.00621737
1534800 61.217 234.926 55.9385 0.76735 0.0100673
1535000 61.217 234.939 55.9385 0.76745 0.0183968
1535200 61.217 234.952 55.9385 0.76755 0.0219014
1535400 61.217 234.966 55.9385 0.76765 0.0118304
1535600 61.217 234.979 55.9385 0.76775 0.0216161
1535800 61.217 234.992 55.9385 0.76785 0.032663
1536000 61.217 235.005 55.9385 0.76795 0.0116796
1536200 61.217 235.019 55.9385 0.76805 0.0227244
1536400 61.217 235.032 55.9385 0.76815 0.0369042
1536600 61.217 235.045 55.9385 0.76825 0.0243438
1536800 61.217 235.059 55.9385 0.76835 0.0161904
1537000 61.217 235.072 55.9385 0.76845 0.0182679
1537200 61.217 235.085 55.9385 0.76855 0.0401599
1537400 61.217 235.099 55.9385 0.76865 0.0189191
1537600 61.217 235.112 55.9385 0.76875 0.0122346
1537800 61.217 235.125 55.9385 0.76885 0.0433582
1538000 61.217 235.138 55.9385 0.76895 0.0139235
1538200 61.217 235.152 55.9385 0.76905 0.00226967
1538400 61.217 235.165 55.9385 0.76915 0.0253886
1538600 61.217 235.178 55.9385 0.76925 0.00494965
1538800 61.217 235.192 55.9385 0.76935 0.0130978
1539000 61.217 235.205 55.9385 0.76945 -0.00542805
1539200 61.217 235.218 55.9385 0.76955 -0.00521058
1539400 61.217 235.231 55.9385 0.76965 0.0469823
1539600 61.217 235.245 55.9385 0.76975 -0.00708885
1539800 61.217 235.258 55.9385 0.76985 0.00996589
1540000 61.217 235.271 55.9385 0.76995 0.00432545
1540200 61.217 235.285 55.9385 0.77005 0.0157096
1540400 61.217 235.298 55.9385 0.77015 0.00181815
1540600 61.217 235.311 55.9385 0.77025 -0.00530437
1540800 61.217 235.325 55.9385 0.77035 0.0400115
1541000 61.217 235.338 55.9385 0.77045 -0.00625401
1541200 61.217 235.351 55.9385 0.77055 0.0119755
1541400 61.217 235.364 55.9385 0.77065 0.013276
1541600 61.217 235.378 55.9385 0.77075 -0.000721348
1541800 61.217 235.391 55.9385 0.77085 0.0208899
1542000 61.217 235.404 55.9385 0.77095 0.0237044
1542200 61.217 235.418 55.9385 0.77105 0.010427
1542400 61.217 235.431 55.9385 0.77115 0.0357867
1542600 61.217 235.444 55.9385 0.77125 0.0140749
1542800 61.217 235.457 55.9385 0.77135 -0.00210353
1543000 61.217 235.471 55.9385 0.77145 0.0441479
1543200 61.217 235.484 55.9385 0.77155 0.0184752
1543400 61.217 235.497 55.9385 0.77165 0.0132039
1543600 61.217 235.511 55.9385 0.77175 0.0290727
1543800 61.217 235.524 55.9385 0.77185 0.0250737
1544000 61.217 235.537 55.9385 0.77195 0.0214847
1544200 61.217 235.55 55.9385 0.77205 0.0259719
1544400 61.217 235.564 55.9385 0.77215 0.010165
1544600 61.217 235.577 55.9385 0.77225 0.0360153
1544800 61.217 235.59 55.9385 0.77235 0.0178303
1545000 61.217 235.604 55.9385 0.77245 0.010237
1545200 61.217 235.617 55.9385 0.77255 0.0224005
1545400 61.217 235.63 55.9385 0.77265 0.0026368
1545600 61.217 235.644 55.9385 0.77275 0.0238632
1545800 61.217 235.657 55.9385 0.77285 0.0026486
1546000 61.217 235.67 55.9385 0.77295 0.00278367
1546200 61.217 235.683 55.9385 0.77305 0.0310618
1546400 61.217 235.697 55.9385 0.77315 -0.0174049
1546600 61.217 235.71 55.9385 0.77325 0.000817395
1546800 61.217 235.723 55.9385 0.77335 0.0143184
1547000 61.217 235.737 55.9385 0.77345 -0.00619605
1547200 61.217 235.75 55.9385 0.77355 0.0239437
1547400 61.217 235.763 55.9385 0.77365 0.00684126
1547600 61.217 235.776 55.9385 0.77375 0.0022462
1547800 61.217 235.79 55.9385 0.77385 0.0205186
1548000 61.217 235.803 55.9385 0.77395 0.00926166
1548200 61.217 235.816 55.9385 0.77405 0.0107142
1548400 61.217 235.83 55.9385 0.77415 0.0052276
1548600 61.217 235.843 55.9385 0.77425 0.0279756
1548800 61.217 235.856 55.9385 0.77435 0.0224176
1549000 61.217 235.87 55.9385 0.77445 0.0222486
1549200 61.217 235.883 55.9385 0.77455 0.0240679
1549400 61.217 235.896 55.9385 0.77465 0.0109223
1549600 61.217 235.909 55.9385 0.77475 0.0171114
1549800 61.217 235.923 55.9385 0.77485 0.027867
1550000 61.217 235.936 55.9385 0.77495 0.0290677
1550200 61.217 235.949 55.9385 0.77505 0.0329876
1550400 61.217 235.963 55.9385 0.77515 0.00837938
1550600 61.217 235.976 55.9385 0.77525 0.0137149
1550800 61.217 235.989 55.9385 0.77535 0.0246171
1551000 61.217 236.002 55.9385 0.77545 0.0279586
1551200 61.217 236.016 55.9385 0.77555 0.0154396
1551400 61.217 236.029 55.9385 0.77565 0.0225183
1551600 61.217 236.042 55.9385 0.77575 -0.00846518
1551800 61.217 236.056 55.9385 0.77585 0.0144756
1552000 61.217 236.069 55.9385 0.77595 0.0274106
1552200 61.217 236.082 55.9385 0.77605 0.00638091
1552400 61.217 236.095 55.9385 0.77615 0.0172147
1552600 61.217 236.109 55.9385 0.77625 0.00808486
1552800 61.217 236.122 55.9385 0.77635 -0.00537025
1553000 61.217 236.135 55.9385 0.77645 0.0342238
1553200 61.217 236.149 55.9385 0.77655 -0.00296007
1553400 61.217 236.162 55.9385 0.77665 -0.00222221
1553600 61.217 236.175 55.9385 0.77675 0.01938
1553800 61.217 236.189 55.9385 0.77685 0.00371507
1554000 61.217 236.202 55.9385 0.77695 0.0156949
1554200 61.217 236.215 55.9385 0.77705 0.0214261
1554400 61.217 236.228 55.9385 0.77715 0.0144824
1554600 61.217 236.242 55.9385 0.77725 0.0245784
1554800 61.217 236.255 55.9385 0.77735 0.00341914
1555000 61.217 236.268 55.9385 0.77745 0.0154426
1555200 61.217 236.282 55.9385 0.77755 0.0178698
1555400 61.217 236.295 55.9385 0.77765 -0.00456032
1555600 61.217 236.308 55.9385 0.77775 0.0403082
1555800 61.217 236.321 55.9385 0.77785 0.0119946
1556000 61.217 236.335 55.9385 0.77795 0.00152007
1556200 61.217 236.348 55.9385 0.77805 0.0749303
1556400 61.217 236.361 55.9385 0.77815 0.00347234
1556600 61.217 236.375 55.9385 0.77825 0.0235218
1556800 61.217 236.388 55.9385 0.77835 -0.00042581
1557000 61.217 236.401 55.9385 0.77845 0.0112283
1557200 61.217 236.415 55.9385 0.77855 0.0201134
1557400 61.217 236.428 55.9385 0.77865 -0.00650318
1557600 61.217 236.441 55.9385 0.77875 0.0350779
1557800 61.217 236.454 55.9385 0.77885 0.00340653
1558000 61.217 236.468 55.9385 0.77895 0.0257243
1558200 61.217 236.481 55.9385 0.77905 0.0239952
1558400 61.217 236.494 55.9385 0.77915 0.000616364
1558600 61.217 236.508 55.9385 0.77925 0.0321875
1558800 61.217 236.521 55.9385 0.77935 -0.00559666
1559000 61.217 236.534 55.9385 0.77945 0.00196077
1559200 61.217 236.547 55.9385 0.77955 0.0331006
1559400 61.217 236.561 55.9385 0.77965 -0.0120262
1559600 61.217 236.574 55.9385 0.77975 0.0170264
1559800 61.217 236.587 55.9385 0.77985 0.0200065
1560000 61.217 236.601 55.9385 0.77995 0.0159077
1560200 61.217 236.614 55.9385 0.78005 0.04074
1560400 61.217 236.627 55.9385 0.78015 0.00364436
1560600 61.217 236.64 55.9385 0.78025 3.01034e-05
1560800 61.217 236.654 55.9385 0.78035 0.0116248
1561000 61.217 236.667 55.9385 0.78045 0.0243856
1561200 61.217 236.68 55.9385 0.78055 0.0305985
1561400 61.217 236.694 55.9385 0.78065 0.00614297
1561600 61.217 236.707 55.9385 0.78075 0.0253261
1561800 61.217 236.72 55.9385 0.78085 0.0277858
1562000 61.217 236.734 55.9385 0.78095 -0.00321722
1562200 61.217 236.747 55.9385 0.78105 0.0393078
1562400 61.217 236.76 55.9385 0.78115 0.00831642
1562600 61.217 236.773 55.9385 0.78125 0.0201588
1562800 61.217 236.787 55.9385 0.78135 0.0238424
1563000 61.217 236.8 55.9385 0.78145 -0.00260345
1563200 61.217 236.813 55.9385 0.78155 0.0201267
1563400 61.217 236.827 55.9385 0.78165 0.0157521
1563600 61.217 236.84 55.9385 0.78175 0.0332187
1563800 61.217 236.853 55.9385 0.78185 0.0057327
1564000 61.217 236.866 55.9385 0.78195 -0.00490569
1564200 61.217 236.88 55.9385 0.78205 0.02768
1564400 61.217 236.893 55.9385 0.78215 0.0110547
1564600 61.217 236.906 55.9385 0.78225 -0.00496637
1564800 61.217 236.92 55.9385 0.78235 0.0249836
1565000 61.217 236.933 55.9385 0.78245 0.00399227
1565200 61.217 236.946 55.9385 0.78255 0.009167
1565400 61.217 236.959 55.9385 0.78265 0.00870984
1565600 61.217 236.973 55.9385 0.78275 0.00741684
1565800 61.217 236.986 55.9385 0.78285 0.0104507
1566000 61.217 236.999 55.9385 0.78295 0.00365568
1566200 61.217 237.013 55.9385 0.78305 0.00812014
1566400 61.217 237.026 55.9385 0.78315 0.00722449
1566600 61.217 237.039 55.9385 0.78325 0.0424188
1566800 61.217 237.053 55.9385 0.78335 0.0232317
1567000 61.217 237.066 55.9385 0.78345 0.0248065
1567200 61.217 237.079 55.9385 0.78355 0.0282304
1567400 61.217 237.092 55.9385 0.78365 -0.00491646
1567600 61.217 237.106 55.9385 0.78375 0.0239978
1567800 61.217 237.119 55.9385 0.78385 0.0398044
1568000 61.217 237.132 55.9385 0.78395 -0.00514586
1568200 61.217 237.146 55.9385 0.78405 0.0400206
1568400 61.217 237.159 55.9385 0.78415 0.0326835
1568600 61.217 237.172 55.9385 0.78425 0.015271
1568800 61.217 237.185 55.9385 0.78435 0.0415121
1569000 61.217 237.199 55.9385 0.78445 0.0110776
1569200 61.217 237.212 55.9385 0.78455 0.0391518
1569400 61.217 237.225 55.9385 0.78465 0.00474826
1569600 61.217 237.239 55.9385 0.78475 0.00461139
1569800 61.217 237.252 55.9385 0.78485 0.0399835
1570000 61.217 237.265 55.9385 0.78495 -0.0044684
1570200 61.217 237.279 55.9385 0.78505 0.00245977
1570400 61.217 237.292 55.9385 0.78515 0.0291636
1570600 61.217 237.305 55.9385 0.78525 -0.00455619
1570800 61.217 237.318 55.9385 0.78535 0.0160333
1571000 61.217 237.332 55.9385 0.78545 -0.0138082
1571200 61.217 237.345 55.9385 0.78555 0.0129325
1571400 61.217 237.358 55.9385 0.78565 0.012378
1571600 61.217 237.372 55.9385 0.78575 -0.0107095
1571800 61.217 237.385 55.9385 0.78585 0.0227725
1572000 61.217 237.398 55.9385 0.78595 -0.0160945
1572200 61.217 237.411 55.9385 0.78605 0.00971415
1572400 61.217 237.425 55.9385 0.78615 0.0150648
1572600 61.217 237.438 55.9385 0.78625 0.00471724
1572800 61.217 237.451 55.9385 0.78635 0.0105788
1573000 61.217 237.465 55.9385 0.78645 0.0335896
1573200 61.217 237.478 55.9385 0.78655 0.0189619
1573400 61.217 237.491 55.9385 0.78665 0.0174244
1573600 61.217 237.504 55.9385 0.78675 0.01758
1573800 61.217 237.518 55.9385 0.78685 0.0256072
1574000 61.217 237.531 55.9385 0.78695 0.0355149
1574200 61.217 237.544 55.9385 0.78705 0.0116911
1574400 61.217 237.558 55.9385 0.78715 0.0336534
1574600 61.217 237.571 55.9385 0.78725 0.0429033
1574800 61.217 237.584 55.9385 0.78735 0.00565848
1575000 61.217 237.598 55.9385 0.78745 0.0346042
1575200 61.217 237.611 55.9385 0.78755 0.0317967
1575400 61.217 237.624 55.9385 0.78765 0.0359995
1575600 61.217 237.637 55.9385 0.78775 0.0190111
1575800 61.217 237.651 55.9385 0.78785 -0.000161053
1576000 61.217 237.664 55.9385 0.78795 0.0376506
1576200 61.217 237.677 55.9385 0.78805 0.00157195
1576400 61.217 237.691 55.9385 0.78815 0.00728379
1576600 61.217 237.704 55.9385 0.78825 0.0184105
1576800 61.217 237.717 55.9385 0.78835 0.0091
1577000 61.217 237.73 55.9385 0.78845 0.00260063
1577200 61.217 237.744 55.9385 0.78855 -0.000573932
1577400 61.217 237.757 55.9385 0.78865 -0.0145542
1577600 61.217 237.77 55.9385 0.78875 0.0258665
1577800 61.217 237.784 55.9385 0.78885 0.0108435
1578000 61.217 237.797 55.9385 0.78895 -0.0214192
1578200 61.217 237.81 55.9385 0.78905 0.00736884
1578400 61.217 237.824 55.9385 0.78915 -0.00243308
1578600 61.217 237.837 55.9385 0.78925 0.0321095
1578800 61.217 237.85 55.9385 0.78935 -0.00218514
1579000 61.217 237.863 55.9385 0.78945 0.00279036
1579200 61.217 237.877 55.9385 0.78955 0.0165273
1579400 61.217 237.89 55.9385 0.78965 0.0209592
1579600 61.217 237.903 55.9385 0.78975 0.00274756
1579800 61.217 237.917 55.9385 0.78985 0.0553165
1580000 61.217 237.93 55.9385 0.78995 0.0126364
1580200 61.217 237.943 55.9385 0.79005 0.0386406
1580400 61.217 237.956 55.9385 0.79015 0.0198725
1580600 61.217 237.97 55.9385 0.79025 0.0122546
1580800 61.217 237.983 55.9385 0.79035 0.0444758
1581000 61.217 237.996 55.9385 0.79045 0.0307706
1581200 61.217 238.01 55.9385 0.79055 0.032715
1581400 61.217 238.023 55.9385 0.79065 0.0195704
1581600 61.217 238.036 55.9385 0.79075 0.0222501
1581800 61.217 238.049 55.9385 0.79085 0.0461889
1582000 61.217 238.063 55.9385 0.79095 0.00871382
1582200 61.217 238.076 55.9385 0.79105 0.0314695
1582400 61.217 238.089 55.9385 0.79115 0.0180499
1582600 61.217 238.103 55.9385 0.79125 0.0044994
1582800 61.217 238.116 55.9385 0.79135 0.0278032
1583000 61.217 238.129 55.9385 0.79145 0.0161721
1583200 61.217 238.143 55.9385 0.79155 0.00896624
1583400 61.217 238.156 55.9385 0.79165 -0.00730959
1583600 61.217 238.169 55.9385 0.79175 0.00102944
1583800 61.217 238.182 55.9385 0.79185 0.0167531
1584000 61.217 238.196 55.9385 0.79195 -0.0260956
1584200 61.217 238.209 55.9385 0.79205 0.00775542
1584400 61.217 238.222 55.9385 0.79215 0.029673
1584600 61.217 238.236 55.9385 0.79225 -0.036781
1584800 61.217 238.249 55.9385 0.79235 0.0216414
1585000 61.217 238.262 55.9385 0.79245 -0.0088283
1585200 61.217 238.275 55.9385 0.79255 -0.0109447
1585400 61.217 238.289 55.9385 0.79265 0.0375719
1585600 61.217 238.302 55.9385 0.79275 -0.0158669
1585800 61.217 238.315 55.9385 0.79285 0.0229799
1586000 61.217 238.329 55.9385 0.79295 -0.00216413
1586200 61.217 238.342 55.9385 0.79305 0.0361043
1586400 61.217 238.355 55.9385 0.79315 0.039117
1586600 61.217 238.369 55.9385 0.79325 0.0069795
1586800 61.217 238.382 55.9385 0.79335 0.0297718
1587000 61.217 238.395 55.9385 0.79345 0.0576891
1587200 61.217 238.408 55.9385 0.79355 0.0177829
1587400 61.217 238.422 55.9385 0.79365 0.010058
1587600 61.217 238.435 55.9385 0.79375 0.0212344
1587800 61.217 238.448 55.9385 0.79385 0.0572476
1588000 61.217 238.462 55.9385 0.79395 0.0291696
1588200 61.217 238.475 55.9385 0.79405 0.0290122
1588400 61.217 238.488 55.9385 0.79415 0.039111
1588600 61.217 238.501 55.9385 0.79425 -0.00325086
1588800 61.217 238.515 55.9385 0.79435 0.0317674
1589000 61.217 238.528 55.9385 0.79445 0.0414348
1589200 61.217 238.541 55.9385 0.79455 0.0037226
1589400 61.217 238.555 55.9385 0.79465 0.0203819
1589600 61.217 238.568 55.9385 0.79475 0.0114076
1589800 61.217 238.581 55.9385 0.79485 0.00665796
1590000 61.217 238.594 55.9385 0.79495 0.0205989
1590200 61.217 238.608 55.9385 0.79505 0.0186057
1590400 61.217 238.621 55.9385 0.79515 -0.0123983
1590600 61.217 238.634 55.9385 0.79525 -0.0148831
1590800 61.217 238.648 55.9385 0.79535 -0.0128434
1591000 61.217 238.661 55.9385 0.79545 -0.00818401
1591200 61.217 238.674 55.9385 0.79555 0.0170619
1591400 61.217 238.688 55.9385 0.79565 0.019043
1591600 61.217 238.701 55.9385 0.79575 -0.009202
1591800 61.217 238.714 55.9385 0.79585 -0.0113538
1592000 61.217 238.727 55.9385 0.79595 0.0142066
1592200 61.217 238.741 55.9385 0.79605 0.00485363
1592400 61.217 238.754 55.9385 0.79615 0.0239823
1592600 61.217 238.767 55.9385 0.79625 0.0119604
1592800 61.217 238.781 55.9385 0.79635 0.0231493
1593000 61.217 238.794 55.9385 0.79645 0.00878606
1593200 61.217 238.807 55.9385 0.79655 0.0256442
1593400 61.217 238.82 55.9385 0.79665 0.0188711
1593600 61.217 238.834 55.9385 0.79675 0.0429905
1593800 61.217 238.847 55.9385 0.79685 0.0409601
1594000 61.217 238.86 55.9385 0.79695 0.0232237
1594200 61.217 238.874 55.9385 0.79705 0.0428161
1594400 61.217 238.887 55.9385 0.79715 0.0336879
1594600 61.217 238.9 55.9385 0.79725 0.0365302
1594800 61.217 238.914 55.9385 0.79735 0.0192468
1595000 61.217 238.927 55.9385 0.79745 0.0278905
1595200 61.217 238.94 55.9385 0.79755 0.00757915
1595400 61.217 238.953 55.9385 0.79765 0.00817915
1595600 61.217 238.967 55.9385 0.79775 0.0328992
1595800 61.217 238.98 55.9385 0.79785 0.00326851
1596000 61.217 238.993 55.9385 0.79795 0.0126567
1596200 61.217 239.007 55.9385 0.79805 0.0164123
1596400 61.217 239.02 55.9385 0.79815 0.0143846
1596600 61.217 239.033 55.9385 0.79825 -0.00926123
1596800 61.217 239.046 55.9385 0.79835 0.00134771
1597000 61.217 239.06 55.9385 0.79845 -0.0117695
1597200 61.217 239.073 55.9385 0.79855 -0.00562807
1597400 61.217 239.086 55.9385 0.79865 0.0101339
1597600 61.217 239.1 55.9385 0.79875 0.0100121
1597800 61.217 239.113 55.9385 0.79885 0.00594879
1598000 61.217 239.126 55.9385 0.79895 0.010574
1598200 61.217 239.139 55.9385 0.79905 0.0150796
1598400 61.217 239.153 55.9385 0.79915 0.0372839
1598600 61.217 239.166 55.9385 0.79925 0.00840775
1598800 61.217 239.179 55.9385 0.79935 -0.0230318
1599000 61.217 239.193 55.9385 0.79945 0.039833
1599200 61.217 239.206 55.9385 0.79955 -0.000433947
1599400 61.217 239.219 55.9385 0.79965 0.0116991
1599600 61.217 239.233 55.9385 0.79975 0.0415919
1599800 61.217 239.246 55.9385 0.79985 0.0277867
1600000 61.217 239.259 55.9385 0.79995 0.0384152
1600200 61.217 239.272 55.9385 0.80005 0.0405534
1600400 61.217 239.286 55.9385 0.80015 0.0141496
1600600 61.217 239.299 55.9385 0.80025 0.0146738
1600800 61.217 239.312 55.9385 0.80035 0.0347655
1601000 61.217 239.326 55.9385 0.80045 0.0331456
1601200 61.217 239.339 55.9385 0.80055 0.0406531
1601400 61.217 239.352 55.9385 0.80065 -0.00645022
1601600 61.217 239.365 55.9385 0.80075 0.0175818
1601800 61.217 239.379 55.9385 0.80085 0.0334329
1602000 61.217 239.392 55.9385 0.80095 -0.00449943
1602200 61.217 239.405 55.9385 0.80105 0.0278329
1602400 61.217 239.419 55.9385 0.80115 0.003032
1602600 61.217 239.432 55.9385 0.80125 -0.000112502
1602800 61.217 239.445 55.9385 0.80135 0.00422942
1603000 61.217 239.458 55.9385 0.80145 0.00419274
1603200 61.217 239.472 55.9385 0.80155 0.0224374
1603400 61.217 239.485 55.9385 0.80165 -0.00683726
1603600 61.217 239.498 55.9385 0.80175 -0.00016056
1603800 61.217 239.512 55.9385 0.80185 0.00692082
1604000 61.217 239.525 55.9385 0.80195 -0.0126333
1604200 61.217 239.538 55.9385 0.80205 0.0369933
1604400 61.217 239.552 55.9385 0.80215 0.0194381
1604600 61.217 239.565 55.9385 0.80225 0.00419103
1604800 61.217 239.578 55.9385 0.80235 0.0118464
1605000 61.217 239.591 55.9385 0.80245 0.0074252
1605200 61.217 239.605 55.9385 0.80255 0.0355865
1605400 61.217 239.618 55.9385 0.80265 0.0189883
1605600 61.217 239.631 55.9385 0.80275 0.0182255
1605800 61.217 239.645 55.9385 0.80285 0.0326741
1606000 61.217 239.658 55.9385 0.80295 -0.00445226
1606200 61.217 239.671 55.9385 0.80305 0.0328285
1606400 61.217 239.684 55.9385 0.80315 0.031193
1606600 61.217 239.698 55.9385 0.80325 0.0174767
1606800 61.217 239.711 55.9385 0.80335 0.0227515
1607000 61.217 239.724 55.9385 0.80345 0.021216
1607200 61.217 239.738 55.9385 0.80355 0.0301651
1607400 61.217 239.751 55.9385 0.80365 -0.00444468
1607600 61.217 239.764 55.9385 0.80375 0.0346143
1607800 61.217 239.778 55.9385 0.80385 0.0143814
1608000 61.217 239.791 55.9385 0.80395 0.0180769
1608200 61.217 239.804 55.9385 0.80405 0.0150566
1608400 61.217 239.817 55.9385 0.80415 -0.00765951
1608600 61.217 239.831 55.9385 0.80425 0.0159321
1608800 61.217 239.844 55.9385 0.80435 0.0202089
1609000 61.217 239.857 55.9385 0.80445 -0.00389507
1609200 61.217 239.871 55.9385 0.80455 0.00550759
1609400 61.217 239.884 55.9385 0.80465 0.00219851
1609600 61.217 239.897 55.9385 0.80475 0.00586057
1609800 61.217 239.91 55.9385 0.80485 0.0130993
1610000 61.217 239.924 55.9385 0.80495 0.0123158
1610200 61.217 239.937 55.9385 0.80505 0.0274176
1610400 61.217 239.95 55.9385 0.80515 -0.000733527
1610600 61.217 239.964 55.9385 0.80525 -0.00590343
1610800 61.217 239.977 55.9385 0.80535 0.0196717
1611000 61.217 239.99 55.9385 0.80545 0.030223
1611200 61.217 240.003 55.9385 0.80555 0.0121069
1611400 61.217 240.017 55.9385 0.80565 0.0105411
1611600 61.217 240.03 55.9385 0.80575 0.0210339
1611800 61.217 240.043 55.9385 0.80585 0.0245445
1612000 61.217 240.057 55.9385 0.80595 0.0309188
1612200 61.217 240.07 55.9385 0.80605 0.0220913
1612400 61.217 240.083 55.9385 0.80615 0.0273358
1612600 61.217 240.097 55.9385 0.80625 0.0272245
1612800 61.217 240.11 55.9385 0.80635 0.0312768
1613000 61.217 240.123 55.9385 0.80645 0.0148061
1613200 61.217 240.136 55.9385 0.80655 0.0320449
1613400 61.217 240.15 55.9385 0.80665 0.0281398
1613600 61.217 240.163 55.9385 0.80675 0.00428281
1613800 61.217 240.176 55.9385 0.80685 0.0469962
1614000 61.217 240.19 55.9385 0.80695 -0.010268
1614200 61.217 240.203 55.9385 0.80705 -0.00692074
1614400 61.217 240.216 55.9385 0.80715 0.0411233
1614600 61.217 240.229 55.9385 0.80725 -0.0114882
1614800 61.217 240.243 55.9385 0.80735 0.0133246
1615000 61.217 240.256 55.9385 0.80745 -0.00652164
1615200 61.217 240.269 55.9385 0.80755 0.00714575
1615400 61.217 240.283 55.9385 0.80765 0.00952125
1615600 61.217 240.296 55.9385 0.80775 -0.00914618
1615800 61.217 240.309 55.9385 0.80785 -0.0110261
1616000 61.217 240.323 55.9385 0.80795 0.00403771
1616200 61.217 240.336 55.9385 0.80805 0.00654316
1616400 61.217 240.349 55.9385 0.80815 0.0156901
1616600 61.217 240.362 55.9385 0.80825 -0.00188326
1616800 61.217 240.376 55.9385 0.80835 0.0124579
1617000 61.217 240.389 55.9385 0.80845 0.0185687
1617200 61.217 240.402 55.9385 0.80855 0.0198725
1617400 61.217 240.416 55.9385 0.80865 0.0176547
1617600 61.217 240.429 55.9385 0.80875 0.0160954
1617800 61.217 240.442 55.9385 0.80885 0.031541
1618000 61.217 240.455 55.9385 0.80895 0.0216423
1618200 61.217 240.469 55.9385 0.80905 0.0253272
1618400 61.217 240.482 55.9385 0.80915 0.033113
1618600 61.217 240.495 55.9385 0.80925 0.0286231
1618800 61.217 240.509 55.9385 0.80935 0.0383031
1619000 61.217 240.522 55.9385 0.80945 0.00387653
1619200 61.217 240.535 55.9385 0.80955 0.0512715
1619400 61.217 240.548 55.9385 0.80965 0.0622272
1619600 61.217 240.562 55.9385 0.80975 0.00182827
1619800 61.217 240.575 55.9385 0.80985 0.0136412
1620000 61.217 240.588 55.9385 0.80995 0.0287089
1620200 61.217 240.602 55.9385 0.81005 0.0234827
1620400 61.217 240.615 55.9385 0.81015 0.00149179
1620600 61.217 240.628 55.9385 0.81025 -0.020174
1620800 61.217 240.642 55.9385 0.81035 0.027428
1621000 61.217 240.655 55.9385 0.81045 0.0118365
1621200 61.217 240.668 55.9385 0.81055 0.00102085
1621400 61.217 240.681 55.9385 0.81065 -0.000750663
1621600 61.217 240.695 55.9385 0.81075 0.0036542
1621800 61.217 240.708 55.9385 0.81085 0.00930816
1622000 61.217 240.721 55.9385 0.81095 -0.00532434
1622200 61.217 240.735 55.9385 0.81105 -0.00287392
1622400 61.217 240.748 55.9385 0.81115 -0.0159195
1622600 61.217 240.761 55.9385 0.81125 0.0127101
1622800 61.217 240.774 55.9385 0.81135 -0.00162601
1623000 61.217 240.788 55.9385 0.81145 0.00619197
1623200 61.217 240.801 55.9385 0.81155 0.0246266
1623400 61.217 240.814 55.9385 0.81165 -0.00230306
1623600 61.217 240.828 55.9385 0.81175 0.0146298
1623800 61.217 240.841 55.9385 0.81185 0.0108857
1624000 61.217 240.854 55.9385 0.81195 0.0367537
1624200 61.217 240.868 55.9385 0.81205 -0.00278386
1624400 61.217 240.881 55.9385 0.81215 0.0278151
1624600 61.217 240.894 55.9385 0.81225 0.0383771
1624800 61.217 240.907 55.9385 0.81235 0.0199482
1625000 61.217 240.921 55.9385 0.81245 0.0435836
1625200 61.217 240.934 55.9385 0.81255 0.0295953
1625400 61.217 240.947 55.9385 0.81265 0.016191
1625600 61.217 240.961 55.9385 0.81275 0.030775
1625800 61.217 240.974 55.9385 0.81285 0.0225943
1626000 61.217 240.987 55.9385 0.81295 0.046481
1626200 61.217 241 55.9385 0.81305 0.00881114
1626400 61.217 241.014 55.9385 0.81315 0.018975
1626600 61.217 241.027 55.9385 0.81325 0.0203698
1626800 61.217 241.04 55.9385 0.81335 0.0173632
1627000 61.217 241.054 55.9385 0.81345 0.00368204
1627200 61.217 241.067 55.9385 0.81355 -0.00560768
1627400 61.217 241.08 55.9385 0.81365 0.00925912
1627600 61.217 241.093 55.9385 0.81375 0.00107806
1627800 61.217 241.107 55.9385 0.81385 0.0241418
1628000 61.217 241.12 55.9385 0.81395 -0.00803935
1628200 61.217 241.133 55.9385 0.81405 0.00272017
1628400 61.217 241.147 55.9385 0.81415 0.0172847
1628600 61.217 241.16 55.9385 0.81425 -0.0119309
1628800 61.217 241.173 55.9385 0.81435 0.00166748
1629000 61.217 241.187 55.9385 0.81445 0.0265029
1629200 61.217 241.2 55.9385 0.81455 -0.0145218
1629400 61.217 241.213 55.9385 0.81465 -0.00404649
1629600 61.217 241.226 55.9385 0.81475 -0.00219944
1629800 61.217 241.24 55.9385 0.81485 0.0142058
1630000 61.217 241.253 55.9385 0.81495 0.0194324
1630200 61.217 241.266 55.9385 0.81505 0.0133678
1630400 61.217 241.28 55.9385 0.81515 0.039025
1630600 61.217 241.293 55.9385 0.81525 0.0328478
1630800 61.217 241.306 55.9385 0.81535 0.0139844
1631000 61.217 241.319 55.9385 0.81545 0.0515196
1631200 61.217 241.333 55.9385 0.81555 0.0265108
1631400 61.217 241.346 55.9385 0.81565 0.00541816
1631600 61.217 241.359 55.9385 0.81575 0.0190293
1631800 61.217 241.373 55.9385 0.81585 0.0240717
1632000 61.217 241.386 55.9385 0.81595 0.0324952
1632200 61.217 241.399 55.9385 0.81605 0.0248125
1632400 61.217 241.412 55.9385 0.81615 0.0357202
1632600 61.217 241.426 55.9385 0.81625 0.0197305
1632800 61.217 241.439 55.9385 0.81635 0.0205663
1633000 61.217 241.452 55.9385 0.81645 0.0116137
1633200 61.217 241.466 55.9385 0.81655 4.02272e-05
1633400 61.217 241.479 55.9385 0.81665 -0.0072535
1633600 61.217 241.492 55.9385 0.81675 0.0098308
1633800 61.217 241.506 55.9385 0.81685 -0.0142527
1634000 61.217 241.519 55.9385 0.81695 0.00189878
1634200 61.217 241.532 55.9385 0.81705 0.0031779
1634400 61.217 241.545 55.9385 0.81715 0.0125213
1634600 61.217 241.559 55.9385 0.81725 0.0160171
1634800 61.217 241.572 55.9385 0.81735 -0.0108271
1635000 61.217 241.585 55.9385 0.81745 0.00661809
1635200 61.217 241.599 55.9385 0.81755 0.0238359
1635400 61.217 241.612 55.9385 0.81765 -0.0107846
1635600 61.217 241.625 55.9385 0.81775 -0.00562337
1635800 61.217 241.638 55.9385 0.81785 0.0124133
1636000 61.217 241.652 55.9385 0.81795 0.0127426
1636200 61.217 241.665 55.9385 0.81805 0.00881483
1636400 61.217 241.678 55.9385 0.81815 0.0330816
1636600 61.217 241.692 55.9385 0.81825 0.0286038
1636800 61.217 241.705 55.9385 0.81835 0.0225692
1637000 61.217 241.718 55.9385 0.81845 0.0336569
1637200 61.217 241.732 55.9385 0.81855 0.0167908
1637400 61.217 241.745 55.9385 0.81865 0.0244658
1637600 61.217 241.758 55.9385 0.81875 0.0334183
1637800 61.217 241.771 55.9385 0.81885 0.0129936
1638000 61.217 241.785 55.9385 0.81895 0.0507027
1638200 61.217 241.798 55.9385 0.81905 0.00584971
1638400 61.217 241.811 55.9385 0.81915 0.0102512
1638600 61.217 241.825 55.9385 0.81925 0.0483063
1638800 61.217 241.838 55.9385 0.81935 0.00296462
1639000 61.217 241.851 55.9385 0.81945 0.0335219
1639200 61.217 241.864 55.9385 0.81955 0.00493669
1639400 61.217 241.878 55.9385 0.81965 0.0145662
1639600 61.217 241.891 55.9385 0.81975 0.00138528
1639800 61.217 241.904 55.9385 0.81985 -0.00899323
1640000 61.217 241.918 55.9385 0.81995 0.034378
1640200 61.217 241.931 55.9385 0.82005 -0.0103775
1640400 61.217 241.944 55.9385 0.82015 -0.0120775
1640600 61.217 241.957 55.9385 0.82025 0.00565043
1640800 61.217 241.971 55.9385 0.82035 0.00354246
1641000 61.217 241.984 55.9385 0.82045 0.00383676
1641200 61.217 241.997 55.9385 0.82055 0.0152482
1641400 61.217 242.011 55.9385 0.82065 -0.0196033
1641600 61.217 242.024 55.9385 0.82075 0.0252339
1641800 61.217 242.037 55.9385 0.82085 0.000633509
1642000 61.217 242.051 55.9385 0.82095 0.0113427
1642200 61.217 242.064 55.9385 0.82105 0.027781
1642400 61.217 242.077 55.9385 0.82115 -0.0131622
1642600 61.217 242.09 55.9385 0.82125 0.033716
1642800 61.217 242.104 55.9385 0.82135 0.0141097
1643000 61.217 242.117 55.9385 0.82145 0.0191707
1643200 61.217 242.13 55.9385 0.82155 0.0106411
1643400 61.217 242.144 55.9385 0.82165 0.0365219
1643600 61.217 242.157 55.9385 0.82175 0.0530707
1643800 61.217 242.17 55.9385 0.82185 -0.00124131
1644000 61.217 242.183 55.9385 0.82195 0.0462995
1644200 61.217 242.197 55.9385 0.82205 0.0136846
1644400 61.217 242.21 55.9385 0.82215 0.00908497
1644600 61.217 242.223 55.9385 0.82225 0.0404892
1644800 61.217 242.237 55.9385 0.82235 0.00328244
1645000 61.217 242.25 55.9385 0.82245 0.0182225
1645200 61.217 242.263 55.9385 0.82255 0.0189594
1645400 61.217 242.277 55.9385 0.82265 0.00328947
1645600 61.217 242.29 55.9385 0.82275 0.0168966
1645800 61.217 242.303 55.9385 0.82285 0.0107658
1646000 61.217 242.316 55.9385 0.82295 0.00632138
1646200 61.217 242.33 55.9385 0.82305 0.0214117
1646400 61.217 242.343 55.9385 0.82315 0.0131215
1646600 61.217 242.356 55.9385 0.82325 -0.0157594
1646800 61.217 242.37 55.9385 0.82335 -0.0101842
1647000 61.217 242.383 55.9385 0.82345 0.00834131
1647200 61.217 242.396 55.9385 0.82355 -0.00046377
1647400 61.217 242.409 55.9385 0.82365 0.00529493
1647600 61.217 242.423 55.9385 0.82375 0.0122368
1647800 61.217 242.436 55.9385 0.82385 0.0148088
1648000 61.217 242.449 55.9385 0.82395 0.00369628
1648200 61.217 242.463 55.9385 0.82405 0.0307172
1648400 61.217 242.476 55.9385 0.82415 -0.00565065
1648600 61.217 242.489 55.9385 0.82425 0.0104067
1648800 61.217 242.502 55.9385 0.82435 0.0168049
1649000 61.217 242.516 55.9385 0.82445 0.02668
1649200 61.217 242.529 55.9385 0.82455 0.0240601
1649400 61.217 242.542 55.9385 0.82465 0.0356208
1649600 61.217 242.556 55.9385 0.82475 0.0220677
1649800 61.217 242.569 55.9385 0.82485 0.0330242
1650000 61.217 242.582 55.9385 0.82495 0.0388089
1650200 61.217 242.596 55.9385 0.82505 0.00970286
1650400 61.217 242.609 55.9385 0.82515 0.00758465
1650600 61.217 242.622 55.9385 0.82525 0.0497744
1650800 61.217 242.635 55.9385 0.82535 0.0114832
1651000 61.217 242.649 55.9385 0.82545 0.0238997
1651200 61.217 242.662 55.9385 0.82555 0.00866083
1651400 61.217 242.675 55.9385 0.82565 0.0119515
1651600 61.217 242.689 55.9385 0.82575 0.00811488
1651800 61.217 242.702 55.9385 0.82585 -0.00671305
1652000 61.217 242.715 55.9385 0.82595 0.0207961
1652200 61.217 242.728 55.9385 0.82605 -0.0033213
1652400 61.217 242.742 55.9385 0.82615 -0.00179111
1652600 61.217 242.755 55.9385 0.82625 -0.000195421
1652800 61.217 242.768 55.9385 0.82635 -0.00498783
1653000 61.217 242.782 55.9385 0.82645 0.0107822
1653200 61.217 242.795 55.9385 0.82655 -0.00277172
1653400 61.217 242.808 55.9385 0.82665 -0.00300688
1653600 61.217 242.822 55.9385 0.82675 -0.000477001
1653800 61.217 242.835 55.9385 0.82685 -0.0104668
1654000 61.217 242.848 55.9385 0.82695 0.0209916
1654200 61.217 242.861 55.9385 0.82705 0.0134567
1654400 61.217 242.875 55.9385 0.82715 0.00164187
1654600 61.217 242.888 55.9385 0.82725 0.0512144
1654800 61.217 242.901 55.9385 0.82735 0.00674575
1655000 61.217 242.915 55.9385 0.82745 0.0135319
1655200 61.217 242.928 55.9385 0.82755 0.0200923
1655400 61.217 242.941 55.9385 0.82765 0.0230358
1655600 61.217 242.954 55.9385 0.82775 0.0454755
1655800 61.217 242.968 55.9385 0.82785 0.0218098
1656000 61.217 242.981 55.9385 0.82795 0.0182939
1656200 61.217 242.994 55.9385 0.82805 0.0370514
1656400 61.217 243.008 55.9385 0.82815 0.0179346
1656600 61.217 243.021 55.9385 0.82825 0.0413581
1656800 61.217 243.034 55.9385 0.82835 0.0301602
1657000 61.217 243.047 55.9385 0.82845 0.0282142
1657200 61.217 243.061 55.9385 0.82855 0.0305274
1657400 61.217 243.074 55.9385 0.82865 -0.0034654
1657600 61.217 243.087 55.9385 0.82875 0.0222854
1657800 61.217 243.101 55.9385 0.82885 0.0176878
1658000 61.217 243.114 55.9385 0.82895 -0.00824401
1658200 61.217 243.127 55.9385 0.82905 0.00379669
1658400 61.217 243.141 55.9385 0.82915 0.0150393
1658600 61.217 243.154 55.9385 0.82925 0.0145996
1658800 61.217 243.167 55.9385 0.82935 -0.0183009
1659000 61.217 243.18 55.9385 0.82945 -0.0125591
1659200 61.217 243.194 55.9385 0.82955 0.00994917
1659400 61.217 243.207 55.9385 0.82965 -0.0128913
1659600 61.217 243.22 55.9385 0.82975 0.00233264
1659800 61.217 243.234 55.9385 0.82985 0.00454659
1660000 61.217 243.247 55.9385 0.82995 0.0111574
1660200 61.217 243.26 55.9385 0.83005 -0.00477103
1660400 61.217 243.273 55.9385 0.83015 0.00872101
1660600 61.217 243.287 55.9385 0.83025 0.0176555
1660800 61.217 243.3 55.9385 0.83035 0.0136726
1661000 61.217 243.313 55.9385 0.83045 0.0200286
1661200 61.217 243.327 55.9385 0.83055 0.0165564
1661400 61.217 243.34 55.9385 0.83065 0.0183658
1661600 61.217 243.353 55.9385 0.83075 0.0268136
1661800 61.217 243.367 55.9385 0.83085 0.0164487
1662000 61.217 243.38 55.9385 0.83095 0.0469551
1662200 61.217 243.393 55.9385 0.83105 0.0134307
1662400 61.217 243.406 55.9385 0.83115 0.030008
1662600 61.217 243.42 55.9385 0.83125 0.033954
1662800 61.217 243.433 55.9385 0.83135 0.0287131
1663000 61.217 243.446 55.9385 0.83145 0.023724
1663200 61.217 243.46 55.9385 0.83155 0.0261388
1663400 61.217 243.473 55.9385 0.83165 0.0116334
1663600 61.217 243.486 55.9385 0.83175 0.0141517
1663800 61.217 243.499 55.9385 0.83185 0.0254172
1664000 61.217 243.513 55.9385 0.83195 0.0076707
1664200 61.217 243.526 55.9385 0.83205 0.0111382
1664400 61.217 243.539 55.9385 0.83215 -0.00487903
1664600 61.217 243.553 55.9385 0.83225 0.012944
1664800 61.217 243.566 55.9385 0.83235 0.0171824
1665000 61.217 243.579 55.9385 0.83245 -0.0179696
1665200 61.217 243.592 55.9385 0.83255 0.0117665
1665400 61.217 243.606 55.9385 0.83265 0.0101762
1665600 61.217 243.619 55.9385 0.83275 -0.0174303
1665800 61.217 243.632 55.9385 0.83285 0.0169417
1666000 61.217 243.646 55.9385 0.83295 -0.022058
1666200 61.217 243.659 55.9385 0.83305 -0.00278184
1666400 61.217 243.672 55.9385 0.83315 -0.000186148
1666600 61.217 243.686 55.9385 0.83325 0.0168788
1666800 61.217 243.699 55.9385 0.83335 0.0234575
1667000 61.217 243.712 55.9385 0.83345 -0.0113384
1667200 61.217 243.725 55.9385 0.83355 0.0219247
1667400 61.217 243.739 55.9385 0.83365 0.0187011
1667600 61.217 243.752 55.9385 0.83375 0.0274524
1667800 61.217 243.765 55.9385 0.83385 0.0282717
1668000 61.217 243.779 55.9385 0.83395 0.0127515
1668200 61.217 243.792 55.9385 0.83405 0.033361
1668400 61.217 243.805 55.9385 0.83415 0.0356307
1668600 61.217 243.818 55.9385 0.83425 0.0305456
1668800 61.217 243.832 55.9385 0.83435 0.0260778
1669000 61.217 243.845 55.9385 0.83445 0.0463423
1669200 61.217 243.858 55.9385 0.83455 0.0291985
1669400 61.217 243.872 55.9385 0.83465 0.017071
1669600 61.217 243.885 55.9385 0.83475 0.0209056
1669800 61.217 243.898 55.9385 0.83485 0.0179272
1670000 61.217 243.911 55.9385 0.83495 0.0265801
1670200 61.217 243.925 55.9385 0.83505 0.00104245
1670400 61.217 243.938 55.9385 0.83515 0.0138838
1670600 61.217 243.951 55.9385 0.83525 0.0193042
1670800 61.217 243.965 55.9385 0.83535 0.00041742
1671000 61.217 243.978 55.9385 0.83545 0.029483
1671200 61.217 243.991 55.9385 0.83555 -0.0204077
1671400 61.217 244.005 55.9385 0.83565 0.00744167
1671600 61.217 244.018 55.9385 0.83575 -0.00928337
1671800 61.217 244.031 55.9385 0.83585 -0.0112808
1672000 61.217 244.044 55.9385 0.83595 -0.000148049
1672200 61.217 244.058 55.9385 0.83605 -0.00500576
1672400 61.217 244.071 55.9385 0.83615 -0.000953011
1672600 61.217 244.084 55.9385 0.83625 -0.0118588
1672800 61.217 244.098 55.9385 0.83635 0.0182222
1673000 61.217 244.111 55.9385 0.83645 -0.000659674
1673200 61.217 244.124 55.9385 0.83655 -0.00244646
1673400 61.217 244.137 55.9385 0.83665 0.00815046
1673600 61.217 244.151 55.9385 0.83675 0.029939
1673800 61.217 244.164 55.9385 0.83685 0.0126899
1674000 61.217 244.177 55.9385 0.83695 0.0298782
1674200 61.217 244.191 55.9385 0.83705 0.00153426
1674400 61.217 244.204 55.9385 0.83715 0.0292353
1674600 61.217 244.217 55.9385 0.83725 0.0448397
1674800 61.217 244.231 55.9385 0.83735 0.0199552
1675000 61.217 244.244 55.9385 0.83745 0.0501498
1675200 61.217 244.257 55.9385 0.83755 0.017979
1675400 61.217 244.27 55.9385 0.83765 0.0316044
1675600 61.217 244.284 55.9385 0.83775 0.0403345
1675800 61.217 244.297 55.9385 0.83785 0.0213613
1676000 61.217 244.31 55.9385 0.83795 0.0422284
1676200 61.217 244.324 55.9385 0.83805 0.000887784
1676400 61.217 244.337 55.9385 0.83815 0.0169897
1676600 61.217 244.35 55.9385 0.83825 0.0365524
1676800 61.217 244.363 55.9385 0.83835 -0.0097576
1677000 61.217 244.377 55.9385 0.83845 0.0185756
1677200 61.217 244.39 55.9385 0.83855 -0.0105482
1677400 61.217 244.403 55.9385 0.83865 -0.000179558
1677600 61.217 244.417 55.9385 0.83875 0.0246452
1677800 61.217 244.43 55.9385 0.83885 -0.0134202
1678000 61.217 244.443 55.9385 0.83895 0.00242204
1678200 61.217 244.456 55.9385 0.83905 -0.00533409
1678400 61.217 244.47 55.9385 0.83915 -0.00504417
1678600 61.217 244.483 55.9385 0.83925 0.00895928
1678800 61.217 244.496 55.9385 0.83935 -0.0149081
1679000 61.217 244.51 55.9385 0.83945 -0.00396268
1679200 61.217 244.523 55.9385 0.83955 0.00575072
1679400 61.217 244.536 55.9385 0.83965 0.021238
1679600 61.217 244.55 55.9385 0.83975 0.019719
1679800 61.217 244.563 55.9385 0.83985 0.0108424
1680000 61.217 244.576 55.9385 0.83995 0.0349739
1680200 61.217 244.589 55.9385 0.84005 0.0130342
1680400 61.217 244.603 55.9385 0.84015 0.0179132
1680600 61.217 244.616 55.9385 0.84025 0.0361795
1680800 61.217 244.629 55.9385 0.84035 0.0158457
1681000 61.217 244.643 55.9385 0.84045 0.0265791
1681200 61.217 244.656 55.9385 0.84055 0.0467684
1681400 61.217 244.669 55.9385 0.84065 0.0126861
1681600 61.217 244.682 55.9385 0.84075 0.0282807
1681800 61.217 244.696 55.9385 0.84085 0.0263423
1682000 61.217 244.709 55.9385 0.84095 0.0232642
1682200 61.217 244.722 55.9385 0.84105 0.0266055
1682400 61.217 244.736 55.9385 0.84115 0.01541
1682600 61.217 244.749 55.9385 0.84125 0.00659045
1682800 61.217 244.762 55.9385 0.84135 -0.00356732
1683000 61.217 244.776 55.9385 0.84145 0.0177335
1683200 61.217 244.789 55.9385 0.84155 0.0179441
1683400 61.217 244.802 55.9385 0.84165 -0.0216335
1683600 61.217 244.815 55.9385 0.84175 0.0228527
1683800 61.217 244.829 55.9385 0.84185 -0.0256525
1684000 61.217 244.842 55.9385 0.84195 -0.0111305
1684200 61.217 244.855 55.9385 0.84205 0.0417848
1684400 61.217 244.869 55.9385 0.84215 -0.0234978
1684600 61.217 244.882 55.9385 0.84225 0.0198225
1684800 61.217 244.895 55.9385 0.84235 -0.00584947
1685000 61.217 244.908 55.9385 0.84245 0.00241012
1685200 61.217 244.922 55.9385 0.84255 0.0335331
1685400 61.217 244.935 55.9385 0.84265 -0.00297494
1685600 61.217 244.948 55.9385 0.84275 0.0172656
1685800 61.217 244.962 55.9385 0.84285 0.00112615
1686000 61.217 244.975 55.9385 0.84295 0.00682969
1686200 61.217 244.988 55.9385 0.84305 0.0375814
1686400 61.217 245.001 55.9385 0.84315 -0.0029884
1686600 61.217 245.015 55.9385 0.84325 0.0352126
1686800 61.217 245.028 55.9385 0.84335 0.0486459
1687000 61.217 245.041 55.9385 0.84345 0.00180305
1687200 61.217 245.055 55.9385 0.84355 0.0346277
1687400 61.217 245.068 55.9385 0.84365 0.0321516
1687600 61.217 245.081 55.9385 0.84375 0.0201364
1687800 61.217 245.095 55.9385 0.84385 0.0468837
1688000 61.217 245.108 55.9385 0.84395 -0.000246998
1688200 61.217 245.121 55.9385 0.84405 0.0415823
1688400 61.217 245.134 55.9385 0.84415 0.00625257
1688600 61.217 245.148 55.9385 0.84425 0.0115291
1688800 61.217 245.161 55.9385 0.84435 0.0367556
1689000 61.217 245.174 55.9385 0.84445 0.0137293
1689200 61.217 245.188 55.9385 0.84455 0.0227175
1689400 61.217 245.201 55.9385 0.84465 -0.00291553
1689600 61.217 245.214 55.9385 0.84475 0.00606373
1689800 61.217 245.227 55.9385 0.84485 -0.00919049
1690000 61.217 245.241 55.9385 0.84495 -0.0132379
1690200 61.217 245.254 55.9385 0.84505 0.00719437
1690400 61.217 245.267 55.9385 0.84515 -0.0280537
1690600 61.217 245.281 55.9385 0.84525 0.0223407
1690800 61.217 245.294 55.9385 0.84535 0.00605583
1691000 61.217 245.307 55.9385 0.84545 -0.0374729
1691200 61.217 245.321 55.9385 0.84555 0.0353917
1691400 61.217 245.334 55.9385 0.84565 0.00586968
1691600 61.217 245.347 55.9385 0.84575 0.0111157
1691800 61.217 245.36 55.9385 0.84585 0.0171013
1692000 61.217 245.374 55.9385 0.84595 -0.0100771
1692200 61.217 245.387 55.9385 0.84605 0.0294568
1692400 61.217 245.4 55.9385 0.84615 0.0230446
1692600 61.217 245.414 55.9385 0.84625 0.0263785
1692800 61.217 245.427 55.9385 0.84635 0.012673
1693000 61.217 245.44 55.9385 0.84645 0.00144066
1693200 61.217 245.453 55.9385 0.84655 0.0437503
1693400 61.217 245.467 55.9385 0.84665 0.0291641
1693600 61.217 245.48 55.9385 0.84675 0.0264398
1693800 61.217 245.493 55.9385 0.84685 0.055184
1694000 61.217 245.507 55.9385 0.84695 0.00557801
1694200 61.217 245.52 55.9385 0.84705 0.0290781
1694400 61.217 245.533 55.9385 0.84715 0.0326718
1694600 61.217 245.546 55.9385 0.84725 -0.00166667
1694800 61.217 245.56 55.9385 0.84735 0.0175452
1695000 61.217 245.573 55.9385 0.84745 0.022106
1695200 61.217 245.586 55.9385 0.84755 0.00355952
1695400 61.217 245.6 55.9385 0.84765 0.013115
1695600 61.217 245.613 55.9385 0.84775 0.00112097
1695800 61.217 245.626 55.9385 0.84785 0.0190525
1696000 61.217 245.64 55.9385 0.84795 -0.00265328
1696200 61.217 245.653 55.9385 0.84805 -0.00531774
1696400 61.217 245.666 55.9385 0.84815 0.0111728
1696600 61.217 245.679 55.9385 0.84825 -0.0192494
1696800 61.217 245.693 55.9385 0.84835 0.0149613
1697000 61.217 245.706 55.9385 0.84845 -0.000971844
1697200 61.217 245.719 55.9385 0.84855 -0.00948877
1697400 61.217 245.733 55.9385 0.84865 0.00428647
1697600 61.217 245.746 55.9385 0.84875 -0.0224095
1697800 61.217 245.759 55.9385 0.84885 0.0429642
1698000 61.217 245.772 55.9385 0.84895 -0.000425172
1698200 61.217 245.786 55.9385 0.84905 0.0227644
1698400 61.217 245.799 55.9385 0.84915 0.0362314
1698600 61.217 245.812 55.9385 0.84925 0.000727812
1698800 61.217 245.826 55.9385 0.84935 0.0133432
1699000 61.217 245.839 55.9385 0.84945 0.0250811
1699200 61.217 245.852 55.9385 0.84955 0.0281261
1699400 61.217 245.866 55.9385 0.84965 0.0257912
1699600 61.217 245.879 55.9385 0.84975 0.0305681
1699800 61.217 245.892 55.9385 0.84985 0.0297003
1700000 61.217 245.905 55.9385 0.84995 0.0301968
1700200 61.217 245.919 55.9385 0.85005 0.0375946
1700400 61.217 245.932 55.9385 0.85015 0.0427855
1700600 61.217 245.945 55.9385 0.85025 0.00480561
1700800 61.217 245.959 55.9385 0.85035 0.0191699
1701000 61.217 245.972 55.9385 0.85045 0.00548363
1701200 61.217 245.985 55.9385 0.85055 0.00515708
1701400 61.217 245.998 55.9385 0.85065 0.0141616
1701600 61.217 246.012 55.9385 0.85075 0.000269597
1701800 61.217 246.025 55.9385 0.85085 -0.0189967
1702000 61.217 246.038 55.9385 0.85095 0.00613427
1702200 61.217 246.052 55.9385 0.85105 0.00332838
1702400 61.217 246.065 55.9385 0.85115 -0.00297168
1702600 61.217 246.078 55.9385 0.85125 0.0143814
1702800 61.217 246.091 55.9385 0.85135 0.00227442
1703000 61.217 246.105 55.9385 0.85145 -0.0198091
1703200 61.217 246.118 55.9385 0.85155 0.000872208
1703400 61.217 246.131 55.9385 0.85165 -0.00811478
1703600 61.217 246.145 55.9385 0.85175 -0.00509557
1703800 61.217 246.158 55.9385 0.85185 0.0105995
1704000 61.217 246.171 55.9385 0.85195 0.00300071
1704200 61.217 246.185 55.9385 0.85205 0.0262188
1704400 61.217 246.198 55.9385 0.85215 0.0139081
1704600 61.217 246.211 55.9385 0.85225 0.0317943
1704800 61.217 246.224 55.9385 0.85235 0.0387942
1705000 61.217 246.238 55.9385 0.85245 0.0116548
1705200 61.217 246.251 55.9385 0.85255 0.0314722
1705400 61.217 246.264 55.9385 0.85265 0.0278218
1705600 61.217 246.278 55.9385 0.85275 0.0240476
1705800 61.217 246.291 55.9385 0.85285 0.0323598
1706000 61.217 246.304 55.9385 0.85295 0.0372774
1706200 61.217 246.317 55.9385 0.85305 0.0228013
1706400 61.217 246.331 55.9385 0.85315 0.022648
1706600 61.217 246.344 55.9385 0.85325 0.0259587
1706800 61.217 246.357 55.9385 0.85335 0.030237
1707000 61.217 246.371 55.9385 0.85345 0.0203466
1707200 61.217 246.384 55.9385 0.85355 -0.0057617
1707400 61.217 246.397 55.9385 0.85365 0.00749657
1707600 61.217 246.41 55.9385 0.85375 0.0196648
1707800 61.217 246.424 55.9385 0.85385 -0.00549952
1708000 61.217 246.437 55.9385 0.85395 0.00899086
1708200 61.217 246.45 55.9385 0.85405 -0.00867844
1708400 61.217 246.464 55.9385 0.85415 0.000810194
1708600 61.217 246.477 55.9385 0.85425 -0.00296048
1708800 61.217 246.49 55.9385 0.85435 -0.0175014
1709000 61.217 246.504 55.9385 0.85445 -0.00466669
1709200 61.217 246.517 55.9385 0.85455 -0.00114017
1709400 61.217 246.53 55.9385 0.85465 -0.0141418
1709600 61.217 246.543 55.9385 0.85475 0.00291027
1709800 61.217 246.557 55.9385 0.85485 -0.00932239
1710000 61.217 246.57 55.9385 0.85495 0.0191255
1710200 61.217 246.583 55.9385 0.85505 0.0109352
1710400 61.217 246.597 55.9385 0.85515 0.00310674
1710600 61.217 246.61 55.9385 0.85525 0.0241154
1710800 61.217 246.623 55.9385 0.85535 0.0206341
1711000 61.217 246.636 55.9385 0.85545 0.0141021
1711200 61.217 246.65 55.9385 0.85555 0.0272612
1711400 61.217 246.663 55.9385 0.85565 0.0351162
1711600 61.217 246.676 55.9385 0.85575 0.0225548
1711800 61.217 246.69 55.9385 0.85585 0.0301148
1712000 61.217 246.703 55.9385 0.85595 0.0343722
1712200 61.217 246.716 55.9385 0.85605 0.0223444
1712400 61.217 246.73 55.9385 0.85615 0.0370465
1712600 61.217 246.743 55.9385 0.85625 0.0307822
1712800 61.217 246.756 55.9385 0.85635 0.00249514
1713000 61.217 246.769 55.9385 0.85645 0.0268324
1713200 61.217 246.783 55.9385 0.85655 0.0242568
1713400 61.217 246.796 55.9385 0.85665 0.011483
1713600 61.217 246.809 55.9385 0.85675 0.0181321
1713800 61.217 246.823 55.9385 0.85685 -0.00723767
1714000 61.217 246.836 55.9385 0.85695 0.00619994
1714200 61.217 246.849 55.9385 0.85705 0.0249728
1714400 61.217 246.862 55.9385 0.85715 -0.00272712
1714600 61.217 246.876 55.9385 0.85725 -0.000500931
1714800 61.217 246.889 55.9385 0.85735 -0.0204245
1715000 61.217 246.902 55.9385 0.85745 -0.00978901
1715200 61.217 246.916 55.9385 0.85755 0.0183052
1715400 61.217 246.929 55.9385 0.85765 -0.00811143
1715600 61.217 246.942 55.9385 0.85775 0.00912721
1715800 61.217 246.955 55.9385 0.85785 -0.0135381
1716000 61.217 246.969 55.9385 0.85795 0.0136462
1716200 61.217 246.982 55.9385 0.85805 -0.00260982
1716400 61.217 246.995 55.9385 0.85815 0.00888367
1716600 61.217 247.009 55.9385 0.85825 0.0192688
1716800 61.217 247.022 55.9385 0.85835 -0.00152492
1717000 61.217 247.035 55.9385 0.85845 0.0173412
1717200 61.217 247.049 55.9385 0.85855 0.0109846
1717400 61.217 247.062 55.9385 0.85865 0.01097
1717600 61.217 247.075 55.9385 0.85875 0.0438293
1717800 61.217 247.088 55.9385 0.85885 0.0190275
1718000 61.217 247.102 55.9385 0.85895 0.0309246
1718200 61.217 247.115 55.9385 0.85905 0.013172
1718400 61.217 247.128 55.9385 0.85915 0.0256439
1718600 61.217 247.142 55.9385 0.85925 0.0411401
1718800 61.217 247.155 55.9385 0.85935 0.0289586
1719000 61.217 247.168 55.9385 0.85945 0.022738
1719200 61.217 247.181 55.9385 0.85955 0.00958379
1719400 61.217 247.195 55.9385 0.85965 0.0130486
1719600 61.217 247.208 55.9385 0.85975 0.00581509
1719800 61.217 247.221 55.9385 0.85985 0.0215679
1720000 61.217 247.235 55.9385 0.85995 0.0357548
1720200 61.217 247.248 55.9385 0.86005 -0.00435689
1720400 61.217 247.261 55.9385 0.86015 -0.00232611
1720600 61.217 247.275 55.9385 0.86025 0.018167
1720800 61.217 247.288 55.9385 0.86035 -0.0140158
1721000 61.217 247.301 55.9385 0.86045 0.0127794
1721200 61.217 247.314 55.9385 0.86055 -0.000702967
1721400 61.217 247.328 55.9385 0.86065 -0.0249767
1721600 61.217 247.341 55.9385 0.86075 0.0132556
1721800 61.217 247.354 55.9385 0.86085 -0.00885577
1722000 61.217 247.368 55.9385 0.86095 0.0144293
1722200 61.217 247.381 55.9385 0.86105 -0.0127308
1722400 61.217 247.394 55.9385 0.86115 0.0238344
1722600 61.217 247.407 55.9385 0.86125 -0.0160818
1722800 61.217 247.421 55.9385 0.86135 -0.00140539
1723000 61.217 247.434 55.9385 0.86145 0.0123761
1723200 61.217 247.447 55.9385 0.86155 0.0119211
1723400 61.217 247.461 55.9385 0.86165 0.0211892
1723600 61.217 247.474 55.9385 0.86175 0.0168908
1723800 61.217 247.487 55.9385 0.86185 0.0141455
1724000 61.217 247.5 55.9385 0.86195 0.0261563
1724200 61.217 247.514 55.9385 0.86205 0.0166824
1724400 61.217 247.527 55.9385 0.86215 0.0329408
1724600 61.217 247.54 55.9385 0.86225 0.0286114
1724800 61.217 247.554 55.9385 0.86235 0.0228451
1725000 61.217 247.567 55.9385 0.86245 0.0331391
1725200 61.217 247.58 55.9385 0.86255 0.019456
1725400 61.217 247.594 55.9385 0.86265 0.0117668
1725600 61.217 247.607 55.9385 0.86275 0.0289961
1725800 61.217 247.62 55.9385 0.86285 0.0252237
1726000 61.217 247.633 55.9385 0.86295 0.01155
1726200 61.217 247.647 55.9385 0.86305 0.00765127
1726400 61.217 247.66 55.9385 0.86315 0.0254683
1726600 61.217 247.673 55.9385 0.86325 0.0195494
1726800 61.217 247.687 55.9385 0.86335 0.00402218
1727000 61.217 247.7 55.9385 0.86345 0.00275722
1727200 61.217 247.713 55.9385 0.86355 0.00526918
1727400 61.217 247.726 55.9385 0.86365 -0.00757474
1727600 61.217 247.74 55.9385 0.86375 0.00278437
1727800 61.217 247.753 55.9385 0.86385 -0.0109109
1728000 61.217 247.766 55.9385 0.86395 0.0018466
1728200 61.217 247.78 55.9385 0.86405 -0.0133558
1728400 61.217 247.793 55.9385 0.86415 0.0033784
1728600 61.217 247.806 55.9385 0.86425 -0.00484146
1728800 61.217 247.82 55.9385 0.86435 0.00587861
1729000 61.217 247.833 55.9385 0.86445 0.00931095
1729200 61.217 247.846 55.9385 0.86455 0.00943756
1729400 61.217 247.859 55.9385 0.86465 0.00955917
1729600 61.217 247.873 55.9385 0.86475 -0.0101945
1729800 61.217 247.886 55.9385 0.86485 0.018455
1730000 61.217 247.899 55.9385 0.86495 0.0126566
1730200 61.217 247.913 55.9385 0.86505 0.00992261
1730400 61.217 247.926 55.9385 0.86515 0.0195209
1730600 61.217 247.939 55.9385 0.86525 0.0253867
1730800 61.217 247.952 55.9385 0.86535 0.0553313
1731000 61.217 247.966 55.9385 0.86545 -0.000642333
1731200 61.217 247.979 55.9385 0.86555 0.0353912
1731400 61.217 247.992 55.9385 0.86565 0.0321645
1731600 61.217 248.006 55.9385 0.86575 0.026874
1731800 61.217 248.019 55.9385 0.86585 0.0145517
1732000 61.217 248.032 55.9385 0.86595 0.00748392
1732200 61.217 248.045 55.9385 0.86605 0.021938
1732400 61.217 248.059 55.9385 0.86615 0.00540916
1732600 61.217 248.072 55.9385 0.86625 0.0194708
1732800 61.217 248.085 55.9385 0.86635 0.0234552
1733000 61.217 248.099 55.9385 0.86645 0.00892764
1733200 61.217 248.112 55.9385 0.86655 -0.00285906
1733400 61.217 248.125 55.9385 0.86665 0.0198236
1733600 61.217 248.139 55.9385 0.86675 -0.0246964
1733800 61.217 248.152 55.9385 0.86685 0.00116291
1734000 61.217 248.165 55.9385 0.86695 0.0224942
1734200 61.217 248.178 55.9385 0.86705 -0.0172779
1734400 61.217 248.192 55.9385 0.86715 -0.0045515
1734600 61.217 248.205 55.9385 0.86725 0.00210199
1734800 61.217 248.218 55.9385 0.86735 0.00185524
1735000 61.217 248.232 55.9385 0.86745 0.0390941
1735200 61.217 248.245 55.9385 0.86755 -0.0195099
1735400 61.217 248.258 55.9385 0.86765 0.0170192
1735600 61.217 248.271 55.9385 0.86775 -0.00604892
1735800 61.217 248.285 55.9385 0.86785 0.0127109
1736000 61.217 248.298 55.9385 0.86795 0.0369356
1736200 61.217 248.311 55.9385 0.86805 -0.00889466
1736400 61.217 248.325 55.9385 0.86815 0.0312584
1736600 61.217 248.338 55.9385 0.86825 0.0387704
1736800 61.217 248.351 55.9385 0.86835 -0.00451098
1737000 61.217 248.364 55.9385 0.86845 0.0218862
1737200 61.217 248.378 55.9385 0.86855 0.00666367
1737400 61.217 248.391 55.9385 0.86865 0.0431293
1737600 61.217 248.404 55.9385 0.86875 0.00817585
1737800 61.217 248.418 55.9385 0.86885 0.0113507
1738000 61.217 248.431 55.9385 0.86895 0.0345006
1738200 61.217 248.444 55.9385 0.86905 0.00370775
1738400 61.217 248.458 55.9385 0.86915 0.0258971
1738600 61.217 248.471 55.9385 0.86925 0.0211358
1738800 61.217 248.484 55.9385 0.86935 -0.00415799
1739000 61.217 248.497 55.9385 0.86945 0.0251873
1739200 61.217 248.511 55.9385 0.86955 0.000863955
1739400 61.217 248.524 55.9385 0.86965 0.00878677
1739600 61.217 248.537 55.9385 0.86975 0.0137418
1739800 61.217 248.551 55.9385 0.86985 -0.00400271
1740000 61.217 248.564 55.9385 0.86995 0.00830111
1740200 61.217 248.577 55.9385 0.87005 -0.0206271
1740400 61.217 248.59 55.9385 0.87015 0.0261251
1740600 61.217 248.604 55.9385 0.87025 0.00366692
1740800 61.217 248.617 55.9385 0.87035 -0.01273
1741000 61.217 248.63 55.9385 0.87045 0.00935278
1741200 61.217 248.644 55.9385 0.87055 -0.00836701
1741400 61.217 248.657 55.9385 0.87065 0.00392071
1741600 61.217 248.67 55.9385 0.87075 0.0101439
1741800 61.217 248.684 55.9385 0.87085 0.0114032
1742000 61.217 248.697 55.9385 0.87095 0.0250448
1742200 61.217 248.71 55.9385 0.87105 -0.00606675
1742400 61.217 248.723 55.9385 0.87115 0.0297603
1742600 61.217 248.737 55.9385 0.87125 0.0320282
1742800 61.217 248.75 55.9385 0.87135 0.00328864
1743000 61.217 248.763 55.9385 0.87145 0.0265112
1743200 61.217 248.777 55.9385 0.87155 0.00550567
1743400 61.217 248.79 55.9385 0.87165 0.0256124
1743600 61.217 248.803 55.9385 0.87175 0.0445334
1743800 61.217 248.816 55.9385 0.87185 -0.0206298
1744000 61.217 248.83 55.9385 0.87195 0.0265221
1744200 61.217 248.843 55.9385 0.87205 0.0231521
1744400 61.217 248.856 55.9385 0.87215 0.0103863
1744600 61.217 248.87 55.9385 0.87225 0.0409212
1744800 61.217 248.883 55.9385 0.87235 -0.0154883
1745000 61.217 248.896 55.9385 0.87245 0.0315961
1745200 61.217 248.909 55.9385 0.87255 0.0209189
1745400 61.217 248.923 55.9385 0.87265 -0.00754846
1745600 61.217 248.936 55.9385 0.87275 0.0265556
1745800 61.217 248.949 55.9385 0.87285 -0.0247446
1746000 61.217 248.963 55.9385 0.87295 0.00710904
1746200 61.217 248.976 55.9385 0.87305 0.0230289
1746400 61.217 248.989 55.9385 0.87315 -0.00970181
1746600 61.217 249.003 55.9385 0.87325 0.0333872
1746800 61.217 249.016 55.9385 0.87335 -0.0196042
1747000 61.217 249.029 55.9385 0.87345 0.00401646
1747200 61.217 249.042 55.9385 0.87355 0.0216916
1747400 61.217 249.056 55.9385 0.87365 -0.00362348
1747600 61.217 249.069 55.9385 0.87375 0.0247172
1747800 61.217 249.082 55.9385 0.87385 -0.0121725
1748000 61.217 249.096 55.9385 0.87395 0.00448305
1748200 61.217 249.109 55.9385 0.87405 0.0173762
1748400 61.217 249.122 55.9385 0.87415 -0.00722487
1748600 61.217 249.135 55.9385 0.87425 0.027078
1748800 61.217 249.149 55.9385 0.87435 0.00965367
1749000 61.217 249.162 55.9385 0.87445 0.0270922
1749200 61.217 249.175 55.9385 0.87455 0.00195804
1749400 61.217 249.189 55.9385 0.87465 0.0251422
1749600 61.217 249.202 55.9385 0.87475 0.0252523
1749800 61.217 249.215 55.9385 0.87485 0.0165391
1750000 61.217 249.229 55.9385 0.87495 0.00615374
1750200 61.217 249.242 55.9385 0.87505 0.020863
1750400 61.217 249.255 55.9385 0.87515 0.00286337
1750600 61.217 249.268 55.9385 0.87525 0.0180933
1750800 61.217 249.282 55.9385 0.87535 0.0201848
1751000 61.217 249.295 55.9385 0.87545 0.00411615
1751200 61.217 249.308 55.9385 0.87555 0.0442667
1751400 61.217 249.322 55.9385 0.87565 0.00338238
1751600 61.217 249.335 55.9385 0.87575 -0.0091984
1751800 61.217 249.348 55.9385 0.87585 0.0337481
1752000 61.217 249.361 55.9385 0.87595 -0.00320465
1752200 61.217 249.375 55.9385 0.87605 0.0202239
1752400 61.217 249.388 55.9385 0.87615 0.00365339
1752600 61.217 249.401 55.9385 0.87625 -0.000383361
1752800 61.217 249.415 55.9385 0.87635 0.0193999
1753000 61.217 249.428 55.9385 0.87645 -0.0130704
1753200 61.217 249.441 55.9385 0.87655 0.0202361
1753400 61.217 249.454 55.9385 0.87665 -0.00575231
1753600 61.217 249.468 55.9385 0.87675 0.0324727
1753800 61.217 249.481 55.9385 0.87685 0.0162863
1754000 61.217 249.494 55.9385 0.87695 -0.00965928
1754200 61.217 249.508 55.9385 0.87705 0.0244871
1754400 61.217 249.521 55.9385 0.87715 0.00869838
1754600 61.217 249.534 55.9385 0.87725 0.00502817
1754800 61.217 249.548 55.9385 0.87735 0.00773191
1755000 61.217 249.561 55.9385 0.87745 0.0142615
1755200 61.217 249.574 55.9385 0.87755 0.0130011
1755400 61.217 249.587 55.9385 0.87765 0.0280316
1755600 61.217 249.601 55.9385 0.87775 0.00706674
1755800 61.217 249.614 55.9385 0.87785 0.0308859
1756000 61.217 249.627 55.9385 0.87795 -0.000589448
1756200 61.217 249.641 55.9385 0.87805 0.0126935
1756400 61.217 249.654 55.9385 0.87815 0.0143538
1756600 61.217 249.667 55.9385 0.87825 0.0185414
1756800 61.217 249.68 55.9385 0.87835 0.00807564
1757000 61.217 249.694 55.9385 0.87845 0.00308151
1757200 61.217 249.707 55.9385 0.87855 0.0194563
1757400 61.217 249.72 55.9385 0.87865 0.00176091
1757600 61.217 249.734 55.9385 0.87875 0.00805525
1757800 61.217 249.747 55.9385 0.87885 0.036148
1758000 61.217 249.76 55.9385 0.87895 0.0176488
1758200 61.217 249.774 55.9385 0.87905 0.013745
1758400 61.217 249.787 55.9385 0.87915 0.0177544
1758600 61.217 249.8 55.9385 0.87925 -0.00734857
1758800 61.217 249.813 55.9385 0.87935 0.0177114
1759000 61.217 249.827 55.9385 0.87945 0.0105111
1759200 61.217 249.84 55.9385 0.87955 0.0170437
1759400 61.217 249.853 55.9385 0.87965 0.00390302
1759600 61.217 249.867 55.9385 0.87975 6.24661e-06
1759800 61.217 249.88 55.9385 0.87985 0.0147129
1760000 61.217 249.893 55.9385 0.87995 0.00186869
1760200 61.217 249.906 55.9385 0.88005 0.0187304
1760400 61.217 249.92 55.9385 0.88015 0.0096534
1760600 61.217 249.933 55.9385 0.88025 0.00576356
1760800 61.217 249.946 55.9385 0.88035 0.0221203
1761000 61.217 249.96 55.9385 0.88045 0.013459
1761200 61.217 249.973 55.9385 0.88055 0.00741034
1761400 61.217 249.986 55.9385 0.88065 -0.0163259
1761600 61.217 249.999 55.9385 0.88075 6.38874e-05
1761800 61.217 250.013 55.9385 0.88085 0.0256653
1762000 61.217 250.026 55.9385 0.88095 0.00633768
1762200 61.217 250.039 55.9385 0.88105 0.0264343
1762400 61.217 250.053 55.9385 0.88115 0.00960753
1762600 61.217 250.066 55.9385 0.88125 0.00296227
1762800 61.217 250.079 55.9385 0.88135 0.0303728
1763000 61.217 250.093 55.9385 0.88145 0.0146277
1763200 61.217 250.106 55.9385 0.88155 0.00345395
1763400 61.217 250.119 55.9385 0.88165 0.0330809
1763600 61.217 250.132 55.9385 0.88175 -0.0102218
1763800 61.217 250.146 55.9385 0.88185 0.0269988
1764000 61.217 250.159 55.9385 0.88195 0.0136936
1764200 61.217 250.172 55.9385 0.88205 0.0300124
1764400 61.217 250.186 55.9385 0.88215 0.0270937
1764600 61.217 250.199 55.9385 0.88225 -0.00369306
1764800 61.217 250.212 55.9385 0.88235 0.030375
1765000 61.217 250.225 55.9385 0.88245 0.00534005
1765200 61.217 250.239 55.9385 0.88255 0.00279761
1765400 61.217 250.252 55.9385 0.88265 0.0281751
1765600 61.217 250.265 55.9385 0.88275 -0.0135551
1765800 61.217 250.279 55.9385 0.88285 0.00642206
1766000 61.217 250.292 55.9385 0.88295 0.0271149
1766200 61.217 250.305 55.9385 0.88305 0.00416784
1766400 61.217 250.319 55.9385 0.88315 0.0159644
1766600 61.217 250.332 55.9385 0.88325 -0.020028
1766800 61.217 250.345 55.9385 0.88335 0.0200246
1767000 61.217 250.358 55.9385 0.88345 0.0286873
1767200 61.217 250.372 55.9385 0.88355 -0.0235599
1767400 61.217 250.385 55.9385 0.88365 0.0222085
1767600 61.217 250.398 55.9385 0.88375 0.0175435
1767800 61.217 250.412 55.9385 0.88385 0.0155595
1768000 61.217 250.425 55.9385 0.88395 0.0179739
1768200 61.217 250.438 55.9385 0.88405 0.0200786
1768400 61.217 250.451 55.9385 0.88415 0.00780862
1768600 61.217 250.465 55.9385 0.88425 0.012231
1768800 61.217 250.478 55.9385 0.88435 0.030135
1769000 61.217 250.491 55.9385 0.88445 0.0186742
1769200 61.217 250.505 55.9385 0.88455 0.00524632
1769400 61.217 250.518 55.9385 0.88465 0.017117
1769600 61.217 250.531 55.9385 0.88475 0.0179102
1769800 61.217 250.544 55.9385 0.88485 0.00400538
1770000 61.217 250.558 55.9385 0.88495 0.0226953
1770200 61.217 250.571 55.9385 0.88505 0.00192295
1770400 61.217 250.584 55.9385 0.88515 0.0130573
1770600 61.217 250.598 55.9385 0.88525 0.0100275
1770800 61.217 250.611 55.9385 0.88535 0.00293117
1771000 61.217 250.624 55.9385 0.88545 0.0204134
1771200 61.217 250.638 55.9385 0.88555 -8.70193e-05
1771400 61.217 250.651 55.9385 0.88565 0.0157886
1771600 61.217 250.664 55.9385 0.88575 0.0143615
1771800 61.217 250.677 55.9385 0.88585 0.00905379
1772000 61.217 250.691 55.9385 0.88595 0.0171244
1772200 61.217 250.704 55.9385 0.88605 0.000751414
1772400 61.217 250.717 55.9385 0.88615 0.00758491
1772600 61.217 250.731 55.9385 0.88625 0.00488934
1772800 61.217 250.744 55.9385 0.88635 0.0150437
1773000 61.217 250.757 55.9385 0.88645 0.021119
1773200 61.217 250.77 55.9385 0.88655 -0.000646391
1773400 61.217 250.784 55.9385 0.88665 0.0122067
1773600 61.217 250.797 55.9385 0.88675 0.015542
1773800 61.217 250.81 55.9385 0.88685 0.0222905
1774000 61.217 250.824 55.9385 0.88695 0.0254212
1774200 61.217 250.837 55.9385 0.88705 0.00551899
1774400 61.217 250.85 55.9385 0.88715 0.0244102
1774600 61.217 250.863 55.9385 0.88725 0.0105583
1774800 61.217 250.877 55.9385 0.88735 0.00463819
1775000 61.217 250.89 55.9385 0.88745 0.0123183
1775200 61.217 250.903 55.9385 0.88755 0.0131166
1775400 61.217 250.917 55.9385 0.88765 0.0229581
1775600 61.217 250.93 55.9385 0.88775 0.0163912
1775800 61.217 250.943 55.9385 0.88785 0.0146259
1776000 61.217 250.957 55.9385 0.88795 0.00672074
1776200 61.217 250.97 55.9385 0.88805 0.0104877
1776400 61.217 250.983 55.9385 0.88815 0.025087
1776600 61.217 250.996 55.9385 0.88825 0.00209783
1776800 61.217 251.01 55.9385 0.88835 0.00378145
1777000 61.217 251.023 55.9385 0.88845 0.0146418
1777200 61.217 251.036 55.9385 0.88855 0.00491475
1777400 61.217 251.05 55.9385 0.88865 0.0162374
1777600 61.217 251.063 55.9385 0.88875 0.0025868
1777800 61.217 251.076 55.9385 0.88885 0.0331094
1778000 61.217 251.089 55.9385 0.88895 0.0260932
1778200 61.217 251.103 55.9385 0.88905 -0.0120828
1778400 61.217 251.116 55.9385 0.88915 0.0252096
1778600 61.217 251.129 55.9385 0.88925 0.00322818
1778800 61.217 251.143 55.9385 0.88935 0.015588
1779000 61.217 251.156 55.9385 0.88945 0.0195119
1779200 61.217 251.169 55.9385 0.88955 -0.00750226
1779400 61.217 251.183 55.9385 0.88965 0.0302164
1779600 61.217 251.196 55.9385 0.88975 0.00407828
1779800 61.217 251.209 55.9385 0.88985 0.0303727
1780000 61.217 251.222 55.9385 0.88995 0.0203645
1780200 61.217 251.236 55.9385 0.89005 -0.00579613
1780400 61.217 251.249 55.9385 0.89015 0.0357445
1780600 61.217 251.262 55.9385 0.89025 -0.0105668
1780800 61.217 251.276 55.9385 0.89035 0.0131711
1781000 61.217 251.289 55.9385 0.89045 0.0231055
1781200 61.217 251.302 55.9385 0.89055 -0.00836277
1781400 61.217 251.315 55.9385 0.89065 0.0221788
1781600 61.217 251.329 55.9385 0.89075 0.00542624
1781800 61.217 251.342 55.9385 0.89085 0.00371071
1782000 61.217 251.355 55.9385 0.89095 0.0111104
1782200 61.217 251.369 55.9385 0.89105 0.00456483
1782400 61.217 251.382 55.9385 0.89115 0.0231437
1782600 61.217 251.395 55.9385 0.89125 0.0109993
1782800 61.217 251.408 55.9385 0.89135 0.0138294
1783000 61.217 251.422 55.9385 0.89145 0.010386
1783200 61.217 251.435 55.9385 0.89155 0.00760219
1783400 61.217 251.448 55.9385 0.89165 0.0284857
1783600 61.217 251.462 55.9385 0.89175 -0.00648409
1783800 61.217 251.475 55.9385 0.89185 0.0175612
1784000 61.217 251.488 55.9385 0.89195 0.0297876
1784200 61.217 251.502 55.9385 0.89205 -0.00324383
1784400 61.217 251.515 55.9385 0.89215 0.0385498
1784600 61.217 251.528 55.9385 0.89225 0.0166214
1784800 61.217 251.541 55.9385 0.89235 8.24294e-05
1785000 61.217 251.555 55.9385 0.89245 0.0287554
1785200 61.217 251.568 55.9385 0.89255 0.0189751
1785400 61.217 251.581 55.9385 0.89265 0.00956091
1785600 61.217 251.595 55.9385 0.89275 0.0151267
1785800 61.217 251.608 55.9385 0.89285 0.0169974
1786000 61.217 251.621 55.9385 0.89295 0.0180726
1786200 61.217 251.634 55.9385 0.89305 0.0078015
1786400 61.217 251.648 55.9385 0.89315 0.0143815
1786600 61.217 251.661 55.9385 0.89325 0.000955285
1786800 61.217 251.674 55.9385 0.89335 0.0108097
1787000 61.217 251.688 55.9385 0.89345 0.0175284
1787200 61.217 251.701 55.9385 0.89355 0.0106827
1787400 61.217 251.714 55.9385 0.89365 0.0130942
1787600 61.217 251.728 55.9385 0.89375 0.00636835
1787800 61.217 251.741 55.9385 0.89385 -0.012215
1788000 61.217 251.754 55.9385 0.89395 0.026001
1788200 61.217 251.767 55.9385 0.89405 0.0155673
1788400 61.217 251.781 55.9385 0.89415 -0.00233477
1788600 61.217 251.794 55.9385 0.89425 0.0351998
1788800 61.217 251.807 55.9385 0.89435 -0.00960543
1789000 61.217 251.821 55.9385 0.89445 0.0212196
1789200 61.217 251.834 55.9385 0.89455 0.0229072
1789400 61.217 251.847 55.9385 0.89465 -0.0169142
1789600 61.217 251.86 55.9385 0.89475 0.0122802
1789800 61.217 251.874 55.9385 0.89485 0.00878621
1790000 61.217 251.887 55.9385 0.89495 0.0138769
1790200 61.217 251.9 55.9385 0.89505 0.0159631
1790400 61.217 251.914 55.9385 0.89515 0.00775706
1790600 61.217 251.927 55.9385 0.89525 0.0223681
1790800 61.217 251.94 55.9385 0.89535 -0.000954636
1791000 61.217 251.953 55.9385 0.89545 0.0317295
1791200 61.217 251.967 55.9385 0.89555 0.0293301
1791400 61.217 251.98 55.9385 0.89565 0.00539028
1791600 61.217 251.993 55.9385 0.89575 0.00999801
1791800 61.217 252.007 55.9385 0.89585 0.00473959
1792000 61.217 252.02 55.9385 0.89595 0.00859766
1792200 61.217 252.033 55.9385 0.89605 0.0365285
1792400 61.217 252.047 55.9385 0.89615 0.00461192
1792600 61.217 252.06 55.9385 0.89625 0.0346315
1792800 61.217 252.073 55.9385 0.89635 0.0212689
1793000 61.217 252.086 55.9385 0.89645 0.0177765
1793200 61.217 252.1 55.9385 0.89655 0.0198704
1793400 61.217 252.113 55.9385 0.89665 -0.00705563
1793600 61.217 252.126 55.9385 0.89675 0.0176561
1793800 61.217 252.14 55.9385 0.89685 0.0179531
1794000 61.217 252.153 55.9385 0.89695 -0.00179327
1794200 61.217 252.166 55.9385 0.89705 0.0309651
1794400 61.217 252.179 55.9385 0.89715 0.00492209
1794600 61.217 252.193 55.9385 0.89725 -0.000689648
1794800 61.217 252.206 55.9385 0.89735 0.016007
1795000 61.217 252.219 55.9385 0.89745 -0.00449919
1795200 61.217 252.233 55.9385 0.89755 0.0318194
1795400 61.217 252.246 55.9385 0.89765 0.00141374
1795600 61.217 252.259 55.9385 0.89775 -0.0151476
1795800 61.217 252.273 55.9385 0.89785 0.0251411
1796000 61.217 252.286 55.9385 0.89795 -0.0139132
1796200 61.217 252.299 55.9385 0.89805 0.0405379
1796400 61.217 252.312 55.9385 0.89815 0.00353157
1796600 61.217 252.326 55.9385 0.89825 0.00396048
1796800 61.217 252.339 55.9385 0.89835 0.0283688
1797000 61.217 252.352 55.9385 0.89845 0.00607958
1797200 61.217 252.366 55.9385 0.89855 0.024124
1797400 61.217 252.379 55.9385 0.89865 0.00646967
1797600 61.217 252.392 55.9385 0.89875 0.00585915
1797800 61.217 252.405 55.9385 0.89885 0.0262985
1798000 61.217 252.419 55.9385 0.89895 0.00614149
1798200 61.217 252.432 55.9385 0.89905 0.0218595
1798400 61.217 252.445 55.9385 0.89915 0.00986205
1798600 61.217 252.459 55.9385 0.89925 0.0190449
1798800 61.217 252.472 55.9385 0.89935 0.0226268
1799000 61.217 252.485 55.9385 0.89945 -0.00612283
1799200 61.217 252.498 55.9385 0.89955 0.0249075
1799400 61.217 252.512 55.9385 0.89965 0.0287309
1799600 61.217 252.525 55.9385 0.89975 -0.00984788
1799800 61.217 252.538 55.9385 0.89985 0.021686
1800000 61.217 252.552 55.9385 0.89995 0.0212576
1800200 61.217 252.565 55.9385 0.90005 -0.00151105
1800400 61.217 252.578 55.9385 0.90015 0.0188817
1800600 61.217 252.592 55.9385 0.90025 -0.00791121
1800800 61.217 252.605 55.9385 0.90035 0.0374956
1801000 61.217 252.618 55.9385 0.90045 0.0115821
1801200 61.217 252.631 55.9385 0.90055 0.00323303
1801400 61.217 252.645 55.9385 0.90065 0.0278748
1801600 61.217 252.658 55.9385 0.90075 0.000417554
1801800 61.217 252.671 55.9385 0.90085 0.0117754
1802000 61.217 252.685 55.9385 0.90095 -0.00274259
1802200 61.217 252.698 55.9385 0.90105 0.0220975
1802400 61.217 252.711 55.9385 0.90115 0.013819
1802600 61.217 252.724 55.9385 0.90125 -0.0278403
1802800 61.217 252.738 55.9385 0.90135 0.0356981
1803000 61.217 252.751 55.9385 0.90145 0.0158472
1803200 61.217 252.764 55.9385 0.90155 0.00605738
1803400 61.217 252.778 55.9385 0.90165 0.0232532
1803600 61.217 252.791 55.9385 0.90175 -0.00618014
1803800 61.217 252.804 55.9385 0.90185 0.0115647
1804000 61.217 252.817 55.9385 0.90195 0.0179768
1804200 61.217 252.831 55.9385 0.90205 -0.00133232
1804400 61.217 252.844 55.9385 0.90215 0.018266
1804600 61.217 252.857 55.9385 0.90225 0.0188195
1804800 61.217 252.871 55.9385 0.90235 -0.00341809
1805000 61.217 252.884 55.9385 0.90245 0.0346085
1805200 61.217 252.897 55.9385 0.90255 0.0143843
1805400 61.217 252.911 55.9385 0.90265 0.0269724
1805600 61.217 252.924 55.9385 0.90275 0.0161401
1805800 61.217 252.937 55.9385 0.90285 0.0092526
1806000 61.217 252.95 55.9385 0.90295 0.0326201
1806200 61.217 252.964 55.9385 0.90305 -0.0176761
1806400 61.217 252.977 55.9385 0.90315 0.0255172
1806600 61.217 252.99 55.9385 0.90325 0.0146514
1806800 61.217 253.004 55.9385 0.90335 -0.00257023
1807000 61.217 253.017 55.9385 0.90345 0.0397695
1807200 61.217 253.03 55.9385 0.90355 0.00775875
1807400 61.217 253.043 55.9385 0.90365 0.0283486
1807600 61.217 253.057 55.9385 0.90375 0.00621616
1807800 61.217 253.07 55.9385 0.90385 0.00593439
1808000 61.217 253.083 55.9385 0.90395 0.00650582
1808200 61.217 253.097 55.9385 0.90405 -0.00112404
1808400 61.217 253.11 55.9385 0.90415 0.0100829
1808600 61.217 253.123 55.9385 0.90425 0.0212759
1808800 61.217 253.137 55.9385 0.90435 0.00836549
1809000 61.217 253.15 55.9385 0.90445 -0.0126815
1809200 61.217 253.163 55.9385 0.90455 0.0274588
1809400 61.217 253.176 55.9385 0.90465 0.0224965
1809600 61.217 253.19 55.9385 0.90475 -0.0142279
1809800 61.217 253.203 55.9385 0.90485 0.00278701
1810000 61.217 253.216 55.9385 0.90495 -0.000116661
1810200 61.217 253.23 55.9385 0.90505 0.0261132
1810400 61.217 253.243 55.9385 0.90515 0.00594852
1810600 61.217 253.256 55.9385 0.90525 0.00302584
1810800 61.217 253.269 55.9385 0.90535 0.00462539
1811000 61.217 253.283 55.9385 0.90545 0.011351
1811200 61.217 253.296 55.9385 0.90555 0.0384023
1811400 61.217 253.309 55.9385 0.90565 0.0115503
1811600 61.217 253.323 55.9385 0.90575 0.00594875
1811800 61.217 253.336 55.9385 0.90585 0.00732463
1812000 61.217 253.349 55.9385 0.90595 0.025793
1812200 61.217 253.362 55.9385 0.90605 0.0232862
1812400 61.217 253.376 55.9385 0.90615 0.0119074
1812600 61.217 253.389 55.9385 0.90625 0.0301178
1812800 61.217 253.402 55.9385 0.90635 0.0230143
1813000 61.217 253.416 55.9385 0.90645 0.00654784
1813200 61.217 253.429 55.9385 0.90655 0.00451762
1813400 61.217 253.442 55.9385 0.90665 0.0332572
1813600 61.217 253.456 55.9385 0.90675 0.00213093
1813800 61.217 253.469 55.9385 0.90685 0.0286995
1814000 61.217 253.482 55.9385 0.90695 0.0116392
1814200 61.217 253.495 55.9385 0.90705 0.00310531
1814400 61.217 253.509 55.9385 0.90715 0.0107875
1814600 61.217 253.522 55.9385 0.90725 0.00966003
1814800 61.217 253.535 55.9385 0.90735 0.0030823
1815000 61.217 253.549 55.9385 0.90745 0.00222803
1815200 61.217 253.562 55.9385 0.90755 0.0162046
1815400 61.217 253.575 55.9385 0.90765 0.00705525
1815600 61.217 253.588 55.9385 0.90775 -0.00428811
1815800 61.217 253.602 55.9385 0.90785 0.00635116
1816000 61.217 253.615 55.9385 0.90795 -0.00202238
1816200 61.217 253.628 55.9385 0.90805 0.00983459
1816400 61.217 253.642 55.9385 0.90815 0.0274097
1816600 61.217 253.655 55.9385 0.90825 0.00462336
1816800 61.217 253.668 55.9385 0.90835 0.00487032
1817000 61.217 253.682 55.9385 0.90845 0.00899446
1817200 61.217 253.695 55.9385 0.90855 -0.009348
1817400 61.217 253.708 55.9385 0.90865 0.0213606
1817600 61.217 253.721 55.9385 0.90875 0.00870227
1817800 61.217 253.735 55.9385 0.90885 0.0206154
1818000 61.217 253.748 55.9385 0.90895 0.00943066
1818200 61.217 253.761 55.9385 0.90905 -0.00335804
1818400 61.217 253.775 55.9385 0.90915 0.0416628
1818600 61.217 253.788 55.9385 0.90925 0.00427403
1818800 61.217 253.801 55.9385 0.90935 0.0215649
1819000 61.217 253.814 55.9385 0.90945 0.0234641
1819200 61.217 253.828 55.9385 0.90955 0.0102622
1819400 61.217 253.841 55.9385 0.90965 0.0214457
1819600 61.217 253.854 55.9385 0.90975 -0.00217379
1819800 61.217 253.868 55.9385 0.90985 0.0335661
1820000 61.217 253.881 55.9385 0.90995 0.0207794
1820200 61.217 253.894 55.9385 0.91005 0.0144733
1820400 61.217 253.907 55.9385 0.91015 0.0243018
1820600 61.217 253.921 55.9385 0.91025 -0.00244612
1820800 61.217 253.934 55.9385 0.91035 0.00657791
1821000 61.217 253.947 55.9385 0.91045 0.0210294
1821200 61.217 253.961 55.9385 0.91055 -0.0138718
1821400 61.217 253.974 55.9385 0.91065 0.0211523
1821600 61.217 253.987 55.9385 0.91075 -0.0049259
1821800 61.217 254.001 55.9385 0.91085 0.0053088
1822000 61.217 254.014 55.9385 0.91095 0.000576814
1822200 61.217 254.027 55.9385 0.91105 -0.00895195
1822400 61.217 254.04 55.9385 0.91115 0.0264228
1822600 61.217 254.054 55.9385 0.91125 0.00337198
1822800 61.217 254.067 55.9385 0.91135 0.000443938
1823000 61.217 254.08 55.9385 0.91145 0.00709853
1823200 61.217 254.094 55.9385 0.91155 -0.00693999
1823400 61.217 254.107 55.9385 0.91165 0.0214863
1823600 61.217 254.12 55.9385 0.91175 0.0275394
1823800 61.217 254.133 55.9385 0.91185 -0.0116907
1824000 61.217 254.147 55.9385 0.91195 0.0284213
1824200 61.217 254.16 55.9385 0.91205 0.015366
1824400 61.217 254.173 55.9385 0.91215 0.0152969
1824600 61.217 254.187 55.9385 0.91225 0.0241733
1824800 61.217 254.2 55.9385 0.91235 0.0188037
1825000 61.217 254.213 55.9385 0.91245 0.0377399
1825200 61.217 254.227 55.9385 0.91255 0.0130462
1825400 61.217 254.24 55.9385 0.91265 0.0212144
1825600 61.217 254.253 55.9385 0.91275 0.0280067
1825800 61.217 254.266 55.9385 0.91285 0.012579
1826000 61.217 254.28 55.9385 0.91295 0.0192966
1826200 61.217 254.293 55.9385 0.91305 0.0207839
1826400 61.217 254.306 55.9385 0.91315 -0.00625514
1826600 61.217 254.32 55.9385 0.91325 0.0169079
1826800 61.217 254.333 55.9385 0.91335 0.00132525
1827000 61.217 254.346 55.9385 0.91345 0.00480962
1827200 61.217 254.359 55.9385 0.91355 0.0107574
1827400 61.217 254.373 55.9385 0.91365 -0.000170586
1827600 61.217 254.386 55.9385 0.91375 0.00293967
1827800 61.217 254.399 55.9385 0.91385 -0.0175618
1828000 61.217 254.413 55.9385 0.91395 -0.00282092
1828200 61.217 254.426 55.9385 0.91405 0.00783535
1828400 61.217 254.439 55.9385 0.91415 -0.0196815
1828600 61.217 254.452 55.9385 0.91425 0.0140348
1828800 61.217 254.466 55.9385 0.91435 -0.00617292
1829000 61.217 254.479 55.9385 0.91445 -0.00522925
1829200 61.217 254.492 55.9385 0.91455 0.0342395
1829400 61.217 254.506 55.9385 0.91465 0.0053385
1829600 61.217 254.519 55.9385 0.91475 0.010845
1829800 61.217 254.532 55.9385 0.91485 0.0113524
1830000 61.217 254.546 55.9385 0.91495 0.00891545
1830200 61.217 254.559 55.9385 0.91505 0.0279525
1830400 61.217 254.572 55.9385 0.91515 0.0190396
1830600 61.217 254.585 55.9385 0.91525 0.0276387
1830800 61.217 254.599 55.9385 0.91535 0.0113724
1831000 61.217 254.612 55.9385 0.91545 0.0248333
1831200 61.217 254.625 55.9385 0.91555 0.0146023
1831400 61.217 254.639 55.9385 0.91565 0.0237865
1831600 61.217 254.652 55.9385 0.91575 0.034409
1831800 61.217 254.665 55.9385 0.91585 0.0134673
1832000 61.217 254.678 55.9385 0.91595 0.0278379
1832200 61.217 254.692 55.9385 0.91605 0.0198328
1832400 61.217 254.705 55.9385 0.91615 0.0117309
1832600 61.217 254.718 55.9385 0.91625 0.0200618
1832800 61.217 254.732 55.9385 0.91635 -0.000912912
1833000 61.217 254.745 55.9385 0.91645 0.00378645
1833200 61.217 254.758 55.9385 0.91655 0.00697216
1833400 61.217 254.772 55.9385 0.91665 -0.00613771
1833600 61.217 254.785 55.9385 0.91675 0.0115231
1833800 61.217 254.798 55.9385 0.91685 3.17844e-05
1834000 61.217 254.811 55.9385 0.91695 -0.00262686
1834200 61.217 254.825 55.9385 0.91705 0.000993259
1834400 61.217 254.838 55.9385 0.91715 -0.022814
1834600 61.217 254.851 55.9385 0.91725 -0.00040334
1834800 61.217 254.865 55.9385 0.91735 -0.00500159
1835000 61.217 254.878 55.9385 0.91745 0.000825047
1835200 61.217 254.891 55.9385 0.91755 0.0106118
1835400 61.217 254.904 55.9385 0.91765 -0.0116467
1835600 61.217 254.918 55.9385 0.91775 0.0150555
1835800 61.217 254.931 55.9385 0.91785 -0.00604998
1836000 61.217 254.944 55.9385 0.91795 0.0320484
1836200 61.217 254.958 55.9385 0.91805 0.00489692
1836400 61.217 254.971 55.9385 0.91815 0.00269362
1836600 61.217 254.984 55.9385 0.91825 0.0558472
1836800 61.217 254.997 55.9385 0.91835 0.0245136
1837000 61.217 255.011 55.9385 0.91845 0.0182139
1837200 61.217 255.024 55.9385 0.91855 0.0172852
1837400 61.217 255.037 55.9385 0.91865 0.0161347
1837600 61.217 255.051 55.9385 0.91875 0.0147137
1837800 61.217 255.064 55.9385 0.91885 0.0214428
1838000 61.217 255.077 55.9385 0.91895 0.0258472
1838200 61.217 255.091 55.9385 0.91905 0.0378503
1838400 61.217 255.104 55.9385 0.91915 0.0273593
1838600 61.217 255.117 55.9385 0.91925 0.0138103
1838800 61.217 255.13 55.9385 0.91935 0.0191149
1839000 61.217 255.144 55.9385 0.91945 0.0112864
1839200 61.217 255.157 55.9385 0.91955 -0.00875318
1839400 61.217 255.17 55.9385 0.91965 0.0123436
1839600 61.217 255.184 55.9385 0.91975 0.0174857
1839800 61.217 255.197 55.9385 0.91985 -0.00653652
1840000 61.217 255.21 55.9385 0.91995 -0.0094869
1840200 61.217 255.223 55.9385 0.92005 -0.00564724
1840400 61.217 255.237 55.9385 0.92015 -0.0157425
1840600 61.217 255.25 55.9385 0.92025 0.0244528
1840800 61.217 255.263 55.9385 0.92035 -0.0171914
1841000 61.217 255.277 55.9385 0.92045 -0.0308846
1841200 61.217 255.29 55.9385 0.92055 0.0049821
1841400 61.217 255.303 55.9385 0.92065 0.0033903
1841600 61.217 255.316 55.9385 0.92075 -0.00232009
1841800 61.217 255.33 55.9385 0.92085 0.00857536
1842000 61.217 255.343 55.9385 0.92095 -0.00357011
1842200 61.217 255.356 55.9385 0.92105 0.0173104
1842400 61.217 255.37 55.9385 0.92115 0.0308303
1842600 61.217 255.383 55.9385 0.92125 -0.00672967
1842800 61.217 255.396 55.9385 0.92135 0.0366868
1843000 61.217 255.41 55.9385 0.92145 0.00331217
1843200 61.217 255.423 55.9385 0.92155 0.0170826
1843400 61.217 255.436 55.9385 0.92165 0.0372296
1843600 61.217 255.449 55.9385 0.92175 0.0246462
1843800 61.217 255.463 55.9385 0.92185 0.020466
1844000 61.217 255.476 55.9385 0.92195 0.0319263
1844200 61.217 255.489 55.9385 0.92205 0.031402
1844400 61.217 255.503 55.9385 0.92215 0.0223262
1844600 61.217 255.516 55.9385 0.92225 0.0330438
1844800 61.217 255.529 55.9385 0.92235 0.00703378
1845000 61.217 255.542 55.9385 0.92245 0.000801571
1845200 61.217 255.556 55.9385 0.92255 0.0257456
1845400 61.217 255.569 55.9385 0.92265 0.00788856
1845600 61.217 255.582 55.9385 0.92275 0.0059567
1845800 61.217 255.596 55.9385 0.92285 0.014318
1846000 61.217 255.609 55.9385 0.92295 0.00285722
1846200 61.217 255.622 55.9385 0.92305 -0.00355435
1846400 61.217 255.636 55.9385 0.92315 -0.0230402
1846600 61.217 255.649 55.9385 0.92325 0.000424316
1846800 61.217 255.662 55.9385 0.92335 -0.00309731
1847000 61.217 255.675 55.9385 0.92345 -0.0124406
1847200 61.217 255.689 55.9385 0.92355 0.0127127
1847400 61.217 255.702 55.9385 0.92365 -0.0237885
1847600 61.217 255.715 55.9385 0.92375 0.00553534
1847800 61.217 255.729 55.9385 0.92385 -0.00456097
1848000 61.217 255.742 55.9385 0.92395 -0.00326404
1848200 61.217 255.755 55.9385 0.92405 0.0267191
1848400 61.217 255.768 55.9385 0.92415 -0.0102052
1848600 61.217 255.782 55.9385 0.92425 0.0065952
1848800 61.217 255.795 55.9385 0.92435 0.0294605
1849000 61.217 255.808 55.9385 0.92445 0.0194196
1849200 61.217 255.822 55.9385 0.92455 0.0212305
1849400 61.217 255.835 55.9385 0.92465 0.0134873
1849600 61.217 255.848 55.9385 0.92475 0.0347265
1849800 61.217 255.861 55.9385 0.92485 0.0273237
1850000 61.217 255.875 55.9385 0.92495 0.0152384
1850200 61.217 255.888 55.9385 0.92505 0.0355473
1850400 61.217 255.901 55.9385 0.92515 0.0218187
1850600 61.217 255.915 55.9385 0.92525 0.0186454
1850800 61.217 255.928 55.9385 0.92535 0.0191066
1851000 61.217 255.941 55.9385 0.92545 0.0208398
1851200 61.217 255.955 55.9385 0.92555 0.0213117
1851400 61.217 255.968 55.9385 0.92565 0.0212709
1851600 61.217 255.981 55.9385 0.92575 0.00909966
1851800 61.217 255.994 55.9385 0.92585 -0.00100951
1852000 61.217 256.008 55.9385 0.92595 -0.00418104
1852200 61.217 256.021 55.9385 0.92605 0.0225264
1852400 61.217 256.034 55.9385 0.92615 -0.00373606
1852600 61.217 256.048 55.9385 0.92625 -0.00534386
1852800 61.217 256.061 55.9385 0.92635 -0.00718312
1853000 61.217 256.074 55.9385 0.92645 -0.0117073
1853200 61.217 256.087 55.9385 0.92655 -0.00718509
1853400 61.217 256.101 55.9385 0.92665 -0.00047198
1853600 61.217 256.114 55.9385 0.92675 -0.00858643
1853800 61.217 256.127 55.9385 0.92685 0.00182979
1854000 61.217 256.141 55.9385 0.92695 -0.00683422
1854200 61.217 256.154 55.9385 0.92705 -0.0148187
1854400 61.217 256.167 55.9385 0.92715 0.0134042
1854600 61.217 256.181 55.9385 0.92725 0.00731696
1854800 61.217 256.194 55.9385 0.92735 0.00216394
1855000 61.217 256.207 55.9385 0.92745 0.0107337
1855200 61.217 256.22 55.9385 0.92755 0.0103186
1855400 61.217 256.234 55.9385 0.92765 0.0218896
1855600 61.217 256.247 55.9385 0.92775 0.0351312
1855800 61.217 256.26 55.9385 0.92785 0.0253314
1856000 61.217 256.274 55.9385 0.92795 0.0301379
1856200 61.217 256.287 55.9385 0.92805 0.0209305
1856400 61.217 256.3 55.9385 0.92815 0.0221665
1856600 61.217 256.313 55.9385 0.92825 0.0268424
1856800 61.217 256.327 55.9385 0.92835 0.0157373
1857000 61.217 256.34 55.9385 0.92845 0.0408443
1857200 61.217 256.353 55.9385 0.92855 0.0224042
1857400 61.217 256.367 55.9385 0.92865 0.0345008
1857600 61.217 256.38 55.9385 0.92875 0.0171775
1857800 61.217 256.393 55.9385 0.92885 -0.00556708
1858000 61.217 256.406 55.9385 0.92895 0.0155003
1858200 61.217 256.42 55.9385 0.92905 0.00245618
1858400 61.217 256.433 55.9385 0.92915 -0.0073515
1858600 61.217 256.446 55.9385 0.92925 0.00445437
1858800 61.217 256.46 55.9385 0.92935 0.00779718
1859000 61.217 256.473 55.9385 0.92945 -0.0134643
1859200 61.217 256.486 55.9385 0.92955 -0.0145764
1859400 61.217 256.5 55.9385 0.92965 -0.0216439
1859600 61.217 256.513 55.9385 0.92975 0.00648062
1859800 61.217 256.526 55.9385 0.92985 -0.017932
1860000 61.217 256.539 55.9385 0.92995 -0.0169591
1860200 61.217 256.553 55.9385 0.93005 0.0149741
1860400 61.217 256.566 55.9385 0.93015 -0.00728792
1860600 61.217 256.579 55.9385 0.93025 0.0125754
1860800 61.217 256.593 55.9385 0.93035 0.00913905
1861000 61.217 256.606 55.9385 0.93045 0.0108627
1861200 61.217 256.619 55.9385 0.93055 0.018953
1861400 61.217 256.632 55.9385 0.93065 0.00905382
1861600 61.217 256.646 55.9385 0.93075 0.0177099
1861800 61.217 256.659 55.9385 0.93085 0.00870974
1862000 61.217 256.672 55.9385 0.93095 0.013181
1862200 61.217 256.686 55.9385 0.93105 0.0435433
1862400 61.217 256.699 55.9385 0.93115 0.044454
1862600 61.217 256.712 55.9385 0.93125 0.0121161
1862800 61.217 256.726 55.9385 0.93135 0.0419266
1863000 61.217 256.739 55.9385 0.93145 0.00937993
1863200 61.217 256.752 55.9385 0.93155 0.0190803
1863400 61.217 256.765 55.9385 0.93165 0.033769
1863600 61.217 256.779 55.9385 0.93175 -0.0021903
1863800 61.217 256.792 55.9385 0.93185 0.0164612
1864000 61.217 256.805 55.9385 0.93195 0.0203216
1864200 61.217 256.819 55.9385 0.93205 0.0201702
1864400 61.217 256.832 55.9385 0.93215 0.011136
1864600 61.217 256.845 55.9385 0.93225 -0.00784852
1864800 61.217 256.858 55.9385 0.93235 0.0186281
1865000 61.217 256.872 55.9385 0.93245 -0.00138567
1865200 61.217 256.885 55.9385 0.93255 -0.0115567
1865400 61.217 256.898 55.9385 0.93265 -0.00138846
1865600 61.217 256.912 55.9385 0.93275 -0.0219194
1865800 61.217 256.925 55.9385 0.93285 -0.0211825
1866000 61.217 256.938 55.9385 0.93295 0.0126398
1866200 61.217 256.951 55.9385 0.93305 -0.0185875
1866400 61.217 256.965 55.9385 0.93315 0.020277
1866600 61.217 256.978 55.9385 0.93325 -0.00447415
1866800 61.217 256.991 55.9385 0.93335 0.0264527
1867000 61.217 257.005 55.9385 0.93345 -0.0142693
1867200 61.217 257.018 55.9385 0.93355 -0.00650034
1867400 61.217 257.031 55.9385 0.93365 0.029268
1867600 61.217 257.045 55.9385 0.93375 -0.00366351
1867800 61.217 257.058 55.9385 0.93385 0.0207225
1868000 61.217 257.071 55.9385 0.93395 0.0205852
1868200 61.217 257.084 55.9385 0.93405 -0.00128577
1868400 61.217 257.098 55.9385 0.93415 0.0470807
1868600 61.217 257.111 55.9385 0.93425 0.0380796
1868800 61.217 257.124 55.9385 0.93435 0.0230058
1869000 61.217 257.138 55.9385 0.93445 0.03398
1869200 61.217 257.151 55.9385 0.93455 0.00932698
1869400 61.217 257.164 55.9385 0.93465 0.0225381
1869600 61.217 257.177 55.9385 0.93475 0.00606778
1869800 61.217 257.191 55.9385 0.93485 0.0329465
1870000 61.217 257.204 55.9385 0.93495 0.023565
1870200 61.217 257.217 55.9385 0.93505 -0.00336322
1870400 61.217 257.231 55.9385 0.93515 0.0145233
1870600 61.217 257.244 55.9385 0.93525 0.000971543
1870800 61.217 257.257 55.9385 0.93535 0.0094667
1871000 61.217 257.27 55.9385 0.93545 0.0317534
1871200 61.217 257.284 55.9385 0.93555 -0.00867014
1871400 61.217 257.297 55.9385 0.93565 -0.00688761
1871600 61.217 257.31 55.9385 0.93575 0.00563304
1871800 61.217 257.324 55.9385 0.93585 -0.0258209
1872000 61.217 257.337 55.9385 0.93595 -0.0161858
1872200 61.217 257.35 55.9385 0.93605 0.0021103
1872400 61.217 257.364 55.9385 0.93615 -0.00184811
1872600 61.217 257.377 55.9385 0.93625 -0.013273
1872800 61.217 257.39 55.9385 0.93635 0.00927191
1873000 61.217 257.403 55.9385 0.93645 0.00392302
1873200 61.217 257.417 55.9385 0.93655 0.00923032
1873400 61.217 257.43 55.9385 0.93665 0.0243731
1873600 61.217 257.443 55.9385 0.93675 -0.0119388
1873800 61.217 257.457 55.9385 0.93685 0.032376
1874000 61.217 257.47 55.9385 0.93695 0.00724139
1874200 61.217 257.483 55.9385 0.93705 0.0172994
1874400 61.217 257.496 55.9385 0.93715 0.0225234
1874600 61.217 257.51 55.9385 0.93725 0.00925081
1874800 61.217 257.523 55.9385 0.93735 0.0402718
1875000 61.217 257.536 55.9385 0.93745 0.0324133
1875200 61.217 257.55 55.9385 0.93755 0.0321137
1875400 61.217 257.563 55.9385 0.93765 0.0305058
1875600 61.217 257.576 55.9385 0.93775 0.00843716
1875800 61.217 257.59 55.9385 0.93785 0.0224944
1876000 61.217 257.603 55.9385 0.93795 0.0263109
1876200 61.217 257.616 55.9385 0.93805 0.0128515
1876400 61.217 257.629 55.9385 0.93815 0.0167333
1876600 61.217 257.643 55.9385 0.93825 -0.00295576
1876800 61.217 257.656 55.9385 0.93835 0.00975037
1877000 61.217 257.669 55.9385 0.93845 -0.000201647
1877200 61.217 257.683 55.9385 0.93855 -0.0054647
1877400 61.217 257.696 55.9385 0.93865 0.0173258
1877600 61.217 257.709 55.9385 0.93875 -0.0146023
1877800 61.217 257.722 55.9385 0.93885 -0.00155254
1878000 61.217 257.736 55.9385 0.93895 -0.027503
1878200 61.217 257.749 55.9385 0.93905 -0.002215
1878400 61.217 257.762 55.9385 0.93915 0.00436576
1878600 61.217 257.776 55.9385 0.93925 -0.0117459
1878800 61.217 257.789 55.9385 0.93935 -0.00863595
1879000 61.217 257.802 55.9385 0.93945 -0.000214085
1879200 61.217 257.815 55.9385 0.93955 0.00788195
1879400 61.217 257.829 55.9385 0.93965 0.0194355
1879600 61.217 257.842 55.9385 0.93975 0.00275293
1879800 61.217 257.855 55.9385 0.93985 0.0384988
1880000 61.217 257.869 55.9385 0.93995 0.0220333
1880200 61.217 257.882 55.9385 0.94005 -0.00327685
1880400 61.217 257.895 55.9385 0.94015 0.0393293
1880600 61.217 257.909 55.9385 0.94025 0.0258636
1880800 61.217 257.922 55.9385 0.94035 0.0299097
1881000 61.217 257.935 55.9385 0.94045 0.0304763
1881200 61.217 257.948 55.9385 0.94055 0.0150176
1881400 61.217 257.962 55.9385 0.94065 0.0258017
1881600 61.217 257.975 55.9385 0.94075 0.0196035
1881800 61.217 257.988 55.9385 0.94085 0.0323409
1882000 61.217 258.002 55.9385 0.94095 0.0274252
1882200 61.217 258.015 55.9385 0.94105 0.0104185
1882400 61.217 258.028 55.9385 0.94115 -0.000708703
1882600 61.217 258.041 55.9385 0.94125 0.0139636
1882800 61.217 258.055 55.9385 0.94135 0.0100533
1883000 61.217 258.068 55.9385 0.94145 0.00580266
1883200 61.217 258.081 55.9385 0.94155 -0.00666606
1883400 61.217 258.095 55.9385 0.94165 -0.0123546
1883600 61.217 258.108 55.9385 0.94175 -6.46579e-05
1883800 61.217 258.121 55.9385 0.94185 -0.00297879
1884000 61.217 258.135 55.9385 0.94195 0.00313723
1884200 61.217 258.148 55.9385 0.94205 -0.0128519
1884400 61.217 258.161 55.9385 0.94215 -0.00793232
1884600 61.217 258.174 55.9385 0.94225 -0.00535122
1884800 61.217 258.188 55.9385 0.94235 -0.00916575
1885000 61.217 258.201 55.9385 0.94245 -0.00407358
1885200 61.217 258.214 55.9385 0.94255 0.01025
1885400 61.217 258.228 55.9385 0.94265 0.00558179
1885600 61.217 258.241 55.9385 0.94275 -0.00408688
1885800 61.217 258.254 55.9385 0.94285 0.0225624
1886000 61.217 258.267 55.9385 0.94295 0.00531806
1886200 61.217 258.281 55.9385 0.94305 0.0254853
1886400 61.217 258.294 55.9385 0.94315 0.0252213
1886600 61.217 258.307 55.9385 0.94325 0.0296112
1886800 61.217 258.321 55.9385 0.94335 0.0183183
1887000 61.217 258.334 55.9385 0.94345 0.0202615
1887200 61.217 258.347 55.9385 0.94355 0.0238514
1887400 61.217 258.36 55.9385 0.94365 0.0236858
1887600 61.217 258.374 55.9385 0.94375 0.0315358
1887800 61.217 258.387 55.9385 0.94385 0.0287258
1888000 61.217 258.4 55.9385 0.94395 0.0395955
1888200 61.217 258.414 55.9385 0.94405 -0.00152156
1888400 61.217 258.427 55.9385 0.94415 0.00615624
1888600 61.217 258.44 55.9385 0.94425 0.0316854
1888800 61.217 258.454 55.9385 0.94435 0.00779662
1889000 61.217 258.467 55.9385 0.94445 0.0237037
1889200 61.217 258.48 55.9385 0.94455 0.009246
1889400 61.217 258.493 55.9385 0.94465 -0.00315571
1889600 61.217 258.507 55.9385 0.94475 0.0228664
1889800 61.217 258.52 55.9385 0.94485 -0.0106232
1890000 61.217 258.533 55.9385 0.94495 -0.00767979
1890200 61.217 258.547 55.9385 0.94505 0.00285386
1890400 61.217 258.56 55.9385 0.94515 0.0032367
1890600 61.217 258.573 55.9385 0.94525 -0.0123983
1890800 61.217 258.586 55.9385 0.94535 -0.00610393
1891000 61.217 258.6 55.9385 0.94545 -0.000820675
1891200 61.217 258.613 55.9385 0.94555 -0.0129112
1891400 61.217 258.626 55.9385 0.94565 -0.00536278
1891600 61.217 258.64 55.9385 0.94575 0.0184478
1891800 61.217 258.653 55.9385 0.94585 -0.00362689
1892000 61.217 258.666 55.9385 0.94595 0.0108615
1892200 61.217 258.68 55.9385 0.94605 0.000873515
1892400 61.217 258.693 55.9385 0.94615 0.00215364
1892600 61.217 258.706 55.9385 0.94625 0.0208907
1892800 61.217 258.719 55.9385 0.94635 -0.0013462
1893000 61.217 258.733 55.9385 0.94645 0.0341644
1893200 61.217 258.746 55.9385 0.94655 0.0310977
1893400 61.217 258.759 55.9385 0.94665 0.0206453
1893600 61.217 258.773 55.9385 0.94675 0.0240672
1893800 61.217 258.786 55.9385 0.94685 0.00960417
1894000 61.217 258.799 55.9385 0.94695 0.031482
1894200 61.217 258.812 55.9385 0.94705 0.0277994
1894400 61.217 258.826 55.9385 0.94715 0.00185269
1894600 61.217 258.839 55.9385 0.94725 0.0428392
1894800 61.217 258.852 55.9385 0.94735 0.00265499
1895000 61.217 258.866 55.9385 0.94745 0.0332797
1895200 61.217 258.879 55.9385 0.94755 0.0193152
1895400 61.217 258.892 55.9385 0.94765 -0.00179641
1895600 61.217 258.905 55.9385 0.94775 0.0263869
1895800 61.217 258.919 55.9385 0.94785 0.0140844
1896000 61.217 258.932 55.9385 0.94795 -0.000161933
1896200 61.217 258.945 55.9385 0.94805 0.00666865
1896400 61.217 258.959 55.9385 0.94815 -0.0100544
1896600 61.217 258.972 55.9385 0.94825 -0.00671237
1896800 61.217 258.985 55.9385 0.94835 0.00429329
1897000 61.217 258.999 55.9385 0.94845 -0.0142413
1897200 61.217 259.012 55.9385 0.94855 0.00537648
1897400 61.217 259.025 55.9385 0.94865 0.00988691
1897600 61.217 259.038 55.9385 0.94875 -0.00846812
1897800 61.217 259.052 55.9385 0.94885 0.0112336
1898000 61.217 259.065 55.9385 0.94895 -0.0102305
1898200 61.217 259.078 55.9385 0.94905 -0.00213096
1898400 61.217 259.092 55.9385 0.94915 0.00218315
1898600 61.217 259.105 55.9385 0.94925 -0.00915593
1898800 61.217 259.118 55.9385 0.94935 0.0144888
1899000 61.217 259.131 55.9385 0.94945 0.0198774
1899200 61.217 259.145 55.9385 0.94955 0.0214227
1899400 61.217 259.158 55.9385 0.94965 0.0111617
1899600 61.217 259.171 55.9385 0.94975 0.0264986
1899800 61.217 259.185 55.9385 0.94985 0.022169
1900000 61.217 259.198 55.9385 0.94995 0.0199464
1900200 61.217 259.211 55.9385 0.95005 0.0348202
1900400 61.217 259.225 55.9385 0.95015 0.0107992
1900600 61.217 259.238 55.9385 0.95025 0.021381
1900800 61.217 259.251 55.9385 0.95035 0.00498581
1901000 61.217 259.264 55.9385 0.95045 0.0249947
1901200 61.217 259.278 55.9385 0.95055 0.0399704
1901400 61.217 259.291 55.9385 0.95065 0.00273719
1901600 61.217 259.304 55.9385 0.95075 0.014703
1901800 61.217 259.318 55.9385 0.95085 0.0438023
1902000 61.217 259.331 55.9385 0.95095 -0.0018301
1902200 61.217 259.344 55.9385 0.95105 0.00635652
1902400 61.217 259.357 55.9385 0.95115 0.0187636
1902600 61.217 259.371 55.9385 0.95125 -0.0326344
1902800 61.217 259.384 55.9385 0.95135 0.00916925
1903000 61.217 259.397 55.9385 0.95145 -0.00213438
1903200 61.217 259.411 55.9385 0.95155 -0.0225151
1903400 61.217 259.424 55.9385 0.95165 0.0118083
1903600 61.217 259.437 55.9385 0.95175 -0.00874889
1903800 61.217 259.45 55.9385 0.95185 0.0101791
1904000 61.217 259.464 55.9385 0.95195 0.0227712
1904200 61.217 259.477 55.9385 0.95205 -0.0092365
1904400 61.217 259.49 55.9385 0.95215 0.00177057
1904600 61.217 259.504 55.9385 0.95225 0.000660265
1904800 61.217 259.517 55.9385 0.95235 -0.0190172
1905000 61.217 259.53 55.9385 0.95245 0.0220111
1905200 61.217 259.544 55.9385 0.95255 0.00569845
1905400 61.217 259.557 55.9385 0.95265 0.00404195
1905600 61.217 259.57 55.9385 0.95275 0.0220579
1905800 61.217 259.583 55.9385 0.95285 0.00591376
1906000 61.217 259.597 55.9385 0.95295 0.0335493
1906200 61.217 259.61 55.9385 0.95305 0.0113755
1906400 61.217 259.623 55.9385 0.95315 0.0175226
1906600 61.217 259.637 55.9385 0.95325 0.0487404
1906800 61.217 259.65 55.9385 0.95335 0.025697
1907000 61.217 259.663 55.9385 0.95345 0.0245498
1907200 61.217 259.676 55.9385 0.95355 0.0261237
1907400 61.217 259.69 55.9385 0.95365 0.0152393
1907600 61.217 259.703 55.9385 0.95375 0.0134833
1907800 61.217 259.716 55.9385 0.95385 0.0103233
1908000 61.217 259.73 55.9385 0.95395 0.0332527
1908200 61.217 259.743 55.9385 0.95405 0.00566795
1908400 61.217 259.756 55.9385 0.95415 0.0155243
1908600 61.217 259.769 55.9385 0.95425 0.0116164
1908800 61.217 259.783 55.9385 0.95435 0.004572
1909000 61.217 259.796 55.9385 0.95445 0.00700283
1909200 61.217 259.809 55.9385 0.95455 -0.0280618
1909400 61.217 259.823 55.9385 0.95465 0.0035272
1909600 61.217 259.836 55.9385 0.95475 -0.00828959
1909800 61.217 259.849 55.9385 0.95485 -0.0091679
1910000 61.217 259.863 55.9385 0.95495 -0.000876253
1910200 61.217 259.876 55.9385 0.95505 -0.0120942
1910400 61.217 259.889 55.9385 0.95515 0.00536172
1910600 61.217 259.902 55.9385 0.95525 -0.00700584
1910800 61.217 259.916 55.9385 0.95535 -0.00309684
1911000 61.217 259.929 55.9385 0.95545 0.0163703
1911200 61.217 259.942 55.9385 0.95555 0.000695485
1911400 61.217 259.956 55.9385 0.95565 0.0227357
1911600 61.217 259.969 55.9385 0.95575 -0.0142424
1911800 61.217 259.982 55.9385 0.95585 0.0174996
1912000 61.217 259.995 55.9385 0.95595 0.0447501
1912200 61.217 260.009 55.9385 0.95605 0.00448553
1912400 61.217 260.022 55.9385 0.95615 0.0267934
1912600 61.217 260.035 55.9385 0.95625 0.0339277
1912800 61.217 260.049 55.9385 0.95635 0.0292099
1913000 61.217 260.062 55.9385 0.95645 0.0303372
1913200 61.217 260.075 55.9385 0.95655 0.033303
1913400 61.217 260.089 55.9385 0.95665 0.0137616
1913600 61.217 260.102 55.9385 0.95675 0.0245809
1913800 61.217 260.115 55.9385 0.95685 0.0153982
1914000 61.217 260.128 55.9385 0.95695 0.0136073
1914200 61.217 260.142 55.9385 0.95705 0.0100145
1914400 61.217 260.155 55.9385 0.95715 0.00762289
1914600 61.217 260.168 55.9385 0.95725 0.0048431
1914800 61.217 260.182 55.9385 0.95735 0.00856746
1915000 61.217 260.195 55.9385 0.95745 0.0184848
1915200 61.217 260.208 55.9385 0.95755 -7.80692e-05
1915400 61.217 260.221 55.9385 0.95765 -0.0272117
1915600 61.217 260.235 55.9385 0.95775 -0.0102958
1915800 61.217 260.248 55.9385 0.95785 -0.0153741
1916000 61.217 260.261 55.9385 0.95795 -0.00920781
1916200 61.217 260.275 55.9385 0.95805 -0.0154654
1916400 61.217 260.288 55.9385 0.95815 -0.00729562
1916600 61.217 260.301 55.9385 0.95825 0.00501732
1916800 61.217 260.314 55.9385 0.95835 -0.00268009
1917000 61.217 260.328 55.9385 0.95845 0.0154428
1917200 61.217 260.341 55.9385 0.95855 0.00553368
1917400 61.217 260.354 55.9385 0.95865 -0.0103399
1917600 61.217 260.368 55.9385 0.95875 0.0191095
1917800 61.217 260.381 55.9385 0.95885 -0.0057353
1918000 61.217 260.394 55.9385 0.95895 0.0288806
1918200 61.217 260.408 55.9385 0.95905 0.0181057
1918400 61.217 260.421 55.9385 0.95915 0.0321936
1918600 61.217 260.434 55.9385 0.95925 0.0399322
1918800 61.217 260.447 55.9385 0.95935 0.0120517
1919000 61.217 260.461 55.9385 0.95945 0.042667
1919200 61.217 260.474 55.9385 0.95955 0.0198262
1919400 61.217 260.487 55.9385 0.95965 0.0291124
1919600 61.217 260.501 55.9385 0.95975 0.0292554
1919800 61.217 260.514 55.9385 0.95985 0.0157835
1920000 61.217 260.527 55.9385 0.95995 0.0122563
1920200 61.217 260.54 55.9385 0.96005 0.0196815
1920400 61.217 260.554 55.9385 0.96015 0.0172116
1920600 61.217 260.567 55.9385 0.96025 0.0188855
1920800 61.217 260.58 55.9385 0.96035 0.021282
1921000 61.217 260.594 55.9385 0.96045 0.00530217
1921200 61.217 260.607 55.9385 0.96055 0.0020882
1921400 61.217 260.62 55.9385 0.96065 -0.00376123
1921600 61.217 260.634 55.9385 0.96075 -0.0192042
1921800 61.217 260.647 55.9385 0.96085 -0.00492507
1922000 61.217 260.66 55.9385 0.96095 -0.00439202
1922200 61.217 260.673 55.9385 0.96105 -0.0131
1922400 61.217 260.687 55.9385 0.96115 -0.0160421
1922600 61.217 260.7 55.9385 0.96125 -0.00537315
1922800 61.217 260.713 55.9385 0.96135 -0.00519365
1923000 61.217 260.727 55.9385 0.96145 -0.00851944
1923200 61.217 260.74 55.9385 0.96155 -0.00337294
1923400 61.217 260.753 55.9385 0.96165 0.00339769
1923600 61.217 260.766 55.9385 0.96175 0.00857082
1923800 61.217 260.78 55.9385 0.96185 -0.0114196
1924000 61.217 260.793 55.9385 0.96195 0.0111001
1924200 61.217 260.806 55.9385 0.96205 0.0199943
1924400 61.217 260.82 55.9385 0.96215 0.0385087
1924600 61.217 260.833 55.9385 0.96225 0.00368648
1924800 61.217 260.846 55.9385 0.96235 0.00885883
1925000 61.217 260.859 55.9385 0.96245 0.0500175
1925200 61.217 260.873 55.9385 0.96255 0.00631575
1925400 61.217 260.886 55.9385 0.96265 0.0428149
1925600 61.217 260.899 55.9385 0.96275 0.0163325
1925800 61.217 260.913 55.9385 0.96285 0.0301515
1926000 61.217 260.926 55.9385 0.96295 0.0467475
1926200 61.217 260.939 55.9385 0.96305 0.00432075
1926400 61.217 260.953 55.9385 0.96315 0.0150074
1926600 61.217 260.966 55.9385 0.96325 0.0161962
1926800 61.217 260.979 55.9385 0.96335 0.00544768
1927000 61.217 260.992 55.9385 0.96345 0.0302119
1927200 61.217 261.006 55.9385 0.96355 -0.00562286
1927400 61.217 261.019 55.9385 0.96365 0.0158903
1927600 61.217 261.032 55.9385 0.96375 0.00341575
1927800 61.217 261.046 55.9385 0.96385 -0.0232908
1928000 61.217 261.059 55.9385 0.96395 -0.0014898
1928200 61.217 261.072 55.9385 0.96405 -0.0108444
1928400 61.217 261.085 55.9385 0.96415 -0.00482177
1928600 61.217 261.099 55.9385 0.96425 -0.00671227
1928800 61.217 261.112 55.9385 0.96435 -0.0223267
1929000 61.217 261.125 55.9385 0.96445 -0.00470148
1929200 61.217 261.139 55.9385 0.96455 0.00229365
1929400 61.217 261.152 55.9385 0.96465 0.000583226
1929600 61.217 261.165 55.9385 0.96475 -0.00815757
1929800 61.217 261.179 55.9385 0.96485 0.0130601
1930000 61.217 261.192 55.9385 0.96495 0.0181944
1930200 61.217 261.205 55.9385 0.96505 -0.0110269
1930400 61.217 261.218 55.9385 0.96515 0.0182491
1930600 61.217 261.232 55.9385 0.96525 0.0195656
1930800 61.217 261.245 55.9385 0.96535 0.0262257
1931000 61.217 261.258 55.9385 0.96545 0.0375133
1931200 61.217 261.272 55.9385 0.96555 0.0066633
1931400 61.217 261.285 55.9385 0.96565 0.0352163
1931600 61.217 261.298 55.9385 0.96575 0.0356573
1931800 61.217 261.311 55.9385 0.96585 0.0176832
1932000 61.217 261.325 55.9385 0.96595 0.0239811
1932200 61.217 261.338 55.9385 0.96605 0.0111995
1932400 61.217 261.351 55.9385 0.96615 0.0313468
1932600 61.217 261.365 55.9385 0.96625 -0.00667347
1932800 61.217 261.378 55.9385 0.96635 0.0367842
1933000 61.217 261.391 55.9385 0.96645 0.00383842
1933200 61.217 261.404 55.9385 0.96655 -0.011041
1933400 61.217 261.418 55.9385 0.96665 0.0125433
1933600 61.217 261.431 55.9385 0.96675 -0.00491647
1933800 61.217 261.444 55.9385 0.96685 0.00586697
1934000 61.217 261.458 55.9385 0.96695 -0.00154504
1934200 61.217 261.471 55.9385 0.96705 -0.0192666
1934400 61.217 261.484 55.9385 0.96715 -0.00428756
1934600 61.217 261.498 55.9385 0.96725 -0.00308555
1934800 61.217 261.511 55.9385 0.96735 -0.006518
1935000 61.217 261.524 55.9385 0.96745 -0.00308566
1935200 61.217 261.537 55.9385 0.96755 -0.00129266
1935400 61.217 261.551 55.9385 0.96765 -0.000795506
1935600 61.217 261.564 55.9385 0.96775 -0.0130372
1935800 61.217 261.577 55.9385 0.96785 -0.00250611
1936000 61.217 261.591 55.9385 0.96795 0.0060532
1936200 61.217 261.604 55.9385 0.96805 -0.00236965
1936400 61.217 261.617 55.9385 0.96815 0.0196519
1936600 61.217 261.63 55.9385 0.96825 0.0194847
1936800 61.217 261.644 55.9385 0.96835 0.00333288
1937000 61.217 261.657 55.9385 0.96845 0.0245535
1937200 61.217 261.67 55.9385 0.96855 0.0184406
1937400 61.217 261.684 55.9385 0.96865 0.029487
1937600 61.217 261.697 55.9385 0.96875 0.036701
1937800 61.217 261.71 55.9385 0.96885 0.00718549
1938000 61.217 261.724 55.9385 0.96895 0.0308833
1938200 61.217 261.737 55.9385 0.96905 0.0387677
1938400 61.217 261.75 55.9385 0.96915 0.0160521
1938600 61.217 261.763 55.9385 0.96925 0.0247239
1938800 61.217 261.777 55.9385 0.96935 0.00931422
1939000 61.217 261.79 55.9385 0.96945 0.0201702
1939200 61.217 261.803 55.9385 0.96955 0.00825151
1939400 61.217 261.817 55.9385 0.96965 0.0214499
1939600 61.217 261.83 55.9385 0.96975 0.012718
1939800 61.217 261.843 55.9385 0.96985 -0.0120769
1940000 61.217 261.856 55.9385 0.96995 -0.00737628
1940200 61.217 261.87 55.9385 0.97005 -0.0053104
1940400 61.217 261.883 55.9385 0.97015 0.00389575
1940600 61.217 261.896 55.9385 0.97025 0.0057234
1940800 61.217 261.91 55.9385 0.97035 -0.0350544
1941000 61.217 261.923 55.9385 0.97045 0.00398651
1941200 61.217 261.936 55.9385 0.97055 -0.0155253
1941400 61.217 261.949 55.9385 0.97065 -0.00658978
1941600 61.217 261.963 55.9385 0.97075 0.00745558
1941800 61.217 261.976 55.9385 0.97085 -0.0187413
1942000 61.217 261.989 55.9385 0.97095 0.00326377
1942200 61.217 262.003 55.9385 0.97105 0.00678672
1942400 61.217 262.016 55.9385 0.97115 0.00832209
1942600 61.217 262.029 55.9385 0.97125 0.00352413
1942800 61.217 262.043 55.9385 0.97135 -0.00591128
1943000 61.217 262.056 55.9385 0.97145 0.0216315
1943200 61.217 262.069 55.9385 0.97155 0.0244426
1943400 61.217 262.082 55.9385 0.97165 0.0159648
1943600 61.217 262.096 55.9385 0.97175 0.00503829
1943800 61.217 262.109 55.9385 0.97185 0.0284807
1944000 61.217 262.122 55.9385 0.97195 0.0298374
1944200 61.217 262.136 55.9385 0.97205 0.00745369
1944400 61.217 262.149 55.9385 0.97215 0.0467131
1944600 61.217 262.162 55.9385 0.97225 0.00909631
1944800 61.217 262.175 55.9385 0.97235 0.0108279
1945000 61.217 262.189 55.9385 0.97245 0.0156492
1945200 61.217 262.202 55.9385 0.97255 0.0095051
1945400 61.217 262.215 55.9385 0.97265 0.0179053
1945600 61.217 262.229 55.9385 0.97275 0.0193931
1945800 61.217 262.242 55.9385 0.97285 0.0115631
1946000 61.217 262.255 55.9385 0.97295 0.00304865
1946200 61.217 262.268 55.9385 0.97305 0.0121605
1946400 61.217 262.282 55.9385 0.97315 -0.000569268
1946600 61.217 262.295 55.9385 0.97325 -0.0138802
1946800 61.217 262.308 55.9385 0.97335 -0.00423765
1947000 61.217 262.322 55.9385 0.97345 -0.00420699
1947200 61.217 262.335 55.9385 0.97355 -0.00407574
1947400 61.217 262.348 55.9385 0.97365 -0.0018738
1947600 61.217 262.362 55.9385 0.97375 -0.00320312
1947800 61.217 262.375 55.9385 0.97385 -0.00254066
1948000 61.217 262.388 55.9385 0.97395 -0.0037514
1948200 61.217 262.401 55.9385 0.97405 0.00505687
1948400 61.217 262.415 55.9385 0.97415 -0.00551987
1948600 61.217 262.428 55.9385 0.97425 -0.00172125
1948800 61.217 262.441 55.9385 0.97435 0.00992024
1949000 61.217 262.455 55.9385 0.97445 0.0062574
1949200 61.217 262.468 55.9385 0.97455 0.027281
1949400 61.217 262.481 55.9385 0.97465 0.00356012
1949600 61.217 262.494 55.9385 0.97475 0.00620883
1949800 61.217 262.508 55.9385 0.97485 0.0255502
1950000 61.217 262.521 55.9385 0.97495 0.0203429
1950200 61.217 262.534 55.9385 0.97505 0.0118505
1950400 61.217 262.548 55.9385 0.97515 0.0389506
1950600 61.217 262.561 55.9385 0.97525 0.0207404
1950800 61.217 262.574 55.9385 0.97535 0.0109242
1951000 61.217 262.588 55.9385 0.97545 0.0159825
1951200 61.217 262.601 55.9385 0.97555 0.010617
1951400 61.217 262.614 55.9385 0.97565 0.0225693
1951600 61.217 262.627 55.9385 0.97575 0.0131962
1951800 61.217 262.641 55.9385 0.97585 0.00597592
1952000 61.217 262.654 55.9385 0.97595 0.00273581
1952200 61.217 262.667 55.9385 0.97605 0.00104909
1952400 61.217 262.681 55.9385 0.97615 0.0188089
1952600 61.217 262.694 55.9385 0.97625 0.00515272
1952800 61.217 262.707 55.9385 0.97635 -0.00465189
1953000 61.217 262.72 55.9385 0.97645 -0.000245112
1953200 61.217 262.734 55.9385 0.97655 -0.00668802
1953400 61.217 262.747 55.9385 0.97665 -0.0138874
1953600 61.217 262.76 55.9385 0.97675 0.00691371
1953800 61.217 262.774 55.9385 0.97685 -0.00624132
1954000 61.217 262.787 55.9385 0.97695 -0.00515553
1954200 61.217 262.8 55.9385 0.97705 -0.0132071
1954400 61.217 262.813 55.9385 0.97715 -0.014084
1954600 61.217 262.827 55.9385 0.97725 -0.00837047
1954800 61.217 262.84 55.9385 0.97735 0.00421035
1955000 61.217 262.853 55.9385 0.97745 0.0257111
1955200 61.217 262.867 55.9385 0.97755 0.00508459
1955400 61.217 262.88 55.9385 0.97765 -0.0132978
1955600 61.217 262.893 55.9385 0.97775 0.024402
1955800 61.217 262.907 55.9385 0.97785 0.000553285
1956000 61.217 262.92 55.9385 0.97795 0.028999
1956200 61.217 262.933 55.9385 0.97805 0.0246528
1956400 61.217 262.946 55.9385 0.97815 0.00770125
1956600 61.217 262.96 55.9385 0.97825 0.0356161
1956800 61.217 262.973 55.9385 0.97835 0.0112416
1957000 61.217 262.986 55.9385 0.97845 0.0294854
1957200 61.217 263 55.9385 0.97855 0.0375545
1957400 61.217 263.013 55.9385 0.97865 0.0272857
1957600 61.217 263.026 55.9385 0.97875 0.0189067
1957800 61.217 263.039 55.9385 0.97885 0.00718751
1958000 61.217 263.053 55.9385 0.97895 0.0087155
1958200 61.217 263.066 55.9385 0.97905 0.0218273
1958400 61.217 263.079 55.9385 0.97915 -0.00405482
1958600 61.217 263.093 55.9385 0.97925 0.00314819
1958800 61.217 263.106 55.9385 0.97935 0.000457822
1959000 61.217 263.119 55.9385 0.97945 0.00489897
1959200 61.217 263.133 55.9385 0.97955 -0.0124252
1959400 61.217 263.146 55.9385 0.97965 0.0108349
1959600 61.217 263.159 55.9385 0.97975 -0.0234728
1959800 61.217 263.172 55.9385 0.97985 -0.0216743
1960000 61.217 263.186 55.9385 0.97995 0.0118163
1960200 61.217 263.199 55.9385 0.98005 -0.0272077
1960400 61.217 263.212 55.9385 0.98015 -0.0123534
1960600 61.217 263.226 55.9385 0.98025 0.00730216
1960800 61.217 263.239 55.9385 0.98035 -0.0139671
1961000 61.217 263.252 55.9385 0.98045 0.0106549
1961200 61.217 263.265 55.9385 0.98055 0.00957497
1961400 61.217 263.279 55.9385 0.98065 0.0110098
1961600 61.217 263.292 55.9385 0.98075 0.015752
1961800 61.217 263.305 55.9385 0.98085 -0.00218364
1962000 61.217 263.319 55.9385 0.98095 0.00188817
1962200 61.217 263.332 55.9385 0.98105 0.0227682
1962400 61.217 263.345 55.9385 0.98115 0.0219609
1962600 61.217 263.358 55.9385 0.98125 0.0310663
1962800 61.217 263.372 55.9385 0.98135 0.00871918
1963000 61.217 263.385 55.9385 0.98145 0.031888
1963200 61.217 263.398 55.9385 0.98155 0.0299952
1963400 61.217 263.412 55.9385 0.98165 0.0376174
1963600 61.217 263.425 55.9385 0.98175 0.023803
1963800 61.217 263.438 55.9385 0.98185 0.00843671
1964000 61.217 263.452 55.9385 0.98195 0.0165241
1964200 61.217 263.465 55.9385 0.98205 0.0197258
1964400 61.217 263.478 55.9385 0.98215 -0.0033602
1964600 61.217 263.491 55.9385 0.98225 0.0123691
1964800 61.217 263.505 55.9385 0.98235 0.00965366
1965000 61.217 263.518 55.9385 0.98245 -0.0106298
1965200 61.217 263.531 55.9385 0.98255 -0.0046638
1965400 61.217 263.545 55.9385 0.98265 -0.00780589
1965600 61.217 263.558 55.9385 0.98275 -0.0133441
1965800 61.217 263.571 55.9385 0.98285 -0.000876441
1966000 61.217 263.584 55.9385 0.98295 -0.017275
1966200 61.217 263.598 55.9385 0.98305 -0.00562999
1966400 61.217 263.611 55.9385 0.98315 -0.0179454
1966600 61.217 263.624 55.9385 0.98325 -0.0138737
1966800 61.217 263.638 55.9385 0.98335 0.00810507
1967000 61.217 263.651 55.9385 0.98345 -0.00433372
1967200 61.217 263.664 55.9385 0.98355 -0.0160749
1967400 61.217 263.678 55.9385 0.98365 0.0325607
1967600 61.217 263.691 55.9385 0.98375 0.00389614
1967800 61.217 263.704 55.9385 0.98385 0.0149746
1968000 61.217 263.717 55.9385 0.98395 0.0159371
1968200 61.217 263.731 55.9385 0.98405 0.020969
1968400 61.217 263.744 55.9385 0.98415 0.00791159
1968600 61.217 263.757 55.9385 0.98425 0.00209779
1968800 61.217 263.771 55.9385 0.98435 0.0392044
1969000 61.217 263.784 55.9385 0.98445 0.0133283
1969200 61.217 263.797 55.9385 0.98455 0.0139438
1969400 61.217 263.81 55.9385 0.98465 0.0249071
1969600 61.217 263.824 55.9385 0.98475 0.025754
1969800 61.217 263.837 55.9385 0.98485 0.0360007
1970000 61.217 263.85 55.9385 0.98495 0.0103495
1970200 61.217 263.864 55.9385 0.98505 0.0195022
1970400 61.217 263.877 55.9385 0.98515 0.0321685
1970600 61.217 263.89 55.9385 0.98525 0.00223487
1970800 61.217 263.903 55.9385 0.98535 0.0113244
1971000 61.217 263.917 55.9385 0.98545 -0.000793049
1971200 61.217 263.93 55.9385 0.98555 -0.00770527
1971400 61.217 263.943 55.9385 0.98565 0.0100704
1971600 61.217 263.957 55.9385 0.98575 -0.00628782
1971800 61.217 263.97 55.9385 0.98585 0.00604783
1972000 61.217 263.983 55.9385 0.98595 0.0132652
1972200 61.217 263.997 55.9385 0.98605 -0.0267268
1972400 61.217 264.01 55.9385 0.98615 0.00634559
1972600 61.217 264.023 55.9385 0.98625 -0.0138682
1972800 61.217 264.036 55.9385 0.98635 -0.012331
1973000 61.217 264.05 55.9385 0.98645 -0.0369731
1973200 61.217 264.063 55.9385 0.98655 -0.000366216
1973400 61.217 264.076 55.9385 0.98665 0.0127957
1973600 61.217 264.09 55.9385 0.98675 0.000122227
1973800 61.217 264.103 55.9385 0.98685 -0.0120587
1974000 61.217 264.116 55.9385 0.98695 0.0195241
1974200 61.217 264.129 55.9385 0.98705 0.00826147
1974400 61.217 264.143 55.9385 0.98715 0.0175314
1974600 61.217 264.156 55.9385 0.98725 0.00614149
1974800 61.217 264.169 55.9385 0.98735 0.00226791
1975000 61.217 264.183 55.9385 0.98745 0.0249013
1975200 61.217 264.196 55.9385 0.98755 0.014174
1975400 61.217 264.209 55.9385 0.98765 0.0204532
1975600 61.217 264.222 55.9385 0.98775 0.0412797
1975800 61.217 264.236 55.9385 0.98785 0.0108413
1976000 61.217 264.249 55.9385 0.98795 0.0312252
1976200 61.217 264.262 55.9385 0.98805 0.0081073
1976400 61.217 264.276 55.9385 0.98815 0.0126725
1976600 61.217 264.289 55.9385 0.98825 0.0367918
1976800 61.217 264.302 55.9385 0.98835 -0.00138432
1977000 61.217 264.316 55.9385 0.98845 0.0229262
1977200 61.217 264.329 55.9385 0.98855 0.00592011
1977400 61.217 264.342 55.9385 0.98865 0.00161117
1977600 61.217 264.355 55.9385 0.98875 0.0206983
1977800 61.217 264.369 55.9385 0.98885 -0.0011378
1978000 61.217 264.382 55.9385 0.98895 0.00231399
1978200 61.217 264.395 55.9385 0.98905 0.000615764
1978400 61.217 264.409 55.9385 0.98915 -0.0183444
1978600 61.217 264.422 55.9385 0.98925 0.00497382
1978800 61.217 264.435 55.9385 0.98935 -0.00760745
1979000 61.217 264.448 55.9385 0.98945 -0.00257284
1979200 61.217 264.462 55.9385 0.98955 0.00419758
1979400 61.217 264.475 55.9385 0.98965 -0.0170227
1979600 61.217 264.488 55.9385 0.98975 -0.00245356
1979800 61.217 264.502 55.9385 0.98985 -0.00714985
1980000 61.217 264.515 55.9385 0.98995 0.0135741
1980200 61.217 264.528 55.9385 0.99005 0.0172723
1980400 61.217 264.542 55.9385 0.99015 -0.00522675
1980600 61.217 264.555 55.9385 0.99025 0.00697356
1980800 61.217 264.568 55.9385 0.99035 0.000594809
1981000 61.217 264.581 55.9385 0.99045 0.0102959
1981200 61.217 264.595 55.9385 0.99055 0.0174536
1981400 61.217 264.608 55.9385 0.99065 0.0268565
1981600 61.217 264.621 55.9385 0.99075 0.0213892
1981800 61.217 264.635 55.9385 0.99085 0.00248151
1982000 61.217 264.648 55.9385 0.99095 0.0235641
1982200 61.217 264.661 55.9385 0.99105 0.034229
1982400 61.217 264.674 55.9385 0.99115 -0.00639624
1982600 61.217 264.688 55.9385 0.99125 0.0329364
1982800 61.217 264.701 55.9385 0.99135 0.0297572
1983000 61.217 264.714 55.9385 0.99145 -0.00478682
1983200 61.217 264.728 55.9385 0.99155 0.0141255
1983400 61.217 264.741 55.9385 0.99165 0.000407937
1983600 61.217 264.754 55.9385 0.99175 0.010155
1983800 61.217 264.767 55.9385 0.99185 0.0149862
1984000 61.217 264.781 55.9385 0.99195 -0.0150601
1984200 61.217 264.794 55.9385 0.99205 0.00208273
1984400 61.217 264.807 55.9385 0.99215 0.00115866
1984600 61.217 264.821 55.9385 0.99225 0.00439944
1984800 61.217 264.834 55.9385 0.99235 0.00505999
1985000 61.217 264.847 55.9385 0.99245 -0.010149
1985200 61.217 264.861 55.9385 0.99255 -0.00140367
1985400 61.217 264.874 55.9385 0.99265 -0.0152913
1985600 61.217 264.887 55.9385 0.99275 0.00530596
1985800 61.217 264.9 55.9385 0.99285 0.0190179
1986000 61.217 264.914 55.9385 0.99295 -0.0160361
1986200 61.217 264.927 55.9385 0.99305 0.016251
1986400 61.217 264.94 55.9385 0.99315 0.0064387
1986600 61.217 264.954 55.9385 0.99325 -0.00636791
1986800 61.217 264.967 55.9385 0.99335 0.0279228
1987000 61.217 264.98 55.9385 0.99345 -0.00307189
1987200 61.217 264.993 55.9385 0.99355 0.0174838
1987400 61.217 265.007 55.9385 0.99365 0.0176031
1987600 61.217 265.02 55.9385 0.99375 0.0100645
1987800 61.217 265.033 55.9385 0.99385 0.0201804
1988000 61.217 265.047 55.9385 0.99395 0.0164119
1988200 61.217 265.06 55.9385 0.99405 0.0209935
1988400 61.217 265.073 55.9385 0.99415 0.0369028
1988600 61.217 265.087 55.9385 0.99425 -0.0135428
1988800 61.217 265.1 55.9385 0.99435 0.0286306
1989000 61.217 265.113 55.9385 0.99445 0.00570801
1989200 61.217 265.126 55.9385 0.99455 0.00415888
1989400 61.217 265.14 55.9385 0.99465 0.0236846
1989600 61.217 265.153 55.9385 0.99475 -0.0114781
1989800 61.217 265.166 55.9385 0.99485 0.00862434
1990000 61.217 265.18 55.9385 0.99495 0.00573578
1990200 61.217 265.193 55.9385 0.99505 0.0110403
1990400 61.217 265.206 55.9385 0.99515 0.00679022
1990600 61.217 265.219 55.9385 0.99525 -0.0127417
1990800 61.217 265.233 55.9385 0.99535 0.00901128
1991000 61.217 265.246 55.9385 0.99545 -0.000100334
1991200 61.217 265.259 55.9385 0.99555 -0.0100672
1991400 61.217 265.273 55.9385 0.99565 0.0133291
1991600 61.217 265.286 55.9385 0.99575 -0.0155252
1991800 61.217 265.299 55.9385 0.99585 -0.00470256
1992000 61.217 265.312 55.9385 0.99595 0.0174444
1992200 61.217 265.326 55.9385 0.99605 0.00965353
1992400 61.217 265.339 55.9385 0.99615 0.0122098
1992600 61.217 265.352 55.9385 0.99625 0.00381873
1992800 61.217 265.366 55.9385 0.99635 0.0130461
1993000 61.217 265.379 55.9385 0.99645 0.00428808
1993200 61.217 265.392 55.9385 0.99655 0.00584787
1993400 61.217 265.406 55.9385 0.99665 0.0128666
1993600 61.217 265.419 55.9385 0.99675 0.0310354
1993800 61.217 265.432 55.9385 0.99685 0.00583761
1994000 61.217 265.445 55.9385 0.99695 0.00911829
1994200 61.217 265.459 55.9385 0.99705 0.00961848
1994400 61.217 265.472 55.9385 0.99715 0.0258497
1994600 61.217 265.485 55.9385 0.99725 0.00945471
1994800 61.217 265.499 55.9385 0.99735 0.00831549
1995000 61.217 265.512 55.9385 0.99745 0.0136063
1995200 61.217 265.525 55.9385 0.99755 -0.000343172
1995400 61.217 265.538 55.9385 0.99765 0.0220228
1995600 61.217 265.552 55.9385 0.99775 -0.00409768
1995800 61.217 265.565 55.9385 0.99785 0.00357335
1996000 61.217 265.578 55.9385 0.99795 0.0171848
1996200 61.217 265.592 55.9385 0.99805 -0.00641746
1996400 61.217 265.605 55.9385 0.99815 0.0186739
1996600 61.217 265.618 55.9385 0.99825 0.00641019
1996800 61.217 265.632 55.9385 0.99835 -0.00821133
1997000 61.217 265.645 55.9385 0.99845 0.0180315
1997200 61.217 265.658 55.9385 0.99855 -0.00663477
1997400 61.217 265.671 55.9385 0.99865 -0.0043762
1997600 61.217 265.685 55.9385 0.99875 0.00447155
1997800 61.217 265.698 55.9385 0.99885 -0.0100358
1998000 61.217 265.711 55.9385 0.99895 0.0183169
1998200 61.217 265.725 55.9385 0.99905 0.0101681
1998400 61.217 265.738 55.9385 0.99915 0.0140867
1998600 61.217 265.751 55.9385 0.99925 0.0143017
1998800 61.217 265.764 55.9385 0.99935 -0.00265441
1999000 61.217 265.778 55.9385 0.99945 0.01253
1999200 61.217 265.791 55.9385 0.99955 0.0160095
1999400 61.217 265.804 55.9385 0.99965 -0.0113857
1999600 61.217 265.818 55.9385 0.99975 0.0229685
1999800 61.217 265.831 55.9385 0.99985 -0.0090319
2000000 61.217 265.844 55.9385 0.99995 0.0248112
