# Time-averaged data for fix Re_Primary
Step Lx Ly Lz StrainY StressYY
200 60.1715 130.445 55.8389 5.025e-05 -3.47129e-05
400 60.1715 130.458 55.8389 0.00015025 0.0220715
600 60.1715 130.471 55.8389 0.00025025 0.0274707
800 60.1715 130.484 55.8389 0.00035025 0.0339101
1000 60.1715 130.497 55.8389 0.00045025 0.0454212
1200 60.1715 130.51 55.8389 0.00055025 0.0688082
1400 60.1715 130.523 55.8389 0.00065025 0.0949211
1600 60.1715 130.536 55.8389 0.00075025 0.0600659
1800 60.1715 130.549 55.8389 0.00085025 0.112431
2000 60.1715 130.563 55.8389 0.00095025 0.111734
2200 60.1715 130.576 55.8389 0.00105025 0.0966884
2400 60.1715 130.589 55.8389 0.00115025 0.123611
2600 60.1715 130.602 55.8389 0.00125025 0.127764
2800 60.1715 130.615 55.8389 0.00135025 0.144637
3000 60.1715 130.628 55.8389 0.00145025 0.15544
3200 60.1715 130.641 55.8389 0.00155025 0.172258
3400 60.1715 130.654 55.8389 0.00165025 0.164722
3600 60.1715 130.667 55.8389 0.00175025 0.206248
3800 60.1715 130.68 55.8389 0.00185025 0.193333
4000 60.1715 130.693 55.8389 0.00195025 0.218308
4200 60.1715 130.706 55.8389 0.00205025 0.199323
4400 60.1715 130.719 55.8389 0.00215025 0.213085
4600 60.1715 130.732 55.8389 0.00225025 0.255301
4800 60.1715 130.745 55.8389 0.00235025 0.258846
5000 60.1715 130.758 55.8389 0.00245025 0.24915
5200 60.1715 130.771 55.8389 0.00255025 0.264762
5400 60.1715 130.784 55.8389 0.00265025 0.262442
5600 60.1715 130.797 55.8389 0.00275025 0.293802
5800 60.1715 130.81 55.8389 0.00285025 0.301376
6000 60.1715 130.823 55.8389 0.00295025 0.32328
6200 60.1715 130.836 55.8389 0.00305025 0.294858
6400 60.1715 130.85 55.8389 0.00315025 0.358242
6600 60.1715 130.863 55.8389 0.00325025 0.327483
6800 60.1715 130.876 55.8389 0.00335025 0.346018
7000 60.1715 130.889 55.8389 0.00345025 0.353971
7200 60.1715 130.902 55.8389 0.00355025 0.380618
7400 60.1715 130.915 55.8389 0.00365025 0.39763
7600 60.1715 130.928 55.8389 0.00375025 0.391184
7800 60.1715 130.941 55.8389 0.00385025 0.393868
8000 60.1715 130.954 55.8389 0.00395025 0.41955
8200 60.1715 130.967 55.8389 0.00405025 0.428475
8400 60.1715 130.98 55.8389 0.00415025 0.42901
8600 60.1715 130.993 55.8389 0.00425025 0.45073
8800 60.1715 131.006 55.8389 0.00435025 0.464033
9000 60.1715 131.019 55.8389 0.00445025 0.469185
9200 60.1715 131.032 55.8389 0.00455025 0.44491
9400 60.1715 131.045 55.8389 0.00465025 0.476502
9600 60.1715 131.058 55.8389 0.00475025 0.510774
9800 60.1715 131.071 55.8389 0.00485025 0.507617
10000 60.1715 131.084 55.8389 0.00495025 0.520934
10200 60.1715 131.097 55.8389 0.00505025 0.512863
10400 60.1715 131.11 55.8389 0.00515025 0.538106
10600 60.1715 131.123 55.8389 0.00525025 0.548768
10800 60.1715 131.136 55.8389 0.00535025 0.572025
11000 60.1715 131.15 55.8389 0.00545025 0.553955
11200 60.1715 131.163 55.8389 0.00555025 0.612027
11400 60.1715 131.176 55.8389 0.00565025 0.581279
11600 60.1715 131.189 55.8389 0.00575025 0.589192
11800 60.1715 131.202 55.8389 0.00585025 0.625393
12000 60.1715 131.215 55.8389 0.00595025 0.628026
12200 60.1715 131.228 55.8389 0.00605025 0.624353
12400 60.1715 131.241 55.8389 0.00615025 0.66358
12600 60.1715 131.254 55.8389 0.00625025 0.66411
12800 60.1715 131.267 55.8389 0.00635025 0.653475
13000 60.1715 131.28 55.8389 0.00645025 0.695818
13200 60.1715 131.293 55.8389 0.00655025 0.662343
13400 60.1715 131.306 55.8389 0.00665025 0.722157
13600 60.1715 131.319 55.8389 0.00675025 0.721311
13800 60.1715 131.332 55.8389 0.00685025 0.705006
14000 60.1715 131.345 55.8389 0.00695025 0.735784
14200 60.1715 131.358 55.8389 0.00705025 0.73478
14400 60.1715 131.371 55.8389 0.00715025 0.775734
14600 60.1715 131.384 55.8389 0.00725025 0.746683
14800 60.1715 131.397 55.8389 0.00735025 0.789884
15000 60.1715 131.41 55.8389 0.00745025 0.767297
15200 60.1715 131.423 55.8389 0.00755025 0.807709
15400 60.1715 131.436 55.8389 0.00765025 0.812793
15600 60.1715 131.45 55.8389 0.00775025 0.835496
15800 60.1715 131.463 55.8389 0.00785025 0.815705
16000 60.1715 131.476 55.8389 0.00795025 0.835929
16200 60.1715 131.489 55.8389 0.00805025 0.844931
16400 60.1715 131.502 55.8389 0.00815025 0.854753
16600 60.1715 131.515 55.8389 0.00825025 0.859764
16800 60.1715 131.528 55.8389 0.00835025 0.884074
17000 60.1715 131.541 55.8389 0.00845025 0.906696
17200 60.1715 131.554 55.8389 0.00855025 0.889661
17400 60.1715 131.567 55.8389 0.00865025 0.922275
17600 60.1715 131.58 55.8389 0.00875025 0.934156
17800 60.1715 131.593 55.8389 0.00885025 0.93128
18000 60.1715 131.606 55.8389 0.00895025 0.945769
18200 60.1715 131.619 55.8389 0.00905025 0.945225
18400 60.1715 131.632 55.8389 0.00915025 0.981394
18600 60.1715 131.645 55.8389 0.00925025 0.971678
18800 60.1715 131.658 55.8389 0.00935025 0.99086
19000 60.1715 131.671 55.8389 0.00945025 1.00085
19200 60.1715 131.684 55.8389 0.00955025 0.989507
19400 60.1715 131.697 55.8389 0.00965025 1.03619
19600 60.1715 131.71 55.8389 0.00975025 1.0335
19800 60.1715 131.723 55.8389 0.00985025 1.03935
20000 60.1715 131.736 55.8389 0.00995025 1.05807
20200 60.1715 131.75 55.8389 0.0100503 1.08316
20400 60.1715 131.763 55.8389 0.0101503 1.08245
20600 60.1715 131.776 55.8389 0.0102503 1.06544
20800 60.1715 131.789 55.8389 0.0103503 1.1167
21000 60.1715 131.802 55.8389 0.0104503 1.11237
21200 60.1715 131.815 55.8389 0.0105503 1.10933
21400 60.1715 131.828 55.8389 0.0106503 1.14055
21600 60.1715 131.841 55.8389 0.0107503 1.13566
21800 60.1715 131.854 55.8389 0.0108503 1.16441
22000 60.1715 131.867 55.8389 0.0109503 1.15828
22200 60.1715 131.88 55.8389 0.0110503 1.1854
22400 60.1715 131.893 55.8389 0.0111503 1.18071
22600 60.1715 131.906 55.8389 0.0112503 1.19553
22800 60.1715 131.919 55.8389 0.0113503 1.22895
23000 60.1715 131.932 55.8389 0.0114503 1.1971
23200 60.1715 131.945 55.8389 0.0115503 1.22144
23400 60.1715 131.958 55.8389 0.0116503 1.25907
23600 60.1715 131.971 55.8389 0.0117503 1.23673
23800 60.1715 131.984 55.8389 0.0118503 1.29777
24000 60.1715 131.997 55.8389 0.0119503 1.25666
24200 60.1715 132.01 55.8389 0.0120503 1.28451
24400 60.1715 132.023 55.8389 0.0121503 1.29257
24600 60.1715 132.036 55.8389 0.0122503 1.30374
24800 60.1715 132.05 55.8389 0.0123503 1.3268
25000 60.1715 132.063 55.8389 0.0124503 1.31295
25200 60.1715 132.076 55.8389 0.0125503 1.34339
25400 60.1715 132.089 55.8389 0.0126503 1.35813
25600 60.1715 132.102 55.8389 0.0127503 1.35333
25800 60.1715 132.115 55.8389 0.0128503 1.37918
26000 60.1715 132.128 55.8389 0.0129503 1.38577
26200 60.1715 132.141 55.8389 0.0130503 1.38812
26400 60.1715 132.154 55.8389 0.0131503 1.39968
26600 60.1715 132.167 55.8389 0.0132503 1.43144
26800 60.1715 132.18 55.8389 0.0133503 1.42428
27000 60.1715 132.193 55.8389 0.0134503 1.42537
27200 60.1715 132.206 55.8389 0.0135503 1.45166
27400 60.1715 132.219 55.8389 0.0136503 1.4529
27600 60.1715 132.232 55.8389 0.0137503 1.46058
27800 60.1715 132.245 55.8389 0.0138503 1.49169
28000 60.1715 132.258 55.8389 0.0139503 1.48778
28200 60.1715 132.271 55.8389 0.0140503 1.49884
28400 60.1715 132.284 55.8389 0.0141503 1.51831
28600 60.1715 132.297 55.8389 0.0142503 1.51174
28800 60.1715 132.31 55.8389 0.0143503 1.54887
29000 60.1715 132.323 55.8389 0.0144503 1.54893
29200 60.1715 132.337 55.8389 0.0145503 1.55071
29400 60.1715 132.35 55.8389 0.0146503 1.59346
29600 60.1715 132.363 55.8389 0.0147503 1.58333
29800 60.1715 132.376 55.8389 0.0148503 1.59452
30000 60.1715 132.389 55.8389 0.0149503 1.60434
30200 60.1715 132.402 55.8389 0.0150503 1.61319
30400 60.1715 132.415 55.8389 0.0151503 1.63108
30600 60.1715 132.428 55.8389 0.0152503 1.63795
30800 60.1715 132.441 55.8389 0.0153503 1.65418
31000 60.1715 132.454 55.8389 0.0154503 1.66033
31200 60.1715 132.467 55.8389 0.0155503 1.67942
31400 60.1715 132.48 55.8389 0.0156503 1.67089
31600 60.1715 132.493 55.8389 0.0157503 1.70152
31800 60.1715 132.506 55.8389 0.0158503 1.72883
32000 60.1715 132.519 55.8389 0.0159503 1.69941
32200 60.1715 132.532 55.8389 0.0160503 1.732
32400 60.1715 132.545 55.8389 0.0161503 1.75629
32600 60.1715 132.558 55.8389 0.0162503 1.73496
32800 60.1715 132.571 55.8389 0.0163503 1.75492
33000 60.1715 132.584 55.8389 0.0164503 1.77931
33200 60.1715 132.597 55.8389 0.0165503 1.79404
33400 60.1715 132.61 55.8389 0.0166503 1.78899
33600 60.1715 132.623 55.8389 0.0167503 1.81999
33800 60.1715 132.637 55.8389 0.0168503 1.80977
34000 60.1715 132.65 55.8389 0.0169503 1.83248
34200 60.1715 132.663 55.8389 0.0170503 1.83716
34400 60.1715 132.676 55.8389 0.0171503 1.83844
34600 60.1715 132.689 55.8389 0.0172503 1.85567
34800 60.1715 132.702 55.8389 0.0173503 1.8813
35000 60.1715 132.715 55.8389 0.0174503 1.89864
35200 60.1715 132.728 55.8389 0.0175503 1.89283
35400 60.1715 132.741 55.8389 0.0176503 1.90862
35600 60.1715 132.754 55.8389 0.0177503 1.91583
35800 60.1715 132.767 55.8389 0.0178503 1.92418
36000 60.1715 132.78 55.8389 0.0179503 1.92742
36200 60.1715 132.793 55.8389 0.0180503 1.96517
36400 60.1715 132.806 55.8389 0.0181503 1.9554
36600 60.1715 132.819 55.8389 0.0182503 1.98628
36800 60.1715 132.832 55.8389 0.0183503 1.9773
37000 60.1715 132.845 55.8389 0.0184503 1.99805
37200 60.1715 132.858 55.8389 0.0185503 2.00293
37400 60.1715 132.871 55.8389 0.0186503 2.03067
37600 60.1715 132.884 55.8389 0.0187503 2.03924
37800 60.1715 132.897 55.8389 0.0188503 2.02354
38000 60.1715 132.91 55.8389 0.0189503 2.03343
38200 60.1715 132.923 55.8389 0.0190503 2.09971
38400 60.1715 132.937 55.8389 0.0191503 2.04952
38600 60.1715 132.95 55.8389 0.0192503 2.09564
38800 60.1715 132.963 55.8389 0.0193503 2.08191
39000 60.1715 132.976 55.8389 0.0194503 2.13685
39200 60.1715 132.989 55.8389 0.0195503 2.09491
39400 60.1715 133.002 55.8389 0.0196503 2.14402
39600 60.1715 133.015 55.8389 0.0197503 2.14131
39800 60.1715 133.028 55.8389 0.0198503 2.13121
40000 60.1715 133.041 55.8389 0.0199503 2.16109
40200 60.1715 133.054 55.8389 0.0200503 2.18951
40400 60.1715 133.067 55.8389 0.0201503 2.16973
40600 60.1715 133.08 55.8389 0.0202503 2.21579
40800 60.1715 133.093 55.8389 0.0203503 2.20866
41000 60.1715 133.106 55.8389 0.0204503 2.2423
41200 60.1715 133.119 55.8389 0.0205503 2.21087
41400 60.1715 133.132 55.8389 0.0206503 2.26073
41600 60.1715 133.145 55.8389 0.0207503 2.27602
41800 60.1715 133.158 55.8389 0.0208503 2.24905
42000 60.1715 133.171 55.8389 0.0209503 2.29559
42200 60.1715 133.184 55.8389 0.0210503 2.27878
42400 60.1715 133.197 55.8389 0.0211503 2.31994
42600 60.1715 133.21 55.8389 0.0212503 2.32411
42800 60.1715 133.223 55.8389 0.0213503 2.32604
43000 60.1715 133.237 55.8389 0.0214503 2.34635
43200 60.1715 133.25 55.8389 0.0215503 2.33838
43400 60.1715 133.263 55.8389 0.0216503 2.36912
43600 60.1715 133.276 55.8389 0.0217503 2.37695
43800 60.1715 133.289 55.8389 0.0218503 2.39885
44000 60.1715 133.302 55.8389 0.0219503 2.38259
44200 60.1715 133.315 55.8389 0.0220503 2.42781
44400 60.1715 133.328 55.8389 0.0221503 2.41252
44600 60.1715 133.341 55.8389 0.0222503 2.43248
44800 60.1715 133.354 55.8389 0.0223503 2.45806
45000 60.1715 133.367 55.8389 0.0224503 2.45484
45200 60.1715 133.38 55.8389 0.0225503 2.46675
45400 60.1715 133.393 55.8389 0.0226503 2.46082
45600 60.1715 133.406 55.8389 0.0227503 2.48786
45800 60.1715 133.419 55.8389 0.0228503 2.51281
46000 60.1715 133.432 55.8389 0.0229503 2.49748
46200 60.1715 133.445 55.8389 0.0230503 2.51628
46400 60.1715 133.458 55.8389 0.0231503 2.55231
46600 60.1715 133.471 55.8389 0.0232503 2.5486
46800 60.1715 133.484 55.8389 0.0233503 2.55843
47000 60.1715 133.497 55.8389 0.0234503 2.56248
47200 60.1715 133.51 55.8389 0.0235503 2.57232
47400 60.1715 133.523 55.8389 0.0236503 2.60553
47600 60.1715 133.537 55.8389 0.0237503 2.60391
47800 60.1715 133.55 55.8389 0.0238503 2.6031
48000 60.1715 133.563 55.8389 0.0239503 2.6274
48200 60.1715 133.576 55.8389 0.0240503 2.63944
48400 60.1715 133.589 55.8389 0.0241503 2.66558
48600 60.1715 133.602 55.8389 0.0242503 2.64195
48800 60.1715 133.615 55.8389 0.0243503 2.67694
49000 60.1715 133.628 55.8389 0.0244503 2.68539
49200 60.1715 133.641 55.8389 0.0245503 2.69437
49400 60.1715 133.654 55.8389 0.0246503 2.70226
49600 60.1715 133.667 55.8389 0.0247503 2.73196
49800 60.1715 133.68 55.8389 0.0248503 2.72784
50000 60.1715 133.693 55.8389 0.0249503 2.74501
50200 60.1715 133.706 55.8389 0.0250503 2.74923
50400 60.1715 133.719 55.8389 0.0251503 2.77441
50600 60.1715 133.732 55.8389 0.0252503 2.78473
50800 60.1715 133.745 55.8389 0.0253503 2.78241
51000 60.1715 133.758 55.8389 0.0254503 2.80227
51200 60.1715 133.771 55.8389 0.0255503 2.81294
51400 60.1715 133.784 55.8389 0.0256503 2.82614
51600 60.1715 133.797 55.8389 0.0257503 2.83069
51800 60.1715 133.81 55.8389 0.0258503 2.8616
52000 60.1715 133.824 55.8389 0.0259503 2.86299
52200 60.1715 133.837 55.8389 0.0260503 2.86669
52400 60.1715 133.85 55.8389 0.0261503 2.88856
52600 60.1715 133.863 55.8389 0.0262503 2.89851
52800 60.1715 133.876 55.8389 0.0263503 2.91359
53000 60.1715 133.889 55.8389 0.0264503 2.93151
53200 60.1715 133.902 55.8389 0.0265503 2.94506
53400 60.1715 133.915 55.8389 0.0266503 2.92616
53600 60.1715 133.928 55.8389 0.0267503 2.95348
53800 60.1715 133.941 55.8389 0.0268503 2.98676
54000 60.1715 133.954 55.8389 0.0269503 2.96014
54200 60.1715 133.967 55.8389 0.0270503 2.99297
54400 60.1715 133.98 55.8389 0.0271503 3.00703
54600 60.1715 133.993 55.8389 0.0272503 3.00382
54800 60.1715 134.006 55.8389 0.0273503 3.03398
55000 60.1715 134.019 55.8389 0.0274503 3.01737
55200 60.1715 134.032 55.8389 0.0275503 3.04754
55400 60.1715 134.045 55.8389 0.0276503 3.07716
55600 60.1715 134.058 55.8389 0.0277503 3.07402
55800 60.1715 134.071 55.8389 0.0278503 3.07706
56000 60.1715 134.084 55.8389 0.0279503 3.10785
56200 60.1715 134.097 55.8389 0.0280503 3.10845
56400 60.1715 134.11 55.8389 0.0281503 3.10931
56600 60.1715 134.124 55.8389 0.0282503 3.14338
56800 60.1715 134.137 55.8389 0.0283503 3.13127
57000 60.1715 134.15 55.8389 0.0284503 3.157
57200 60.1715 134.163 55.8389 0.0285503 3.1712
57400 60.1715 134.176 55.8389 0.0286503 3.17805
57600 60.1715 134.189 55.8389 0.0287503 3.1801
57800 60.1715 134.202 55.8389 0.0288503 3.20911
58000 60.1715 134.215 55.8389 0.0289503 3.22326
58200 60.1715 134.228 55.8389 0.0290503 3.2238
58400 60.1715 134.241 55.8389 0.0291503 3.22165
58600 60.1715 134.254 55.8389 0.0292503 3.27236
58800 60.1715 134.267 55.8389 0.0293503 3.2529
59000 60.1715 134.28 55.8389 0.0294503 3.2712
59200 60.1715 134.293 55.8389 0.0295503 3.28152
59400 60.1715 134.306 55.8389 0.0296503 3.32832
59600 60.1715 134.319 55.8389 0.0297503 3.28323
59800 60.1715 134.332 55.8389 0.0298503 3.34519
60000 60.1715 134.345 55.8389 0.0299503 3.32002
60200 60.1715 134.358 55.8389 0.0300503 3.33525
60400 60.1715 134.371 55.8389 0.0301503 3.36398
60600 60.1715 134.384 55.8389 0.0302503 3.38974
60800 60.1715 134.397 55.8389 0.0303503 3.35249
61000 60.1715 134.41 55.8389 0.0304503 3.40731
61200 60.1715 134.424 55.8389 0.0305503 3.41405
61400 60.1715 134.437 55.8389 0.0306503 3.4029
61600 60.1715 134.45 55.8389 0.0307503 3.43198
61800 60.1715 134.463 55.8389 0.0308503 3.43682
62000 60.1715 134.476 55.8389 0.0309503 3.45908
62200 60.1715 134.489 55.8389 0.0310503 3.46357
62400 60.1715 134.502 55.8389 0.0311503 3.46898
62600 60.1715 134.515 55.8389 0.0312503 3.48861
62800 60.1715 134.528 55.8389 0.0313503 3.51532
63000 60.1715 134.541 55.8389 0.0314503 3.49551
63200 60.1715 134.554 55.8389 0.0315503 3.52438
63400 60.1715 134.567 55.8389 0.0316503 3.55181
63600 60.1715 134.58 55.8389 0.0317503 3.53472
63800 60.1715 134.593 55.8389 0.0318503 3.58038
64000 60.1715 134.606 55.8389 0.0319503 3.57776
64200 60.1715 134.619 55.8389 0.0320503 3.57487
64400 60.1715 134.632 55.8389 0.0321503 3.5882
64600 60.1715 134.645 55.8389 0.0322503 3.63924
64800 60.1715 134.658 55.8389 0.0323503 3.60702
65000 60.1715 134.671 55.8389 0.0324503 3.63185
65200 60.1715 134.684 55.8389 0.0325503 3.65053
65400 60.1715 134.697 55.8389 0.0326503 3.65869
65600 60.1715 134.71 55.8389 0.0327503 3.66639
65800 60.1715 134.724 55.8389 0.0328503 3.68613
66000 60.1715 134.737 55.8389 0.0329503 3.69904
66200 60.1715 134.75 55.8389 0.0330503 3.6968
66400 60.1715 134.763 55.8389 0.0331503 3.73486
66600 60.1715 134.776 55.8389 0.0332503 3.71808
66800 60.1715 134.789 55.8389 0.0333503 3.74392
67000 60.1715 134.802 55.8389 0.0334503 3.75853
67200 60.1715 134.815 55.8389 0.0335503 3.78046
67400 60.1715 134.828 55.8389 0.0336503 3.76943
67600 60.1715 134.841 55.8389 0.0337503 3.80573
67800 60.1715 134.854 55.8389 0.0338503 3.79694
68000 60.1715 134.867 55.8389 0.0339503 3.83486
68200 60.1715 134.88 55.8389 0.0340503 3.81597
68400 60.1715 134.893 55.8389 0.0341503 3.84011
68600 60.1715 134.906 55.8389 0.0342503 3.8874
68800 60.1715 134.919 55.8389 0.0343503 3.8222
69000 60.1715 134.932 55.8389 0.0344503 3.88919
69200 60.1715 134.945 55.8389 0.0345503 3.88393
69400 60.1715 134.958 55.8389 0.0346503 3.90366
69600 60.1715 134.971 55.8389 0.0347503 3.92043
69800 60.1715 134.984 55.8389 0.0348503 3.91169
70000 60.1715 134.997 55.8389 0.0349503 3.95077
70200 60.1715 135.01 55.8389 0.0350503 3.9555
70400 60.1715 135.024 55.8389 0.0351503 3.95438
70600 60.1715 135.037 55.8389 0.0352503 3.98229
70800 60.1715 135.05 55.8389 0.0353503 3.98726
71000 60.1715 135.063 55.8389 0.0354503 4.00396
71200 60.1715 135.076 55.8389 0.0355503 4.02404
71400 60.1715 135.089 55.8389 0.0356503 4.01566
71600 60.1715 135.102 55.8389 0.0357503 4.02719
71800 60.1715 135.115 55.8389 0.0358503 4.05126
72000 60.1715 135.128 55.8389 0.0359503 4.06718
72200 60.1715 135.141 55.8389 0.0360503 4.07872
72400 60.1715 135.154 55.8389 0.0361503 4.08979
72600 60.1715 135.167 55.8389 0.0362503 4.11193
72800 60.1715 135.18 55.8389 0.0363503 4.10418
73000 60.1715 135.193 55.8389 0.0364503 4.12492
73200 60.1715 135.206 55.8389 0.0365503 4.13263
73400 60.1715 135.219 55.8389 0.0366503 4.14938
73600 60.1715 135.232 55.8389 0.0367503 4.15633
73800 60.1715 135.245 55.8389 0.0368503 4.17578
74000 60.1715 135.258 55.8389 0.0369503 4.18597
74200 60.1715 135.271 55.8389 0.0370503 4.19389
74400 60.1715 135.284 55.8389 0.0371503 4.2222
74600 60.1715 135.297 55.8389 0.0372503 4.21252
74800 60.1715 135.311 55.8389 0.0373503 4.24283
75000 60.1715 135.324 55.8389 0.0374503 4.2461
75200 60.1715 135.337 55.8389 0.0375503 4.25672
75400 60.1715 135.35 55.8389 0.0376503 4.27031
75600 60.1715 135.363 55.8389 0.0377503 4.27366
75800 60.1715 135.376 55.8389 0.0378503 4.31023
76000 60.1715 135.389 55.8389 0.0379503 4.29223
76200 60.1715 135.402 55.8389 0.0380503 4.32538
76400 60.1715 135.415 55.8389 0.0381503 4.32661
76600 60.1715 135.428 55.8389 0.0382503 4.36094
76800 60.1715 135.441 55.8389 0.0383503 4.37336
77000 60.1715 135.454 55.8389 0.0384503 4.34036
77200 60.1715 135.467 55.8389 0.0385503 4.41163
77400 60.1715 135.48 55.8389 0.0386503 4.39614
77600 60.1715 135.493 55.8389 0.0387503 4.3931
77800 60.1715 135.506 55.8389 0.0388503 4.42562
78000 60.1715 135.519 55.8389 0.0389503 4.43216
78200 60.1715 135.532 55.8389 0.0390503 4.44988
78400 60.1715 135.545 55.8389 0.0391503 4.46865
78600 60.1715 135.558 55.8389 0.0392503 4.4569
78800 60.1715 135.571 55.8389 0.0393503 4.49466
79000 60.1715 135.584 55.8389 0.0394503 4.4839
79200 60.1715 135.597 55.8389 0.0395503 4.52795
79400 60.1715 135.611 55.8389 0.0396503 4.51052
79600 60.1715 135.624 55.8389 0.0397503 4.53697
79800 60.1715 135.637 55.8389 0.0398503 4.54185
80000 60.1715 135.65 55.8389 0.0399503 4.55385
80200 60.1715 135.663 55.8389 0.0400503 4.57761
80400 60.1715 135.676 55.8389 0.0401503 4.57389
80600 60.1715 135.689 55.8389 0.0402503 4.59846
80800 60.1715 135.702 55.8389 0.0403503 4.62432
81000 60.1715 135.715 55.8389 0.0404503 4.62645
81200 60.1715 135.728 55.8389 0.0405503 4.62831
81400 60.1715 135.741 55.8389 0.0406503 4.6422
81600 60.1715 135.754 55.8389 0.0407503 4.65668
81800 60.1715 135.767 55.8389 0.0408503 4.67776
82000 60.1715 135.78 55.8389 0.0409503 4.68824
82200 60.1715 135.793 55.8389 0.0410503 4.69319
82400 60.1715 135.806 55.8389 0.0411503 4.71055
82600 60.1715 135.819 55.8389 0.0412503 4.72572
82800 60.1715 135.832 55.8389 0.0413503 4.71777
83000 60.1715 135.845 55.8389 0.0414503 4.76803
83200 60.1715 135.858 55.8389 0.0415503 4.72893
83400 60.1715 135.871 55.8389 0.0416503 4.80268
83600 60.1715 135.884 55.8389 0.0417503 4.76116
83800 60.1715 135.897 55.8389 0.0418503 4.80431
84000 60.1715 135.911 55.8389 0.0419503 4.82927
84200 60.1715 135.924 55.8389 0.0420503 4.79901
84400 60.1715 135.937 55.8389 0.0421503 4.83474
84600 60.1715 135.95 55.8389 0.0422503 4.83643
84800 60.1715 135.963 55.8389 0.0423503 4.87017
85000 60.1715 135.976 55.8389 0.0424503 4.86019
85200 60.1715 135.989 55.8389 0.0425503 4.88188
85400 60.1715 136.002 55.8389 0.0426503 4.92225
85600 60.1715 136.015 55.8389 0.0427503 4.90252
85800 60.1715 136.028 55.8389 0.0428503 4.91264
86000 60.1715 136.041 55.8389 0.0429503 4.95419
86200 60.1715 136.054 55.8389 0.0430503 4.94998
86400 60.1715 136.067 55.8389 0.0431503 4.94939
86600 60.1715 136.08 55.8389 0.0432503 4.98924
86800 60.1715 136.093 55.8389 0.0433503 4.98454
87000 60.1715 136.106 55.8389 0.0434503 4.99929
87200 60.1715 136.119 55.8389 0.0435503 5.00661
87400 60.1715 136.132 55.8389 0.0436503 5.03544
87600 60.1715 136.145 55.8389 0.0437503 5.0453
87800 60.1715 136.158 55.8389 0.0438503 5.05423
88000 60.1715 136.171 55.8389 0.0439503 5.06709
88200 60.1715 136.184 55.8389 0.0440503 5.07556
88400 60.1715 136.197 55.8389 0.0441503 5.09713
88600 60.1715 136.211 55.8389 0.0442503 5.09148
88800 60.1715 136.224 55.8389 0.0443503 5.11491
89000 60.1715 136.237 55.8389 0.0444503 5.1375
89200 60.1715 136.25 55.8389 0.0445503 5.13702
89400 60.1715 136.263 55.8389 0.0446503 5.1508
89600 60.1715 136.276 55.8389 0.0447503 5.16238
89800 60.1715 136.289 55.8389 0.0448503 5.18418
90000 60.1715 136.302 55.8389 0.0449503 5.19681
90200 60.1715 136.315 55.8389 0.0450503 5.20994
90400 60.1715 136.328 55.8389 0.0451503 5.21669
90600 60.1715 136.341 55.8389 0.0452503 5.23244
90800 60.1715 136.354 55.8389 0.0453503 5.25613
91000 60.1715 136.367 55.8389 0.0454503 5.24916
91200 60.1715 136.38 55.8389 0.0455503 5.25889
91400 60.1715 136.393 55.8389 0.0456503 5.28419
91600 60.1715 136.406 55.8389 0.0457503 5.2878
91800 60.1715 136.419 55.8389 0.0458503 5.30359
92000 60.1715 136.432 55.8389 0.0459503 5.32392
92200 60.1715 136.445 55.8389 0.0460503 5.32944
92400 60.1715 136.458 55.8389 0.0461503 5.3392
92600 60.1715 136.471 55.8389 0.0462503 5.35886
92800 60.1715 136.484 55.8389 0.0463503 5.36181
93000 60.1715 136.497 55.8389 0.0464503 5.38976
93200 60.1715 136.511 55.8389 0.0465503 5.4058
93400 60.1715 136.524 55.8389 0.0466503 5.38352
93600 60.1715 136.537 55.8389 0.0467503 5.42887
93800 60.1715 136.55 55.8389 0.0468503 5.43813
94000 60.1715 136.563 55.8389 0.0469503 5.42863
94200 60.1715 136.576 55.8389 0.0470503 5.46202
94400 60.1715 136.589 55.8389 0.0471503 5.45838
94600 60.1715 136.602 55.8389 0.0472503 5.49528
94800 60.1715 136.615 55.8389 0.0473503 5.50143
95000 60.1715 136.628 55.8389 0.0474503 5.49734
95200 60.1715 136.641 55.8389 0.0475503 5.51531
95400 60.1715 136.654 55.8389 0.0476503 5.54428
95600 60.1715 136.667 55.8389 0.0477503 5.55395
95800 60.1715 136.68 55.8389 0.0478503 5.5534
96000 60.1715 136.693 55.8389 0.0479503 5.56487
96200 60.1715 136.706 55.8389 0.0480503 5.58903
96400 60.1715 136.719 55.8389 0.0481503 5.58812
96600 60.1715 136.732 55.8389 0.0482503 5.61409
96800 60.1715 136.745 55.8389 0.0483503 5.61384
97000 60.1715 136.758 55.8389 0.0484503 5.6309
97200 60.1715 136.771 55.8389 0.0485503 5.63919
97400 60.1715 136.784 55.8389 0.0486503 5.65144
97600 60.1715 136.798 55.8389 0.0487503 5.65835
97800 60.1715 136.811 55.8389 0.0488503 5.67501
98000 60.1715 136.824 55.8389 0.0489503 5.68373
98200 60.1715 136.837 55.8389 0.0490503 5.71084
98400 60.1715 136.85 55.8389 0.0491503 5.71952
98600 60.1715 136.863 55.8389 0.0492503 5.73749
98800 60.1715 136.876 55.8389 0.0493503 5.75068
99000 60.1715 136.889 55.8389 0.0494503 5.73026
99200 60.1715 136.902 55.8389 0.0495503 5.77731
99400 60.1715 136.915 55.8389 0.0496503 5.79337
99600 60.1715 136.928 55.8389 0.0497503 5.78495
99800 60.1715 136.941 55.8389 0.0498503 5.80463
100000 60.1715 136.954 55.8389 0.0499503 5.83335
100200 60.1715 136.967 55.8389 0.0500503 5.82802
100400 60.1715 136.98 55.8389 0.0501503 5.86402
100600 60.1715 136.993 55.8389 0.0502503 5.8467
100800 60.1715 137.006 55.8389 0.0503503 5.87579
101000 60.1715 137.019 55.8389 0.0504503 5.8854
101200 60.1715 137.032 55.8389 0.0505503 5.91057
101400 60.1715 137.045 55.8389 0.0506503 5.9143
101600 60.1715 137.058 55.8389 0.0507503 5.91112
101800 60.1715 137.071 55.8389 0.0508503 5.96249
102000 60.1715 137.084 55.8389 0.0509503 5.95061
102200 60.1715 137.098 55.8389 0.0510503 5.96318
102400 60.1715 137.111 55.8389 0.0511503 5.97241
102600 60.1715 137.124 55.8389 0.0512503 6.00044
102800 60.1715 137.137 55.8389 0.0513503 6.00124
103000 60.1715 137.15 55.8389 0.0514503 6.00923
103200 60.1715 137.163 55.8389 0.0515503 6.02665
103400 60.1715 137.176 55.8389 0.0516503 6.04533
103600 60.1715 137.189 55.8389 0.0517503 6.04851
103800 60.1715 137.202 55.8389 0.0518503 6.06664
104000 60.1715 137.215 55.8389 0.0519503 6.07693
104200 60.1715 137.228 55.8389 0.0520503 6.10313
104400 60.1715 137.241 55.8389 0.0521503 6.10234
104600 60.1715 137.254 55.8389 0.0522503 6.11448
104800 60.1715 137.267 55.8389 0.0523503 6.11818
105000 60.1715 137.28 55.8389 0.0524503 6.16833
105200 60.1715 137.293 55.8389 0.0525503 6.16028
105400 60.1715 137.306 55.8389 0.0526503 6.16904
105600 60.1715 137.319 55.8389 0.0527503 6.18569
105800 60.1715 137.332 55.8389 0.0528503 6.19938
106000 60.1715 137.345 55.8389 0.0529503 6.21307
106200 60.1715 137.358 55.8389 0.0530503 6.21925
106400 60.1715 137.371 55.8389 0.0531503 6.24297
106600 60.1715 137.384 55.8389 0.0532503 6.2541
106800 60.1715 137.398 55.8389 0.0533503 6.25457
107000 60.1715 137.411 55.8389 0.0534503 6.28898
107200 60.1715 137.424 55.8389 0.0535503 6.2948
107400 60.1715 137.437 55.8389 0.0536503 6.29329
107600 60.1715 137.45 55.8389 0.0537503 6.315
107800 60.1715 137.463 55.8389 0.0538503 6.3304
108000 60.1715 137.476 55.8389 0.0539503 6.34307
108200 60.1715 137.489 55.8389 0.0540503 6.35464
108400 60.1715 137.502 55.8389 0.0541503 6.3554
108600 60.1715 137.515 55.8389 0.0542503 6.40634
108800 60.1715 137.528 55.8389 0.0543503 6.37724
109000 60.1715 137.541 55.8389 0.0544503 6.41058
109200 60.1715 137.554 55.8389 0.0545503 6.43566
109400 60.1715 137.567 55.8389 0.0546503 6.43318
109600 60.1715 137.58 55.8389 0.0547503 6.42885
109800 60.1715 137.593 55.8389 0.0548503 6.4693
110000 60.1715 137.606 55.8389 0.0549503 6.46485
110200 60.1715 137.619 55.8389 0.0550503 6.49935
110400 60.1715 137.632 55.8389 0.0551503 6.49546
110600 60.1715 137.645 55.8389 0.0552503 6.50221
110800 60.1715 137.658 55.8389 0.0553503 6.53973
111000 60.1715 137.671 55.8389 0.0554503 6.53341
111200 60.1715 137.684 55.8389 0.0555503 6.55864
111400 60.1715 137.698 55.8389 0.0556503 6.55614
111600 60.1715 137.711 55.8389 0.0557503 6.58988
111800 60.1715 137.724 55.8389 0.0558503 6.59743
112000 60.1715 137.737 55.8389 0.0559503 6.59627
112200 60.1715 137.75 55.8389 0.0560503 6.61459
112400 60.1715 137.763 55.8389 0.0561503 6.63514
112600 60.1715 137.776 55.8389 0.0562503 6.64471
112800 60.1715 137.789 55.8389 0.0563503 6.64603
113000 60.1715 137.802 55.8389 0.0564503 6.65796
113200 60.1715 137.815 55.8389 0.0565503 6.67081
113400 60.1715 137.828 55.8389 0.0566503 6.69263
113600 60.1715 137.841 55.8389 0.0567503 6.70374
113800 60.1715 137.854 55.8389 0.0568503 6.71533
114000 60.1715 137.867 55.8389 0.0569503 6.71755
114200 60.1715 137.88 55.8389 0.0570503 6.75386
114400 60.1715 137.893 55.8389 0.0571503 6.74265
114600 60.1715 137.906 55.8389 0.0572503 6.7878
114800 60.1715 137.919 55.8389 0.0573503 6.77248
115000 60.1715 137.932 55.8389 0.0574503 6.79367
115200 60.1715 137.945 55.8389 0.0575503 6.80052
115400 60.1715 137.958 55.8389 0.0576503 6.81931
115600 60.1715 137.971 55.8389 0.0577503 6.84325
115800 60.1715 137.984 55.8389 0.0578503 6.83875
116000 60.1715 137.998 55.8389 0.0579503 6.85462
116200 60.1715 138.011 55.8389 0.0580503 6.86225
116400 60.1715 138.024 55.8389 0.0581503 6.87806
116600 60.1715 138.037 55.8389 0.0582503 6.91237
116800 60.1715 138.05 55.8389 0.0583503 6.9061
117000 60.1715 138.063 55.8389 0.0584503 6.92263
117200 60.1715 138.076 55.8389 0.0585503 6.93591
117400 60.1715 138.089 55.8389 0.0586503 6.94943
117600 60.1715 138.102 55.8389 0.0587503 6.97075
117800 60.1715 138.115 55.8389 0.0588503 6.9747
118000 60.1715 138.128 55.8389 0.0589503 6.99124
118200 60.1715 138.141 55.8389 0.0590503 7.00222
118400 60.1715 138.154 55.8389 0.0591503 7.01326
118600 60.1715 138.167 55.8389 0.0592503 7.02079
118800 60.1715 138.18 55.8389 0.0593503 7.03323
119000 60.1715 138.193 55.8389 0.0594503 7.06925
119200 60.1715 138.206 55.8389 0.0595503 7.07128
119400 60.1715 138.219 55.8389 0.0596503 7.07761
119600 60.1715 138.232 55.8389 0.0597503 7.09313
119800 60.1715 138.245 55.8389 0.0598503 7.12399
120000 60.1715 138.258 55.8389 0.0599503 7.10174
120200 60.1715 138.271 55.8389 0.0600503 7.15803
120400 60.1715 138.285 55.8389 0.0601503 7.13544
120600 60.1715 138.298 55.8389 0.0602503 7.15076
120800 60.1715 138.311 55.8389 0.0603503 7.17633
121000 60.1715 138.324 55.8389 0.0604503 7.19778
121200 60.1715 138.337 55.8389 0.0605503 7.19764
121400 60.1715 138.35 55.8389 0.0606503 7.20905
121600 60.1715 138.363 55.8389 0.0607503 7.23173
121800 60.1715 138.376 55.8389 0.0608503 7.25353
122000 60.1715 138.389 55.8389 0.0609503 7.25436
122200 60.1715 138.402 55.8389 0.0610503 7.26915
122400 60.1715 138.415 55.8389 0.0611503 7.27753
122600 60.1715 138.428 55.8389 0.0612503 7.30168
122800 60.1715 138.441 55.8389 0.0613503 7.31046
123000 60.1715 138.454 55.8389 0.0614503 7.32828
123200 60.1715 138.467 55.8389 0.0615503 7.31859
123400 60.1715 138.48 55.8389 0.0616503 7.36446
123600 60.1715 138.493 55.8389 0.0617503 7.37853
123800 60.1715 138.506 55.8389 0.0618503 7.35796
124000 60.1715 138.519 55.8389 0.0619503 7.41566
124200 60.1715 138.532 55.8389 0.0620503 7.41171
124400 60.1715 138.545 55.8389 0.0621503 7.39865
124600 60.1715 138.558 55.8389 0.0622503 7.44655
124800 60.1715 138.571 55.8389 0.0623503 7.44668
125000 60.1715 138.585 55.8389 0.0624503 7.46062
125200 60.1715 138.598 55.8389 0.0625503 7.46583
125400 60.1715 138.611 55.8389 0.0626503 7.48057
125600 60.1715 138.624 55.8389 0.0627503 7.50601
125800 60.1715 138.637 55.8389 0.0628503 7.51079
126000 60.1715 138.65 55.8389 0.0629503 7.51414
126200 60.1715 138.663 55.8389 0.0630503 7.53843
126400 60.1715 138.676 55.8389 0.0631503 7.53599
126600 60.1715 138.689 55.8389 0.0632503 7.56574
126800 60.1715 138.702 55.8389 0.0633503 7.57407
127000 60.1715 138.715 55.8389 0.0634503 7.5798
127200 60.1715 138.728 55.8389 0.0635503 7.62815
127400 60.1715 138.741 55.8389 0.0636503 7.60793
127600 60.1715 138.754 55.8389 0.0637503 7.63698
127800 60.1715 138.767 55.8389 0.0638503 7.64884
128000 60.1715 138.78 55.8389 0.0639503 7.64773
128200 60.1715 138.793 55.8389 0.0640503 7.6684
128400 60.1715 138.806 55.8389 0.0641503 7.68439
128600 60.1715 138.819 55.8389 0.0642503 7.70106
128800 60.1715 138.832 55.8389 0.0643503 7.70707
129000 60.1715 138.845 55.8389 0.0644503 7.72581
129200 60.1715 138.858 55.8389 0.0645503 7.73538
129400 60.1715 138.871 55.8389 0.0646503 7.75662
129600 60.1715 138.885 55.8389 0.0647503 7.77971
129800 60.1715 138.898 55.8389 0.0648503 7.76694
130000 60.1715 138.911 55.8389 0.0649503 7.80017
130200 60.1715 138.924 55.8389 0.0650503 7.80339
130400 60.1715 138.937 55.8389 0.0651503 7.83288
130600 60.1715 138.95 55.8389 0.0652503 7.82883
130800 60.1715 138.963 55.8389 0.0653503 7.85221
131000 60.1715 138.976 55.8389 0.0654503 7.85844
131200 60.1715 138.989 55.8389 0.0655503 7.87781
131400 60.1715 139.002 55.8389 0.0656503 7.89192
131600 60.1715 139.015 55.8389 0.0657503 7.89999
131800 60.1715 139.028 55.8389 0.0658503 7.91843
132000 60.1715 139.041 55.8389 0.0659503 7.9205
132200 60.1715 139.054 55.8389 0.0660503 7.96047
132400 60.1715 139.067 55.8389 0.0661503 7.94011
132600 60.1715 139.08 55.8389 0.0662503 7.97357
132800 60.1715 139.093 55.8389 0.0663503 7.98641
133000 60.1715 139.106 55.8389 0.0664503 8.00003
133200 60.1715 139.119 55.8389 0.0665503 8.00012
133400 60.1715 139.132 55.8389 0.0666503 8.0276
133600 60.1715 139.145 55.8389 0.0667503 8.03943
133800 60.1715 139.158 55.8389 0.0668503 8.04475
134000 60.1715 139.171 55.8389 0.0669503 8.06659
134200 60.1715 139.185 55.8389 0.0670503 8.07061
134400 60.1715 139.198 55.8389 0.0671503 8.09371
134600 60.1715 139.211 55.8389 0.0672503 8.0966
134800 60.1715 139.224 55.8389 0.0673503 8.10979
135000 60.1715 139.237 55.8389 0.0674503 8.11908
135200 60.1715 139.25 55.8389 0.0675503 8.16306
135400 60.1715 139.263 55.8389 0.0676503 8.14337
135600 60.1715 139.276 55.8389 0.0677503 8.17796
135800 60.1715 139.289 55.8389 0.0678503 8.18024
136000 60.1715 139.302 55.8389 0.0679503 8.19036
136200 60.1715 139.315 55.8389 0.0680503 8.20965
136400 60.1715 139.328 55.8389 0.0681503 8.22305
136600 60.1715 139.341 55.8389 0.0682503 8.23122
136800 60.1715 139.354 55.8389 0.0683503 8.2428
137000 60.1715 139.367 55.8389 0.0684503 8.26796
137200 60.1715 139.38 55.8389 0.0685503 8.2703
137400 60.1715 139.393 55.8389 0.0686503 8.28427
137600 60.1715 139.406 55.8389 0.0687503 8.32084
137800 60.1715 139.419 55.8389 0.0688503 8.29921
138000 60.1715 139.432 55.8389 0.0689503 8.3483
138200 60.1715 139.445 55.8389 0.0690503 8.33924
138400 60.1715 139.458 55.8389 0.0691503 8.35327
138600 60.1715 139.471 55.8389 0.0692503 8.37406
138800 60.1715 139.485 55.8389 0.0693503 8.38663
139000 60.1715 139.498 55.8389 0.0694503 8.38509
139200 60.1715 139.511 55.8389 0.0695503 8.4215
139400 60.1715 139.524 55.8389 0.0696503 8.41761
139600 60.1715 139.537 55.8389 0.0697503 8.44311
139800 60.1715 139.55 55.8389 0.0698503 8.43888
140000 60.1715 139.563 55.8389 0.0699503 8.46933
140200 60.1715 139.576 55.8389 0.0700503 8.47542
140400 60.1715 139.589 55.8389 0.0701503 8.49725
140600 60.1715 139.602 55.8389 0.0702503 8.49247
140800 60.1715 139.615 55.8389 0.0703503 8.52761
141000 60.1715 139.628 55.8389 0.0704503 8.52335
141200 60.1715 139.641 55.8389 0.0705503 8.55658
141400 60.1715 139.654 55.8389 0.0706503 8.55631
141600 60.1715 139.667 55.8389 0.0707503 8.5617
141800 60.1715 139.68 55.8389 0.0708503 8.57404
142000 60.1715 139.693 55.8389 0.0709503 8.59389
142200 60.1715 139.706 55.8389 0.0710503 8.60744
142400 60.1715 139.719 55.8389 0.0711503 8.61865
142600 60.1715 139.732 55.8389 0.0712503 8.63215
142800 60.1715 139.745 55.8389 0.0713503 8.6472
143000 60.1715 139.758 55.8389 0.0714503 8.6573
143200 60.1715 139.772 55.8389 0.0715503 8.68292
143400 60.1715 139.785 55.8389 0.0716503 8.69953
143600 60.1715 139.798 55.8389 0.0717503 8.70338
143800 60.1715 139.811 55.8389 0.0718503 8.70597
144000 60.1715 139.824 55.8389 0.0719503 8.74197
144200 60.1715 139.837 55.8389 0.0720503 8.74484
144400 60.1715 139.85 55.8389 0.0721503 8.75601
144600 60.1715 139.863 55.8389 0.0722503 8.78364
144800 60.1715 139.876 55.8389 0.0723503 8.77642
145000 60.1715 139.889 55.8389 0.0724503 8.80865
145200 60.1715 139.902 55.8389 0.0725503 8.81005
145400 60.1715 139.915 55.8389 0.0726503 8.83174
145600 60.1715 139.928 55.8389 0.0727503 8.85988
145800 60.1715 139.941 55.8389 0.0728503 8.83243
146000 60.1715 139.954 55.8389 0.0729503 8.87623
146200 60.1715 139.967 55.8389 0.0730503 8.86809
146400 60.1715 139.98 55.8389 0.0731503 8.87814
146600 60.1715 139.993 55.8389 0.0732503 8.90341
146800 60.1715 140.006 55.8389 0.0733503 8.90578
147000 60.1715 140.019 55.8389 0.0734503 8.92747
147200 60.1715 140.032 55.8389 0.0735503 8.93478
147400 60.1715 140.045 55.8389 0.0736503 8.94974
147600 60.1715 140.058 55.8389 0.0737503 8.97756
147800 60.1715 140.072 55.8389 0.0738503 8.96523
148000 60.1715 140.085 55.8389 0.0739503 8.99928
148200 60.1715 140.098 55.8389 0.0740503 9.00687
148400 60.1715 140.111 55.8389 0.0741503 9.01528
148600 60.1715 140.124 55.8389 0.0742503 9.02513
148800 60.1715 140.137 55.8389 0.0743503 9.04136
149000 60.1715 140.15 55.8389 0.0744503 9.05929
149200 60.1715 140.163 55.8389 0.0745503 9.06987
149400 60.1715 140.176 55.8389 0.0746503 9.08923
149600 60.1715 140.189 55.8389 0.0747503 9.1033
149800 60.1715 140.202 55.8389 0.0748503 9.09497
150000 60.1715 140.215 55.8389 0.0749503 9.14615
150200 60.1715 140.228 55.8389 0.0750503 9.13862
150400 60.1715 140.241 55.8389 0.0751503 9.14938
150600 60.1715 140.254 55.8389 0.0752503 9.18197
150800 60.1715 140.267 55.8389 0.0753503 9.17667
151000 60.1715 140.28 55.8389 0.0754503 9.2013
151200 60.1715 140.293 55.8389 0.0755503 9.18322
151400 60.1715 140.306 55.8389 0.0756503 9.2209
151600 60.1715 140.319 55.8389 0.0757503 9.24748
151800 60.1715 140.332 55.8389 0.0758503 9.24428
152000 60.1715 140.345 55.8389 0.0759503 9.25786
152200 60.1715 140.358 55.8389 0.0760503 9.28576
152400 60.1715 140.372 55.8389 0.0761503 9.2743
152600 60.1715 140.385 55.8389 0.0762503 9.30922
152800 60.1715 140.398 55.8389 0.0763503 9.297
153000 60.1715 140.411 55.8389 0.0764503 9.34336
153200 60.1715 140.424 55.8389 0.0765503 9.34143
153400 60.1715 140.437 55.8389 0.0766503 9.36647
153600 60.1715 140.45 55.8389 0.0767503 9.36591
153800 60.1715 140.463 55.8389 0.0768503 9.38453
154000 60.1715 140.476 55.8389 0.0769503 9.38585
154200 60.1715 140.489 55.8389 0.0770503 9.40304
154400 60.1715 140.502 55.8389 0.0771503 9.4197
154600 60.1715 140.515 55.8389 0.0772503 9.43011
154800 60.1715 140.528 55.8389 0.0773503 9.45351
155000 60.1715 140.541 55.8389 0.0774503 9.46761
155200 60.1715 140.554 55.8389 0.0775503 9.47529
155400 60.1715 140.567 55.8389 0.0776503 9.48055
155600 60.1715 140.58 55.8389 0.0777503 9.50039
155800 60.1715 140.593 55.8389 0.0778503 9.51711
156000 60.1715 140.606 55.8389 0.0779503 9.53735
156200 60.1715 140.619 55.8389 0.0780503 9.52681
156400 60.1715 140.632 55.8389 0.0781503 9.54955
156600 60.1715 140.645 55.8389 0.0782503 9.55323
156800 60.1715 140.658 55.8389 0.0783503 9.57184
157000 60.1715 140.672 55.8389 0.0784503 9.57198
157200 60.1715 140.685 55.8389 0.0785503 9.5956
157400 60.1715 140.698 55.8389 0.0786503 9.61314
157600 60.1715 140.711 55.8389 0.0787503 9.61503
157800 60.1715 140.724 55.8389 0.0788503 9.64508
158000 60.1715 140.737 55.8389 0.0789503 9.65307
158200 60.1715 140.75 55.8389 0.0790503 9.66653
158400 60.1715 140.763 55.8389 0.0791503 9.6818
158600 60.1715 140.776 55.8389 0.0792503 9.70113
158800 60.1715 140.789 55.8389 0.0793503 9.70538
159000 60.1715 140.802 55.8389 0.0794503 9.72997
159200 60.1715 140.815 55.8389 0.0795503 9.72836
159400 60.1715 140.828 55.8389 0.0796503 9.76447
159600 60.1715 140.841 55.8389 0.0797503 9.74717
159800 60.1715 140.854 55.8389 0.0798503 9.78675
160000 60.1715 140.867 55.8389 0.0799503 9.80954
160200 60.1715 140.88 55.8389 0.0800503 9.78123
160400 60.1715 140.893 55.8389 0.0801503 9.83703
160600 60.1715 140.906 55.8389 0.0802503 9.83568
160800 60.1715 140.919 55.8389 0.0803503 9.83325
161000 60.1715 140.932 55.8389 0.0804503 9.85387
161200 60.1715 140.945 55.8389 0.0805503 9.88002
161400 60.1715 140.958 55.8389 0.0806503 9.88755
161600 60.1715 140.972 55.8389 0.0807503 9.90299
161800 60.1715 140.985 55.8389 0.0808503 9.90911
162000 60.1715 140.998 55.8389 0.0809503 9.93288
162200 60.1715 141.011 55.8389 0.0810503 9.94726
162400 60.1715 141.024 55.8389 0.0811503 9.9586
162600 60.1715 141.037 55.8389 0.0812503 9.972
162800 60.1715 141.05 55.8389 0.0813503 9.9816
163000 60.1715 141.063 55.8389 0.0814503 10.0067
163200 60.1715 141.076 55.8389 0.0815503 10.008
163400 60.1715 141.089 55.8389 0.0816503 10.0209
163600 60.1715 141.102 55.8389 0.0817503 10.0404
163800 60.1715 141.115 55.8389 0.0818503 10.0528
164000 60.1715 141.128 55.8389 0.0819503 10.0695
164200 60.1715 141.141 55.8389 0.0820503 10.0799
164400 60.1715 141.154 55.8389 0.0821503 10.0968
164600 60.1715 141.167 55.8389 0.0822503 10.1084
164800 60.1715 141.18 55.8389 0.0823503 10.1241
165000 60.1715 141.193 55.8389 0.0824503 10.1453
165200 60.1715 141.206 55.8389 0.0825503 10.1427
165400 60.1715 141.219 55.8389 0.0826503 10.1618
165600 60.1715 141.232 55.8389 0.0827503 10.1818
165800 60.1715 141.245 55.8389 0.0828503 10.1971
166000 60.1715 141.259 55.8389 0.0829503 10.1904
166200 60.1715 141.272 55.8389 0.0830503 10.2304
166400 60.1715 141.285 55.8389 0.0831503 10.2357
166600 60.1715 141.298 55.8389 0.0832503 10.2447
166800 60.1715 141.311 55.8389 0.0833503 10.2746
167000 60.1715 141.324 55.8389 0.0834503 10.2716
167200 60.1715 141.337 55.8389 0.0835503 10.2865
167400 60.1715 141.35 55.8389 0.0836503 10.3163
167600 60.1715 141.363 55.8389 0.0837503 10.3288
167800 60.1715 141.376 55.8389 0.0838503 10.3215
168000 60.1715 141.389 55.8389 0.0839503 10.3507
168200 60.1715 141.402 55.8389 0.0840503 10.3709
168400 60.1715 141.415 55.8389 0.0841503 10.3747
168600 60.1715 141.428 55.8389 0.0842503 10.399
168800 60.1715 141.441 55.8389 0.0843503 10.4023
169000 60.1715 141.454 55.8389 0.0844503 10.4278
169200 60.1715 141.467 55.8389 0.0845503 10.4369
169400 60.1715 141.48 55.8389 0.0846503 10.444
169600 60.1715 141.493 55.8389 0.0847503 10.4566
169800 60.1715 141.506 55.8389 0.0848503 10.4755
170000 60.1715 141.519 55.8389 0.0849503 10.4954
170200 60.1715 141.532 55.8389 0.0850503 10.5071
170400 60.1715 141.545 55.8389 0.0851503 10.5079
170600 60.1715 141.559 55.8389 0.0852503 10.5278
170800 60.1715 141.572 55.8389 0.0853503 10.535
171000 60.1715 141.585 55.8389 0.0854503 10.5412
171200 60.1715 141.598 55.8389 0.0855503 10.5549
171400 60.1715 141.611 55.8389 0.0856503 10.5706
171600 60.1715 141.624 55.8389 0.0857503 10.5896
171800 60.1715 141.637 55.8389 0.0858503 10.6037
172000 60.1715 141.65 55.8389 0.0859503 10.6074
172200 60.1715 141.663 55.8389 0.0860503 10.627
172400 60.1715 141.676 55.8389 0.0861503 10.6341
172600 60.1715 141.689 55.8389 0.0862503 10.6575
172800 60.1715 141.702 55.8389 0.0863503 10.6687
173000 60.1715 141.715 55.8389 0.0864503 10.6765
173200 60.1715 141.728 55.8389 0.0865503 10.6964
173400 60.1715 141.741 55.8389 0.0866503 10.7092
173600 60.1715 141.754 55.8389 0.0867503 10.7224
173800 60.1715 141.767 55.8389 0.0868503 10.7251
174000 60.1715 141.78 55.8389 0.0869503 10.7606
174200 60.1715 141.793 55.8389 0.0870503 10.7644
174400 60.1715 141.806 55.8389 0.0871503 10.7849
174600 60.1715 141.819 55.8389 0.0872503 10.8065
174800 60.1715 141.832 55.8389 0.0873503 10.7923
175000 60.1715 141.845 55.8389 0.0874503 10.8313
175200 60.1715 141.859 55.8389 0.0875503 10.8305
175400 60.1715 141.872 55.8389 0.0876503 10.8604
175600 60.1715 141.885 55.8389 0.0877503 10.8543
175800 60.1715 141.898 55.8389 0.0878503 10.8902
176000 60.1715 141.911 55.8389 0.0879503 10.8863
176200 60.1715 141.924 55.8389 0.0880503 10.9075
176400 60.1715 141.937 55.8389 0.0881503 10.9121
176600 60.1715 141.95 55.8389 0.0882503 10.9326
176800 60.1715 141.963 55.8389 0.0883503 10.9427
177000 60.1715 141.976 55.8389 0.0884503 10.9589
177200 60.1715 141.989 55.8389 0.0885503 10.9516
177400 60.1715 142.002 55.8389 0.0886503 10.96
177600 60.1715 142.015 55.8389 0.0887503 10.9814
177800 60.1715 142.028 55.8389 0.0888503 11.0057
178000 60.1715 142.041 55.8389 0.0889503 11.0159
178200 60.1715 142.054 55.8389 0.0890503 11.0172
178400 60.1715 142.067 55.8389 0.0891503 11.0472
178600 60.1715 142.08 55.8389 0.0892503 11.0634
178800 60.1715 142.093 55.8389 0.0893503 11.0531
179000 60.1715 142.106 55.8389 0.0894503 11.0733
179200 60.1715 142.119 55.8389 0.0895503 11.0971
179400 60.1715 142.132 55.8389 0.0896503 11.0999
179600 60.1715 142.145 55.8389 0.0897503 11.128
179800 60.1715 142.159 55.8389 0.0898503 11.1318
180000 60.1715 142.172 55.8389 0.0899503 11.1473
180200 60.1715 142.185 55.8389 0.0900503 11.1563
180400 60.1715 142.198 55.8389 0.0901503 11.1799
180600 60.1715 142.211 55.8389 0.0902503 11.1855
180800 60.1715 142.224 55.8389 0.0903503 11.2015
181000 60.1715 142.237 55.8389 0.0904503 11.2313
181200 60.1715 142.25 55.8389 0.0905503 11.2263
181400 60.1715 142.263 55.8389 0.0906503 11.2337
181600 60.1715 142.276 55.8389 0.0907503 11.2592
181800 60.1715 142.289 55.8389 0.0908503 11.2796
182000 60.1715 142.302 55.8389 0.0909503 11.2894
182200 60.1715 142.315 55.8389 0.0910503 11.2985
182400 60.1715 142.328 55.8389 0.0911503 11.3176
182600 60.1715 142.341 55.8389 0.0912503 11.3375
182800 60.1715 142.354 55.8389 0.0913503 11.3278
183000 60.1715 142.367 55.8389 0.0914503 11.3633
183200 60.1715 142.38 55.8389 0.0915503 11.368
183400 60.1715 142.393 55.8389 0.0916503 11.392
183600 60.1715 142.406 55.8389 0.0917503 11.4029
183800 60.1715 142.419 55.8389 0.0918503 11.4114
184000 60.1715 142.432 55.8389 0.0919503 11.4201
184200 60.1715 142.445 55.8389 0.0920503 11.445
184400 60.1715 142.459 55.8389 0.0921503 11.4657
184600 60.1715 142.472 55.8389 0.0922503 11.4538
184800 60.1715 142.485 55.8389 0.0923503 11.4926
185000 60.1715 142.498 55.8389 0.0924503 11.4859
185200 60.1715 142.511 55.8389 0.0925503 11.5082
185400 60.1715 142.524 55.8389 0.0926503 11.5416
185600 60.1715 142.537 55.8389 0.0927503 11.5325
185800 60.1715 142.55 55.8389 0.0928503 11.5599
186000 60.1715 142.563 55.8389 0.0929503 11.5738
186200 60.1715 142.576 55.8389 0.0930503 11.5699
186400 60.1715 142.589 55.8389 0.0931503 11.5967
186600 60.1715 142.602 55.8389 0.0932503 11.6134
186800 60.1715 142.615 55.8389 0.0933503 11.6266
187000 60.1715 142.628 55.8389 0.0934503 11.6294
187200 60.1715 142.641 55.8389 0.0935503 11.6536
187400 60.1715 142.654 55.8389 0.0936503 11.657
187600 60.1715 142.667 55.8389 0.0937503 11.6792
187800 60.1715 142.68 55.8389 0.0938503 11.687
188000 60.1715 142.693 55.8389 0.0939503 11.6986
188200 60.1715 142.706 55.8389 0.0940503 11.7323
188400 60.1715 142.719 55.8389 0.0941503 11.7253
188600 60.1715 142.732 55.8389 0.0942503 11.7576
188800 60.1715 142.746 55.8389 0.0943503 11.7587
189000 60.1715 142.759 55.8389 0.0944503 11.7626
189200 60.1715 142.772 55.8389 0.0945503 11.7789
189400 60.1715 142.785 55.8389 0.0946503 11.7891
189600 60.1715 142.798 55.8389 0.0947503 11.8146
189800 60.1715 142.811 55.8389 0.0948503 11.82
190000 60.1715 142.824 55.8389 0.0949503 11.8318
190200 60.1715 142.837 55.8389 0.0950503 11.8439
190400 60.1715 142.85 55.8389 0.0951503 11.858
190600 60.1715 142.863 55.8389 0.0952503 11.8868
190800 60.1715 142.876 55.8389 0.0953503 11.8859
191000 60.1715 142.889 55.8389 0.0954503 11.9113
191200 60.1715 142.902 55.8389 0.0955503 11.9281
191400 60.1715 142.915 55.8389 0.0956503 11.9309
191600 60.1715 142.928 55.8389 0.0957503 11.9355
191800 60.1715 142.941 55.8389 0.0958503 11.9714
192000 60.1715 142.954 55.8389 0.0959503 11.984
192200 60.1715 142.967 55.8389 0.0960503 11.966
192400 60.1715 142.98 55.8389 0.0961503 12.0157
192600 60.1715 142.993 55.8389 0.0962503 12.0219
192800 60.1715 143.006 55.8389 0.0963503 12.0166
193000 60.1715 143.019 55.8389 0.0964503 12.0449
193200 60.1715 143.032 55.8389 0.0965503 12.0536
193400 60.1715 143.046 55.8389 0.0966503 12.0799
193600 60.1715 143.059 55.8389 0.0967503 12.0772
193800 60.1715 143.072 55.8389 0.0968503 12.1037
194000 60.1715 143.085 55.8389 0.0969503 12.1046
194200 60.1715 143.098 55.8389 0.0970503 12.1461
194400 60.1715 143.111 55.8389 0.0971503 12.1249
194600 60.1715 143.124 55.8389 0.0972503 12.176
194800 60.1715 143.137 55.8389 0.0973503 12.1668
195000 60.1715 143.15 55.8389 0.0974503 12.1904
195200 60.1715 143.163 55.8389 0.0975503 12.2064
195400 60.1715 143.176 55.8389 0.0976503 12.2257
195600 60.1715 143.189 55.8389 0.0977503 12.2174
195800 60.1715 143.202 55.8389 0.0978503 12.253
196000 60.1715 143.215 55.8389 0.0979503 12.2595
196200 60.1715 143.228 55.8389 0.0980503 12.2635
196400 60.1715 143.241 55.8389 0.0981503 12.2851
196600 60.1715 143.254 55.8389 0.0982503 12.2981
196800 60.1715 143.267 55.8389 0.0983503 12.3125
197000 60.1715 143.28 55.8389 0.0984503 12.3291
197200 60.1715 143.293 55.8389 0.0985503 12.3438
197400 60.1715 143.306 55.8389 0.0986503 12.3658
197600 60.1715 143.319 55.8389 0.0987503 12.3734
197800 60.1715 143.332 55.8389 0.0988503 12.3714
198000 60.1715 143.346 55.8389 0.0989503 12.3967
198200 60.1715 143.359 55.8389 0.0990503 12.4185
198400 60.1715 143.372 55.8389 0.0991503 12.4275
198600 60.1715 143.385 55.8389 0.0992503 12.438
198800 60.1715 143.398 55.8389 0.0993503 12.4504
199000 60.1715 143.411 55.8389 0.0994503 12.4288
199200 60.1715 143.424 55.8389 0.0995503 12.464
199400 60.1715 143.437 55.8389 0.0996503 12.4616
199600 60.1715 143.45 55.8389 0.0997503 12.4754
199800 60.1715 143.463 55.8389 0.0998503 12.4965
200000 60.1715 143.476 55.8389 0.0999503 12.5005
200200 60.1715 143.489 55.8389 0.10005 12.5323
200400 60.1715 143.502 55.8389 0.10015 12.5404
200600 60.1715 143.515 55.8389 0.10025 12.5456
200800 60.1715 143.528 55.8389 0.10035 12.5725
201000 60.1715 143.541 55.8389 0.10045 12.5783
201200 60.1715 143.554 55.8389 0.10055 12.6028
201400 60.1715 143.567 55.8389 0.10065 12.5917
201600 60.1715 143.58 55.8389 0.10075 12.6175
201800 60.1715 143.593 55.8389 0.10085 12.6316
202000 60.1715 143.606 55.8389 0.10095 12.6404
202200 60.1715 143.619 55.8389 0.10105 12.6685
202400 60.1715 143.632 55.8389 0.10115 12.6598
202600 60.1715 143.646 55.8389 0.10125 12.6959
202800 60.1715 143.659 55.8389 0.10135 12.6859
203000 60.1715 143.672 55.8389 0.10145 12.7177
203200 60.1715 143.685 55.8389 0.10155 12.7235
203400 60.1715 143.698 55.8389 0.10165 12.738
203600 60.1715 143.711 55.8389 0.10175 12.7413
203800 60.1715 143.724 55.8389 0.10185 12.7738
204000 60.1715 143.737 55.8389 0.10195 12.7612
204200 60.1715 143.75 55.8389 0.10205 12.7884
204400 60.1715 143.763 55.8389 0.10215 12.8081
204600 60.1715 143.776 55.8389 0.10225 12.8163
204800 60.1715 143.789 55.8389 0.10235 12.8192
205000 60.1715 143.802 55.8389 0.10245 12.8487
205200 60.1715 143.815 55.8389 0.10255 12.8683
205400 60.1715 143.828 55.8389 0.10265 12.8516
205600 60.1715 143.841 55.8389 0.10275 12.8981
205800 60.1715 143.854 55.8389 0.10285 12.9034
206000 60.1715 143.867 55.8389 0.10295 12.9184
206200 60.1715 143.88 55.8389 0.10305 12.9208
206400 60.1715 143.893 55.8389 0.10315 12.9389
206600 60.1715 143.906 55.8389 0.10325 12.9558
206800 60.1715 143.919 55.8389 0.10335 12.9771
207000 60.1715 143.932 55.8389 0.10345 12.9804
207200 60.1715 143.946 55.8389 0.10355 13.0134
207400 60.1715 143.959 55.8389 0.10365 12.9983
207600 60.1715 143.972 55.8389 0.10375 13.03
207800 60.1715 143.985 55.8389 0.10385 13.0467
208000 60.1715 143.998 55.8389 0.10395 13.0567
208200 60.1715 144.011 55.8389 0.10405 13.0742
208400 60.1715 144.024 55.8389 0.10415 13.0905
208600 60.1715 144.037 55.8389 0.10425 13.108
208800 60.1715 144.05 55.8389 0.10435 13.1186
209000 60.1715 144.063 55.8389 0.10445 13.137
209200 60.1715 144.076 55.8389 0.10455 13.1412
209400 60.1715 144.089 55.8389 0.10465 13.1643
209600 60.1715 144.102 55.8389 0.10475 13.173
209800 60.1715 144.115 55.8389 0.10485 13.2009
210000 60.1715 144.128 55.8389 0.10495 13.1832
210200 60.1715 144.141 55.8389 0.10505 13.2144
210400 60.1715 144.154 55.8389 0.10515 13.2449
210600 60.1715 144.167 55.8389 0.10525 13.2384
210800 60.1715 144.18 55.8389 0.10535 13.2722
211000 60.1715 144.193 55.8389 0.10545 13.2654
211200 60.1715 144.206 55.8389 0.10555 13.2832
211400 60.1715 144.219 55.8389 0.10565 13.302
211600 60.1715 144.233 55.8389 0.10575 13.3036
211800 60.1715 144.246 55.8389 0.10585 13.3414
212000 60.1715 144.259 55.8389 0.10595 13.3434
212200 60.1715 144.272 55.8389 0.10605 13.3635
212400 60.1715 144.285 55.8389 0.10615 13.3725
212600 60.1715 144.298 55.8389 0.10625 13.3899
212800 60.1715 144.311 55.8389 0.10635 13.4078
213000 60.1715 144.324 55.8389 0.10645 13.3971
213200 60.1715 144.337 55.8389 0.10655 13.4356
213400 60.1715 144.35 55.8389 0.10665 13.4401
213600 60.1715 144.363 55.8389 0.10675 13.4618
213800 60.1715 144.376 55.8389 0.10685 13.4643
214000 60.1715 144.389 55.8389 0.10695 13.4875
214200 60.1715 144.402 55.8389 0.10705 13.4877
214400 60.1715 144.415 55.8389 0.10715 13.5118
214600 60.1715 144.428 55.8389 0.10725 13.5276
214800 60.1715 144.441 55.8389 0.10735 13.5404
215000 60.1715 144.454 55.8389 0.10745 13.5397
215200 60.1715 144.467 55.8389 0.10755 13.5855
215400 60.1715 144.48 55.8389 0.10765 13.5784
215600 60.1715 144.493 55.8389 0.10775 13.5869
215800 60.1715 144.506 55.8389 0.10785 13.6
216000 60.1715 144.519 55.8389 0.10795 13.6201
216200 60.1715 144.533 55.8389 0.10805 13.6216
216400 60.1715 144.546 55.8389 0.10815 13.6413
216600 60.1715 144.559 55.8389 0.10825 13.6276
216800 60.1715 144.572 55.8389 0.10835 13.6572
217000 60.1715 144.585 55.8389 0.10845 13.6594
217200 60.1715 144.598 55.8389 0.10855 13.6724
217400 60.1715 144.611 55.8389 0.10865 13.6921
217600 60.1715 144.624 55.8389 0.10875 13.7002
217800 60.1715 144.637 55.8389 0.10885 13.7199
218000 60.1715 144.65 55.8389 0.10895 13.725
218200 60.1715 144.663 55.8389 0.10905 13.7409
218400 60.1715 144.676 55.8389 0.10915 13.7529
218600 60.1715 144.689 55.8389 0.10925 13.7687
218800 60.1715 144.702 55.8389 0.10935 13.7842
219000 60.1715 144.715 55.8389 0.10945 13.7848
219200 60.1715 144.728 55.8389 0.10955 13.793
219400 60.1715 144.741 55.8389 0.10965 13.8134
219600 60.1715 144.754 55.8389 0.10975 13.8256
219800 60.1715 144.767 55.8389 0.10985 13.846
220000 60.1715 144.78 55.8389 0.10995 13.854
220200 60.1715 144.793 55.8389 0.11005 13.8764
220400 60.1715 144.806 55.8389 0.11015 13.8914
220600 60.1715 144.819 55.8389 0.11025 13.8976
220800 60.1715 144.833 55.8389 0.11035 13.9061
221000 60.1715 144.846 55.8389 0.11045 13.9325
221200 60.1715 144.859 55.8389 0.11055 13.9398
221400 60.1715 144.872 55.8389 0.11065 13.9597
221600 60.1715 144.885 55.8389 0.11075 13.9654
221800 60.1715 144.898 55.8389 0.11085 13.9868
222000 60.1715 144.911 55.8389 0.11095 13.9786
222200 60.1715 144.924 55.8389 0.11105 13.9864
222400 60.1715 144.937 55.8389 0.11115 13.9824
222600 60.1715 144.95 55.8389 0.11125 13.9977
222800 60.1715 144.963 55.8389 0.11135 14.0046
223000 60.1715 144.976 55.8389 0.11145 14.0217
223200 60.1715 144.989 55.8389 0.11155 14.0589
223400 60.1715 145.002 55.8389 0.11165 14.041
223600 60.1715 145.015 55.8389 0.11175 14.0731
223800 60.1715 145.028 55.8389 0.11185 14.0929
224000 60.1715 145.041 55.8389 0.11195 14.0916
224200 60.1715 145.054 55.8389 0.11205 14.1185
224400 60.1715 145.067 55.8389 0.11215 14.1098
224600 60.1715 145.08 55.8389 0.11225 14.1418
224800 60.1715 145.093 55.8389 0.11235 14.1687
225000 60.1715 145.106 55.8389 0.11245 14.1648
225200 60.1715 145.119 55.8389 0.11255 14.1764
225400 60.1715 145.133 55.8389 0.11265 14.2046
225600 60.1715 145.146 55.8389 0.11275 14.2057
225800 60.1715 145.159 55.8389 0.11285 14.2268
226000 60.1715 145.172 55.8389 0.11295 14.2358
226200 60.1715 145.185 55.8389 0.11305 14.2588
226400 60.1715 145.198 55.8389 0.11315 14.2646
226600 60.1715 145.211 55.8389 0.11325 14.2807
226800 60.1715 145.224 55.8389 0.11335 14.298
227000 60.1715 145.237 55.8389 0.11345 14.3116
227200 60.1715 145.25 55.8389 0.11355 14.3166
227400 60.1715 145.263 55.8389 0.11365 14.3403
227600 60.1715 145.276 55.8389 0.11375 14.3452
227800 60.1715 145.289 55.8389 0.11385 14.3765
228000 60.1715 145.302 55.8389 0.11395 14.3617
228200 60.1715 145.315 55.8389 0.11405 14.3956
228400 60.1715 145.328 55.8389 0.11415 14.4091
228600 60.1715 145.341 55.8389 0.11425 14.4167
228800 60.1715 145.354 55.8389 0.11435 14.4262
229000 60.1715 145.367 55.8389 0.11445 14.4488
229200 60.1715 145.38 55.8389 0.11455 14.4678
229400 60.1715 145.393 55.8389 0.11465 14.4674
229600 60.1715 145.406 55.8389 0.11475 14.4999
229800 60.1715 145.419 55.8389 0.11485 14.4932
230000 60.1715 145.433 55.8389 0.11495 14.5337
230200 60.1715 145.446 55.8389 0.11505 14.5118
230400 60.1715 145.459 55.8389 0.11515 14.5612
230600 60.1715 145.472 55.8389 0.11525 14.5587
230800 60.1715 145.485 55.8389 0.11535 14.5659
231000 60.1715 145.498 55.8389 0.11545 14.5923
231200 60.1715 145.511 55.8389 0.11555 14.6039
231400 60.1715 145.524 55.8389 0.11565 14.618
231600 60.1715 145.537 55.8389 0.11575 14.6307
231800 60.1715 145.55 55.8389 0.11585 14.6359
232000 60.1715 145.563 55.8389 0.11595 14.6631
232200 60.1715 145.576 55.8389 0.11605 14.6791
232400 60.1715 145.589 55.8389 0.11615 14.6719
232600 60.1715 145.602 55.8389 0.11625 14.6966
232800 60.1715 145.615 55.8389 0.11635 14.7062
233000 60.1715 145.628 55.8389 0.11645 14.6798
233200 60.1715 145.641 55.8389 0.11655 14.6947
233400 60.1715 145.654 55.8389 0.11665 14.7163
233600 60.1715 145.667 55.8389 0.11675 14.7329
233800 60.1715 145.68 55.8389 0.11685 14.7403
234000 60.1715 145.693 55.8389 0.11695 14.7543
234200 60.1715 145.706 55.8389 0.11705 14.7736
234400 60.1715 145.72 55.8389 0.11715 14.7931
234600 60.1715 145.733 55.8389 0.11725 14.7932
234800 60.1715 145.746 55.8389 0.11735 14.8267
235000 60.1715 145.759 55.8389 0.11745 14.8122
235200 60.1715 145.772 55.8389 0.11755 14.8107
235400 60.1715 145.785 55.8389 0.11765 14.8285
235600 60.1715 145.798 55.8389 0.11775 14.8474
235800 60.1715 145.811 55.8389 0.11785 14.8723
236000 60.1715 145.824 55.8389 0.11795 14.8662
236200 60.1715 145.837 55.8389 0.11805 14.8991
236400 60.1715 145.85 55.8389 0.11815 14.8845
236600 60.1715 145.863 55.8389 0.11825 14.866
236800 60.1715 145.876 55.8389 0.11835 14.8734
237000 60.1715 145.889 55.8389 0.11845 14.8713
237200 60.1715 145.902 55.8389 0.11855 14.8795
237400 60.1715 145.915 55.8389 0.11865 14.9007
237600 60.1715 145.928 55.8389 0.11875 14.8765
237800 60.1715 145.941 55.8389 0.11885 14.8725
238000 60.1715 145.954 55.8389 0.11895 14.8471
238200 60.1715 145.967 55.8389 0.11905 14.87
238400 60.1715 145.98 55.8389 0.11915 14.8735
238600 60.1715 145.993 55.8389 0.11925 14.9008
238800 60.1715 146.006 55.8389 0.11935 14.8813
239000 60.1715 146.02 55.8389 0.11945 14.8739
239200 60.1715 146.033 55.8389 0.11955 14.887
239400 60.1715 146.046 55.8389 0.11965 14.8939
239600 60.1715 146.059 55.8389 0.11975 14.8916
239800 60.1715 146.072 55.8389 0.11985 14.9065
240000 60.1715 146.085 55.8389 0.11995 14.9295
240200 60.1715 146.098 55.8389 0.12005 14.9274
240400 60.1715 146.111 55.8389 0.12015 14.9445
240600 60.1715 146.124 55.8389 0.12025 14.9416
240800 60.1715 146.137 55.8389 0.12035 14.9527
241000 60.1715 146.15 55.8389 0.12045 14.9418
241200 60.1715 146.163 55.8389 0.12055 14.9496
241400 60.1715 146.176 55.8389 0.12065 14.9686
241600 60.1715 146.189 55.8389 0.12075 14.9768
241800 60.1715 146.202 55.8389 0.12085 14.9719
242000 60.1715 146.215 55.8389 0.12095 15.0015
242200 60.1715 146.228 55.8389 0.12105 15.0028
242400 60.1715 146.241 55.8389 0.12115 15.0093
242600 60.1715 146.254 55.8389 0.12125 15.0183
242800 60.1715 146.267 55.8389 0.12135 15.0406
243000 60.1715 146.28 55.8389 0.12145 15.0386
243200 60.1715 146.293 55.8389 0.12155 15.0639
243400 60.1715 146.306 55.8389 0.12165 15.0725
243600 60.1715 146.32 55.8389 0.12175 15.07
243800 60.1715 146.333 55.8389 0.12185 15.0987
244000 60.1715 146.346 55.8389 0.12195 15.0966
244200 60.1715 146.359 55.8389 0.12205 15.1179
244400 60.1715 146.372 55.8389 0.12215 15.11
244600 60.1715 146.385 55.8389 0.12225 15.1271
244800 60.1715 146.398 55.8389 0.12235 15.1385
245000 60.1715 146.411 55.8389 0.12245 15.1418
245200 60.1715 146.424 55.8389 0.12255 15.1328
245400 60.1715 146.437 55.8389 0.12265 15.165
245600 60.1715 146.45 55.8389 0.12275 15.1472
245800 60.1715 146.463 55.8389 0.12285 15.1677
246000 60.1715 146.476 55.8389 0.12295 15.1818
246200 60.1715 146.489 55.8389 0.12305 15.1987
246400 60.1715 146.502 55.8389 0.12315 15.22
246600 60.1715 146.515 55.8389 0.12325 15.228
246800 60.1715 146.528 55.8389 0.12335 15.2217
247000 60.1715 146.541 55.8389 0.12345 15.2362
247200 60.1715 146.554 55.8389 0.12355 15.2363
247400 60.1715 146.567 55.8389 0.12365 15.2575
247600 60.1715 146.58 55.8389 0.12375 15.2696
247800 60.1715 146.593 55.8389 0.12385 15.2963
248000 60.1715 146.606 55.8389 0.12395 15.2974
248200 60.1715 146.62 55.8389 0.12405 15.2966
248400 60.1715 146.633 55.8389 0.12415 15.3059
248600 60.1715 146.646 55.8389 0.12425 15.334
248800 60.1715 146.659 55.8389 0.12435 15.3253
249000 60.1715 146.672 55.8389 0.12445 15.3518
249200 60.1715 146.685 55.8389 0.12455 15.3574
249400 60.1715 146.698 55.8389 0.12465 15.3681
249600 60.1715 146.711 55.8389 0.12475 15.3919
249800 60.1715 146.724 55.8389 0.12485 15.4107
250000 60.1715 146.737 55.8389 0.12495 15.4103
250200 60.1715 146.75 55.8389 0.12505 15.4124
250400 60.1715 146.763 55.8389 0.12515 15.4587
250600 60.1715 146.776 55.8389 0.12525 15.4505
250800 60.1715 146.789 55.8389 0.12535 15.4308
251000 60.1715 146.802 55.8389 0.12545 15.4287
251200 60.1715 146.815 55.8389 0.12555 15.451
251400 60.1715 146.828 55.8389 0.12565 15.4522
251600 60.1715 146.841 55.8389 0.12575 15.4612
251800 60.1715 146.854 55.8389 0.12585 15.4813
252000 60.1715 146.867 55.8389 0.12595 15.4788
252200 60.1715 146.88 55.8389 0.12605 15.4806
252400 60.1715 146.893 55.8389 0.12615 15.4669
252600 60.1715 146.906 55.8389 0.12625 15.5151
252800 60.1715 146.92 55.8389 0.12635 15.5037
253000 60.1715 146.933 55.8389 0.12645 15.5414
253200 60.1715 146.946 55.8389 0.12655 15.5147
253400 60.1715 146.959 55.8389 0.12665 15.5326
253600 60.1715 146.972 55.8389 0.12675 15.5273
253800 60.1715 146.985 55.8389 0.12685 15.5413
254000 60.1715 146.998 55.8389 0.12695 15.5406
254200 60.1715 147.011 55.8389 0.12705 15.5569
254400 60.1715 147.024 55.8389 0.12715 15.5745
254600 60.1715 147.037 55.8389 0.12725 15.5741
254800 60.1715 147.05 55.8389 0.12735 15.6048
255000 60.1715 147.063 55.8389 0.12745 15.6159
255200 60.1715 147.076 55.8389 0.12755 15.6239
255400 60.1715 147.089 55.8389 0.12765 15.6353
255600 60.1715 147.102 55.8389 0.12775 15.6565
255800 60.1715 147.115 55.8389 0.12785 15.6284
256000 60.1715 147.128 55.8389 0.12795 15.6284
256200 60.1715 147.141 55.8389 0.12805 15.6341
256400 60.1715 147.154 55.8389 0.12815 15.6463
256600 60.1715 147.167 55.8389 0.12825 15.6684
256800 60.1715 147.18 55.8389 0.12835 15.6688
257000 60.1715 147.193 55.8389 0.12845 15.6919
257200 60.1715 147.207 55.8389 0.12855 15.667
257400 60.1715 147.22 55.8389 0.12865 15.6711
257600 60.1715 147.233 55.8389 0.12875 15.6786
257800 60.1715 147.246 55.8389 0.12885 15.6999
258000 60.1715 147.259 55.8389 0.12895 15.6762
258200 60.1715 147.272 55.8389 0.12905 15.7134
258400 60.1715 147.285 55.8389 0.12915 15.7156
258600 60.1715 147.298 55.8389 0.12925 15.7311
258800 60.1715 147.311 55.8389 0.12935 15.7507
259000 60.1715 147.324 55.8389 0.12945 15.7484
259200 60.1715 147.337 55.8389 0.12955 15.7485
259400 60.1715 147.35 55.8389 0.12965 15.7486
259600 60.1715 147.363 55.8389 0.12975 15.7495
259800 60.1715 147.376 55.8389 0.12985 15.7592
260000 60.1715 147.389 55.8389 0.12995 15.7674
260200 60.1715 147.402 55.8389 0.13005 15.7921
260400 60.1715 147.415 55.8389 0.13015 15.7963
260600 60.1715 147.428 55.8389 0.13025 15.8096
260800 60.1715 147.441 55.8389 0.13035 15.8185
261000 60.1715 147.454 55.8389 0.13045 15.8179
261200 60.1715 147.467 55.8389 0.13055 15.8391
261400 60.1715 147.48 55.8389 0.13065 15.8507
261600 60.1715 147.493 55.8389 0.13075 15.8608
261800 60.1715 147.507 55.8389 0.13085 15.8574
262000 60.1715 147.52 55.8389 0.13095 15.895
262200 60.1715 147.533 55.8389 0.13105 15.8852
262400 60.1715 147.546 55.8389 0.13115 15.9023
262600 60.1715 147.559 55.8389 0.13125 15.9014
262800 60.1715 147.572 55.8389 0.13135 15.9126
263000 60.1715 147.585 55.8389 0.13145 15.9402
263200 60.1715 147.598 55.8389 0.13155 15.9391
263400 60.1715 147.611 55.8389 0.13165 15.9456
263600 60.1715 147.624 55.8389 0.13175 15.9752
263800 60.1715 147.637 55.8389 0.13185 15.9867
264000 60.1715 147.65 55.8389 0.13195 15.9786
264200 60.1715 147.663 55.8389 0.13205 16.0103
264400 60.1715 147.676 55.8389 0.13215 15.9985
264600 60.1715 147.689 55.8389 0.13225 16.0497
264800 60.1715 147.702 55.8389 0.13235 16.0322
265000 60.1715 147.715 55.8389 0.13245 16.067
265200 60.1715 147.728 55.8389 0.13255 16.0535
265400 60.1715 147.741 55.8389 0.13265 16.0624
265600 60.1715 147.754 55.8389 0.13275 16.0777
265800 60.1715 147.767 55.8389 0.13285 16.0718
266000 60.1715 147.78 55.8389 0.13295 16.0751
266200 60.1715 147.793 55.8389 0.13305 16.1071
266400 60.1715 147.807 55.8389 0.13315 16.0959
266600 60.1715 147.82 55.8389 0.13325 16.1241
266800 60.1715 147.833 55.8389 0.13335 16.1154
267000 60.1715 147.846 55.8389 0.13345 16.1217
267200 60.1715 147.859 55.8389 0.13355 16.143
267400 60.1715 147.872 55.8389 0.13365 16.1613
267600 60.1715 147.885 55.8389 0.13375 16.1596
267800 60.1715 147.898 55.8389 0.13385 16.1334
268000 60.1715 147.911 55.8389 0.13395 16.153
268200 60.1715 147.924 55.8389 0.13405 16.1584
268400 60.1715 147.937 55.8389 0.13415 16.1694
268600 60.1715 147.95 55.8389 0.13425 16.1476
268800 60.1715 147.963 55.8389 0.13435 16.1493
269000 60.1715 147.976 55.8389 0.13445 16.1437
269200 60.1715 147.989 55.8389 0.13455 16.1658
269400 60.1715 148.002 55.8389 0.13465 16.1838
269600 60.1715 148.015 55.8389 0.13475 16.1848
269800 60.1715 148.028 55.8389 0.13485 16.2113
270000 60.1715 148.041 55.8389 0.13495 16.2141
270200 60.1715 148.054 55.8389 0.13505 16.2332
270400 60.1715 148.067 55.8389 0.13515 16.231
270600 60.1715 148.08 55.8389 0.13525 16.2245
270800 60.1715 148.093 55.8389 0.13535 16.2453
271000 60.1715 148.107 55.8389 0.13545 16.2253
271200 60.1715 148.12 55.8389 0.13555 16.1902
271400 60.1715 148.133 55.8389 0.13565 16.2145
271600 60.1715 148.146 55.8389 0.13575 16.1912
271800 60.1715 148.159 55.8389 0.13585 16.243
272000 60.1715 148.172 55.8389 0.13595 16.2171
272200 60.1715 148.185 55.8389 0.13605 16.2333
272400 60.1715 148.198 55.8389 0.13615 16.256
272600 60.1715 148.211 55.8389 0.13625 16.2622
272800 60.1715 148.224 55.8389 0.13635 16.2692
273000 60.1715 148.237 55.8389 0.13645 16.285
273200 60.1715 148.25 55.8389 0.13655 16.2899
273400 60.1715 148.263 55.8389 0.13665 16.2882
273600 60.1715 148.276 55.8389 0.13675 16.3303
273800 60.1715 148.289 55.8389 0.13685 16.3011
274000 60.1715 148.302 55.8389 0.13695 16.2898
274200 60.1715 148.315 55.8389 0.13705 16.3003
274400 60.1715 148.328 55.8389 0.13715 16.3154
274600 60.1715 148.341 55.8389 0.13725 16.3322
274800 60.1715 148.354 55.8389 0.13735 16.3472
275000 60.1715 148.367 55.8389 0.13745 16.3577
275200 60.1715 148.38 55.8389 0.13755 16.3721
275400 60.1715 148.393 55.8389 0.13765 16.3731
275600 60.1715 148.407 55.8389 0.13775 16.3852
275800 60.1715 148.42 55.8389 0.13785 16.3667
276000 60.1715 148.433 55.8389 0.13795 16.3946
276200 60.1715 148.446 55.8389 0.13805 16.4
276400 60.1715 148.459 55.8389 0.13815 16.4209
276600 60.1715 148.472 55.8389 0.13825 16.3972
276800 60.1715 148.485 55.8389 0.13835 16.3872
277000 60.1715 148.498 55.8389 0.13845 16.3335
277200 60.1715 148.511 55.8389 0.13855 16.3427
277400 60.1715 148.524 55.8389 0.13865 16.3402
277600 60.1715 148.537 55.8389 0.13875 16.3228
277800 60.1715 148.55 55.8389 0.13885 16.3337
278000 60.1715 148.563 55.8389 0.13895 16.3353
278200 60.1715 148.576 55.8389 0.13905 16.3622
278400 60.1715 148.589 55.8389 0.13915 16.3372
278600 60.1715 148.602 55.8389 0.13925 16.3766
278800 60.1715 148.615 55.8389 0.13935 16.3511
279000 60.1715 148.628 55.8389 0.13945 16.3557
279200 60.1715 148.641 55.8389 0.13955 16.3211
279400 60.1715 148.654 55.8389 0.13965 16.288
279600 60.1715 148.667 55.8389 0.13975 16.3015
279800 60.1715 148.68 55.8389 0.13985 16.3088
280000 60.1715 148.694 55.8389 0.13995 16.3199
280200 60.1715 148.707 55.8389 0.14005 16.3331
280400 60.1715 148.72 55.8389 0.14015 16.3585
280600 60.1715 148.733 55.8389 0.14025 16.35
280800 60.1715 148.746 55.8389 0.14035 16.3666
281000 60.1715 148.759 55.8389 0.14045 16.3791
281200 60.1715 148.772 55.8389 0.14055 16.3691
281400 60.1715 148.785 55.8389 0.14065 16.3547
281600 60.1715 148.798 55.8389 0.14075 16.3511
281800 60.1715 148.811 55.8389 0.14085 16.3609
282000 60.1715 148.824 55.8389 0.14095 16.3494
282200 60.1715 148.837 55.8389 0.14105 16.3126
282400 60.1715 148.85 55.8389 0.14115 16.3095
282600 60.1715 148.863 55.8389 0.14125 16.3364
282800 60.1715 148.876 55.8389 0.14135 16.2977
283000 60.1715 148.889 55.8389 0.14145 16.3317
283200 60.1715 148.902 55.8389 0.14155 16.3173
283400 60.1715 148.915 55.8389 0.14165 16.352
283600 60.1715 148.928 55.8389 0.14175 16.3533
283800 60.1715 148.941 55.8389 0.14185 16.3652
284000 60.1715 148.954 55.8389 0.14195 16.3256
284200 60.1715 148.967 55.8389 0.14205 16.3521
284400 60.1715 148.98 55.8389 0.14215 16.3373
284600 60.1715 148.994 55.8389 0.14225 16.3238
284800 60.1715 149.007 55.8389 0.14235 16.3104
285000 60.1715 149.02 55.8389 0.14245 16.2863
285200 60.1715 149.033 55.8389 0.14255 16.2811
285400 60.1715 149.046 55.8389 0.14265 16.2583
285600 60.1715 149.059 55.8389 0.14275 16.2511
285800 60.1715 149.072 55.8389 0.14285 16.2404
286000 60.1715 149.085 55.8389 0.14295 16.2247
286200 60.1715 149.098 55.8389 0.14305 16.2406
286400 60.1715 149.111 55.8389 0.14315 16.1802
286600 60.1715 149.124 55.8389 0.14325 16.207
286800 60.1715 149.137 55.8389 0.14335 16.1943
287000 60.1715 149.15 55.8389 0.14345 16.226
287200 60.1715 149.163 55.8389 0.14355 16.2423
287400 60.1715 149.176 55.8389 0.14365 16.2213
287600 60.1715 149.189 55.8389 0.14375 16.2299
287800 60.1715 149.202 55.8389 0.14385 16.2284
288000 60.1715 149.215 55.8389 0.14395 16.1944
288200 60.1715 149.228 55.8389 0.14405 16.2063
288400 60.1715 149.241 55.8389 0.14415 16.1901
288600 60.1715 149.254 55.8389 0.14425 16.1475
288800 60.1715 149.267 55.8389 0.14435 16.157
289000 60.1715 149.28 55.8389 0.14445 16.1433
289200 60.1715 149.294 55.8389 0.14455 16.1164
289400 60.1715 149.307 55.8389 0.14465 16.1069
289600 60.1715 149.32 55.8389 0.14475 16.1068
289800 60.1715 149.333 55.8389 0.14485 16.0956
290000 60.1715 149.346 55.8389 0.14495 16.1384
290200 60.1715 149.359 55.8389 0.14505 16.1372
290400 60.1715 149.372 55.8389 0.14515 16.1733
290600 60.1715 149.385 55.8389 0.14525 16.1513
290800 60.1715 149.398 55.8389 0.14535 16.1703
291000 60.1715 149.411 55.8389 0.14545 16.1891
291200 60.1715 149.424 55.8389 0.14555 16.1879
291400 60.1715 149.437 55.8389 0.14565 16.1686
291600 60.1715 149.45 55.8389 0.14575 16.2399
291800 60.1715 149.463 55.8389 0.14585 16.209
292000 60.1715 149.476 55.8389 0.14595 16.2186
292200 60.1715 149.489 55.8389 0.14605 16.2029
292400 60.1715 149.502 55.8389 0.14615 16.1921
292600 60.1715 149.515 55.8389 0.14625 16.1798
292800 60.1715 149.528 55.8389 0.14635 16.195
293000 60.1715 149.541 55.8389 0.14645 16.1781
293200 60.1715 149.554 55.8389 0.14655 16.1907
293400 60.1715 149.567 55.8389 0.14665 16.198
293600 60.1715 149.58 55.8389 0.14675 16.2179
293800 60.1715 149.594 55.8389 0.14685 16.2206
294000 60.1715 149.607 55.8389 0.14695 16.2512
294200 60.1715 149.62 55.8389 0.14705 16.2523
294400 60.1715 149.633 55.8389 0.14715 16.2524
294600 60.1715 149.646 55.8389 0.14725 16.3127
294800 60.1715 149.659 55.8389 0.14735 16.2814
295000 60.1715 149.672 55.8389 0.14745 16.2776
295200 60.1715 149.685 55.8389 0.14755 16.3018
295400 60.1715 149.698 55.8389 0.14765 16.3216
295600 60.1715 149.711 55.8389 0.14775 16.3134
295800 60.1715 149.724 55.8389 0.14785 16.3124
296000 60.1715 149.737 55.8389 0.14795 16.2729
296200 60.1715 149.75 55.8389 0.14805 16.2586
296400 60.1715 149.763 55.8389 0.14815 16.2667
296600 60.1715 149.776 55.8389 0.14825 16.2578
296800 60.1715 149.789 55.8389 0.14835 16.295
297000 60.1715 149.802 55.8389 0.14845 16.2728
297200 60.1715 149.815 55.8389 0.14855 16.2813
297400 60.1715 149.828 55.8389 0.14865 16.2759
297600 60.1715 149.841 55.8389 0.14875 16.3005
297800 60.1715 149.854 55.8389 0.14885 16.2728
298000 60.1715 149.867 55.8389 0.14895 16.2977
298200 60.1715 149.88 55.8389 0.14905 16.3017
298400 60.1715 149.894 55.8389 0.14915 16.3001
298600 60.1715 149.907 55.8389 0.14925 16.3156
298800 60.1715 149.92 55.8389 0.14935 16.301
299000 60.1715 149.933 55.8389 0.14945 16.2817
299200 60.1715 149.946 55.8389 0.14955 16.2506
299400 60.1715 149.959 55.8389 0.14965 16.2239
299600 60.1715 149.972 55.8389 0.14975 16.2323
299800 60.1715 149.985 55.8389 0.14985 16.2097
300000 60.1715 149.998 55.8389 0.14995 16.2171
300200 60.1715 150.011 55.8389 0.15005 16.2142
300400 60.1715 150.024 55.8389 0.15015 16.1826
300600 60.1715 150.037 55.8389 0.15025 16.2224
300800 60.1715 150.05 55.8389 0.15035 16.2399
301000 60.1715 150.063 55.8389 0.15045 16.2407
301200 60.1715 150.076 55.8389 0.15055 16.2015
301400 60.1715 150.089 55.8389 0.15065 16.2047
301600 60.1715 150.102 55.8389 0.15075 16.2047
301800 60.1715 150.115 55.8389 0.15085 16.2229
302000 60.1715 150.128 55.8389 0.15095 16.1982
302200 60.1715 150.141 55.8389 0.15105 16.1735
302400 60.1715 150.154 55.8389 0.15115 16.1862
302600 60.1715 150.167 55.8389 0.15125 16.2045
302800 60.1715 150.181 55.8389 0.15135 16.1842
303000 60.1715 150.194 55.8389 0.15145 16.2026
303200 60.1715 150.207 55.8389 0.15155 16.1799
303400 60.1715 150.22 55.8389 0.15165 16.204
303600 60.1715 150.233 55.8389 0.15175 16.2187
303800 60.1715 150.246 55.8389 0.15185 16.211
304000 60.1715 150.259 55.8389 0.15195 16.2493
304200 60.1715 150.272 55.8389 0.15205 16.2175
304400 60.1715 150.285 55.8389 0.15215 16.2224
304600 60.1715 150.298 55.8389 0.15225 16.1992
304800 60.1715 150.311 55.8389 0.15235 16.2132
305000 60.1715 150.324 55.8389 0.15245 16.2353
305200 60.1715 150.337 55.8389 0.15255 16.2267
305400 60.1715 150.35 55.8389 0.15265 16.2095
305600 60.1715 150.363 55.8389 0.15275 16.1826
305800 60.1715 150.376 55.8389 0.15285 16.207
306000 60.1715 150.389 55.8389 0.15295 16.2103
306200 60.1715 150.402 55.8389 0.15305 16.2421
306400 60.1715 150.415 55.8389 0.15315 16.2308
306600 60.1715 150.428 55.8389 0.15325 16.2134
306800 60.1715 150.441 55.8389 0.15335 16.2287
307000 60.1715 150.454 55.8389 0.15345 16.2086
307200 60.1715 150.467 55.8389 0.15355 16.241
307400 60.1715 150.481 55.8389 0.15365 16.232
307600 60.1715 150.494 55.8389 0.15375 16.249
307800 60.1715 150.507 55.8389 0.15385 16.2517
308000 60.1715 150.52 55.8389 0.15395 16.2464
308200 60.1715 150.533 55.8389 0.15405 16.2538
308400 60.1715 150.546 55.8389 0.15415 16.2333
308600 60.1715 150.559 55.8389 0.15425 16.2438
308800 60.1715 150.572 55.8389 0.15435 16.2598
309000 60.1715 150.585 55.8389 0.15445 16.2696
309200 60.1715 150.598 55.8389 0.15455 16.2818
309400 60.1715 150.611 55.8389 0.15465 16.2985
309600 60.1715 150.624 55.8389 0.15475 16.2926
309800 60.1715 150.637 55.8389 0.15485 16.3045
310000 60.1715 150.65 55.8389 0.15495 16.3069
310200 60.1715 150.663 55.8389 0.15505 16.3018
310400 60.1715 150.676 55.8389 0.15515 16.2344
310600 60.1715 150.689 55.8389 0.15525 16.2039
310800 60.1715 150.702 55.8389 0.15535 16.194
311000 60.1715 150.715 55.8389 0.15545 16.1324
311200 60.1715 150.728 55.8389 0.15555 16.1181
311400 60.1715 150.741 55.8389 0.15565 16.0857
311600 60.1715 150.754 55.8389 0.15575 16.0627
311800 60.1715 150.767 55.8389 0.15585 15.9034
312000 60.1715 150.781 55.8389 0.15595 15.7333
312200 60.1715 150.794 55.8389 0.15605 15.6259
312400 60.1715 150.807 55.8389 0.15615 15.4731
312600 60.1715 150.82 55.8389 0.15625 15.2197
312800 60.1715 150.833 55.8389 0.15635 14.8951
313000 60.1715 150.846 55.8389 0.15645 14.4533
313200 60.1715 150.859 55.8389 0.15655 13.9143
313400 60.1715 150.872 55.8389 0.15665 13.1156
313600 60.1715 150.885 55.8389 0.15675 12.1227
313800 60.1715 150.898 55.8389 0.15685 10.7371
314000 60.1715 150.911 55.8389 0.15695 8.73509
314200 60.1715 150.924 55.8389 0.15705 6.42652
314400 60.1715 150.937 55.8389 0.15715 4.28836
314600 60.1715 150.95 55.8389 0.15725 2.27252
314800 60.1715 150.963 55.8389 0.15735 0.562622
315000 60.1715 150.976 55.8389 0.15745 -0.655896
315200 60.1715 150.989 55.8389 0.15755 -1.67913
315400 60.1715 151.002 55.8389 0.15765 -2.47184
315600 60.1715 151.015 55.8389 0.15775 -3.08086
315800 60.1715 151.028 55.8389 0.15785 -3.47716
316000 60.1715 151.041 55.8389 0.15795 -3.66764
316200 60.1715 151.054 55.8389 0.15805 -3.60253
316400 60.1715 151.067 55.8389 0.15815 -3.33469
316600 60.1715 151.081 55.8389 0.15825 -2.88748
316800 60.1715 151.094 55.8389 0.15835 -2.23749
317000 60.1715 151.107 55.8389 0.15845 -1.42019
317200 60.1715 151.12 55.8389 0.15855 -0.551957
317400 60.1715 151.133 55.8389 0.15865 0.587434
317600 60.1715 151.146 55.8389 0.15875 1.8173
317800 60.1715 151.159 55.8389 0.15885 3.11864
318000 60.1715 151.172 55.8389 0.15895 4.20041
318200 60.1715 151.185 55.8389 0.15905 4.72698
318400 60.1715 151.198 55.8389 0.15915 4.56097
318600 60.1715 151.211 55.8389 0.15925 3.67791
318800 60.1715 151.224 55.8389 0.15935 2.50756
319000 60.1715 151.237 55.8389 0.15945 1.24003
319200 60.1715 151.25 55.8389 0.15955 0.0852912
319400 60.1715 151.263 55.8389 0.15965 -0.896854
319600 60.1715 151.276 55.8389 0.15975 -1.70593
319800 60.1715 151.289 55.8389 0.15985 -2.34814
320000 60.1715 151.302 55.8389 0.15995 -2.83026
320200 60.1715 151.315 55.8389 0.16005 -3.02035
320400 60.1715 151.328 55.8389 0.16015 -3.07573
320600 60.1715 151.341 55.8389 0.16025 -2.87841
320800 60.1715 151.354 55.8389 0.16035 -2.51499
321000 60.1715 151.367 55.8389 0.16045 -1.99545
321200 60.1715 151.381 55.8389 0.16055 -1.30386
321400 60.1715 151.394 55.8389 0.16065 -0.439454
321600 60.1715 151.407 55.8389 0.16075 0.579481
321800 60.1715 151.42 55.8389 0.16085 1.66555
322000 60.1715 151.433 55.8389 0.16095 2.74564
322200 60.1715 151.446 55.8389 0.16105 3.64935
322400 60.1715 151.459 55.8389 0.16115 4.02599
322600 60.1715 151.472 55.8389 0.16125 3.82435
322800 60.1715 151.485 55.8389 0.16135 3.11221
323000 60.1715 151.498 55.8389 0.16145 2.1127
323200 60.1715 151.511 55.8389 0.16155 1.01986
323400 60.1715 151.524 55.8389 0.16165 0.0408372
323600 60.1715 151.537 55.8389 0.16175 -0.827863
323800 60.1715 151.55 55.8389 0.16185 -1.54131
324000 60.1715 151.563 55.8389 0.16195 -2.13688
324200 60.1715 151.576 55.8389 0.16205 -2.5492
324400 60.1715 151.589 55.8389 0.16215 -2.75191
324600 60.1715 151.602 55.8389 0.16225 -2.74486
324800 60.1715 151.615 55.8389 0.16235 -2.53679
325000 60.1715 151.628 55.8389 0.16245 -2.15928
325200 60.1715 151.641 55.8389 0.16255 -1.61317
325400 60.1715 151.654 55.8389 0.16265 -0.951446
325600 60.1715 151.668 55.8389 0.16275 -0.16199
325800 60.1715 151.681 55.8389 0.16285 0.742193
326000 60.1715 151.694 55.8389 0.16295 1.74641
326200 60.1715 151.707 55.8389 0.16305 2.60531
326400 60.1715 151.72 55.8389 0.16315 3.27418
326600 60.1715 151.733 55.8389 0.16325 3.49225
326800 60.1715 151.746 55.8389 0.16335 3.18252
327000 60.1715 151.759 55.8389 0.16345 2.52061
327200 60.1715 151.772 55.8389 0.16355 1.59857
327400 60.1715 151.785 55.8389 0.16365 0.635101
327600 60.1715 151.798 55.8389 0.16375 -0.263001
327800 60.1715 151.811 55.8389 0.16385 -1.05384
328000 60.1715 151.824 55.8389 0.16395 -1.66006
328200 60.1715 151.837 55.8389 0.16405 -2.1528
328400 60.1715 151.85 55.8389 0.16415 -2.45417
328600 60.1715 151.863 55.8389 0.16425 -2.57391
328800 60.1715 151.876 55.8389 0.16435 -2.49794
329000 60.1715 151.889 55.8389 0.16445 -2.27374
329200 60.1715 151.902 55.8389 0.16455 -1.87028
329400 60.1715 151.915 55.8389 0.16465 -1.29308
329600 60.1715 151.928 55.8389 0.16475 -0.56799
329800 60.1715 151.941 55.8389 0.16485 0.217834
330000 60.1715 151.954 55.8389 0.16495 1.1115
330200 60.1715 151.968 55.8389 0.16505 1.98218
330400 60.1715 151.981 55.8389 0.16515 2.72425
330600 60.1715 151.994 55.8389 0.16525 3.14405
330800 60.1715 152.007 55.8389 0.16535 3.1495
331000 60.1715 152.02 55.8389 0.16545 2.71706
331200 60.1715 152.033 55.8389 0.16555 1.97146
331400 60.1715 152.046 55.8389 0.16565 1.09448
331600 60.1715 152.059 55.8389 0.16575 0.217138
331800 60.1715 152.072 55.8389 0.16585 -0.599983
332000 60.1715 152.085 55.8389 0.16595 -1.2774
332200 60.1715 152.098 55.8389 0.16605 -1.77435
332400 60.1715 152.111 55.8389 0.16615 -2.16212
332600 60.1715 152.124 55.8389 0.16625 -2.37013
332800 60.1715 152.137 55.8389 0.16635 -2.39979
333000 60.1715 152.15 55.8389 0.16645 -2.23042
333200 60.1715 152.163 55.8389 0.16655 -1.96587
333400 60.1715 152.176 55.8389 0.16665 -1.51215
333600 60.1715 152.189 55.8389 0.16675 -0.89629
333800 60.1715 152.202 55.8389 0.16685 -0.131051
334000 60.1715 152.215 55.8389 0.16695 0.669893
334200 60.1715 152.228 55.8389 0.16705 1.4918
334400 60.1715 152.241 55.8389 0.16715 2.27261
334600 60.1715 152.254 55.8389 0.16725 2.79494
334800 60.1715 152.268 55.8389 0.16735 2.96276
335000 60.1715 152.281 55.8389 0.16745 2.74828
335200 60.1715 152.294 55.8389 0.16755 2.14912
335400 60.1715 152.307 55.8389 0.16765 1.42082
335600 60.1715 152.32 55.8389 0.16775 0.565613
335800 60.1715 152.333 55.8389 0.16785 -0.205562
336000 60.1715 152.346 55.8389 0.16795 -0.939556
336200 60.1715 152.359 55.8389 0.16805 -1.50028
336400 60.1715 152.372 55.8389 0.16815 -1.92207
336600 60.1715 152.385 55.8389 0.16825 -2.15301
336800 60.1715 152.398 55.8389 0.16835 -2.22677
337000 60.1715 152.411 55.8389 0.16845 -2.21017
337200 60.1715 152.424 55.8389 0.16855 -1.96603
337400 60.1715 152.437 55.8389 0.16865 -1.55978
337600 60.1715 152.45 55.8389 0.16875 -1.07228
337800 60.1715 152.463 55.8389 0.16885 -0.390246
338000 60.1715 152.476 55.8389 0.16895 0.351197
338200 60.1715 152.489 55.8389 0.16905 1.17383
338400 60.1715 152.502 55.8389 0.16915 1.89419
338600 60.1715 152.515 55.8389 0.16925 2.43919
338800 60.1715 152.528 55.8389 0.16935 2.67676
339000 60.1715 152.541 55.8389 0.16945 2.62692
339200 60.1715 152.554 55.8389 0.16955 2.20031
339400 60.1715 152.568 55.8389 0.16965 1.55664
339600 60.1715 152.581 55.8389 0.16975 0.77415
339800 60.1715 152.594 55.8389 0.16985 0.041015
340000 60.1715 152.607 55.8389 0.16995 -0.671094
340200 60.1715 152.62 55.8389 0.17005 -1.27378
340400 60.1715 152.633 55.8389 0.17015 -1.68318
340600 60.1715 152.646 55.8389 0.17025 -1.9395
340800 60.1715 152.659 55.8389 0.17035 -2.08309
341000 60.1715 152.672 55.8389 0.17045 -2.00275
341200 60.1715 152.685 55.8389 0.17055 -1.88472
341400 60.1715 152.698 55.8389 0.17065 -1.54541
341600 60.1715 152.711 55.8389 0.17075 -1.11899
341800 60.1715 152.724 55.8389 0.17085 -0.534664
342000 60.1715 152.737 55.8389 0.17095 0.175002
342200 60.1715 152.75 55.8389 0.17105 0.898442
342400 60.1715 152.763 55.8389 0.17115 1.59021
342600 60.1715 152.776 55.8389 0.17125 2.12681
342800 60.1715 152.789 55.8389 0.17135 2.44899
343000 60.1715 152.802 55.8389 0.17145 2.43324
343200 60.1715 152.815 55.8389 0.17155 2.133
343400 60.1715 152.828 55.8389 0.17165 1.56521
343600 60.1715 152.841 55.8389 0.17175 0.896042
343800 60.1715 152.854 55.8389 0.17185 0.18861
344000 60.1715 152.868 55.8389 0.17195 -0.477398
344200 60.1715 152.881 55.8389 0.17205 -1.0599
344400 60.1715 152.894 55.8389 0.17215 -1.49881
344600 60.1715 152.907 55.8389 0.17225 -1.78765
344800 60.1715 152.92 55.8389 0.17235 -1.94013
345000 60.1715 152.933 55.8389 0.17245 -1.92528
345200 60.1715 152.946 55.8389 0.17255 -1.76836
345400 60.1715 152.959 55.8389 0.17265 -1.4752
345600 60.1715 152.972 55.8389 0.17275 -1.10824
345800 60.1715 152.985 55.8389 0.17285 -0.592295
346000 60.1715 152.998 55.8389 0.17295 0.0571796
346200 60.1715 153.011 55.8389 0.17305 0.773015
346400 60.1715 153.024 55.8389 0.17315 1.43607
346600 60.1715 153.037 55.8389 0.17325 1.93435
346800 60.1715 153.05 55.8389 0.17335 2.27615
347000 60.1715 153.063 55.8389 0.17345 2.25761
347200 60.1715 153.076 55.8389 0.17355 1.98458
347400 60.1715 153.089 55.8389 0.17365 1.53568
347600 60.1715 153.102 55.8389 0.17375 0.907999
347800 60.1715 153.115 55.8389 0.17385 0.241661
348000 60.1715 153.128 55.8389 0.17395 -0.37262
348200 60.1715 153.141 55.8389 0.17405 -0.924009
348400 60.1715 153.155 55.8389 0.17415 -1.3695
348600 60.1715 153.168 55.8389 0.17425 -1.67215
348800 60.1715 153.181 55.8389 0.17435 -1.78974
349000 60.1715 153.194 55.8389 0.17445 -1.82417
349200 60.1715 153.207 55.8389 0.17455 -1.6508
349400 60.1715 153.22 55.8389 0.17465 -1.38873
349600 60.1715 153.233 55.8389 0.17475 -1.01651
349800 60.1715 153.246 55.8389 0.17485 -0.539797
350000 60.1715 153.259 55.8389 0.17495 0.0351411
350200 60.1715 153.272 55.8389 0.17505 0.690448
350400 60.1715 153.285 55.8389 0.17515 1.2601
350600 60.1715 153.298 55.8389 0.17525 1.77458
350800 60.1715 153.311 55.8389 0.17535 2.08252
351000 60.1715 153.324 55.8389 0.17545 2.08345
351200 60.1715 153.337 55.8389 0.17555 1.83731
351400 60.1715 153.35 55.8389 0.17565 1.40576
351600 60.1715 153.363 55.8389 0.17575 0.871913
351800 60.1715 153.376 55.8389 0.17585 0.255248
352000 60.1715 153.389 55.8389 0.17595 -0.301004
352200 60.1715 153.402 55.8389 0.17605 -0.806868
352400 60.1715 153.415 55.8389 0.17615 -1.27419
352600 60.1715 153.428 55.8389 0.17625 -1.52133
352800 60.1715 153.441 55.8389 0.17635 -1.71224
353000 60.1715 153.455 55.8389 0.17645 -1.66988
353200 60.1715 153.468 55.8389 0.17655 -1.56298
353400 60.1715 153.481 55.8389 0.17665 -1.30085
353600 60.1715 153.494 55.8389 0.17675 -0.972573
353800 60.1715 153.507 55.8389 0.17685 -0.511529
354000 60.1715 153.52 55.8389 0.17695 0.0485964
354200 60.1715 153.533 55.8389 0.17705 0.604433
354400 60.1715 153.546 55.8389 0.17715 1.19652
354600 60.1715 153.559 55.8389 0.17725 1.66275
354800 60.1715 153.572 55.8389 0.17735 1.94379
355000 60.1715 153.585 55.8389 0.17745 1.94141
355200 60.1715 153.598 55.8389 0.17755 1.73868
355400 60.1715 153.611 55.8389 0.17765 1.33976
355600 60.1715 153.624 55.8389 0.17775 0.815496
355800 60.1715 153.637 55.8389 0.17785 0.242627
356000 60.1715 153.65 55.8389 0.17795 -0.295726
356200 60.1715 153.663 55.8389 0.17805 -0.77576
356400 60.1715 153.676 55.8389 0.17815 -1.15153
356600 60.1715 153.689 55.8389 0.17825 -1.4732
356800 60.1715 153.702 55.8389 0.17835 -1.58658
357000 60.1715 153.715 55.8389 0.17845 -1.58214
357200 60.1715 153.728 55.8389 0.17855 -1.4337
357400 60.1715 153.741 55.8389 0.17865 -1.23145
357600 60.1715 153.755 55.8389 0.17875 -0.889933
357800 60.1715 153.768 55.8389 0.17885 -0.495948
358000 60.1715 153.781 55.8389 0.17895 0.0490759
358200 60.1715 153.794 55.8389 0.17905 0.606315
358400 60.1715 153.807 55.8389 0.17915 1.11441
358600 60.1715 153.82 55.8389 0.17925 1.55988
358800 60.1715 153.833 55.8389 0.17935 1.80307
359000 60.1715 153.846 55.8389 0.17945 1.79791
359200 60.1715 153.859 55.8389 0.17955 1.60521
359400 60.1715 153.872 55.8389 0.17965 1.24144
359600 60.1715 153.885 55.8389 0.17975 0.767993
359800 60.1715 153.898 55.8389 0.17985 0.237627
360000 60.1715 153.911 55.8389 0.17995 -0.28249
360200 60.1715 153.924 55.8389 0.18005 -0.723517
360400 60.1715 153.937 55.8389 0.18015 -1.10541
360600 60.1715 153.95 55.8389 0.18025 -1.37996
360800 60.1715 153.963 55.8389 0.18035 -1.47661
361000 60.1715 153.976 55.8389 0.18045 -1.51066
361200 60.1715 153.989 55.8389 0.18055 -1.3934
361400 60.1715 154.002 55.8389 0.18065 -1.12924
361600 60.1715 154.015 55.8389 0.18075 -0.82788
361800 60.1715 154.028 55.8389 0.18085 -0.414519
362000 60.1715 154.041 55.8389 0.18095 0.0716289
362200 60.1715 154.055 55.8389 0.18105 0.623218
362400 60.1715 154.068 55.8389 0.18115 1.06425
362600 60.1715 154.081 55.8389 0.18125 1.49677
362800 60.1715 154.094 55.8389 0.18135 1.72065
363000 60.1715 154.107 55.8389 0.18145 1.71587
363200 60.1715 154.12 55.8389 0.18155 1.50864
363400 60.1715 154.133 55.8389 0.18165 1.155
363600 60.1715 154.146 55.8389 0.18175 0.692389
363800 60.1715 154.159 55.8389 0.18185 0.166521
364000 60.1715 154.172 55.8389 0.18195 -0.286658
364200 60.1715 154.185 55.8389 0.18205 -0.728069
364400 60.1715 154.198 55.8389 0.18215 -1.09275
364600 60.1715 154.211 55.8389 0.18225 -1.31203
364800 60.1715 154.224 55.8389 0.18235 -1.45227
365000 60.1715 154.237 55.8389 0.18245 -1.42895
365200 60.1715 154.25 55.8389 0.18255 -1.31737
365400 60.1715 154.263 55.8389 0.18265 -1.03872
365600 60.1715 154.276 55.8389 0.18275 -0.75402
365800 60.1715 154.289 55.8389 0.18285 -0.332486
366000 60.1715 154.302 55.8389 0.18295 0.132617
366200 60.1715 154.315 55.8389 0.18305 0.634612
366400 60.1715 154.328 55.8389 0.18315 1.09885
366600 60.1715 154.341 55.8389 0.18325 1.43571
366800 60.1715 154.355 55.8389 0.18335 1.63112
367000 60.1715 154.368 55.8389 0.18345 1.62062
367200 60.1715 154.381 55.8389 0.18355 1.42097
367400 60.1715 154.394 55.8389 0.18365 1.03972
367600 60.1715 154.407 55.8389 0.18375 0.607421
367800 60.1715 154.42 55.8389 0.18385 0.110351
368000 60.1715 154.433 55.8389 0.18395 -0.329836
368200 60.1715 154.446 55.8389 0.18405 -0.730587
368400 60.1715 154.459 55.8389 0.18415 -1.05427
368600 60.1715 154.472 55.8389 0.18425 -1.27642
368800 60.1715 154.485 55.8389 0.18435 -1.35386
369000 60.1715 154.498 55.8389 0.18445 -1.34467
369200 60.1715 154.511 55.8389 0.18455 -1.22254
369400 60.1715 154.524 55.8389 0.18465 -1.00031
369600 60.1715 154.537 55.8389 0.18475 -0.646044
369800 60.1715 154.55 55.8389 0.18485 -0.233417
370000 60.1715 154.563 55.8389 0.18495 0.193828
370200 60.1715 154.576 55.8389 0.18505 0.649315
370400 60.1715 154.589 55.8389 0.18515 1.05825
370600 60.1715 154.602 55.8389 0.18525 1.39888
370800 60.1715 154.615 55.8389 0.18535 1.54196
371000 60.1715 154.628 55.8389 0.18545 1.49759
371200 60.1715 154.642 55.8389 0.18555 1.28931
371400 60.1715 154.655 55.8389 0.18565 0.943368
371600 60.1715 154.668 55.8389 0.18575 0.517533
371800 60.1715 154.681 55.8389 0.18585 0.0496487
372000 60.1715 154.694 55.8389 0.18595 -0.38067
372200 60.1715 154.707 55.8389 0.18605 -0.762305
372400 60.1715 154.72 55.8389 0.18615 -1.0061
372600 60.1715 154.733 55.8389 0.18625 -1.19823
372800 60.1715 154.746 55.8389 0.18635 -1.28845
373000 60.1715 154.759 55.8389 0.18645 -1.28415
373200 60.1715 154.772 55.8389 0.18655 -1.14297
373400 60.1715 154.785 55.8389 0.18665 -0.894369
373600 60.1715 154.798 55.8389 0.18675 -0.55445
373800 60.1715 154.811 55.8389 0.18685 -0.179109
374000 60.1715 154.824 55.8389 0.18695 0.27409
374200 60.1715 154.837 55.8389 0.18705 0.688829
374400 60.1715 154.85 55.8389 0.18715 1.08157
374600 60.1715 154.863 55.8389 0.18725 1.33654
374800 60.1715 154.876 55.8389 0.18735 1.47295
375000 60.1715 154.889 55.8389 0.18745 1.39151
375200 60.1715 154.902 55.8389 0.18755 1.22266
375400 60.1715 154.915 55.8389 0.18765 0.841049
375600 60.1715 154.928 55.8389 0.18775 0.405803
375800 60.1715 154.942 55.8389 0.18785 -0.0291183
376000 60.1715 154.955 55.8389 0.18795 -0.397866
376200 60.1715 154.968 55.8389 0.18805 -0.75781
376400 60.1715 154.981 55.8389 0.18815 -1.00472
376600 60.1715 154.994 55.8389 0.18825 -1.15346
376800 60.1715 155.007 55.8389 0.18835 -1.24283
377000 60.1715 155.02 55.8389 0.18845 -1.21354
377200 60.1715 155.033 55.8389 0.18855 -1.06636
377400 60.1715 155.046 55.8389 0.18865 -0.817746
377600 60.1715 155.059 55.8389 0.18875 -0.504447
377800 60.1715 155.072 55.8389 0.18885 -0.11699
378000 60.1715 155.085 55.8389 0.18895 0.331531
378200 60.1715 155.098 55.8389 0.18905 0.690215
378400 60.1715 155.111 55.8389 0.18915 1.05383
378600 60.1715 155.124 55.8389 0.18925 1.31731
378800 60.1715 155.137 55.8389 0.18935 1.41325
379000 60.1715 155.15 55.8389 0.18945 1.34468
379200 60.1715 155.163 55.8389 0.18955 1.1088
379400 60.1715 155.176 55.8389 0.18965 0.738948
379600 60.1715 155.189 55.8389 0.18975 0.35477
379800 60.1715 155.202 55.8389 0.18985 -0.0354206
380000 60.1715 155.215 55.8389 0.18995 -0.467816
380200 60.1715 155.228 55.8389 0.19005 -0.744703
380400 60.1715 155.242 55.8389 0.19015 -1.01977
380600 60.1715 155.255 55.8389 0.19025 -1.14466
380800 60.1715 155.268 55.8389 0.19035 -1.18363
381000 60.1715 155.281 55.8389 0.19045 -1.153
381200 60.1715 155.294 55.8389 0.19055 -0.993056
381400 60.1715 155.307 55.8389 0.19065 -0.713971
381600 60.1715 155.32 55.8389 0.19075 -0.411854
381800 60.1715 155.333 55.8389 0.19085 -0.0494282
382000 60.1715 155.346 55.8389 0.19095 0.379011
382200 60.1715 155.359 55.8389 0.19105 0.776959
382400 60.1715 155.372 55.8389 0.19115 1.06755
382600 60.1715 155.385 55.8389 0.19125 1.28277
382800 60.1715 155.398 55.8389 0.19135 1.33202
383000 60.1715 155.411 55.8389 0.19145 1.25102
383200 60.1715 155.424 55.8389 0.19155 1.00182
383400 60.1715 155.437 55.8389 0.19165 0.667457
383600 60.1715 155.45 55.8389 0.19175 0.250248
383800 60.1715 155.463 55.8389 0.19185 -0.12218
384000 60.1715 155.476 55.8389 0.19195 -0.465889
384200 60.1715 155.489 55.8389 0.19205 -0.803063
384400 60.1715 155.502 55.8389 0.19215 -1.03001
384600 60.1715 155.515 55.8389 0.19225 -1.13636
384800 60.1715 155.528 55.8389 0.19235 -1.16958
385000 60.1715 155.542 55.8389 0.19245 -1.06549
385200 60.1715 155.555 55.8389 0.19255 -0.918749
385400 60.1715 155.568 55.8389 0.19265 -0.647215
385600 60.1715 155.581 55.8389 0.19275 -0.322676
385800 60.1715 155.594 55.8389 0.19285 0.0766478
386000 60.1715 155.607 55.8389 0.19295 0.420943
386200 60.1715 155.62 55.8389 0.19305 0.811518
386400 60.1715 155.633 55.8389 0.19315 1.11447
386600 60.1715 155.646 55.8389 0.19325 1.27185
386800 60.1715 155.659 55.8389 0.19335 1.29587
387000 60.1715 155.672 55.8389 0.19345 1.16807
387200 60.1715 155.685 55.8389 0.19355 0.922605
387400 60.1715 155.698 55.8389 0.19365 0.560013
387600 60.1715 155.711 55.8389 0.19375 0.166757
387800 60.1715 155.724 55.8389 0.19385 -0.197409
388000 60.1715 155.737 55.8389 0.19395 -0.554248
388200 60.1715 155.75 55.8389 0.19405 -0.810475
388400 60.1715 155.763 55.8389 0.19415 -1.02589
388600 60.1715 155.776 55.8389 0.19425 -1.10928
388800 60.1715 155.789 55.8389 0.19435 -1.12706
389000 60.1715 155.802 55.8389 0.19445 -1.00607
389200 60.1715 155.815 55.8389 0.19455 -0.823553
389400 60.1715 155.828 55.8389 0.19465 -0.568518
389600 60.1715 155.842 55.8389 0.19475 -0.238234
389800 60.1715 155.855 55.8389 0.19485 0.135388
390000 60.1715 155.868 55.8389 0.19495 0.561666
390200 60.1715 155.881 55.8389 0.19505 0.851822
390400 60.1715 155.894 55.8389 0.19515 1.08543
390600 60.1715 155.907 55.8389 0.19525 1.26219
390800 60.1715 155.92 55.8389 0.19535 1.2115
391000 60.1715 155.933 55.8389 0.19545 1.09254
391200 60.1715 155.946 55.8389 0.19555 0.798794
391400 60.1715 155.959 55.8389 0.19565 0.465674
391600 60.1715 155.972 55.8389 0.19575 0.0835576
391800 60.1715 155.985 55.8389 0.19585 -0.318245
392000 60.1715 155.998 55.8389 0.19595 -0.60799
392200 60.1715 156.011 55.8389 0.19605 -0.835502
392400 60.1715 156.024 55.8389 0.19615 -1.01372
392600 60.1715 156.037 55.8389 0.19625 -1.06648
392800 60.1715 156.05 55.8389 0.19635 -1.06384
393000 60.1715 156.063 55.8389 0.19645 -0.967654
393200 60.1715 156.076 55.8389 0.19655 -0.745271
393400 60.1715 156.089 55.8389 0.19665 -0.482117
393600 60.1715 156.102 55.8389 0.19675 -0.133323
393800 60.1715 156.115 55.8389 0.19685 0.254903
394000 60.1715 156.129 55.8389 0.19695 0.586475
394200 60.1715 156.142 55.8389 0.19705 0.914616
394400 60.1715 156.155 55.8389 0.19715 1.13427
394600 60.1715 156.168 55.8389 0.19725 1.19673
394800 60.1715 156.181 55.8389 0.19735 1.17435
395000 60.1715 156.194 55.8389 0.19745 0.974674
395200 60.1715 156.207 55.8389 0.19755 0.720192
395400 60.1715 156.22 55.8389 0.19765 0.389812
395600 60.1715 156.233 55.8389 0.19775 -0.0113609
395800 60.1715 156.246 55.8389 0.19785 -0.369828
396000 60.1715 156.259 55.8389 0.19795 -0.667994
396200 60.1715 156.272 55.8389 0.19805 -0.877453
396400 60.1715 156.285 55.8389 0.19815 -1.01154
396600 60.1715 156.298 55.8389 0.19825 -1.06531
396800 60.1715 156.311 55.8389 0.19835 -1.00348
397000 60.1715 156.324 55.8389 0.19845 -0.892784
397200 60.1715 156.337 55.8389 0.19855 -0.661636
397400 60.1715 156.35 55.8389 0.19865 -0.397727
397600 60.1715 156.363 55.8389 0.19875 -0.0451008
397800 60.1715 156.376 55.8389 0.19885 0.31405
398000 60.1715 156.389 55.8389 0.19895 0.660085
398200 60.1715 156.402 55.8389 0.19905 0.91099
398400 60.1715 156.415 55.8389 0.19915 1.12174
398600 60.1715 156.429 55.8389 0.19925 1.15359
398800 60.1715 156.442 55.8389 0.19935 1.12777
399000 60.1715 156.455 55.8389 0.19945 0.89508
399200 60.1715 156.468 55.8389 0.19955 0.638206
399400 60.1715 156.481 55.8389 0.19965 0.267458
399600 60.1715 156.494 55.8389 0.19975 -0.0948486
399800 60.1715 156.507 55.8389 0.19985 -0.384322
400000 60.1715 156.52 55.8389 0.19995 -0.679425
400200 60.1715 156.533 55.8389 0.20005 -0.885474
400400 60.1715 156.546 55.8389 0.20015 -1.00865
400600 60.1715 156.559 55.8389 0.20025 -1.02309
400800 60.1715 156.572 55.8389 0.20035 -0.963154
401000 60.1715 156.585 55.8389 0.20045 -0.824634
401200 60.1715 156.598 55.8389 0.20055 -0.592462
401400 60.1715 156.611 55.8389 0.20065 -0.283306
401600 60.1715 156.624 55.8389 0.20075 0.0381719
401800 60.1715 156.637 55.8389 0.20085 0.381178
402000 60.1715 156.65 55.8389 0.20095 0.711407
402200 60.1715 156.663 55.8389 0.20105 0.952581
402400 60.1715 156.676 55.8389 0.20115 1.11082
402600 60.1715 156.689 55.8389 0.20125 1.13375
402800 60.1715 156.702 55.8389 0.20135 1.02442
403000 60.1715 156.715 55.8389 0.20145 0.820927
403200 60.1715 156.729 55.8389 0.20155 0.516146
403400 60.1715 156.742 55.8389 0.20165 0.193989
403600 60.1715 156.755 55.8389 0.20175 -0.180771
403800 60.1715 156.768 55.8389 0.20185 -0.482171
404000 60.1715 156.781 55.8389 0.20195 -0.719634
404200 60.1715 156.794 55.8389 0.20205 -0.901237
404400 60.1715 156.807 55.8389 0.20215 -0.953317
404600 60.1715 156.82 55.8389 0.20225 -0.990134
404800 60.1715 156.833 55.8389 0.20235 -0.905554
405000 60.1715 156.846 55.8389 0.20245 -0.76207
405200 60.1715 156.859 55.8389 0.20255 -0.525161
405400 60.1715 156.872 55.8389 0.20265 -0.215092
405600 60.1715 156.885 55.8389 0.20275 0.119241
405800 60.1715 156.898 55.8389 0.20285 0.460357
406000 60.1715 156.911 55.8389 0.20295 0.747201
406200 60.1715 156.924 55.8389 0.20305 0.989682
406400 60.1715 156.937 55.8389 0.20315 1.08271
406600 60.1715 156.95 55.8389 0.20325 1.09078
406800 60.1715 156.963 55.8389 0.20335 0.976848
407000 60.1715 156.976 55.8389 0.20345 0.770269
407200 60.1715 156.989 55.8389 0.20355 0.435351
407400 60.1715 157.002 55.8389 0.20365 0.105175
407600 60.1715 157.015 55.8389 0.20375 -0.237958
407800 60.1715 157.029 55.8389 0.20385 -0.525783
408000 60.1715 157.042 55.8389 0.20395 -0.751033
408200 60.1715 157.055 55.8389 0.20405 -0.912683
408400 60.1715 157.068 55.8389 0.20415 -0.931651
408600 60.1715 157.081 55.8389 0.20425 -0.957274
408800 60.1715 157.094 55.8389 0.20435 -0.867075
409000 60.1715 157.107 55.8389 0.20445 -0.664459
409200 60.1715 157.12 55.8389 0.20455 -0.466334
409400 60.1715 157.133 55.8389 0.20465 -0.145977
409600 60.1715 157.146 55.8389 0.20475 0.202562
409800 60.1715 157.159 55.8389 0.20485 0.516019
410000 60.1715 157.172 55.8389 0.20495 0.782083
410200 60.1715 157.185 55.8389 0.20505 0.987025
410400 60.1715 157.198 55.8389 0.20515 1.0809
410600 60.1715 157.211 55.8389 0.20525 1.03451
410800 60.1715 157.224 55.8389 0.20535 0.874128
411000 60.1715 157.237 55.8389 0.20545 0.654595
411200 60.1715 157.25 55.8389 0.20555 0.379609
411400 60.1715 157.263 55.8389 0.20565 0.00341115
411600 60.1715 157.276 55.8389 0.20575 -0.291477
411800 60.1715 157.289 55.8389 0.20585 -0.554583
412000 60.1715 157.302 55.8389 0.20595 -0.754201
412200 60.1715 157.315 55.8389 0.20605 -0.9131
412400 60.1715 157.329 55.8389 0.20615 -0.958386
412600 60.1715 157.342 55.8389 0.20625 -0.914244
412800 60.1715 157.355 55.8389 0.20635 -0.770835
413000 60.1715 157.368 55.8389 0.20645 -0.604055
413200 60.1715 157.381 55.8389 0.20655 -0.352398
413400 60.1715 157.394 55.8389 0.20665 -0.0514193
413600 60.1715 157.407 55.8389 0.20675 0.262454
413800 60.1715 157.42 55.8389 0.20685 0.56701
414000 60.1715 157.433 55.8389 0.20695 0.810713
414200 60.1715 157.446 55.8389 0.20705 0.997201
414400 60.1715 157.459 55.8389 0.20715 1.02895
414600 60.1715 157.472 55.8389 0.20725 0.981955
414800 60.1715 157.485 55.8389 0.20735 0.806104
415000 60.1715 157.498 55.8389 0.20745 0.571262
415200 60.1715 157.511 55.8389 0.20755 0.267316
415400 60.1715 157.524 55.8389 0.20765 -0.047921
415600 60.1715 157.537 55.8389 0.20775 -0.336456
415800 60.1715 157.55 55.8389 0.20785 -0.605756
416000 60.1715 157.563 55.8389 0.20795 -0.789218
416200 60.1715 157.576 55.8389 0.20805 -0.884012
416400 60.1715 157.589 55.8389 0.20815 -0.9266
416600 60.1715 157.602 55.8389 0.20825 -0.869264
416800 60.1715 157.616 55.8389 0.20835 -0.730172
417000 60.1715 157.629 55.8389 0.20845 -0.554619
417200 60.1715 157.642 55.8389 0.20855 -0.272767
417400 60.1715 157.655 55.8389 0.20865 0.023204
417600 60.1715 157.668 55.8389 0.20875 0.348168
417800 60.1715 157.681 55.8389 0.20885 0.602671
418000 60.1715 157.694 55.8389 0.20895 0.861629
418200 60.1715 157.707 55.8389 0.20905 0.981437
418400 60.1715 157.72 55.8389 0.20915 1.00469
418600 60.1715 157.733 55.8389 0.20925 0.90813
418800 60.1715 157.746 55.8389 0.20935 0.747206
419000 60.1715 157.759 55.8389 0.20945 0.480571
419200 60.1715 157.772 55.8389 0.20955 0.173564
419400 60.1715 157.785 55.8389 0.20965 -0.134435
419600 60.1715 157.798 55.8389 0.20975 -0.402108
419800 60.1715 157.811 55.8389 0.20985 -0.622255
420000 60.1715 157.824 55.8389 0.20995 -0.798435
420200 60.1715 157.837 55.8389 0.21005 -0.89928
420400 60.1715 157.85 55.8389 0.21015 -0.880803
420600 60.1715 157.863 55.8389 0.21025 -0.814757
420800 60.1715 157.876 55.8389 0.21035 -0.65367
421000 60.1715 157.889 55.8389 0.21045 -0.442402
421200 60.1715 157.902 55.8389 0.21055 -0.181412
421400 60.1715 157.916 55.8389 0.21065 0.0897013
421600 60.1715 157.929 55.8389 0.21075 0.41789
421800 60.1715 157.942 55.8389 0.21085 0.656674
422000 60.1715 157.955 55.8389 0.21095 0.860602
422200 60.1715 157.968 55.8389 0.21105 0.956861
422400 60.1715 157.981 55.8389 0.21115 0.998024
422600 60.1715 157.994 55.8389 0.21125 0.834334
422800 60.1715 158.007 55.8389 0.21135 0.664683
423000 60.1715 158.02 55.8389 0.21145 0.36141
423200 60.1715 158.033 55.8389 0.21155 0.0809146
423400 60.1715 158.046 55.8389 0.21165 -0.159745
423600 60.1715 158.059 55.8389 0.21175 -0.480423
423800 60.1715 158.072 55.8389 0.21185 -0.649509
424000 60.1715 158.085 55.8389 0.21195 -0.788408
424200 60.1715 158.098 55.8389 0.21205 -0.881568
424400 60.1715 158.111 55.8389 0.21215 -0.887721
424600 60.1715 158.124 55.8389 0.21225 -0.768266
424800 60.1715 158.137 55.8389 0.21235 -0.596257
425000 60.1715 158.15 55.8389 0.21245 -0.373646
425200 60.1715 158.163 55.8389 0.21255 -0.104951
425400 60.1715 158.176 55.8389 0.21265 0.165366
425600 60.1715 158.189 55.8389 0.21275 0.477125
425800 60.1715 158.202 55.8389 0.21285 0.700514
426000 60.1715 158.216 55.8389 0.21295 0.891554
426200 60.1715 158.229 55.8389 0.21305 0.96146
426400 60.1715 158.242 55.8389 0.21315 0.92992
426600 60.1715 158.255 55.8389 0.21325 0.822366
426800 60.1715 158.268 55.8389 0.21335 0.566334
427000 60.1715 158.281 55.8389 0.21345 0.314554
427200 60.1715 158.294 55.8389 0.21355 0.0154274
427400 60.1715 158.307 55.8389 0.21365 -0.242233
427600 60.1715 158.32 55.8389 0.21375 -0.502611
427800 60.1715 158.333 55.8389 0.21385 -0.69357
428000 60.1715 158.346 55.8389 0.21395 -0.837067
428200 60.1715 158.359 55.8389 0.21405 -0.836129
428400 60.1715 158.372 55.8389 0.21415 -0.817619
428600 60.1715 158.385 55.8389 0.21425 -0.705352
428800 60.1715 158.398 55.8389 0.21435 -0.540966
429000 60.1715 158.411 55.8389 0.21445 -0.284858
429200 60.1715 158.424 55.8389 0.21455 -0.0267066
429400 60.1715 158.437 55.8389 0.21465 0.223
429600 60.1715 158.45 55.8389 0.21475 0.544925
429800 60.1715 158.463 55.8389 0.21485 0.732763
430000 60.1715 158.476 55.8389 0.21495 0.908872
430200 60.1715 158.489 55.8389 0.21505 0.919135
430400 60.1715 158.502 55.8389 0.21515 0.857679
430600 60.1715 158.516 55.8389 0.21525 0.688359
430800 60.1715 158.529 55.8389 0.21535 0.468655
431000 60.1715 158.542 55.8389 0.21545 0.21121
431200 60.1715 158.555 55.8389 0.21555 -0.0595713
431400 60.1715 158.568 55.8389 0.21565 -0.339417
431600 60.1715 158.581 55.8389 0.21575 -0.540309
431800 60.1715 158.594 55.8389 0.21585 -0.711323
432000 60.1715 158.607 55.8389 0.21595 -0.800579
432200 60.1715 158.62 55.8389 0.21605 -0.808396
432400 60.1715 158.633 55.8389 0.21615 -0.755212
432600 60.1715 158.646 55.8389 0.21625 -0.657016
432800 60.1715 158.659 55.8389 0.21635 -0.428063
433000 60.1715 158.672 55.8389 0.21645 -0.205999
433200 60.1715 158.685 55.8389 0.21655 0.0731637
433400 60.1715 158.698 55.8389 0.21665 0.342154
433600 60.1715 158.711 55.8389 0.21675 0.592335
433800 60.1715 158.724 55.8389 0.21685 0.768767
434000 60.1715 158.737 55.8389 0.21695 0.880071
434200 60.1715 158.75 55.8389 0.21705 0.894416
434400 60.1715 158.763 55.8389 0.21715 0.819169
434600 60.1715 158.776 55.8389 0.21725 0.623104
434800 60.1715 158.789 55.8389 0.21735 0.380453
435000 60.1715 158.802 55.8389 0.21745 0.132213
435200 60.1715 158.816 55.8389 0.21755 -0.152323
435400 60.1715 158.829 55.8389 0.21765 -0.389889
435600 60.1715 158.842 55.8389 0.21775 -0.592319
435800 60.1715 158.855 55.8389 0.21785 -0.736581
436000 60.1715 158.868 55.8389 0.21795 -0.783675
436200 60.1715 158.881 55.8389 0.21805 -0.789375
436400 60.1715 158.894 55.8389 0.21815 -0.721125
436600 60.1715 158.907 55.8389 0.21825 -0.567816
436800 60.1715 158.92 55.8389 0.21835 -0.376018
437000 60.1715 158.933 55.8389 0.21845 -0.102085
437200 60.1715 158.946 55.8389 0.21855 0.169351
437400 60.1715 158.959 55.8389 0.21865 0.381459
437600 60.1715 158.972 55.8389 0.21875 0.637234
437800 60.1715 158.985 55.8389 0.21885 0.780504
438000 60.1715 158.998 55.8389 0.21895 0.865956
438200 60.1715 159.011 55.8389 0.21905 0.855828
438400 60.1715 159.024 55.8389 0.21915 0.706076
438600 60.1715 159.037 55.8389 0.21925 0.523414
438800 60.1715 159.05 55.8389 0.21935 0.298539
439000 60.1715 159.063 55.8389 0.21945 0.0511566
439200 60.1715 159.076 55.8389 0.21955 -0.224948
439400 60.1715 159.089 55.8389 0.21965 -0.423457
439600 60.1715 159.103 55.8389 0.21975 -0.591943
439800 60.1715 159.116 55.8389 0.21985 -0.73979
440000 60.1715 159.129 55.8389 0.21995 -0.769791
440200 60.1715 159.142 55.8389 0.22005 -0.737084
440400 60.1715 159.155 55.8389 0.22015 -0.626563
440600 60.1715 159.168 55.8389 0.22025 -0.486918
440800 60.1715 159.181 55.8389 0.22035 -0.301849
441000 60.1715 159.194 55.8389 0.22045 -0.0441582
441200 60.1715 159.207 55.8389 0.22055 0.227136
441400 60.1715 159.22 55.8389 0.22065 0.455368
441600 60.1715 159.233 55.8389 0.22075 0.647181
441800 60.1715 159.246 55.8389 0.22085 0.792761
442000 60.1715 159.259 55.8389 0.22095 0.826025
442200 60.1715 159.272 55.8389 0.22105 0.804529
442400 60.1715 159.285 55.8389 0.22115 0.628901
442600 60.1715 159.298 55.8389 0.22125 0.45651
442800 60.1715 159.311 55.8389 0.22135 0.236125
443000 60.1715 159.324 55.8389 0.22145 -0.0480201
443200 60.1715 159.337 55.8389 0.22155 -0.267316
443400 60.1715 159.35 55.8389 0.22165 -0.457472
443600 60.1715 159.363 55.8389 0.22175 -0.654241
443800 60.1715 159.376 55.8389 0.22185 -0.729348
444000 60.1715 159.389 55.8389 0.22195 -0.726801
444200 60.1715 159.403 55.8389 0.22205 -0.684541
444400 60.1715 159.416 55.8389 0.22215 -0.600785
444600 60.1715 159.429 55.8389 0.22225 -0.413211
444800 60.1715 159.442 55.8389 0.22235 -0.202177
445000 60.1715 159.455 55.8389 0.22245 0.0328003
445200 60.1715 159.468 55.8389 0.22255 0.28345
445400 60.1715 159.481 55.8389 0.22265 0.496466
445600 60.1715 159.494 55.8389 0.22275 0.672491
445800 60.1715 159.507 55.8389 0.22285 0.78837
446000 60.1715 159.52 55.8389 0.22295 0.807104
446200 60.1715 159.533 55.8389 0.22305 0.728287
446400 60.1715 159.546 55.8389 0.22315 0.587063
446600 60.1715 159.559 55.8389 0.22325 0.381638
446800 60.1715 159.572 55.8389 0.22335 0.147736
447000 60.1715 159.585 55.8389 0.22345 -0.0908347
447200 60.1715 159.598 55.8389 0.22355 -0.327653
447400 60.1715 159.611 55.8389 0.22365 -0.509631
447600 60.1715 159.624 55.8389 0.22375 -0.626092
447800 60.1715 159.637 55.8389 0.22385 -0.709066
448000 60.1715 159.65 55.8389 0.22395 -0.69744
448200 60.1715 159.663 55.8389 0.22405 -0.658376
448400 60.1715 159.676 55.8389 0.22415 -0.532781
448600 60.1715 159.689 55.8389 0.22425 -0.376308
448800 60.1715 159.703 55.8389 0.22435 -0.130748
449000 60.1715 159.716 55.8389 0.22445 0.122618
449200 60.1715 159.729 55.8389 0.22455 0.329622
449400 60.1715 159.742 55.8389 0.22465 0.527471
449600 60.1715 159.755 55.8389 0.22475 0.717897
449800 60.1715 159.768 55.8389 0.22485 0.770784
450000 60.1715 159.781 55.8389 0.22495 0.754941
450200 60.1715 159.794 55.8389 0.22505 0.68803
450400 60.1715 159.807 55.8389 0.22515 0.481727
450600 60.1715 159.82 55.8389 0.22525 0.325828
450800 60.1715 159.833 55.8389 0.22535 0.0511263
451000 60.1715 159.846 55.8389 0.22545 -0.149086
451200 60.1715 159.859 55.8389 0.22555 -0.380956
451400 60.1715 159.872 55.8389 0.22565 -0.522115
451600 60.1715 159.885 55.8389 0.22575 -0.637827
451800 60.1715 159.898 55.8389 0.22585 -0.695902
452000 60.1715 159.911 55.8389 0.22595 -0.670676
452200 60.1715 159.924 55.8389 0.22605 -0.592674
452400 60.1715 159.937 55.8389 0.22615 -0.483107
452600 60.1715 159.95 55.8389 0.22625 -0.296603
452800 60.1715 159.963 55.8389 0.22635 -0.0466317
453000 60.1715 159.976 55.8389 0.22645 0.172258
453200 60.1715 159.989 55.8389 0.22655 0.367542
453400 60.1715 160.003 55.8389 0.22665 0.592547
453600 60.1715 160.016 55.8389 0.22675 0.699307
453800 60.1715 160.029 55.8389 0.22685 0.778884
454000 60.1715 160.042 55.8389 0.22695 0.717447
454200 60.1715 160.055 55.8389 0.22705 0.615107
454400 60.1715 160.068 55.8389 0.22715 0.454918
454600 60.1715 160.081 55.8389 0.22725 0.223837
454800 60.1715 160.094 55.8389 0.22735 -0.000381511
455000 60.1715 160.107 55.8389 0.22745 -0.214778
455200 60.1715 160.12 55.8389 0.22755 -0.427162
455400 60.1715 160.133 55.8389 0.22765 -0.541888
455600 60.1715 160.146 55.8389 0.22775 -0.64556
455800 60.1715 160.159 55.8389 0.22785 -0.673395
456000 60.1715 160.172 55.8389 0.22795 -0.641228
456200 60.1715 160.185 55.8389 0.22805 -0.55582
456400 60.1715 160.198 55.8389 0.22815 -0.417209
456600 60.1715 160.211 55.8389 0.22825 -0.22208
456800 60.1715 160.224 55.8389 0.22835 -0.00444569
457000 60.1715 160.237 55.8389 0.22845 0.234665
457200 60.1715 160.25 55.8389 0.22855 0.407884
457400 60.1715 160.263 55.8389 0.22865 0.614888
457600 60.1715 160.276 55.8389 0.22875 0.706421
457800 60.1715 160.289 55.8389 0.22885 0.714746
458000 60.1715 160.303 55.8389 0.22895 0.694411
458200 60.1715 160.316 55.8389 0.22905 0.545245
458400 60.1715 160.329 55.8389 0.22915 0.350456
458600 60.1715 160.342 55.8389 0.22925 0.147096
458800 60.1715 160.355 55.8389 0.22935 -0.0445242
459000 60.1715 160.368 55.8389 0.22945 -0.252064
459200 60.1715 160.381 55.8389 0.22955 -0.417047
459400 60.1715 160.394 55.8389 0.22965 -0.58586
459600 60.1715 160.407 55.8389 0.22975 -0.649059
459800 60.1715 160.42 55.8389 0.22985 -0.660202
460000 60.1715 160.433 55.8389 0.22995 -0.590511
460200 60.1715 160.446 55.8389 0.23005 -0.488788
460400 60.1715 160.459 55.8389 0.23015 -0.340996
460600 60.1715 160.472 55.8389 0.23025 -0.153615
460800 60.1715 160.485 55.8389 0.23035 0.0950831
461000 60.1715 160.498 55.8389 0.23045 0.299594
461200 60.1715 160.511 55.8389 0.23055 0.461708
461400 60.1715 160.524 55.8389 0.23065 0.635871
461600 60.1715 160.537 55.8389 0.23075 0.704451
461800 60.1715 160.55 55.8389 0.23085 0.686269
462000 60.1715 160.563 55.8389 0.23095 0.629308
462200 60.1715 160.576 55.8389 0.23105 0.470213
462400 60.1715 160.59 55.8389 0.23115 0.280244
462600 60.1715 160.603 55.8389 0.23125 0.0950855
462800 60.1715 160.616 55.8389 0.23135 -0.120741
463000 60.1715 160.629 55.8389 0.23145 -0.304583
463200 60.1715 160.642 55.8389 0.23155 -0.469786
463400 60.1715 160.655 55.8389 0.23165 -0.587194
463600 60.1715 160.668 55.8389 0.23175 -0.650658
463800 60.1715 160.681 55.8389 0.23185 -0.647439
464000 60.1715 160.694 55.8389 0.23195 -0.560187
464200 60.1715 160.707 55.8389 0.23205 -0.431445
464400 60.1715 160.72 55.8389 0.23215 -0.252369
464600 60.1715 160.733 55.8389 0.23225 -0.0809645
464800 60.1715 160.746 55.8389 0.23235 0.135145
465000 60.1715 160.759 55.8389 0.23245 0.338321
465200 60.1715 160.772 55.8389 0.23255 0.515139
465400 60.1715 160.785 55.8389 0.23265 0.637165
465600 60.1715 160.798 55.8389 0.23275 0.70982
465800 60.1715 160.811 55.8389 0.23285 0.683521
466000 60.1715 160.824 55.8389 0.23295 0.53303
466200 60.1715 160.837 55.8389 0.23305 0.428399
466400 60.1715 160.85 55.8389 0.23315 0.223158
466600 60.1715 160.863 55.8389 0.23325 0.00575147
466800 60.1715 160.876 55.8389 0.23335 -0.166807
467000 60.1715 160.89 55.8389 0.23345 -0.335371
467200 60.1715 160.903 55.8389 0.23355 -0.504034
467400 60.1715 160.916 55.8389 0.23365 -0.601899
467600 60.1715 160.929 55.8389 0.23375 -0.629194
467800 60.1715 160.942 55.8389 0.23385 -0.573522
468000 60.1715 160.955 55.8389 0.23395 -0.512778
468200 60.1715 160.968 55.8389 0.23405 -0.372243
468400 60.1715 160.981 55.8389 0.23415 -0.208081
468600 60.1715 160.994 55.8389 0.23425 0.00247922
468800 60.1715 161.007 55.8389 0.23435 0.204491
469000 60.1715 161.02 55.8389 0.23445 0.393731
469200 60.1715 161.033 55.8389 0.23455 0.55039
469400 60.1715 161.046 55.8389 0.23465 0.62284
469600 60.1715 161.059 55.8389 0.23475 0.661876
469800 60.1715 161.072 55.8389 0.23485 0.594136
470000 60.1715 161.085 55.8389 0.23495 0.516377
470200 60.1715 161.098 55.8389 0.23505 0.347543
470400 60.1715 161.111 55.8389 0.23515 0.148231
470600 60.1715 161.124 55.8389 0.23525 -0.0357077
470800 60.1715 161.137 55.8389 0.23535 -0.257475
471000 60.1715 161.15 55.8389 0.23545 -0.391571
471200 60.1715 161.163 55.8389 0.23555 -0.509718
471400 60.1715 161.176 55.8389 0.23565 -0.606699
471600 60.1715 161.19 55.8389 0.23575 -0.573833
471800 60.1715 161.203 55.8389 0.23585 -0.536028
472000 60.1715 161.216 55.8389 0.23595 -0.437797
472200 60.1715 161.229 55.8389 0.23605 -0.322286
472400 60.1715 161.242 55.8389 0.23615 -0.13341
472600 60.1715 161.255 55.8389 0.23625 0.0640126
472800 60.1715 161.268 55.8389 0.23635 0.276956
473000 60.1715 161.281 55.8389 0.23645 0.454797
473200 60.1715 161.294 55.8389 0.23655 0.552212
473400 60.1715 161.307 55.8389 0.23665 0.617564
473600 60.1715 161.32 55.8389 0.23675 0.633338
473800 60.1715 161.333 55.8389 0.23685 0.552761
474000 60.1715 161.346 55.8389 0.23695 0.436209
474200 60.1715 161.359 55.8389 0.23705 0.28489
474400 60.1715 161.372 55.8389 0.23715 0.0851641
474600 60.1715 161.385 55.8389 0.23725 -0.112035
474800 60.1715 161.398 55.8389 0.23735 -0.312307
475000 60.1715 161.411 55.8389 0.23745 -0.394781
475200 60.1715 161.424 55.8389 0.23755 -0.553744
475400 60.1715 161.437 55.8389 0.23765 -0.560367
475600 60.1715 161.45 55.8389 0.23775 -0.55154
475800 60.1715 161.463 55.8389 0.23785 -0.509486
476000 60.1715 161.476 55.8389 0.23795 -0.39589
476200 60.1715 161.49 55.8389 0.23805 -0.231275
476400 60.1715 161.503 55.8389 0.23815 -0.0686007
476600 60.1715 161.516 55.8389 0.23825 0.125655
476800 60.1715 161.529 55.8389 0.23835 0.324484
477000 60.1715 161.542 55.8389 0.23845 0.457543
477200 60.1715 161.555 55.8389 0.23855 0.565741
477400 60.1715 161.568 55.8389 0.23865 0.618474
477600 60.1715 161.581 55.8389 0.23875 0.58793
477800 60.1715 161.594 55.8389 0.23885 0.522201
478000 60.1715 161.607 55.8389 0.23895 0.37502
478200 60.1715 161.62 55.8389 0.23905 0.189261
478400 60.1715 161.633 55.8389 0.23915 -0.0152301
478600 60.1715 161.646 55.8389 0.23925 -0.164761
478800 60.1715 161.659 55.8389 0.23935 -0.334259
479000 60.1715 161.672 55.8389 0.23945 -0.425059
479200 60.1715 161.685 55.8389 0.23955 -0.556292
479400 60.1715 161.698 55.8389 0.23965 -0.561096
479600 60.1715 161.711 55.8389 0.23975 -0.526551
479800 60.1715 161.724 55.8389 0.23985 -0.435466
480000 60.1715 161.737 55.8389 0.23995 -0.326481
480200 60.1715 161.75 55.8389 0.24005 -0.155762
480400 60.1715 161.763 55.8389 0.24015 0.0062938
480600 60.1715 161.776 55.8389 0.24025 0.193648
480800 60.1715 161.79 55.8389 0.24035 0.360862
481000 60.1715 161.803 55.8389 0.24045 0.492582
481200 60.1715 161.816 55.8389 0.24055 0.58437
481400 60.1715 161.829 55.8389 0.24065 0.602873
481600 60.1715 161.842 55.8389 0.24075 0.559135
481800 60.1715 161.855 55.8389 0.24085 0.446685
482000 60.1715 161.868 55.8389 0.24095 0.311418
482200 60.1715 161.881 55.8389 0.24105 0.120556
482400 60.1715 161.894 55.8389 0.24115 -0.0624497
482600 60.1715 161.907 55.8389 0.24125 -0.211133
482800 60.1715 161.92 55.8389 0.24135 -0.386381
483000 60.1715 161.933 55.8389 0.24145 -0.472999
483200 60.1715 161.946 55.8389 0.24155 -0.527004
483400 60.1715 161.959 55.8389 0.24165 -0.546049
483600 60.1715 161.972 55.8389 0.24175 -0.495795
483800 60.1715 161.985 55.8389 0.24185 -0.429089
484000 60.1715 161.998 55.8389 0.24195 -0.267172
484200 60.1715 162.011 55.8389 0.24205 -0.111872
484400 60.1715 162.024 55.8389 0.24215 0.059283
484600 60.1715 162.037 55.8389 0.24225 0.259009
484800 60.1715 162.05 55.8389 0.24235 0.407046
485000 60.1715 162.063 55.8389 0.24245 0.493221
485200 60.1715 162.077 55.8389 0.24255 0.580786
485400 60.1715 162.09 55.8389 0.24265 0.599309
485600 60.1715 162.103 55.8389 0.24275 0.515831
485800 60.1715 162.116 55.8389 0.24285 0.399735
486000 60.1715 162.129 55.8389 0.24295 0.254378
486200 60.1715 162.142 55.8389 0.24305 0.0676461
486400 60.1715 162.155 55.8389 0.24315 -0.0750089
486600 60.1715 162.168 55.8389 0.24325 -0.281357
486800 60.1715 162.181 55.8389 0.24335 -0.393048
487000 60.1715 162.194 55.8389 0.24345 -0.49103
487200 60.1715 162.207 55.8389 0.24355 -0.530692
487400 60.1715 162.22 55.8389 0.24365 -0.499816
487600 60.1715 162.233 55.8389 0.24375 -0.464493
487800 60.1715 162.246 55.8389 0.24385 -0.357116
488000 60.1715 162.259 55.8389 0.24395 -0.231153
488200 60.1715 162.272 55.8389 0.24405 -0.0458631
488400 60.1715 162.285 55.8389 0.24415 0.130987
488600 60.1715 162.298 55.8389 0.24425 0.293394
488800 60.1715 162.311 55.8389 0.24435 0.43809
489000 60.1715 162.324 55.8389 0.24445 0.517393
489200 60.1715 162.337 55.8389 0.24455 0.589893
489400 60.1715 162.35 55.8389 0.24465 0.540384
489600 60.1715 162.363 55.8389 0.24475 0.444357
489800 60.1715 162.377 55.8389 0.24485 0.31666
490000 60.1715 162.39 55.8389 0.24495 0.192249
490200 60.1715 162.403 55.8389 0.24505 0.0116801
490400 60.1715 162.416 55.8389 0.24515 -0.155518
490600 60.1715 162.429 55.8389 0.24525 -0.330528
490800 60.1715 162.442 55.8389 0.24535 -0.437134
491000 60.1715 162.455 55.8389 0.24545 -0.491569
491200 60.1715 162.468 55.8389 0.24555 -0.535876
491400 60.1715 162.481 55.8389 0.24565 -0.48397
491600 60.1715 162.494 55.8389 0.24575 -0.389504
491800 60.1715 162.507 55.8389 0.24585 -0.270219
492000 60.1715 162.52 55.8389 0.24595 -0.157908
492200 60.1715 162.533 55.8389 0.24605 0.0141766
492400 60.1715 162.546 55.8389 0.24615 0.208285
492600 60.1715 162.559 55.8389 0.24625 0.355814
492800 60.1715 162.572 55.8389 0.24635 0.489855
493000 60.1715 162.585 55.8389 0.24645 0.515387
493200 60.1715 162.598 55.8389 0.24655 0.582973
493400 60.1715 162.611 55.8389 0.24665 0.515935
493600 60.1715 162.624 55.8389 0.24675 0.350862
493800 60.1715 162.637 55.8389 0.24685 0.282621
494000 60.1715 162.65 55.8389 0.24695 0.127908
494200 60.1715 162.663 55.8389 0.24705 -0.0779413
494400 60.1715 162.677 55.8389 0.24715 -0.230245
494600 60.1715 162.69 55.8389 0.24725 -0.32591
494800 60.1715 162.703 55.8389 0.24735 -0.451283
495000 60.1715 162.716 55.8389 0.24745 -0.507718
495200 60.1715 162.729 55.8389 0.24755 -0.515538
495400 60.1715 162.742 55.8389 0.24765 -0.45372
495600 60.1715 162.755 55.8389 0.24775 -0.353984
495800 60.1715 162.768 55.8389 0.24785 -0.233231
496000 60.1715 162.781 55.8389 0.24795 -0.071032
496200 60.1715 162.794 55.8389 0.24805 0.0864967
496400 60.1715 162.807 55.8389 0.24815 0.224224
496600 60.1715 162.82 55.8389 0.24825 0.405166
496800 60.1715 162.833 55.8389 0.24835 0.460755
497000 60.1715 162.846 55.8389 0.24845 0.554812
497200 60.1715 162.859 55.8389 0.24855 0.533554
497400 60.1715 162.872 55.8389 0.24865 0.457345
497600 60.1715 162.885 55.8389 0.24875 0.34049
497800 60.1715 162.898 55.8389 0.24885 0.205492
498000 60.1715 162.911 55.8389 0.24895 0.0515111
498200 60.1715 162.924 55.8389 0.24905 -0.115191
498400 60.1715 162.937 55.8389 0.24915 -0.252732
498600 60.1715 162.95 55.8389 0.24925 -0.367121
498800 60.1715 162.963 55.8389 0.24935 -0.461403
499000 60.1715 162.977 55.8389 0.24945 -0.495301
499200 60.1715 162.99 55.8389 0.24955 -0.482481
499400 60.1715 163.003 55.8389 0.24965 -0.41518
499600 60.1715 163.016 55.8389 0.24975 -0.294714
499800 60.1715 163.029 55.8389 0.24985 -0.188612
500000 60.1715 163.042 55.8389 0.24995 -0.026382
500200 60.1715 163.055 55.8389 0.25005 0.1379
500400 60.1715 163.068 55.8389 0.25015 0.283785
500600 60.1715 163.081 55.8389 0.25025 0.422742
500800 60.1715 163.094 55.8389 0.25035 0.483988
501000 60.1715 163.107 55.8389 0.25045 0.541447
501200 60.1715 163.12 55.8389 0.25055 0.508996
501400 60.1715 163.133 55.8389 0.25065 0.420295
501600 60.1715 163.146 55.8389 0.25075 0.30901
501800 60.1715 163.159 55.8389 0.25085 0.147073
502000 60.1715 163.172 55.8389 0.25095 0.00204632
502200 60.1715 163.185 55.8389 0.25105 -0.151631
502400 60.1715 163.198 55.8389 0.25115 -0.289352
502600 60.1715 163.211 55.8389 0.25125 -0.391443
502800 60.1715 163.224 55.8389 0.25135 -0.475404
503000 60.1715 163.237 55.8389 0.25145 -0.496375
503200 60.1715 163.25 55.8389 0.25155 -0.466448
503400 60.1715 163.263 55.8389 0.25165 -0.396144
503600 60.1715 163.277 55.8389 0.25175 -0.266378
503800 60.1715 163.29 55.8389 0.25185 -0.136108
504000 60.1715 163.303 55.8389 0.25195 0.00868528
504200 60.1715 163.316 55.8389 0.25205 0.182525
504400 60.1715 163.329 55.8389 0.25215 0.326849
504600 60.1715 163.342 55.8389 0.25225 0.429114
504800 60.1715 163.355 55.8389 0.25235 0.524215
505000 60.1715 163.368 55.8389 0.25245 0.547033
505200 60.1715 163.381 55.8389 0.25255 0.477879
505400 60.1715 163.394 55.8389 0.25265 0.359187
505600 60.1715 163.407 55.8389 0.25275 0.275228
505800 60.1715 163.42 55.8389 0.25285 0.0950693
506000 60.1715 163.433 55.8389 0.25295 -0.0427076
506200 60.1715 163.446 55.8389 0.25305 -0.198932
506400 60.1715 163.459 55.8389 0.25315 -0.328518
506600 60.1715 163.472 55.8389 0.25325 -0.433526
506800 60.1715 163.485 55.8389 0.25335 -0.475518
507000 60.1715 163.498 55.8389 0.25345 -0.476682
507200 60.1715 163.511 55.8389 0.25355 -0.41681
507400 60.1715 163.524 55.8389 0.25365 -0.358701
507600 60.1715 163.537 55.8389 0.25375 -0.193128
507800 60.1715 163.55 55.8389 0.25385 -0.08625
508000 60.1715 163.564 55.8389 0.25395 0.0882085
508200 60.1715 163.577 55.8389 0.25405 0.219865
508400 60.1715 163.59 55.8389 0.25415 0.364872
508600 60.1715 163.603 55.8389 0.25425 0.497303
508800 60.1715 163.616 55.8389 0.25435 0.493165
509000 60.1715 163.629 55.8389 0.25445 0.489721
509200 60.1715 163.642 55.8389 0.25455 0.431995
509400 60.1715 163.655 55.8389 0.25465 0.351558
509600 60.1715 163.668 55.8389 0.25475 0.18366
509800 60.1715 163.681 55.8389 0.25485 0.0249299
510000 60.1715 163.694 55.8389 0.25495 -0.100206
510200 60.1715 163.707 55.8389 0.25505 -0.250357
510400 60.1715 163.72 55.8389 0.25515 -0.390686
510600 60.1715 163.733 55.8389 0.25525 -0.453498
510800 60.1715 163.746 55.8389 0.25535 -0.484349
511000 60.1715 163.759 55.8389 0.25545 -0.4461
511200 60.1715 163.772 55.8389 0.25555 -0.384747
511400 60.1715 163.785 55.8389 0.25565 -0.263974
511600 60.1715 163.798 55.8389 0.25575 -0.163411
511800 60.1715 163.811 55.8389 0.25585 0.0118702
512000 60.1715 163.824 55.8389 0.25595 0.15967
512200 60.1715 163.837 55.8389 0.25605 0.288911
512400 60.1715 163.85 55.8389 0.25615 0.420257
512600 60.1715 163.864 55.8389 0.25625 0.446521
512800 60.1715 163.877 55.8389 0.25635 0.518512
513000 60.1715 163.89 55.8389 0.25645 0.47246
513200 60.1715 163.903 55.8389 0.25655 0.384622
513400 60.1715 163.916 55.8389 0.25665 0.263131
513600 60.1715 163.929 55.8389 0.25675 0.115043
513800 60.1715 163.942 55.8389 0.25685 -0.0292809
514000 60.1715 163.955 55.8389 0.25695 -0.153497
514200 60.1715 163.968 55.8389 0.25705 -0.293351
514400 60.1715 163.981 55.8389 0.25715 -0.377953
514600 60.1715 163.994 55.8389 0.25725 -0.44989
514800 60.1715 164.007 55.8389 0.25735 -0.441983
515000 60.1715 164.02 55.8389 0.25745 -0.437947
515200 60.1715 164.033 55.8389 0.25755 -0.35385
515400 60.1715 164.046 55.8389 0.25765 -0.230578
515600 60.1715 164.059 55.8389 0.25775 -0.0772447
515800 60.1715 164.072 55.8389 0.25785 0.0774498
516000 60.1715 164.085 55.8389 0.25795 0.179464
516200 60.1715 164.098 55.8389 0.25805 0.314223
516400 60.1715 164.111 55.8389 0.25815 0.413387
516600 60.1715 164.124 55.8389 0.25825 0.463925
516800 60.1715 164.137 55.8389 0.25835 0.461256
517000 60.1715 164.15 55.8389 0.25845 0.438251
517200 60.1715 164.164 55.8389 0.25855 0.340012
517400 60.1715 164.177 55.8389 0.25865 0.207306
517600 60.1715 164.19 55.8389 0.25875 0.0366474
517800 60.1715 164.203 55.8389 0.25885 -0.0903718
518000 60.1715 164.216 55.8389 0.25895 -0.202451
518200 60.1715 164.229 55.8389 0.25905 -0.29867
518400 60.1715 164.242 55.8389 0.25915 -0.358893
518600 60.1715 164.255 55.8389 0.25925 -0.414127
518800 60.1715 164.268 55.8389 0.25935 -0.430626
519000 60.1715 164.281 55.8389 0.25945 -0.391025
519200 60.1715 164.294 55.8389 0.25955 -0.287298
519400 60.1715 164.307 55.8389 0.25965 -0.167087
519600 60.1715 164.32 55.8389 0.25975 -0.0275526
519800 60.1715 164.333 55.8389 0.25985 0.101772
520000 60.1715 164.346 55.8389 0.25995 0.236112
520200 60.1715 164.359 55.8389 0.26005 0.335656
520400 60.1715 164.372 55.8389 0.26015 0.410104
520600 60.1715 164.385 55.8389 0.26025 0.438789
520800 60.1715 164.398 55.8389 0.26035 0.439652
521000 60.1715 164.411 55.8389 0.26045 0.392722
521200 60.1715 164.424 55.8389 0.26055 0.279646
521400 60.1715 164.437 55.8389 0.26065 0.148395
521600 60.1715 164.45 55.8389 0.26075 0.0146419
521800 60.1715 164.464 55.8389 0.26085 -0.122368
522000 60.1715 164.477 55.8389 0.26095 -0.257161
522200 60.1715 164.49 55.8389 0.26105 -0.343941
522400 60.1715 164.503 55.8389 0.26115 -0.358438
522600 60.1715 164.516 55.8389 0.26125 -0.398718
522800 60.1715 164.529 55.8389 0.26135 -0.396871
523000 60.1715 164.542 55.8389 0.26145 -0.326683
523200 60.1715 164.555 55.8389 0.26155 -0.235486
523400 60.1715 164.568 55.8389 0.26165 -0.135023
523600 60.1715 164.581 55.8389 0.26175 0.00189915
523800 60.1715 164.594 55.8389 0.26185 0.148297
524000 60.1715 164.607 55.8389 0.26195 0.272777
524200 60.1715 164.62 55.8389 0.26205 0.36269
524400 60.1715 164.633 55.8389 0.26215 0.414613
524600 60.1715 164.646 55.8389 0.26225 0.398562
524800 60.1715 164.659 55.8389 0.26235 0.419888
525000 60.1715 164.672 55.8389 0.26245 0.316507
525200 60.1715 164.685 55.8389 0.26255 0.23685
525400 60.1715 164.698 55.8389 0.26265 0.110651
525600 60.1715 164.711 55.8389 0.26275 -0.016433
525800 60.1715 164.724 55.8389 0.26285 -0.13733
526000 60.1715 164.737 55.8389 0.26295 -0.26079
526200 60.1715 164.75 55.8389 0.26305 -0.351112
526400 60.1715 164.764 55.8389 0.26315 -0.364967
526600 60.1715 164.777 55.8389 0.26325 -0.376242
526800 60.1715 164.79 55.8389 0.26335 -0.354075
527000 60.1715 164.803 55.8389 0.26345 -0.295557
527200 60.1715 164.816 55.8389 0.26355 -0.207427
527400 60.1715 164.829 55.8389 0.26365 -0.0782104
527600 60.1715 164.842 55.8389 0.26375 0.0509451
527800 60.1715 164.855 55.8389 0.26385 0.188903
528000 60.1715 164.868 55.8389 0.26395 0.255581
528200 60.1715 164.881 55.8389 0.26405 0.367051
528400 60.1715 164.894 55.8389 0.26415 0.405861
528600 60.1715 164.907 55.8389 0.26425 0.420613
528800 60.1715 164.92 55.8389 0.26435 0.372458
529000 60.1715 164.933 55.8389 0.26445 0.287469
529200 60.1715 164.946 55.8389 0.26455 0.199417
529400 60.1715 164.959 55.8389 0.26465 0.0588646
529600 60.1715 164.972 55.8389 0.26475 -0.085246
529800 60.1715 164.985 55.8389 0.26485 -0.183775
530000 60.1715 164.998 55.8389 0.26495 -0.294541
530200 60.1715 165.011 55.8389 0.26505 -0.332173
530400 60.1715 165.024 55.8389 0.26515 -0.384445
530600 60.1715 165.037 55.8389 0.26525 -0.364578
530800 60.1715 165.051 55.8389 0.26535 -0.358078
531000 60.1715 165.064 55.8389 0.26545 -0.260284
531200 60.1715 165.077 55.8389 0.26555 -0.148931
531400 60.1715 165.09 55.8389 0.26565 -0.0101701
531600 60.1715 165.103 55.8389 0.26575 0.0985117
531800 60.1715 165.116 55.8389 0.26585 0.216891
532000 60.1715 165.129 55.8389 0.26595 0.313402
532200 60.1715 165.142 55.8389 0.26605 0.383412
532400 60.1715 165.155 55.8389 0.26615 0.406656
532600 60.1715 165.168 55.8389 0.26625 0.404894
532800 60.1715 165.181 55.8389 0.26635 0.340926
533000 60.1715 165.194 55.8389 0.26645 0.248487
533200 60.1715 165.207 55.8389 0.26655 0.123064
533400 60.1715 165.22 55.8389 0.26665 0.0274341
533600 60.1715 165.233 55.8389 0.26675 -0.110432
533800 60.1715 165.246 55.8389 0.26685 -0.216238
534000 60.1715 165.259 55.8389 0.26695 -0.306779
534200 60.1715 165.272 55.8389 0.26705 -0.348035
534400 60.1715 165.285 55.8389 0.26715 -0.372815
534600 60.1715 165.298 55.8389 0.26725 -0.331771
534800 60.1715 165.311 55.8389 0.26735 -0.317087
535000 60.1715 165.324 55.8389 0.26745 -0.235394
535200 60.1715 165.337 55.8389 0.26755 -0.109534
535400 60.1715 165.351 55.8389 0.26765 0.0389861
535600 60.1715 165.364 55.8389 0.26775 0.112357
535800 60.1715 165.377 55.8389 0.26785 0.241734
536000 60.1715 165.39 55.8389 0.26795 0.346516
536200 60.1715 165.403 55.8389 0.26805 0.38829
536400 60.1715 165.416 55.8389 0.26815 0.389695
536600 60.1715 165.429 55.8389 0.26825 0.378816
536800 60.1715 165.442 55.8389 0.26835 0.304363
537000 60.1715 165.455 55.8389 0.26845 0.204154
537200 60.1715 165.468 55.8389 0.26855 0.0743808
537400 60.1715 165.481 55.8389 0.26865 -0.0379262
537600 60.1715 165.494 55.8389 0.26875 -0.153866
537800 60.1715 165.507 55.8389 0.26885 -0.260367
538000 60.1715 165.52 55.8389 0.26895 -0.309691
538200 60.1715 165.533 55.8389 0.26905 -0.357002
538400 60.1715 165.546 55.8389 0.26915 -0.368138
538600 60.1715 165.559 55.8389 0.26925 -0.330576
538800 60.1715 165.572 55.8389 0.26935 -0.248738
539000 60.1715 165.585 55.8389 0.26945 -0.171561
539200 60.1715 165.598 55.8389 0.26955 -0.0429934
539400 60.1715 165.611 55.8389 0.26965 0.0727013
539600 60.1715 165.624 55.8389 0.26975 0.201769
539800 60.1715 165.637 55.8389 0.26985 0.272265
540000 60.1715 165.651 55.8389 0.26995 0.357881
540200 60.1715 165.664 55.8389 0.27005 0.380205
540400 60.1715 165.677 55.8389 0.27015 0.376841
540600 60.1715 165.69 55.8389 0.27025 0.358312
540800 60.1715 165.703 55.8389 0.27035 0.226856
541000 60.1715 165.716 55.8389 0.27045 0.15044
541200 60.1715 165.729 55.8389 0.27055 0.0347848
541400 60.1715 165.742 55.8389 0.27065 -0.0652754
541600 60.1715 165.755 55.8389 0.27075 -0.21255
541800 60.1715 165.768 55.8389 0.27085 -0.263133
542000 60.1715 165.781 55.8389 0.27095 -0.31711
542200 60.1715 165.794 55.8389 0.27105 -0.356587
542400 60.1715 165.807 55.8389 0.27115 -0.357023
542600 60.1715 165.82 55.8389 0.27125 -0.278754
542800 60.1715 165.833 55.8389 0.27135 -0.228421
543000 60.1715 165.846 55.8389 0.27145 -0.134855
543200 60.1715 165.859 55.8389 0.27155 -0.0172466
543400 60.1715 165.872 55.8389 0.27165 0.116757
543600 60.1715 165.885 55.8389 0.27175 0.217861
543800 60.1715 165.898 55.8389 0.27185 0.291395
544000 60.1715 165.911 55.8389 0.27195 0.351552
544200 60.1715 165.924 55.8389 0.27205 0.395713
544400 60.1715 165.937 55.8389 0.27215 0.352798
544600 60.1715 165.951 55.8389 0.27225 0.312938
544800 60.1715 165.964 55.8389 0.27235 0.214147
545000 60.1715 165.977 55.8389 0.27245 0.0882328
545200 60.1715 165.99 55.8389 0.27255 0.0190111
545400 60.1715 166.003 55.8389 0.27265 -0.11324
545600 60.1715 166.016 55.8389 0.27275 -0.210128
545800 60.1715 166.029 55.8389 0.27285 -0.292008
546000 60.1715 166.042 55.8389 0.27295 -0.325912
546200 60.1715 166.055 55.8389 0.27305 -0.354165
546400 60.1715 166.068 55.8389 0.27315 -0.318636
546600 60.1715 166.081 55.8389 0.27325 -0.264331
546800 60.1715 166.094 55.8389 0.27335 -0.18775
547000 60.1715 166.107 55.8389 0.27345 -0.0682366
547200 60.1715 166.12 55.8389 0.27355 0.0292476
547400 60.1715 166.133 55.8389 0.27365 0.143279
547600 60.1715 166.146 55.8389 0.27375 0.218901
547800 60.1715 166.159 55.8389 0.27385 0.315923
548000 60.1715 166.172 55.8389 0.27395 0.370988
548200 60.1715 166.185 55.8389 0.27405 0.38756
548400 60.1715 166.198 55.8389 0.27415 0.34949
548600 60.1715 166.211 55.8389 0.27425 0.246253
548800 60.1715 166.224 55.8389 0.27435 0.151452
549000 60.1715 166.237 55.8389 0.27445 0.0712858
549200 60.1715 166.251 55.8389 0.27455 -0.0560599
549400 60.1715 166.264 55.8389 0.27465 -0.142525
549600 60.1715 166.277 55.8389 0.27475 -0.222142
549800 60.1715 166.29 55.8389 0.27485 -0.295658
550000 60.1715 166.303 55.8389 0.27495 -0.32929
550200 60.1715 166.316 55.8389 0.27505 -0.350689
550400 60.1715 166.329 55.8389 0.27515 -0.310386
550600 60.1715 166.342 55.8389 0.27525 -0.218551
550800 60.1715 166.355 55.8389 0.27535 -0.148544
551000 60.1715 166.368 55.8389 0.27545 -0.0344847
551200 60.1715 166.381 55.8389 0.27555 0.0664035
551400 60.1715 166.394 55.8389 0.27565 0.186358
551600 60.1715 166.407 55.8389 0.27575 0.268241
551800 60.1715 166.42 55.8389 0.27585 0.323841
552000 60.1715 166.433 55.8389 0.27595 0.349414
552200 60.1715 166.446 55.8389 0.27605 0.359576
552400 60.1715 166.459 55.8389 0.27615 0.302288
552600 60.1715 166.472 55.8389 0.27625 0.234978
552800 60.1715 166.485 55.8389 0.27635 0.130042
553000 60.1715 166.498 55.8389 0.27645 0.0277312
553200 60.1715 166.511 55.8389 0.27655 -0.0790951
553400 60.1715 166.524 55.8389 0.27665 -0.162934
553600 60.1715 166.538 55.8389 0.27675 -0.265229
553800 60.1715 166.551 55.8389 0.27685 -0.283389
554000 60.1715 166.564 55.8389 0.27695 -0.323679
554200 60.1715 166.577 55.8389 0.27705 -0.318597
554400 60.1715 166.59 55.8389 0.27715 -0.254964
554600 60.1715 166.603 55.8389 0.27725 -0.197662
554800 60.1715 166.616 55.8389 0.27735 -0.113088
555000 60.1715 166.629 55.8389 0.27745 0.00269401
555200 60.1715 166.642 55.8389 0.27755 0.0908268
555400 60.1715 166.655 55.8389 0.27765 0.209068
555600 60.1715 166.668 55.8389 0.27775 0.271765
555800 60.1715 166.681 55.8389 0.27785 0.331032
556000 60.1715 166.694 55.8389 0.27795 0.32676
556200 60.1715 166.707 55.8389 0.27805 0.299602
556400 60.1715 166.72 55.8389 0.27815 0.262578
556600 60.1715 166.733 55.8389 0.27825 0.187312
556800 60.1715 166.746 55.8389 0.27835 0.0892514
557000 60.1715 166.759 55.8389 0.27845 0.0136967
557200 60.1715 166.772 55.8389 0.27855 -0.115351
557400 60.1715 166.785 55.8389 0.27865 -0.166574
557600 60.1715 166.798 55.8389 0.27875 -0.264778
557800 60.1715 166.811 55.8389 0.27885 -0.295243
558000 60.1715 166.824 55.8389 0.27895 -0.306282
558200 60.1715 166.838 55.8389 0.27905 -0.263118
558400 60.1715 166.851 55.8389 0.27915 -0.218318
558600 60.1715 166.864 55.8389 0.27925 -0.169945
558800 60.1715 166.877 55.8389 0.27935 -0.0775033
559000 60.1715 166.89 55.8389 0.27945 0.022215
559200 60.1715 166.903 55.8389 0.27955 0.117803
559400 60.1715 166.916 55.8389 0.27965 0.229972
559600 60.1715 166.929 55.8389 0.27975 0.283264
559800 60.1715 166.942 55.8389 0.27985 0.298781
560000 60.1715 166.955 55.8389 0.27995 0.304721
560200 60.1715 166.968 55.8389 0.28005 0.308964
560400 60.1715 166.981 55.8389 0.28015 0.230151
560600 60.1715 166.994 55.8389 0.28025 0.162082
560800 60.1715 167.007 55.8389 0.28035 0.0596039
561000 60.1715 167.02 55.8389 0.28045 -0.0229157
561200 60.1715 167.033 55.8389 0.28055 -0.101988
561400 60.1715 167.046 55.8389 0.28065 -0.227352
561600 60.1715 167.059 55.8389 0.28075 -0.267113
561800 60.1715 167.072 55.8389 0.28085 -0.276391
562000 60.1715 167.085 55.8389 0.28095 -0.284889
562200 60.1715 167.098 55.8389 0.28105 -0.234637
562400 60.1715 167.111 55.8389 0.28115 -0.223184
562600 60.1715 167.124 55.8389 0.28125 -0.132078
562800 60.1715 167.138 55.8389 0.28135 -0.0357014
563000 60.1715 167.151 55.8389 0.28145 0.0396585
563200 60.1715 167.164 55.8389 0.28155 0.136992
563400 60.1715 167.177 55.8389 0.28165 0.249343
563600 60.1715 167.19 55.8389 0.28175 0.289731
563800 60.1715 167.203 55.8389 0.28185 0.298721
564000 60.1715 167.216 55.8389 0.28195 0.302925
564200 60.1715 167.229 55.8389 0.28205 0.261624
564400 60.1715 167.242 55.8389 0.28215 0.184485
564600 60.1715 167.255 55.8389 0.28225 0.110542
564800 60.1715 167.268 55.8389 0.28235 0.0444021
565000 60.1715 167.281 55.8389 0.28245 -0.0569974
565200 60.1715 167.294 55.8389 0.28255 -0.134788
565400 60.1715 167.307 55.8389 0.28265 -0.207097
565600 60.1715 167.32 55.8389 0.28275 -0.253131
565800 60.1715 167.333 55.8389 0.28285 -0.288426
566000 60.1715 167.346 55.8389 0.28295 -0.25601
566200 60.1715 167.359 55.8389 0.28305 -0.238443
566400 60.1715 167.372 55.8389 0.28315 -0.158875
566600 60.1715 167.385 55.8389 0.28325 -0.0743883
566800 60.1715 167.398 55.8389 0.28335 -0.0209148
567000 60.1715 167.411 55.8389 0.28345 0.0864407
567200 60.1715 167.424 55.8389 0.28355 0.161321
567400 60.1715 167.438 55.8389 0.28365 0.236016
567600 60.1715 167.451 55.8389 0.28375 0.271587
567800 60.1715 167.464 55.8389 0.28385 0.311202
568000 60.1715 167.477 55.8389 0.28395 0.275473
568200 60.1715 167.49 55.8389 0.28405 0.237995
568400 60.1715 167.503 55.8389 0.28415 0.170632
568600 60.1715 167.516 55.8389 0.28425 0.0685659
568800 60.1715 167.529 55.8389 0.28435 -0.00388506
569000 60.1715 167.542 55.8389 0.28445 -0.0819534
569200 60.1715 167.555 55.8389 0.28455 -0.16118
569400 60.1715 167.568 55.8389 0.28465 -0.207856
569600 60.1715 167.581 55.8389 0.28475 -0.258688
569800 60.1715 167.594 55.8389 0.28485 -0.278596
570000 60.1715 167.607 55.8389 0.28495 -0.277156
570200 60.1715 167.62 55.8389 0.28505 -0.196222
570400 60.1715 167.633 55.8389 0.28515 -0.138949
570600 60.1715 167.646 55.8389 0.28525 -0.0494281
570800 60.1715 167.659 55.8389 0.28535 0.0309976
571000 60.1715 167.672 55.8389 0.28545 0.122358
571200 60.1715 167.685 55.8389 0.28555 0.175726
571400 60.1715 167.698 55.8389 0.28565 0.209978
571600 60.1715 167.711 55.8389 0.28575 0.319992
571800 60.1715 167.724 55.8389 0.28585 0.273928
572000 60.1715 167.738 55.8389 0.28595 0.280092
572200 60.1715 167.751 55.8389 0.28605 0.22877
572400 60.1715 167.764 55.8389 0.28615 0.148997
572600 60.1715 167.777 55.8389 0.28625 0.0286338
572800 60.1715 167.79 55.8389 0.28635 -0.0186536
573000 60.1715 167.803 55.8389 0.28645 -0.124557
573200 60.1715 167.816 55.8389 0.28655 -0.154372
573400 60.1715 167.829 55.8389 0.28665 -0.218125
573600 60.1715 167.842 55.8389 0.28675 -0.26548
573800 60.1715 167.855 55.8389 0.28685 -0.271981
574000 60.1715 167.868 55.8389 0.28695 -0.224803
574200 60.1715 167.881 55.8389 0.28705 -0.217491
574400 60.1715 167.894 55.8389 0.28715 -0.141946
574600 60.1715 167.907 55.8389 0.28725 0.00049354
574800 60.1715 167.92 55.8389 0.28735 0.0658203
575000 60.1715 167.933 55.8389 0.28745 0.155015
575200 60.1715 167.946 55.8389 0.28755 0.208836
575400 60.1715 167.959 55.8389 0.28765 0.231554
575600 60.1715 167.972 55.8389 0.28775 0.291184
575800 60.1715 167.985 55.8389 0.28785 0.28112
576000 60.1715 167.998 55.8389 0.28795 0.257404
576200 60.1715 168.011 55.8389 0.28805 0.182949
576400 60.1715 168.025 55.8389 0.28815 0.129042
576600 60.1715 168.038 55.8389 0.28825 -0.00315116
576800 60.1715 168.051 55.8389 0.28835 -0.0720775
577000 60.1715 168.064 55.8389 0.28845 -0.171859
577200 60.1715 168.077 55.8389 0.28855 -0.202907
577400 60.1715 168.09 55.8389 0.28865 -0.2259
577600 60.1715 168.103 55.8389 0.28875 -0.22407
577800 60.1715 168.116 55.8389 0.28885 -0.274614
578000 60.1715 168.129 55.8389 0.28895 -0.214862
578200 60.1715 168.142 55.8389 0.28905 -0.187806
578400 60.1715 168.155 55.8389 0.28915 -0.0856855
578600 60.1715 168.168 55.8389 0.28925 0.0237459
578800 60.1715 168.181 55.8389 0.28935 0.110244
579000 60.1715 168.194 55.8389 0.28945 0.196347
579200 60.1715 168.207 55.8389 0.28955 0.249082
579400 60.1715 168.22 55.8389 0.28965 0.25738
579600 60.1715 168.233 55.8389 0.28975 0.272012
579800 60.1715 168.246 55.8389 0.28985 0.246241
580000 60.1715 168.259 55.8389 0.28995 0.247894
580200 60.1715 168.272 55.8389 0.29005 0.167708
580400 60.1715 168.285 55.8389 0.29015 0.0808094
580600 60.1715 168.298 55.8389 0.29025 -0.0248921
580800 60.1715 168.311 55.8389 0.29035 -0.106541
581000 60.1715 168.325 55.8389 0.29045 -0.184896
581200 60.1715 168.338 55.8389 0.29055 -0.233975
581400 60.1715 168.351 55.8389 0.29065 -0.253621
581600 60.1715 168.364 55.8389 0.29075 -0.224797
581800 60.1715 168.377 55.8389 0.29085 -0.240069
582000 60.1715 168.39 55.8389 0.29095 -0.194116
582200 60.1715 168.403 55.8389 0.29105 -0.154828
582400 60.1715 168.416 55.8389 0.29115 -0.0376016
582600 60.1715 168.429 55.8389 0.29125 0.0345388
582800 60.1715 168.442 55.8389 0.29135 0.111843
583000 60.1715 168.455 55.8389 0.29145 0.210547
583200 60.1715 168.468 55.8389 0.29155 0.284335
583400 60.1715 168.481 55.8389 0.29165 0.254042
583600 60.1715 168.494 55.8389 0.29175 0.254947
583800 60.1715 168.507 55.8389 0.29185 0.228869
584000 60.1715 168.52 55.8389 0.29195 0.202107
584200 60.1715 168.533 55.8389 0.29205 0.128911
584400 60.1715 168.546 55.8389 0.29215 0.0456323
584600 60.1715 168.559 55.8389 0.29225 -0.0194928
584800 60.1715 168.572 55.8389 0.29235 -0.115169
585000 60.1715 168.585 55.8389 0.29245 -0.209035
585200 60.1715 168.598 55.8389 0.29255 -0.254738
585400 60.1715 168.611 55.8389 0.29265 -0.210061
585600 60.1715 168.625 55.8389 0.29275 -0.244527
585800 60.1715 168.638 55.8389 0.29285 -0.206013
586000 60.1715 168.651 55.8389 0.29295 -0.150839
586200 60.1715 168.664 55.8389 0.29305 -0.0817028
586400 60.1715 168.677 55.8389 0.29315 -0.0245487
586600 60.1715 168.69 55.8389 0.29325 0.0562755
586800 60.1715 168.703 55.8389 0.29335 0.12433
587000 60.1715 168.716 55.8389 0.29345 0.220543
587200 60.1715 168.729 55.8389 0.29355 0.281034
587400 60.1715 168.742 55.8389 0.29365 0.266029
587600 60.1715 168.755 55.8389 0.29375 0.26459
587800 60.1715 168.768 55.8389 0.29385 0.204316
588000 60.1715 168.781 55.8389 0.29395 0.134509
588200 60.1715 168.794 55.8389 0.29405 0.0663922
588400 60.1715 168.807 55.8389 0.29415 0.0179739
588600 60.1715 168.82 55.8389 0.29425 -0.0601937
588800 60.1715 168.833 55.8389 0.29435 -0.127472
589000 60.1715 168.846 55.8389 0.29445 -0.182905
589200 60.1715 168.859 55.8389 0.29455 -0.24542
589400 60.1715 168.872 55.8389 0.29465 -0.260002
589600 60.1715 168.885 55.8389 0.29475 -0.238352
589800 60.1715 168.898 55.8389 0.29485 -0.190032
590000 60.1715 168.911 55.8389 0.29495 -0.112689
590200 60.1715 168.925 55.8389 0.29505 -0.0490474
590400 60.1715 168.938 55.8389 0.29515 0.0297736
590600 60.1715 168.951 55.8389 0.29525 0.0878798
590800 60.1715 168.964 55.8389 0.29535 0.151328
591000 60.1715 168.977 55.8389 0.29545 0.208188
591200 60.1715 168.99 55.8389 0.29555 0.261422
591400 60.1715 169.003 55.8389 0.29565 0.280332
591600 60.1715 169.016 55.8389 0.29575 0.263891
591800 60.1715 169.029 55.8389 0.29585 0.194435
592000 60.1715 169.042 55.8389 0.29595 0.124398
592200 60.1715 169.055 55.8389 0.29605 0.0370444
592400 60.1715 169.068 55.8389 0.29615 -0.022301
592600 60.1715 169.081 55.8389 0.29625 -0.0888802
592800 60.1715 169.094 55.8389 0.29635 -0.161604
593000 60.1715 169.107 55.8389 0.29645 -0.194368
593200 60.1715 169.12 55.8389 0.29655 -0.236192
593400 60.1715 169.133 55.8389 0.29665 -0.251532
593600 60.1715 169.146 55.8389 0.29675 -0.204694
593800 60.1715 169.159 55.8389 0.29685 -0.172412
594000 60.1715 169.172 55.8389 0.29695 -0.109093
594200 60.1715 169.185 55.8389 0.29705 -0.0233476
594400 60.1715 169.198 55.8389 0.29715 0.0566511
594600 60.1715 169.211 55.8389 0.29725 0.132247
594800 60.1715 169.225 55.8389 0.29735 0.176527
595000 60.1715 169.238 55.8389 0.29745 0.225345
595200 60.1715 169.251 55.8389 0.29755 0.24827
595400 60.1715 169.264 55.8389 0.29765 0.260156
595600 60.1715 169.277 55.8389 0.29775 0.227065
595800 60.1715 169.29 55.8389 0.29785 0.175563
596000 60.1715 169.303 55.8389 0.29795 0.0962021
596200 60.1715 169.316 55.8389 0.29805 0.0129294
596400 60.1715 169.329 55.8389 0.29815 -0.0665438
596600 60.1715 169.342 55.8389 0.29825 -0.113763
596800 60.1715 169.355 55.8389 0.29835 -0.16509
597000 60.1715 169.368 55.8389 0.29845 -0.212653
597200 60.1715 169.381 55.8389 0.29855 -0.22924
597400 60.1715 169.394 55.8389 0.29865 -0.238982
597600 60.1715 169.407 55.8389 0.29875 -0.197572
597800 60.1715 169.42 55.8389 0.29885 -0.127326
598000 60.1715 169.433 55.8389 0.29895 -0.0914544
598200 60.1715 169.446 55.8389 0.29905 0.00902615
598400 60.1715 169.459 55.8389 0.29915 0.0732947
598600 60.1715 169.472 55.8389 0.29925 0.170504
598800 60.1715 169.485 55.8389 0.29935 0.196584
599000 60.1715 169.498 55.8389 0.29945 0.242266
599200 60.1715 169.512 55.8389 0.29955 0.246379
599400 60.1715 169.525 55.8389 0.29965 0.257912
599600 60.1715 169.538 55.8389 0.29975 0.194415
599800 60.1715 169.551 55.8389 0.29985 0.145054
600000 60.1715 169.564 55.8389 0.29995 0.0777795
600200 60.1715 169.577 55.8389 0.30005 -0.0200155
600400 60.1715 169.59 55.8389 0.30015 -0.0857112
600600 60.1715 169.603 55.8389 0.30025 -0.148989
600800 60.1715 169.616 55.8389 0.30035 -0.17671
601000 60.1715 169.629 55.8389 0.30045 -0.243617
601200 60.1715 169.642 55.8389 0.30055 -0.19965
601400 60.1715 169.655 55.8389 0.30065 -0.201261
601600 60.1715 169.668 55.8389 0.30075 -0.175925
601800 60.1715 169.681 55.8389 0.30085 -0.105951
602000 60.1715 169.694 55.8389 0.30095 -0.0631315
602200 60.1715 169.707 55.8389 0.30105 0.0285947
602400 60.1715 169.72 55.8389 0.30115 0.102788
602600 60.1715 169.733 55.8389 0.30125 0.177902
602800 60.1715 169.746 55.8389 0.30135 0.204394
603000 60.1715 169.759 55.8389 0.30145 0.252972
603200 60.1715 169.772 55.8389 0.30155 0.222088
603400 60.1715 169.785 55.8389 0.30165 0.208725
603600 60.1715 169.798 55.8389 0.30175 0.166227
603800 60.1715 169.812 55.8389 0.30185 0.127369
604000 60.1715 169.825 55.8389 0.30195 0.0446854
604200 60.1715 169.838 55.8389 0.30205 -0.0382578
604400 60.1715 169.851 55.8389 0.30215 -0.0997947
604600 60.1715 169.864 55.8389 0.30225 -0.163392
604800 60.1715 169.877 55.8389 0.30235 -0.181165
605000 60.1715 169.89 55.8389 0.30245 -0.200147
605200 60.1715 169.903 55.8389 0.30255 -0.208349
605400 60.1715 169.916 55.8389 0.30265 -0.160541
605600 60.1715 169.929 55.8389 0.30275 -0.150635
605800 60.1715 169.942 55.8389 0.30285 -0.0769534
606000 60.1715 169.955 55.8389 0.30295 -0.0186853
606200 60.1715 169.968 55.8389 0.30305 0.0535431
606400 60.1715 169.981 55.8389 0.30315 0.104123
606600 60.1715 169.994 55.8389 0.30325 0.162759
606800 60.1715 170.007 55.8389 0.30335 0.216492
607000 60.1715 170.02 55.8389 0.30345 0.240863
607200 60.1715 170.033 55.8389 0.30355 0.214375
607400 60.1715 170.046 55.8389 0.30365 0.17145
607600 60.1715 170.059 55.8389 0.30375 0.150928
607800 60.1715 170.072 55.8389 0.30385 0.0826962
608000 60.1715 170.085 55.8389 0.30395 0.0235888
608200 60.1715 170.098 55.8389 0.30405 -0.0472333
608400 60.1715 170.112 55.8389 0.30415 -0.120728
608600 60.1715 170.125 55.8389 0.30425 -0.143132
608800 60.1715 170.138 55.8389 0.30435 -0.200243
609000 60.1715 170.151 55.8389 0.30445 -0.221154
609200 60.1715 170.164 55.8389 0.30455 -0.206976
609400 60.1715 170.177 55.8389 0.30465 -0.166114
609600 60.1715 170.19 55.8389 0.30475 -0.0916193
609800 60.1715 170.203 55.8389 0.30485 -0.0655252
610000 60.1715 170.216 55.8389 0.30495 0.00927621
610200 60.1715 170.229 55.8389 0.30505 0.0603133
610400 60.1715 170.242 55.8389 0.30515 0.134326
610600 60.1715 170.255 55.8389 0.30525 0.18161
610800 60.1715 170.268 55.8389 0.30535 0.225037
611000 60.1715 170.281 55.8389 0.30545 0.237695
611200 60.1715 170.294 55.8389 0.30555 0.213501
611400 60.1715 170.307 55.8389 0.30565 0.170127
611600 60.1715 170.32 55.8389 0.30575 0.11542
611800 60.1715 170.333 55.8389 0.30585 0.0322516
612000 60.1715 170.346 55.8389 0.30595 -0.00754473
612200 60.1715 170.359 55.8389 0.30605 -0.0549428
612400 60.1715 170.372 55.8389 0.30615 -0.118764
612600 60.1715 170.385 55.8389 0.30625 -0.156912
612800 60.1715 170.398 55.8389 0.30635 -0.204342
613000 60.1715 170.412 55.8389 0.30645 -0.191858
613200 60.1715 170.425 55.8389 0.30655 -0.183608
613400 60.1715 170.438 55.8389 0.30665 -0.161481
613600 60.1715 170.451 55.8389 0.30675 -0.0825633
613800 60.1715 170.464 55.8389 0.30685 -0.0224808
614000 60.1715 170.477 55.8389 0.30695 0.0261163
614200 60.1715 170.49 55.8389 0.30705 0.093139
614400 60.1715 170.503 55.8389 0.30715 0.145766
614600 60.1715 170.516 55.8389 0.30725 0.198232
614800 60.1715 170.529 55.8389 0.30735 0.200871
615000 60.1715 170.542 55.8389 0.30745 0.225113
615200 60.1715 170.555 55.8389 0.30755 0.186638
615400 60.1715 170.568 55.8389 0.30765 0.155437
615600 60.1715 170.581 55.8389 0.30775 0.0736374
615800 60.1715 170.594 55.8389 0.30785 0.0392365
616000 60.1715 170.607 55.8389 0.30795 -0.017007
616200 60.1715 170.62 55.8389 0.30805 -0.102996
616400 60.1715 170.633 55.8389 0.30815 -0.122307
616600 60.1715 170.646 55.8389 0.30825 -0.184035
616800 60.1715 170.659 55.8389 0.30835 -0.192316
617000 60.1715 170.672 55.8389 0.30845 -0.207029
617200 60.1715 170.685 55.8389 0.30855 -0.147833
617400 60.1715 170.698 55.8389 0.30865 -0.122528
617600 60.1715 170.712 55.8389 0.30875 -0.0799792
617800 60.1715 170.725 55.8389 0.30885 0.0126631
618000 60.1715 170.738 55.8389 0.30895 0.052631
618200 60.1715 170.751 55.8389 0.30905 0.105192
618400 60.1715 170.764 55.8389 0.30915 0.169785
618600 60.1715 170.777 55.8389 0.30925 0.200876
618800 60.1715 170.79 55.8389 0.30935 0.199399
619000 60.1715 170.803 55.8389 0.30945 0.228139
619200 60.1715 170.816 55.8389 0.30955 0.166684
619400 60.1715 170.829 55.8389 0.30965 0.113845
619600 60.1715 170.842 55.8389 0.30975 0.0861006
619800 60.1715 170.855 55.8389 0.30985 -0.00554459
620000 60.1715 170.868 55.8389 0.30995 -0.0520828
620200 60.1715 170.881 55.8389 0.31005 -0.105652
620400 60.1715 170.894 55.8389 0.31015 -0.146902
620600 60.1715 170.907 55.8389 0.31025 -0.17195
620800 60.1715 170.92 55.8389 0.31035 -0.211959
621000 60.1715 170.933 55.8389 0.31045 -0.169558
621200 60.1715 170.946 55.8389 0.31055 -0.14733
621400 60.1715 170.959 55.8389 0.31065 -0.113762
621600 60.1715 170.972 55.8389 0.31075 -0.0270273
621800 60.1715 170.985 55.8389 0.31085 -0.000815699
622000 60.1715 170.999 55.8389 0.31095 0.087127
622200 60.1715 171.012 55.8389 0.31105 0.136072
622400 60.1715 171.025 55.8389 0.31115 0.1571
622600 60.1715 171.038 55.8389 0.31125 0.193191
622800 60.1715 171.051 55.8389 0.31135 0.210666
623000 60.1715 171.064 55.8389 0.31145 0.194234
623200 60.1715 171.077 55.8389 0.31155 0.160768
623400 60.1715 171.09 55.8389 0.31165 0.106275
623600 60.1715 171.103 55.8389 0.31175 0.0199766
623800 60.1715 171.116 55.8389 0.31185 0.00181843
624000 60.1715 171.129 55.8389 0.31195 -0.0691956
624200 60.1715 171.142 55.8389 0.31205 -0.107582
624400 60.1715 171.155 55.8389 0.31215 -0.176479
624600 60.1715 171.168 55.8389 0.31225 -0.186393
624800 60.1715 171.181 55.8389 0.31235 -0.16409
625000 60.1715 171.194 55.8389 0.31245 -0.166426
625200 60.1715 171.207 55.8389 0.31255 -0.132084
625400 60.1715 171.22 55.8389 0.31265 -0.0932561
625600 60.1715 171.233 55.8389 0.31275 -0.000724903
625800 60.1715 171.246 55.8389 0.31285 0.0355186
626000 60.1715 171.259 55.8389 0.31295 0.0914076
626200 60.1715 171.272 55.8389 0.31305 0.15586
626400 60.1715 171.285 55.8389 0.31315 0.171968
626600 60.1715 171.299 55.8389 0.31325 0.205448
626800 60.1715 171.312 55.8389 0.31335 0.19471
627000 60.1715 171.325 55.8389 0.31345 0.176139
627200 60.1715 171.338 55.8389 0.31355 0.147302
627400 60.1715 171.351 55.8389 0.31365 0.0692579
627600 60.1715 171.364 55.8389 0.31375 0.00921602
627800 60.1715 171.377 55.8389 0.31385 -0.0335248
628000 60.1715 171.39 55.8389 0.31395 -0.0894611
628200 60.1715 171.403 55.8389 0.31405 -0.108774
628400 60.1715 171.416 55.8389 0.31415 -0.178253
628600 60.1715 171.429 55.8389 0.31425 -0.185659
628800 60.1715 171.442 55.8389 0.31435 -0.177285
629000 60.1715 171.455 55.8389 0.31445 -0.151503
629200 60.1715 171.468 55.8389 0.31455 -0.0967925
629400 60.1715 171.481 55.8389 0.31465 -0.0887811
629600 60.1715 171.494 55.8389 0.31475 0.00509468
629800 60.1715 171.507 55.8389 0.31485 0.0522288
630000 60.1715 171.52 55.8389 0.31495 0.130692
630200 60.1715 171.533 55.8389 0.31505 0.158089
630400 60.1715 171.546 55.8389 0.31515 0.186104
630600 60.1715 171.559 55.8389 0.31525 0.19239
630800 60.1715 171.572 55.8389 0.31535 0.184188
631000 60.1715 171.585 55.8389 0.31545 0.175008
631200 60.1715 171.599 55.8389 0.31555 0.102526
631400 60.1715 171.612 55.8389 0.31565 0.0672963
631600 60.1715 171.625 55.8389 0.31575 0.00356767
631800 60.1715 171.638 55.8389 0.31585 -0.0590813
632000 60.1715 171.651 55.8389 0.31595 -0.0946757
632200 60.1715 171.664 55.8389 0.31605 -0.170182
632400 60.1715 171.677 55.8389 0.31615 -0.155717
632600 60.1715 171.69 55.8389 0.31625 -0.198994
632800 60.1715 171.703 55.8389 0.31635 -0.155947
633000 60.1715 171.716 55.8389 0.31645 -0.124026
633200 60.1715 171.729 55.8389 0.31655 -0.0751781
633400 60.1715 171.742 55.8389 0.31665 -0.0269935
633600 60.1715 171.755 55.8389 0.31675 0.020611
633800 60.1715 171.768 55.8389 0.31685 0.093833
634000 60.1715 171.781 55.8389 0.31695 0.111806
634200 60.1715 171.794 55.8389 0.31705 0.183093
634400 60.1715 171.807 55.8389 0.31715 0.198167
634600 60.1715 171.82 55.8389 0.31725 0.194293
634800 60.1715 171.833 55.8389 0.31735 0.164025
635000 60.1715 171.846 55.8389 0.31745 0.12455
635200 60.1715 171.859 55.8389 0.31755 0.0760179
635400 60.1715 171.872 55.8389 0.31765 0.042713
635600 60.1715 171.885 55.8389 0.31775 -0.0147495
635800 60.1715 171.899 55.8389 0.31785 -0.0876227
636000 60.1715 171.912 55.8389 0.31795 -0.146783
636200 60.1715 171.925 55.8389 0.31805 -0.173886
636400 60.1715 171.938 55.8389 0.31815 -0.159902
636600 60.1715 171.951 55.8389 0.31825 -0.182484
636800 60.1715 171.964 55.8389 0.31835 -0.114006
637000 60.1715 171.977 55.8389 0.31845 -0.111027
637200 60.1715 171.99 55.8389 0.31855 -0.0503778
637400 60.1715 172.003 55.8389 0.31865 -0.00437402
637600 60.1715 172.016 55.8389 0.31875 0.0372865
637800 60.1715 172.029 55.8389 0.31885 0.112094
638000 60.1715 172.042 55.8389 0.31895 0.156237
638200 60.1715 172.055 55.8389 0.31905 0.190305
638400 60.1715 172.068 55.8389 0.31915 0.201562
638600 60.1715 172.081 55.8389 0.31925 0.163301
638800 60.1715 172.094 55.8389 0.31935 0.146964
639000 60.1715 172.107 55.8389 0.31945 0.0966467
639200 60.1715 172.12 55.8389 0.31955 0.0440122
639400 60.1715 172.133 55.8389 0.31965 0.0256169
639600 60.1715 172.146 55.8389 0.31975 -0.0321283
639800 60.1715 172.159 55.8389 0.31985 -0.1004
640000 60.1715 172.172 55.8389 0.31995 -0.143374
640200 60.1715 172.185 55.8389 0.32005 -0.166532
640400 60.1715 172.199 55.8389 0.32015 -0.15205
640600 60.1715 172.212 55.8389 0.32025 -0.155086
640800 60.1715 172.225 55.8389 0.32035 -0.129922
641000 60.1715 172.238 55.8389 0.32045 -0.0596373
641200 60.1715 172.251 55.8389 0.32055 -0.0428119
641400 60.1715 172.264 55.8389 0.32065 0.0173986
641600 60.1715 172.277 55.8389 0.32075 0.0550487
641800 60.1715 172.29 55.8389 0.32085 0.102597
642000 60.1715 172.303 55.8389 0.32095 0.162073
642200 60.1715 172.316 55.8389 0.32105 0.190436
642400 60.1715 172.329 55.8389 0.32115 0.172281
642600 60.1715 172.342 55.8389 0.32125 0.164869
642800 60.1715 172.355 55.8389 0.32135 0.110725
643000 60.1715 172.368 55.8389 0.32145 0.0772063
643200 60.1715 172.381 55.8389 0.32155 0.0440652
643400 60.1715 172.394 55.8389 0.32165 0.00157737
643600 60.1715 172.407 55.8389 0.32175 -0.0907886
643800 60.1715 172.42 55.8389 0.32185 -0.107772
644000 60.1715 172.433 55.8389 0.32195 -0.1227
644200 60.1715 172.446 55.8389 0.32205 -0.149008
644400 60.1715 172.459 55.8389 0.32215 -0.169439
644600 60.1715 172.472 55.8389 0.32225 -0.11628
644800 60.1715 172.486 55.8389 0.32235 -0.0771189
645000 60.1715 172.499 55.8389 0.32245 -0.0909007
645200 60.1715 172.512 55.8389 0.32255 -0.00335004
645400 60.1715 172.525 55.8389 0.32265 0.0287253
645600 60.1715 172.538 55.8389 0.32275 0.0977927
645800 60.1715 172.551 55.8389 0.32285 0.134575
646000 60.1715 172.564 55.8389 0.32295 0.163847
646200 60.1715 172.577 55.8389 0.32305 0.153177
646400 60.1715 172.59 55.8389 0.32315 0.170231
646600 60.1715 172.603 55.8389 0.32325 0.140646
646800 60.1715 172.616 55.8389 0.32335 0.100296
647000 60.1715 172.629 55.8389 0.32345 0.068759
647200 60.1715 172.642 55.8389 0.32355 -0.0137915
647400 60.1715 172.655 55.8389 0.32365 -0.0145075
647600 60.1715 172.668 55.8389 0.32375 -0.0957465
647800 60.1715 172.681 55.8389 0.32385 -0.11041
648000 60.1715 172.694 55.8389 0.32395 -0.146611
648200 60.1715 172.707 55.8389 0.32405 -0.144486
648400 60.1715 172.72 55.8389 0.32415 -0.137961
648600 60.1715 172.733 55.8389 0.32425 -0.0938154
648800 60.1715 172.746 55.8389 0.32435 -0.0918789
649000 60.1715 172.759 55.8389 0.32445 -0.0386205
649200 60.1715 172.772 55.8389 0.32455 0.005797
649400 60.1715 172.786 55.8389 0.32465 0.0608975
649600 60.1715 172.799 55.8389 0.32475 0.113594
649800 60.1715 172.812 55.8389 0.32485 0.101086
650000 60.1715 172.825 55.8389 0.32495 0.181952
650200 60.1715 172.838 55.8389 0.32505 0.173954
650400 60.1715 172.851 55.8389 0.32515 0.130296
650600 60.1715 172.864 55.8389 0.32525 0.126277
650800 60.1715 172.877 55.8389 0.32535 0.0823522
651000 60.1715 172.89 55.8389 0.32545 0.0592794
651200 60.1715 172.903 55.8389 0.32555 -0.0165722
651400 60.1715 172.916 55.8389 0.32565 -0.0583946
651600 60.1715 172.929 55.8389 0.32575 -0.0956233
651800 60.1715 172.942 55.8389 0.32585 -0.126766
652000 60.1715 172.955 55.8389 0.32595 -0.140681
652200 60.1715 172.968 55.8389 0.32605 -0.128418
652400 60.1715 172.981 55.8389 0.32615 -0.128289
652600 60.1715 172.994 55.8389 0.32625 -0.0971106
652800 60.1715 173.007 55.8389 0.32635 -0.0642196
653000 60.1715 173.02 55.8389 0.32645 -0.00415556
653200 60.1715 173.033 55.8389 0.32655 0.0117788
653400 60.1715 173.046 55.8389 0.32665 0.110541
653600 60.1715 173.059 55.8389 0.32675 0.122843
653800 60.1715 173.072 55.8389 0.32685 0.135362
654000 60.1715 173.086 55.8389 0.32695 0.14121
654200 60.1715 173.099 55.8389 0.32705 0.161766
654400 60.1715 173.112 55.8389 0.32715 0.121638
654600 60.1715 173.125 55.8389 0.32725 0.11945
654800 60.1715 173.138 55.8389 0.32735 0.0771323
655000 60.1715 173.151 55.8389 0.32745 -0.00524047
655200 60.1715 173.164 55.8389 0.32755 -0.0492554
655400 60.1715 173.177 55.8389 0.32765 -0.0779445
655600 60.1715 173.19 55.8389 0.32775 -0.12087
655800 60.1715 173.203 55.8389 0.32785 -0.124736
656000 60.1715 173.216 55.8389 0.32795 -0.123771
656200 60.1715 173.229 55.8389 0.32805 -0.137198
656400 60.1715 173.242 55.8389 0.32815 -0.108881
656600 60.1715 173.255 55.8389 0.32825 -0.106696
656800 60.1715 173.268 55.8389 0.32835 -0.0327041
657000 60.1715 173.281 55.8389 0.32845 0.018486
657200 60.1715 173.294 55.8389 0.32855 0.0658353
657400 60.1715 173.307 55.8389 0.32865 0.114866
657600 60.1715 173.32 55.8389 0.32875 0.134024
657800 60.1715 173.333 55.8389 0.32885 0.173759
658000 60.1715 173.346 55.8389 0.32895 0.157912
658200 60.1715 173.359 55.8389 0.32905 0.116426
658400 60.1715 173.372 55.8389 0.32915 0.143832
658600 60.1715 173.386 55.8389 0.32925 0.0927281
658800 60.1715 173.399 55.8389 0.32935 0.0460549
659000 60.1715 173.412 55.8389 0.32945 -0.0165824
659200 60.1715 173.425 55.8389 0.32955 -0.0787155
659400 60.1715 173.438 55.8389 0.32965 -0.104772
659600 60.1715 173.451 55.8389 0.32975 -0.13309
659800 60.1715 173.464 55.8389 0.32985 -0.136006
660000 60.1715 173.477 55.8389 0.32995 -0.127765
660200 60.1715 173.49 55.8389 0.33005 -0.129267
660400 60.1715 173.503 55.8389 0.33015 -0.101091
660600 60.1715 173.516 55.8389 0.33025 -0.0487551
660800 60.1715 173.529 55.8389 0.33035 -0.00712094
661000 60.1715 173.542 55.8389 0.33045 0.0310447
661200 60.1715 173.555 55.8389 0.33055 0.0805529
661400 60.1715 173.568 55.8389 0.33065 0.121222
661600 60.1715 173.581 55.8389 0.33075 0.159366
661800 60.1715 173.594 55.8389 0.33085 0.137335
662000 60.1715 173.607 55.8389 0.33095 0.135423
662200 60.1715 173.62 55.8389 0.33105 0.141008
662400 60.1715 173.633 55.8389 0.33115 0.0962648
662600 60.1715 173.646 55.8389 0.33125 0.0645873
662800 60.1715 173.659 55.8389 0.33135 0.0128454
663000 60.1715 173.672 55.8389 0.33145 -0.027565
663200 60.1715 173.686 55.8389 0.33155 -0.0718403
663400 60.1715 173.699 55.8389 0.33165 -0.119979
663600 60.1715 173.712 55.8389 0.33175 -0.139016
663800 60.1715 173.725 55.8389 0.33185 -0.115246
664000 60.1715 173.738 55.8389 0.33195 -0.135554
664200 60.1715 173.751 55.8389 0.33205 -0.103436
664400 60.1715 173.764 55.8389 0.33215 -0.0734307
664600 60.1715 173.777 55.8389 0.33225 -0.0278057
664800 60.1715 173.79 55.8389 0.33235 0.0154527
665000 60.1715 173.803 55.8389 0.33245 0.0376135
665200 60.1715 173.816 55.8389 0.33255 0.105062
665400 60.1715 173.829 55.8389 0.33265 0.150998
665600 60.1715 173.842 55.8389 0.33275 0.146412
665800 60.1715 173.855 55.8389 0.33285 0.146842
666000 60.1715 173.868 55.8389 0.33295 0.129394
666200 60.1715 173.881 55.8389 0.33305 0.134008
666400 60.1715 173.894 55.8389 0.33315 0.0867683
666600 60.1715 173.907 55.8389 0.33325 0.0180424
666800 60.1715 173.92 55.8389 0.33335 -0.0264383
667000 60.1715 173.933 55.8389 0.33345 -0.0596324
667200 60.1715 173.946 55.8389 0.33355 -0.0811767
667400 60.1715 173.959 55.8389 0.33365 -0.127379
667600 60.1715 173.973 55.8389 0.33375 -0.1143
667800 60.1715 173.986 55.8389 0.33385 -0.127538
668000 60.1715 173.999 55.8389 0.33395 -0.11069
668200 60.1715 174.012 55.8389 0.33405 -0.0780943
668400 60.1715 174.025 55.8389 0.33415 -0.0647518
668600 60.1715 174.038 55.8389 0.33425 -0.00983152
668800 60.1715 174.051 55.8389 0.33435 0.0204309
669000 60.1715 174.064 55.8389 0.33445 0.07587
669200 60.1715 174.077 55.8389 0.33455 0.106333
669400 60.1715 174.09 55.8389 0.33465 0.133449
669600 60.1715 174.103 55.8389 0.33475 0.135101
669800 60.1715 174.116 55.8389 0.33485 0.133654
670000 60.1715 174.129 55.8389 0.33495 0.147531
670200 60.1715 174.142 55.8389 0.33505 0.0826311
670400 60.1715 174.155 55.8389 0.33515 0.0599668
670600 60.1715 174.168 55.8389 0.33525 0.0223996
670800 60.1715 174.181 55.8389 0.33535 -0.0159153
671000 60.1715 174.194 55.8389 0.33545 -0.0839433
671200 60.1715 174.207 55.8389 0.33555 -0.0750099
671400 60.1715 174.22 55.8389 0.33565 -0.137392
671600 60.1715 174.233 55.8389 0.33575 -0.0992599
671800 60.1715 174.246 55.8389 0.33585 -0.140037
672000 60.1715 174.259 55.8389 0.33595 -0.0957702
672200 60.1715 174.273 55.8389 0.33605 -0.0799096
672400 60.1715 174.286 55.8389 0.33615 -0.0274969
672600 60.1715 174.299 55.8389 0.33625 -0.00592623
672800 60.1715 174.312 55.8389 0.33635 0.0302135
673000 60.1715 174.325 55.8389 0.33645 0.0994057
673200 60.1715 174.338 55.8389 0.33655 0.125608
673400 60.1715 174.351 55.8389 0.33665 0.135183
673600 60.1715 174.364 55.8389 0.33675 0.159474
673800 60.1715 174.377 55.8389 0.33685 0.127057
674000 60.1715 174.39 55.8389 0.33695 0.110707
674200 60.1715 174.403 55.8389 0.33705 0.0797332
674400 60.1715 174.416 55.8389 0.33715 0.0484859
674600 60.1715 174.429 55.8389 0.33725 -0.0134681
674800 60.1715 174.442 55.8389 0.33735 -0.02818
675000 60.1715 174.455 55.8389 0.33745 -0.0948556
675200 60.1715 174.468 55.8389 0.33755 -0.10551
675400 60.1715 174.481 55.8389 0.33765 -0.120216
675600 60.1715 174.494 55.8389 0.33775 -0.124185
675800 60.1715 174.507 55.8389 0.33785 -0.133812
676000 60.1715 174.52 55.8389 0.33795 -0.0912422
676200 60.1715 174.533 55.8389 0.33805 -0.0472309
676400 60.1715 174.546 55.8389 0.33815 -0.0405932
676600 60.1715 174.559 55.8389 0.33825 0.0351844
676800 60.1715 174.573 55.8389 0.33835 0.0811695
677000 60.1715 174.586 55.8389 0.33845 0.0945576
677200 60.1715 174.599 55.8389 0.33855 0.134535
677400 60.1715 174.612 55.8389 0.33865 0.132371
677600 60.1715 174.625 55.8389 0.33875 0.15522
677800 60.1715 174.638 55.8389 0.33885 0.130529
678000 60.1715 174.651 55.8389 0.33895 0.109561
678200 60.1715 174.664 55.8389 0.33905 0.0635798
678400 60.1715 174.677 55.8389 0.33915 0.0211092
678600 60.1715 174.69 55.8389 0.33925 -0.033612
678800 60.1715 174.703 55.8389 0.33935 -0.0643718
679000 60.1715 174.716 55.8389 0.33945 -0.0949884
679200 60.1715 174.729 55.8389 0.33955 -0.108749
679400 60.1715 174.742 55.8389 0.33965 -0.13047
679600 60.1715 174.755 55.8389 0.33975 -0.121978
679800 60.1715 174.768 55.8389 0.33985 -0.107027
680000 60.1715 174.781 55.8389 0.33995 -0.0533862
680200 60.1715 174.794 55.8389 0.34005 -0.054729
680400 60.1715 174.807 55.8389 0.34015 0.00640762
680600 60.1715 174.82 55.8389 0.34025 0.064911
680800 60.1715 174.833 55.8389 0.34035 0.0811303
681000 60.1715 174.846 55.8389 0.34045 0.107677
681200 60.1715 174.859 55.8389 0.34055 0.123705
681400 60.1715 174.873 55.8389 0.34065 0.151757
681600 60.1715 174.886 55.8389 0.34075 0.110914
681800 60.1715 174.899 55.8389 0.34085 0.103323
682000 60.1715 174.912 55.8389 0.34095 0.103772
682200 60.1715 174.925 55.8389 0.34105 0.00895926
682400 60.1715 174.938 55.8389 0.34115 -0.012307
682600 60.1715 174.951 55.8389 0.34125 -0.0303748
682800 60.1715 174.964 55.8389 0.34135 -0.0646393
683000 60.1715 174.977 55.8389 0.34145 -0.0975438
683200 60.1715 174.99 55.8389 0.34155 -0.112586
683400 60.1715 175.003 55.8389 0.34165 -0.124507
683600 60.1715 175.016 55.8389 0.34175 -0.0964276
683800 60.1715 175.029 55.8389 0.34185 -0.0958204
684000 60.1715 175.042 55.8389 0.34195 -0.0616648
684200 60.1715 175.055 55.8389 0.34205 -0.0219985
684400 60.1715 175.068 55.8389 0.34215 0.0376153
684600 60.1715 175.081 55.8389 0.34225 0.0585353
684800 60.1715 175.094 55.8389 0.34235 0.0895202
685000 60.1715 175.107 55.8389 0.34245 0.118852
685200 60.1715 175.12 55.8389 0.34255 0.138537
685400 60.1715 175.133 55.8389 0.34265 0.148154
685600 60.1715 175.146 55.8389 0.34275 0.137983
685800 60.1715 175.159 55.8389 0.34285 0.0899271
686000 60.1715 175.173 55.8389 0.34295 0.0648062
686200 60.1715 175.186 55.8389 0.34305 0.00567709
686400 60.1715 175.199 55.8389 0.34315 -0.00362364
686600 60.1715 175.212 55.8389 0.34325 -0.0696581
686800 60.1715 175.225 55.8389 0.34335 -0.097176
687000 60.1715 175.238 55.8389 0.34345 -0.108499
687200 60.1715 175.251 55.8389 0.34355 -0.114601
687400 60.1715 175.264 55.8389 0.34365 -0.117334
687600 60.1715 175.277 55.8389 0.34375 -0.0937474
687800 60.1715 175.29 55.8389 0.34385 -0.0982022
688000 60.1715 175.303 55.8389 0.34395 -0.0172529
688200 60.1715 175.316 55.8389 0.34405 -0.0080942
688400 60.1715 175.329 55.8389 0.34415 0.0253145
688600 60.1715 175.342 55.8389 0.34425 0.0705448
688800 60.1715 175.355 55.8389 0.34435 0.121497
689000 60.1715 175.368 55.8389 0.34445 0.111527
689200 60.1715 175.381 55.8389 0.34455 0.15813
689400 60.1715 175.394 55.8389 0.34465 0.121315
689600 60.1715 175.407 55.8389 0.34475 0.105478
689800 60.1715 175.42 55.8389 0.34485 0.0769805
690000 60.1715 175.433 55.8389 0.34495 0.0710865
690200 60.1715 175.446 55.8389 0.34505 0.010003
690400 60.1715 175.46 55.8389 0.34515 -0.0316348
690600 60.1715 175.473 55.8389 0.34525 -0.0763054
690800 60.1715 175.486 55.8389 0.34535 -0.0967263
691000 60.1715 175.499 55.8389 0.34545 -0.0972819
691200 60.1715 175.512 55.8389 0.34555 -0.123399
691400 60.1715 175.525 55.8389 0.34565 -0.107361
691600 60.1715 175.538 55.8389 0.34575 -0.0789956
691800 60.1715 175.551 55.8389 0.34585 -0.0661222
692000 60.1715 175.564 55.8389 0.34595 -0.0415492
692200 60.1715 175.577 55.8389 0.34605 0.00638316
692400 60.1715 175.59 55.8389 0.34615 0.055751
692600 60.1715 175.603 55.8389 0.34625 0.0839983
692800 60.1715 175.616 55.8389 0.34635 0.115415
693000 60.1715 175.629 55.8389 0.34645 0.145535
693200 60.1715 175.642 55.8389 0.34655 0.130566
693400 60.1715 175.655 55.8389 0.34665 0.094873
693600 60.1715 175.668 55.8389 0.34675 0.123409
693800 60.1715 175.681 55.8389 0.34685 0.0547195
694000 60.1715 175.694 55.8389 0.34695 0.0470916
694200 60.1715 175.707 55.8389 0.34705 -0.00760369
694400 60.1715 175.72 55.8389 0.34715 -0.0511628
694600 60.1715 175.733 55.8389 0.34725 -0.078484
694800 60.1715 175.746 55.8389 0.34735 -0.101994
695000 60.1715 175.76 55.8389 0.34745 -0.117661
695200 60.1715 175.773 55.8389 0.34755 -0.117573
695400 60.1715 175.786 55.8389 0.34765 -0.0923234
695600 60.1715 175.799 55.8389 0.34775 -0.0843777
695800 60.1715 175.812 55.8389 0.34785 -0.0424019
696000 60.1715 175.825 55.8389 0.34795 -0.00981476
696200 60.1715 175.838 55.8389 0.34805 0.0318845
696400 60.1715 175.851 55.8389 0.34815 0.0740321
696600 60.1715 175.864 55.8389 0.34825 0.0835609
696800 60.1715 175.877 55.8389 0.34835 0.119535
697000 60.1715 175.89 55.8389 0.34845 0.121816
697200 60.1715 175.903 55.8389 0.34855 0.159561
697400 60.1715 175.916 55.8389 0.34865 0.0910688
697600 60.1715 175.929 55.8389 0.34875 0.0575345
697800 60.1715 175.942 55.8389 0.34885 0.0764778
698000 60.1715 175.955 55.8389 0.34895 0.0175298
698200 60.1715 175.968 55.8389 0.34905 -0.0348879
698400 60.1715 175.981 55.8389 0.34915 -0.0542324
698600 60.1715 175.994 55.8389 0.34925 -0.0835526
698800 60.1715 176.007 55.8389 0.34935 -0.106899
699000 60.1715 176.02 55.8389 0.34945 -0.111854
699200 60.1715 176.033 55.8389 0.34955 -0.0946353
699400 60.1715 176.046 55.8389 0.34965 -0.0987875
699600 60.1715 176.06 55.8389 0.34975 -0.0507031
699800 60.1715 176.073 55.8389 0.34985 -0.0130965
700000 60.1715 176.086 55.8389 0.34995 0.0130473
700200 60.1715 176.099 55.8389 0.35005 0.0161361
700400 60.1715 176.112 55.8389 0.35015 0.0817265
700600 60.1715 176.125 55.8389 0.35025 0.102155
700800 60.1715 176.138 55.8389 0.35035 0.136881
701000 60.1715 176.151 55.8389 0.35045 0.112847
701200 60.1715 176.164 55.8389 0.35055 0.0959861
701400 60.1715 176.177 55.8389 0.35065 0.105362
701600 60.1715 176.19 55.8389 0.35075 0.0515793
701800 60.1715 176.203 55.8389 0.35085 0.0221076
702000 60.1715 176.216 55.8389 0.35095 -0.00164943
702200 60.1715 176.229 55.8389 0.35105 -0.0237618
702400 60.1715 176.242 55.8389 0.35115 -0.057685
702600 60.1715 176.255 55.8389 0.35125 -0.0647821
702800 60.1715 176.268 55.8389 0.35135 -0.113095
703000 60.1715 176.281 55.8389 0.35145 -0.111909
703200 60.1715 176.294 55.8389 0.35155 -0.0920817
703400 60.1715 176.307 55.8389 0.35165 -0.0733553
703600 60.1715 176.32 55.8389 0.35175 -0.026324
703800 60.1715 176.333 55.8389 0.35185 -0.0146885
704000 60.1715 176.346 55.8389 0.35195 0.0218902
704200 60.1715 176.36 55.8389 0.35205 0.0475457
704400 60.1715 176.373 55.8389 0.35215 0.0593893
704600 60.1715 176.386 55.8389 0.35225 0.0959602
704800 60.1715 176.399 55.8389 0.35235 0.115816
705000 60.1715 176.412 55.8389 0.35245 0.11808
705200 60.1715 176.425 55.8389 0.35255 0.124965
705400 60.1715 176.438 55.8389 0.35265 0.0781179
705600 60.1715 176.451 55.8389 0.35275 0.0530341
705800 60.1715 176.464 55.8389 0.35285 0.0223715
706000 60.1715 176.477 55.8389 0.35295 0.0153759
706200 60.1715 176.49 55.8389 0.35305 -0.0361275
706400 60.1715 176.503 55.8389 0.35315 -0.0595312
706600 60.1715 176.516 55.8389 0.35325 -0.0856052
706800 60.1715 176.529 55.8389 0.35335 -0.11611
707000 60.1715 176.542 55.8389 0.35345 -0.100683
707200 60.1715 176.555 55.8389 0.35355 -0.0886325
707400 60.1715 176.568 55.8389 0.35365 -0.0875439
707600 60.1715 176.581 55.8389 0.35375 -0.033546
707800 60.1715 176.594 55.8389 0.35385 -0.00393653
708000 60.1715 176.607 55.8389 0.35395 0.0389615
708200 60.1715 176.62 55.8389 0.35405 0.0563509
708400 60.1715 176.633 55.8389 0.35415 0.0641494
708600 60.1715 176.646 55.8389 0.35425 0.0941286
708800 60.1715 176.66 55.8389 0.35435 0.0964486
709000 60.1715 176.673 55.8389 0.35445 0.143073
709200 60.1715 176.686 55.8389 0.35455 0.0970525
709400 60.1715 176.699 55.8389 0.35465 0.0857564
709600 60.1715 176.712 55.8389 0.35475 0.0436929
709800 60.1715 176.725 55.8389 0.35485 0.00900163
710000 60.1715 176.738 55.8389 0.35495 -0.0157366
710200 60.1715 176.751 55.8389 0.35505 -0.0550713
710400 60.1715 176.764 55.8389 0.35515 -0.0539587
710600 60.1715 176.777 55.8389 0.35525 -0.0831165
710800 60.1715 176.79 55.8389 0.35535 -0.0958847
711000 60.1715 176.803 55.8389 0.35545 -0.101474
711200 60.1715 176.816 55.8389 0.35555 -0.10982
711400 60.1715 176.829 55.8389 0.35565 -0.0431431
711600 60.1715 176.842 55.8389 0.35575 -0.0309712
711800 60.1715 176.855 55.8389 0.35585 0.00476142
712000 60.1715 176.868 55.8389 0.35595 0.0389859
712200 60.1715 176.881 55.8389 0.35605 0.0836123
712400 60.1715 176.894 55.8389 0.35615 0.104663
712600 60.1715 176.907 55.8389 0.35625 0.0814663
712800 60.1715 176.92 55.8389 0.35635 0.104916
713000 60.1715 176.933 55.8389 0.35645 0.107427
713200 60.1715 176.947 55.8389 0.35655 0.107549
713400 60.1715 176.96 55.8389 0.35665 0.0821954
713600 60.1715 176.973 55.8389 0.35675 0.0321717
713800 60.1715 176.986 55.8389 0.35685 0.00163559
714000 60.1715 176.999 55.8389 0.35695 -0.0320835
714200 60.1715 177.012 55.8389 0.35705 -0.0713503
714400 60.1715 177.025 55.8389 0.35715 -0.0738682
714600 60.1715 177.038 55.8389 0.35725 -0.0891021
714800 60.1715 177.051 55.8389 0.35735 -0.0901027
715000 60.1715 177.064 55.8389 0.35745 -0.100042
715200 60.1715 177.077 55.8389 0.35755 -0.0892111
715400 60.1715 177.09 55.8389 0.35765 -0.0513785
715600 60.1715 177.103 55.8389 0.35775 -0.00527329
715800 60.1715 177.116 55.8389 0.35785 0.00618053
716000 60.1715 177.129 55.8389 0.35795 0.060661
716200 60.1715 177.142 55.8389 0.35805 0.0983904
716400 60.1715 177.155 55.8389 0.35815 0.071224
716600 60.1715 177.168 55.8389 0.35825 0.116817
716800 60.1715 177.181 55.8389 0.35835 0.0986694
717000 60.1715 177.194 55.8389 0.35845 0.0992125
717200 60.1715 177.207 55.8389 0.35855 0.0934939
717400 60.1715 177.22 55.8389 0.35865 0.0767893
717600 60.1715 177.233 55.8389 0.35875 0.0269035
717800 60.1715 177.247 55.8389 0.35885 -0.000639497
718000 60.1715 177.26 55.8389 0.35895 -0.0402365
718200 60.1715 177.273 55.8389 0.35905 -0.0771997
718400 60.1715 177.286 55.8389 0.35915 -0.0822716
718600 60.1715 177.299 55.8389 0.35925 -0.0865084
718800 60.1715 177.312 55.8389 0.35935 -0.104506
719000 60.1715 177.325 55.8389 0.35945 -0.088869
719200 60.1715 177.338 55.8389 0.35955 -0.0765317
719400 60.1715 177.351 55.8389 0.35965 -0.0487563
719600 60.1715 177.364 55.8389 0.35975 -0.0128841
719800 60.1715 177.377 55.8389 0.35985 0.0260452
720000 60.1715 177.39 55.8389 0.35995 0.0748604
720200 60.1715 177.403 55.8389 0.36005 0.0838932
720400 60.1715 177.416 55.8389 0.36015 0.100958
720600 60.1715 177.429 55.8389 0.36025 0.125295
720800 60.1715 177.442 55.8389 0.36035 0.129318
721000 60.1715 177.455 55.8389 0.36045 0.0981813
721200 60.1715 177.468 55.8389 0.36055 0.0600436
721400 60.1715 177.481 55.8389 0.36065 0.0565762
721600 60.1715 177.494 55.8389 0.36075 0.0137828
721800 60.1715 177.507 55.8389 0.36085 -0.0213846
722000 60.1715 177.52 55.8389 0.36095 -0.0730398
722200 60.1715 177.533 55.8389 0.36105 -0.0666592
722400 60.1715 177.547 55.8389 0.36115 -0.0892333
722600 60.1715 177.56 55.8389 0.36125 -0.116805
722800 60.1715 177.573 55.8389 0.36135 -0.0927465
723000 60.1715 177.586 55.8389 0.36145 -0.0691162
723200 60.1715 177.599 55.8389 0.36155 -0.0717254
723400 60.1715 177.612 55.8389 0.36165 -0.0398877
723600 60.1715 177.625 55.8389 0.36175 0.0077945
723800 60.1715 177.638 55.8389 0.36185 0.0543576
724000 60.1715 177.651 55.8389 0.36195 0.0835126
724200 60.1715 177.664 55.8389 0.36205 0.105617
724400 60.1715 177.677 55.8389 0.36215 0.0984992
724600 60.1715 177.69 55.8389 0.36225 0.124448
724800 60.1715 177.703 55.8389 0.36235 0.111801
725000 60.1715 177.716 55.8389 0.36245 0.0811398
725200 60.1715 177.729 55.8389 0.36255 0.0746395
725400 60.1715 177.742 55.8389 0.36265 0.0506552
725600 60.1715 177.755 55.8389 0.36275 -9.31391e-05
725800 60.1715 177.768 55.8389 0.36285 -0.0244949
726000 60.1715 177.781 55.8389 0.36295 -0.076068
726200 60.1715 177.794 55.8389 0.36305 -0.080023
726400 60.1715 177.807 55.8389 0.36315 -0.118784
726600 60.1715 177.82 55.8389 0.36325 -0.0867738
726800 60.1715 177.833 55.8389 0.36335 -0.104078
727000 60.1715 177.847 55.8389 0.36345 -0.06591
727200 60.1715 177.86 55.8389 0.36355 -0.0667649
727400 60.1715 177.873 55.8389 0.36365 -0.0219445
727600 60.1715 177.886 55.8389 0.36375 0.0212725
727800 60.1715 177.899 55.8389 0.36385 0.0508419
728000 60.1715 177.912 55.8389 0.36395 0.0956951
728200 60.1715 177.925 55.8389 0.36405 0.0938681
728400 60.1715 177.938 55.8389 0.36415 0.134915
728600 60.1715 177.951 55.8389 0.36425 0.105159
728800 60.1715 177.964 55.8389 0.36435 0.0874605
729000 60.1715 177.977 55.8389 0.36445 0.0723144
729200 60.1715 177.99 55.8389 0.36455 0.0598669
729400 60.1715 178.003 55.8389 0.36465 0.0430881
729600 60.1715 178.016 55.8389 0.36475 0.0152975
729800 60.1715 178.029 55.8389 0.36485 -0.0532619
730000 60.1715 178.042 55.8389 0.36495 -0.0747381
730200 60.1715 178.055 55.8389 0.36505 -0.0845013
730400 60.1715 178.068 55.8389 0.36515 -0.10341
730600 60.1715 178.081 55.8389 0.36525 -0.098557
730800 60.1715 178.094 55.8389 0.36535 -0.0736936
731000 60.1715 178.107 55.8389 0.36545 -0.0506082
731200 60.1715 178.12 55.8389 0.36555 -0.0459206
731400 60.1715 178.133 55.8389 0.36565 -0.0125586
731600 60.1715 178.147 55.8389 0.36575 0.00958636
731800 60.1715 178.16 55.8389 0.36585 0.060631
732000 60.1715 178.173 55.8389 0.36595 0.0814322
732200 60.1715 178.186 55.8389 0.36605 0.123306
732400 60.1715 178.199 55.8389 0.36615 0.119611
732600 60.1715 178.212 55.8389 0.36625 0.0966921
732800 60.1715 178.225 55.8389 0.36635 0.077181
733000 60.1715 178.238 55.8389 0.36645 0.0589411
733200 60.1715 178.251 55.8389 0.36655 0.0506577
733400 60.1715 178.264 55.8389 0.36665 0.0343021
733600 60.1715 178.277 55.8389 0.36675 -0.00615892
733800 60.1715 178.29 55.8389 0.36685 -0.045131
734000 60.1715 178.303 55.8389 0.36695 -0.0736268
734200 60.1715 178.316 55.8389 0.36705 -0.0995165
734400 60.1715 178.329 55.8389 0.36715 -0.092751
734600 60.1715 178.342 55.8389 0.36725 -0.0760599
734800 60.1715 178.355 55.8389 0.36735 -0.07524
735000 60.1715 178.368 55.8389 0.36745 -0.0621736
735200 60.1715 178.381 55.8389 0.36755 -0.0338583
735400 60.1715 178.394 55.8389 0.36765 -0.0137033
735600 60.1715 178.407 55.8389 0.36775 0.0371345
735800 60.1715 178.42 55.8389 0.36785 0.0611647
736000 60.1715 178.434 55.8389 0.36795 0.106475
736200 60.1715 178.447 55.8389 0.36805 0.0839949
736400 60.1715 178.46 55.8389 0.36815 0.114945
736600 60.1715 178.473 55.8389 0.36825 0.107328
736800 60.1715 178.486 55.8389 0.36835 0.0786464
737000 60.1715 178.499 55.8389 0.36845 0.0587182
737200 60.1715 178.512 55.8389 0.36855 0.0378762
737400 60.1715 178.525 55.8389 0.36865 0.0173383
737600 60.1715 178.538 55.8389 0.36875 -0.0272358
737800 60.1715 178.551 55.8389 0.36885 -0.0529445
738000 60.1715 178.564 55.8389 0.36895 -0.0671198
738200 60.1715 178.577 55.8389 0.36905 -0.072782
738400 60.1715 178.59 55.8389 0.36915 -0.0739865
738600 60.1715 178.603 55.8389 0.36925 -0.0685659
738800 60.1715 178.616 55.8389 0.36935 -0.0820201
739000 60.1715 178.629 55.8389 0.36945 -0.0383255
739200 60.1715 178.642 55.8389 0.36955 -0.0521749
739400 60.1715 178.655 55.8389 0.36965 0.0127295
739600 60.1715 178.668 55.8389 0.36975 0.0469672
739800 60.1715 178.681 55.8389 0.36985 0.0357792
740000 60.1715 178.694 55.8389 0.36995 0.0963953
740200 60.1715 178.707 55.8389 0.37005 0.0821989
740400 60.1715 178.72 55.8389 0.37015 0.102991
740600 60.1715 178.734 55.8389 0.37025 0.0954481
740800 60.1715 178.747 55.8389 0.37035 0.0688195
741000 60.1715 178.76 55.8389 0.37045 0.0681407
741200 60.1715 178.773 55.8389 0.37055 0.0385009
741400 60.1715 178.786 55.8389 0.37065 0.0050656
741600 60.1715 178.799 55.8389 0.37075 -0.0232338
741800 60.1715 178.812 55.8389 0.37085 -0.0392529
742000 60.1715 178.825 55.8389 0.37095 -0.0787947
742200 60.1715 178.838 55.8389 0.37105 -0.0726158
742400 60.1715 178.851 55.8389 0.37115 -0.0817141
742600 60.1715 178.864 55.8389 0.37125 -0.0968752
742800 60.1715 178.877 55.8389 0.37135 -0.0643442
743000 60.1715 178.89 55.8389 0.37145 -0.057827
743200 60.1715 178.903 55.8389 0.37155 0.00811822
743400 60.1715 178.916 55.8389 0.37165 0.0270333
743600 60.1715 178.929 55.8389 0.37175 0.0503561
743800 60.1715 178.942 55.8389 0.37185 0.0537586
744000 60.1715 178.955 55.8389 0.37195 0.074088
744200 60.1715 178.968 55.8389 0.37205 0.0841835
744400 60.1715 178.981 55.8389 0.37215 0.125918
744600 60.1715 178.994 55.8389 0.37225 0.10797
744800 60.1715 179.007 55.8389 0.37235 0.0848303
745000 60.1715 179.02 55.8389 0.37245 0.0219406
745200 60.1715 179.034 55.8389 0.37255 0.0350425
745400 60.1715 179.047 55.8389 0.37265 -0.0320997
745600 60.1715 179.06 55.8389 0.37275 -0.0357368
745800 60.1715 179.073 55.8389 0.37285 -0.0527738
746000 60.1715 179.086 55.8389 0.37295 -0.0591123
746200 60.1715 179.099 55.8389 0.37305 -0.0656256
746400 60.1715 179.112 55.8389 0.37315 -0.0848295
746600 60.1715 179.125 55.8389 0.37325 -0.119086
746800 60.1715 179.138 55.8389 0.37335 -0.0534793
747000 60.1715 179.151 55.8389 0.37345 -0.0123507
747200 60.1715 179.164 55.8389 0.37355 0.00382302
747400 60.1715 179.177 55.8389 0.37365 0.0275156
747600 60.1715 179.19 55.8389 0.37375 0.0583753
747800 60.1715 179.203 55.8389 0.37385 0.0715271
748000 60.1715 179.216 55.8389 0.37395 0.0714094
748200 60.1715 179.229 55.8389 0.37405 0.0927878
748400 60.1715 179.242 55.8389 0.37415 0.0922941
748600 60.1715 179.255 55.8389 0.37425 0.0906031
748800 60.1715 179.268 55.8389 0.37435 0.0795636
749000 60.1715 179.281 55.8389 0.37445 0.022501
749200 60.1715 179.294 55.8389 0.37455 0.00754466
749400 60.1715 179.307 55.8389 0.37465 -0.022104
749600 60.1715 179.32 55.8389 0.37475 -0.0456102
749800 60.1715 179.334 55.8389 0.37485 -0.0523901
750000 60.1715 179.347 55.8389 0.37495 -0.0669253
750200 60.1715 179.36 55.8389 0.37505 -0.0682422
750400 60.1715 179.373 55.8389 0.37515 -0.0818862
750600 60.1715 179.386 55.8389 0.37525 -0.070804
750800 60.1715 179.399 55.8389 0.37535 -0.0662067
751000 60.1715 179.412 55.8389 0.37545 -0.00085479
751200 60.1715 179.425 55.8389 0.37555 0.0127792
751400 60.1715 179.438 55.8389 0.37565 0.0635292
751600 60.1715 179.451 55.8389 0.37575 0.0544136
751800 60.1715 179.464 55.8389 0.37585 0.0870241
752000 60.1715 179.477 55.8389 0.37595 0.0904839
752200 60.1715 179.49 55.8389 0.37605 0.061569
752400 60.1715 179.503 55.8389 0.37615 0.119398
752600 60.1715 179.516 55.8389 0.37625 0.0733518
752800 60.1715 179.529 55.8389 0.37635 0.0429949
753000 60.1715 179.542 55.8389 0.37645 0.034772
753200 60.1715 179.555 55.8389 0.37655 -0.0244253
753400 60.1715 179.568 55.8389 0.37665 -0.0466542
753600 60.1715 179.581 55.8389 0.37675 -0.0602468
753800 60.1715 179.594 55.8389 0.37685 -0.0779823
754000 60.1715 179.607 55.8389 0.37695 -0.0749599
754200 60.1715 179.62 55.8389 0.37705 -0.0712676
754400 60.1715 179.634 55.8389 0.37715 -0.073986
754600 60.1715 179.647 55.8389 0.37725 -0.05585
754800 60.1715 179.66 55.8389 0.37735 -0.0153814
755000 60.1715 179.673 55.8389 0.37745 -0.0359719
755200 60.1715 179.686 55.8389 0.37755 0.0385333
755400 60.1715 179.699 55.8389 0.37765 0.0926228
755600 60.1715 179.712 55.8389 0.37775 0.0782022
755800 60.1715 179.725 55.8389 0.37785 0.0905706
756000 60.1715 179.738 55.8389 0.37795 0.112
756200 60.1715 179.751 55.8389 0.37805 0.0539879
756400 60.1715 179.764 55.8389 0.37815 0.0638669
756600 60.1715 179.777 55.8389 0.37825 0.0685634
756800 60.1715 179.79 55.8389 0.37835 0.0251796
757000 60.1715 179.803 55.8389 0.37845 0.0404433
757200 60.1715 179.816 55.8389 0.37855 -0.0234927
757400 60.1715 179.829 55.8389 0.37865 -0.0609692
757600 60.1715 179.842 55.8389 0.37875 -0.0595819
757800 60.1715 179.855 55.8389 0.37885 -0.0685555
758000 60.1715 179.868 55.8389 0.37895 -0.0697594
758200 60.1715 179.881 55.8389 0.37905 -0.0678411
758400 60.1715 179.894 55.8389 0.37915 -0.0351149
758600 60.1715 179.907 55.8389 0.37925 -0.0605596
758800 60.1715 179.921 55.8389 0.37935 -0.023398
759000 60.1715 179.934 55.8389 0.37945 -0.0061289
759200 60.1715 179.947 55.8389 0.37955 0.0336273
759400 60.1715 179.96 55.8389 0.37965 0.0870732
759600 60.1715 179.973 55.8389 0.37975 0.0571187
759800 60.1715 179.986 55.8389 0.37985 0.0886896
760000 60.1715 179.999 55.8389 0.37995 0.0937792
760200 60.1715 180.012 55.8389 0.38005 0.069606
760400 60.1715 180.025 55.8389 0.38015 0.0806869
760600 60.1715 180.038 55.8389 0.38025 0.0472503
760800 60.1715 180.051 55.8389 0.38035 0.0172281
761000 60.1715 180.064 55.8389 0.38045 0.0121242
761200 60.1715 180.077 55.8389 0.38055 -0.0280705
761400 60.1715 180.09 55.8389 0.38065 -0.055064
761600 60.1715 180.103 55.8389 0.38075 -0.0603431
761800 60.1715 180.116 55.8389 0.38085 -0.0709798
762000 60.1715 180.129 55.8389 0.38095 -0.0738877
762200 60.1715 180.142 55.8389 0.38105 -0.0779206
762400 60.1715 180.155 55.8389 0.38115 -0.063183
762600 60.1715 180.168 55.8389 0.38125 -0.0254548
762800 60.1715 180.181 55.8389 0.38135 0.0104313
763000 60.1715 180.194 55.8389 0.38145 0.0159824
763200 60.1715 180.207 55.8389 0.38155 0.0420305
763400 60.1715 180.221 55.8389 0.38165 0.0410959
763600 60.1715 180.234 55.8389 0.38175 0.106754
763800 60.1715 180.247 55.8389 0.38185 0.0878236
764000 60.1715 180.26 55.8389 0.38195 0.106493
764200 60.1715 180.273 55.8389 0.38205 0.0746253
764400 60.1715 180.286 55.8389 0.38215 0.0480179
764600 60.1715 180.299 55.8389 0.38225 0.0365809
764800 60.1715 180.312 55.8389 0.38235 0.018701
765000 60.1715 180.325 55.8389 0.38245 -0.00571641
765200 60.1715 180.338 55.8389 0.38255 -0.0187468
765400 60.1715 180.351 55.8389 0.38265 -0.0434309
765600 60.1715 180.364 55.8389 0.38275 -0.062057
765800 60.1715 180.377 55.8389 0.38285 -0.085976
766000 60.1715 180.39 55.8389 0.38295 -0.0747386
766200 60.1715 180.403 55.8389 0.38305 -0.0628044
766400 60.1715 180.416 55.8389 0.38315 -0.05643
766600 60.1715 180.429 55.8389 0.38325 -0.00446987
766800 60.1715 180.442 55.8389 0.38335 -0.00535127
767000 60.1715 180.455 55.8389 0.38345 0.0167404
767200 60.1715 180.468 55.8389 0.38355 0.0306844
767400 60.1715 180.481 55.8389 0.38365 0.0578673
767600 60.1715 180.494 55.8389 0.38375 0.0849049
767800 60.1715 180.507 55.8389 0.38385 0.0961367
768000 60.1715 180.521 55.8389 0.38395 0.0750583
768200 60.1715 180.534 55.8389 0.38405 0.0877228
768400 60.1715 180.547 55.8389 0.38415 0.0511235
768600 60.1715 180.56 55.8389 0.38425 0.0294064
768800 60.1715 180.573 55.8389 0.38435 0.000172308
769000 60.1715 180.586 55.8389 0.38445 -0.00730104
769200 60.1715 180.599 55.8389 0.38455 -0.0461388
769400 60.1715 180.612 55.8389 0.38465 -0.0428194
769600 60.1715 180.625 55.8389 0.38475 -0.077116
769800 60.1715 180.638 55.8389 0.38485 -0.0670004
770000 60.1715 180.651 55.8389 0.38495 -0.0570765
770200 60.1715 180.664 55.8389 0.38505 -0.040557
770400 60.1715 180.677 55.8389 0.38515 -0.0507059
770600 60.1715 180.69 55.8389 0.38525 -0.00150237
770800 60.1715 180.703 55.8389 0.38535 0.0197637
771000 60.1715 180.716 55.8389 0.38545 0.0230324
771200 60.1715 180.729 55.8389 0.38555 0.0526093
771400 60.1715 180.742 55.8389 0.38565 0.073501
771600 60.1715 180.755 55.8389 0.38575 0.0858192
771800 60.1715 180.768 55.8389 0.38585 0.0914658
772000 60.1715 180.781 55.8389 0.38595 0.0598289
772200 60.1715 180.794 55.8389 0.38605 0.0577875
772400 60.1715 180.807 55.8389 0.38615 0.0490064
772600 60.1715 180.821 55.8389 0.38625 0.0325808
772800 60.1715 180.834 55.8389 0.38635 -0.000246608
773000 60.1715 180.847 55.8389 0.38645 -0.0461753
773200 60.1715 180.86 55.8389 0.38655 -0.0324592
773400 60.1715 180.873 55.8389 0.38665 -0.0713671
773600 60.1715 180.886 55.8389 0.38675 -0.0662422
773800 60.1715 180.899 55.8389 0.38685 -0.0695613
774000 60.1715 180.912 55.8389 0.38695 -0.0492113
774200 60.1715 180.925 55.8389 0.38705 -0.031495
774400 60.1715 180.938 55.8389 0.38715 -0.0408144
774600 60.1715 180.951 55.8389 0.38725 -0.000469996
774800 60.1715 180.964 55.8389 0.38735 0.0113207
775000 60.1715 180.977 55.8389 0.38745 0.042563
775200 60.1715 180.99 55.8389 0.38755 0.074935
775400 60.1715 181.003 55.8389 0.38765 0.0535919
775600 60.1715 181.016 55.8389 0.38775 0.116061
775800 60.1715 181.029 55.8389 0.38785 0.0593568
776000 60.1715 181.042 55.8389 0.38795 0.0659783
776200 60.1715 181.055 55.8389 0.38805 0.0287429
776400 60.1715 181.068 55.8389 0.38815 0.0435369
776600 60.1715 181.081 55.8389 0.38825 0.0264828
776800 60.1715 181.094 55.8389 0.38835 -0.0107247
777000 60.1715 181.107 55.8389 0.38845 -0.038759
777200 60.1715 181.121 55.8389 0.38855 -0.0357164
777400 60.1715 181.134 55.8389 0.38865 -0.0694897
777600 60.1715 181.147 55.8389 0.38875 -0.0636063
777800 60.1715 181.16 55.8389 0.38885 -0.0701751
778000 60.1715 181.173 55.8389 0.38895 -0.0346989
778200 60.1715 181.186 55.8389 0.38905 -0.0309721
778400 60.1715 181.199 55.8389 0.38915 -0.0164708
778600 60.1715 181.212 55.8389 0.38925 0.015583
778800 60.1715 181.225 55.8389 0.38935 0.0296872
779000 60.1715 181.238 55.8389 0.38945 0.0548814
779200 60.1715 181.251 55.8389 0.38955 0.0499262
779400 60.1715 181.264 55.8389 0.38965 0.0742268
779600 60.1715 181.277 55.8389 0.38975 0.0780617
779800 60.1715 181.29 55.8389 0.38985 0.0795203
780000 60.1715 181.303 55.8389 0.38995 0.0409627
780200 60.1715 181.316 55.8389 0.39005 0.0479555
780400 60.1715 181.329 55.8389 0.39015 0.0150637
780600 60.1715 181.342 55.8389 0.39025 0.00207435
780800 60.1715 181.355 55.8389 0.39035 -0.0119864
781000 60.1715 181.368 55.8389 0.39045 -0.0436254
781200 60.1715 181.381 55.8389 0.39055 -0.0474602
781400 60.1715 181.394 55.8389 0.39065 -0.0661261
781600 60.1715 181.408 55.8389 0.39075 -0.0670121
781800 60.1715 181.421 55.8389 0.39085 -0.052649
782000 60.1715 181.434 55.8389 0.39095 -0.0432247
782200 60.1715 181.447 55.8389 0.39105 -0.0245013
782400 60.1715 181.46 55.8389 0.39115 -0.0161872
782600 60.1715 181.473 55.8389 0.39125 0.0336708
782800 60.1715 181.486 55.8389 0.39135 0.033142
783000 60.1715 181.499 55.8389 0.39145 0.0498093
783200 60.1715 181.512 55.8389 0.39155 0.0672103
783400 60.1715 181.525 55.8389 0.39165 0.0716104
783600 60.1715 181.538 55.8389 0.39175 0.0785075
783800 60.1715 181.551 55.8389 0.39185 0.0800927
784000 60.1715 181.564 55.8389 0.39195 0.0642202
784200 60.1715 181.577 55.8389 0.39205 0.0426142
784400 60.1715 181.59 55.8389 0.39215 0.00234521
784600 60.1715 181.603 55.8389 0.39225 -0.0165776
784800 60.1715 181.616 55.8389 0.39235 -0.0278134
785000 60.1715 181.629 55.8389 0.39245 -0.0369178
785200 60.1715 181.642 55.8389 0.39255 -0.0632341
785400 60.1715 181.655 55.8389 0.39265 -0.0486724
785600 60.1715 181.668 55.8389 0.39275 -0.055954
785800 60.1715 181.681 55.8389 0.39285 -0.0699562
786000 60.1715 181.694 55.8389 0.39295 -0.0319147
786200 60.1715 181.708 55.8389 0.39305 -0.0260591
786400 60.1715 181.721 55.8389 0.39315 -0.00365519
786600 60.1715 181.734 55.8389 0.39325 0.0400994
786800 60.1715 181.747 55.8389 0.39335 0.040256
787000 60.1715 181.76 55.8389 0.39345 0.0651077
787200 60.1715 181.773 55.8389 0.39355 0.0582532
787400 60.1715 181.786 55.8389 0.39365 0.0717977
787600 60.1715 181.799 55.8389 0.39375 0.0727341
787800 60.1715 181.812 55.8389 0.39385 0.0572228
788000 60.1715 181.825 55.8389 0.39395 0.0596566
788200 60.1715 181.838 55.8389 0.39405 0.0213524
788400 60.1715 181.851 55.8389 0.39415 0.0219942
788600 60.1715 181.864 55.8389 0.39425 -0.0179098
788800 60.1715 181.877 55.8389 0.39435 -0.0296567
789000 60.1715 181.89 55.8389 0.39445 -0.0435665
789200 60.1715 181.903 55.8389 0.39455 -0.0533381
789400 60.1715 181.916 55.8389 0.39465 -0.0618368
789600 60.1715 181.929 55.8389 0.39475 -0.0363817
789800 60.1715 181.942 55.8389 0.39485 -0.0518513
790000 60.1715 181.955 55.8389 0.39495 -0.0524549
790200 60.1715 181.968 55.8389 0.39505 -0.00885625
790400 60.1715 181.981 55.8389 0.39515 0.0025092
790600 60.1715 181.994 55.8389 0.39525 0.0368931
790800 60.1715 182.008 55.8389 0.39535 0.0536463
791000 60.1715 182.021 55.8389 0.39545 0.0362177
791200 60.1715 182.034 55.8389 0.39555 0.0921297
791400 60.1715 182.047 55.8389 0.39565 0.0614476
791600 60.1715 182.06 55.8389 0.39575 0.0727809
791800 60.1715 182.073 55.8389 0.39585 0.0603434
792000 60.1715 182.086 55.8389 0.39595 0.0358911
792200 60.1715 182.099 55.8389 0.39605 0.0353818
792400 60.1715 182.112 55.8389 0.39615 -0.00990344
792600 60.1715 182.125 55.8389 0.39625 -0.0205958
792800 60.1715 182.138 55.8389 0.39635 -0.0187015
793000 60.1715 182.151 55.8389 0.39645 -0.0423148
793200 60.1715 182.164 55.8389 0.39655 -0.056929
793400 60.1715 182.177 55.8389 0.39665 -0.0705666
793600 60.1715 182.19 55.8389 0.39675 -0.0643929
793800 60.1715 182.203 55.8389 0.39685 -0.0340629
794000 60.1715 182.216 55.8389 0.39695 -0.0483095
794200 60.1715 182.229 55.8389 0.39705 0.00663773
794400 60.1715 182.242 55.8389 0.39715 0.0260417
794600 60.1715 182.255 55.8389 0.39725 0.0231658
794800 60.1715 182.268 55.8389 0.39735 0.0454895
795000 60.1715 182.281 55.8389 0.39745 0.0504674
795200 60.1715 182.294 55.8389 0.39755 0.0682956
795400 60.1715 182.308 55.8389 0.39765 0.0870361
795600 60.1715 182.321 55.8389 0.39775 0.0701859
795800 60.1715 182.334 55.8389 0.39785 0.0679529
796000 60.1715 182.347 55.8389 0.39795 0.0263556
796200 60.1715 182.36 55.8389 0.39805 0.00874243
796400 60.1715 182.373 55.8389 0.39815 0.0084658
796600 60.1715 182.386 55.8389 0.39825 -0.0265124
796800 60.1715 182.399 55.8389 0.39835 -0.0352117
797000 60.1715 182.412 55.8389 0.39845 -0.0365405
797200 60.1715 182.425 55.8389 0.39855 -0.0545052
797400 60.1715 182.438 55.8389 0.39865 -0.0544655
797600 60.1715 182.451 55.8389 0.39875 -0.0807276
797800 60.1715 182.464 55.8389 0.39885 -0.0392764
798000 60.1715 182.477 55.8389 0.39895 -0.0166069
798200 60.1715 182.49 55.8389 0.39905 0.00136947
798400 60.1715 182.503 55.8389 0.39915 0.0264605
798600 60.1715 182.516 55.8389 0.39925 0.0445645
798800 60.1715 182.529 55.8389 0.39935 0.0553318
799000 60.1715 182.542 55.8389 0.39945 0.068867
799200 60.1715 182.555 55.8389 0.39955 0.0668836
799400 60.1715 182.568 55.8389 0.39965 0.0813263
799600 60.1715 182.581 55.8389 0.39975 0.0727972
799800 60.1715 182.594 55.8389 0.39985 0.0403496
800000 60.1715 182.608 55.8389 0.39995 0.042374
800200 60.1715 182.621 55.8389 0.40005 -0.0122189
800400 60.1715 182.634 55.8389 0.40015 -0.0302052
800600 60.1715 182.647 55.8389 0.40025 -0.0301764
800800 60.1715 182.66 55.8389 0.40035 -0.0519822
801000 60.1715 182.673 55.8389 0.40045 -0.0582296
801200 60.1715 182.686 55.8389 0.40055 -0.0473227
801400 60.1715 182.699 55.8389 0.40065 -0.0566441
801600 60.1715 182.712 55.8389 0.40075 -0.0541941
801800 60.1715 182.725 55.8389 0.40085 -0.0287964
802000 60.1715 182.738 55.8389 0.40095 -0.0151967
802200 60.1715 182.751 55.8389 0.40105 0.0408744
802400 60.1715 182.764 55.8389 0.40115 0.0188991
802600 60.1715 182.777 55.8389 0.40125 0.0819806
802800 60.1715 182.79 55.8389 0.40135 0.0664143
803000 60.1715 182.803 55.8389 0.40145 0.0652712
803200 60.1715 182.816 55.8389 0.40155 0.0574265
803400 60.1715 182.829 55.8389 0.40165 0.0537929
803600 60.1715 182.842 55.8389 0.40175 0.0752686
803800 60.1715 182.855 55.8389 0.40185 0.0256905
804000 60.1715 182.868 55.8389 0.40195 0.0189065
804200 60.1715 182.881 55.8389 0.40205 0.00914294
804400 60.1715 182.895 55.8389 0.40215 -0.0310988
804600 60.1715 182.908 55.8389 0.40225 -0.0665142
804800 60.1715 182.921 55.8389 0.40235 -0.0606284
805000 60.1715 182.934 55.8389 0.40245 -0.049187
805200 60.1715 182.947 55.8389 0.40255 -0.0448701
805400 60.1715 182.96 55.8389 0.40265 -0.0433268
805600 60.1715 182.973 55.8389 0.40275 -0.0395503
805800 60.1715 182.986 55.8389 0.40285 -0.0255335
806000 60.1715 182.999 55.8389 0.40295 0.012378
806200 60.1715 183.012 55.8389 0.40305 0.0134907
806400 60.1715 183.025 55.8389 0.40315 0.0440872
806600 60.1715 183.038 55.8389 0.40325 0.0520049
806800 60.1715 183.051 55.8389 0.40335 0.0876681
807000 60.1715 183.064 55.8389 0.40345 0.0749891
807200 60.1715 183.077 55.8389 0.40355 0.0444985
807400 60.1715 183.09 55.8389 0.40365 0.0358851
807600 60.1715 183.103 55.8389 0.40375 0.0658975
807800 60.1715 183.116 55.8389 0.40385 0.0264395
808000 60.1715 183.129 55.8389 0.40395 -0.00899352
808200 60.1715 183.142 55.8389 0.40405 -0.00802582
808400 60.1715 183.155 55.8389 0.40415 -0.0221188
808600 60.1715 183.168 55.8389 0.40425 -0.0313489
808800 60.1715 183.181 55.8389 0.40435 -0.0843131
809000 60.1715 183.195 55.8389 0.40445 -0.0750236
809200 60.1715 183.208 55.8389 0.40455 -0.0218718
809400 60.1715 183.221 55.8389 0.40465 -0.0258272
809600 60.1715 183.234 55.8389 0.40475 -0.0253861
809800 60.1715 183.247 55.8389 0.40485 0.00044445
810000 60.1715 183.26 55.8389 0.40495 -0.00652899
810200 60.1715 183.273 55.8389 0.40505 0.0655306
810400 60.1715 183.286 55.8389 0.40515 0.0421087
810600 60.1715 183.299 55.8389 0.40525 0.0804515
810800 60.1715 183.312 55.8389 0.40535 0.0521976
811000 60.1715 183.325 55.8389 0.40545 0.0646318
811200 60.1715 183.338 55.8389 0.40555 0.056425
811400 60.1715 183.351 55.8389 0.40565 0.0501003
811600 60.1715 183.364 55.8389 0.40575 0.0244055
811800 60.1715 183.377 55.8389 0.40585 0.00345073
812000 60.1715 183.39 55.8389 0.40595 0.00692899
812200 60.1715 183.403 55.8389 0.40605 -0.0257145
812400 60.1715 183.416 55.8389 0.40615 -0.0240822
812600 60.1715 183.429 55.8389 0.40625 -0.0505947
812800 60.1715 183.442 55.8389 0.40635 -0.0661468
813000 60.1715 183.455 55.8389 0.40645 -0.062603
813200 60.1715 183.468 55.8389 0.40655 -0.0408675
813400 60.1715 183.481 55.8389 0.40665 -0.00377946
813600 60.1715 183.495 55.8389 0.40675 -0.0408332
813800 60.1715 183.508 55.8389 0.40685 0.00566167
814000 60.1715 183.521 55.8389 0.40695 0.0172505
814200 60.1715 183.534 55.8389 0.40705 0.0312505
814400 60.1715 183.547 55.8389 0.40715 0.0472422
814600 60.1715 183.56 55.8389 0.40725 0.0507703
814800 60.1715 183.573 55.8389 0.40735 0.0765574
815000 60.1715 183.586 55.8389 0.40745 0.0603942
815200 60.1715 183.599 55.8389 0.40755 0.0589299
815400 60.1715 183.612 55.8389 0.40765 0.0541765
815600 60.1715 183.625 55.8389 0.40775 0.0317451
815800 60.1715 183.638 55.8389 0.40785 0.000603384
816000 60.1715 183.651 55.8389 0.40795 -0.0085507
816200 60.1715 183.664 55.8389 0.40805 -0.0137783
816400 60.1715 183.677 55.8389 0.40815 -0.0295825
816600 60.1715 183.69 55.8389 0.40825 -0.0327953
816800 60.1715 183.703 55.8389 0.40835 -0.0353165
817000 60.1715 183.716 55.8389 0.40845 -0.0497756
817200 60.1715 183.729 55.8389 0.40855 -0.0550088
817400 60.1715 183.742 55.8389 0.40865 -0.0291148
817600 60.1715 183.755 55.8389 0.40875 -0.0186708
817800 60.1715 183.768 55.8389 0.40885 -0.0145892
818000 60.1715 183.781 55.8389 0.40895 0.0401036
818200 60.1715 183.795 55.8389 0.40905 0.0240016
818400 60.1715 183.808 55.8389 0.40915 0.0430124
818600 60.1715 183.821 55.8389 0.40925 0.0509953
818800 60.1715 183.834 55.8389 0.40935 0.0561069
819000 60.1715 183.847 55.8389 0.40945 0.0690791
819200 60.1715 183.86 55.8389 0.40955 0.0539013
819400 60.1715 183.873 55.8389 0.40965 0.0583668
819600 60.1715 183.886 55.8389 0.40975 0.0209606
819800 60.1715 183.899 55.8389 0.40985 0.0130816
820000 60.1715 183.912 55.8389 0.40995 -0.0194755
820200 60.1715 183.925 55.8389 0.41005 -0.0477799
820400 60.1715 183.938 55.8389 0.41015 -0.0244001
820600 60.1715 183.951 55.8389 0.41025 -0.0284374
820800 60.1715 183.964 55.8389 0.41035 -0.0395504
821000 60.1715 183.977 55.8389 0.41045 -0.0599931
821200 60.1715 183.99 55.8389 0.41055 -0.0196639
821400 60.1715 184.003 55.8389 0.41065 -0.0458838
821600 60.1715 184.016 55.8389 0.41075 -0.0245168
821800 60.1715 184.029 55.8389 0.41085 0.0114052
822000 60.1715 184.042 55.8389 0.41095 0.0328735
822200 60.1715 184.055 55.8389 0.41105 0.0643863
822400 60.1715 184.068 55.8389 0.41115 0.0394463
822600 60.1715 184.081 55.8389 0.41125 0.0777988
822800 60.1715 184.095 55.8389 0.41135 0.023713
823000 60.1715 184.108 55.8389 0.41145 0.0554301
823200 60.1715 184.121 55.8389 0.41155 0.0680473
823400 60.1715 184.134 55.8389 0.41165 0.0373214
823600 60.1715 184.147 55.8389 0.41175 0.0382539
823800 60.1715 184.16 55.8389 0.41185 -0.0235272
824000 60.1715 184.173 55.8389 0.41195 -0.0135396
824200 60.1715 184.186 55.8389 0.41205 -0.011286
824400 60.1715 184.199 55.8389 0.41215 -0.0547058
824600 60.1715 184.212 55.8389 0.41225 -0.0348323
824800 60.1715 184.225 55.8389 0.41235 -0.0404179
825000 60.1715 184.238 55.8389 0.41245 -0.0444164
825200 60.1715 184.251 55.8389 0.41255 -0.0405721
825400 60.1715 184.264 55.8389 0.41265 -0.0142098
825600 60.1715 184.277 55.8389 0.41275 -0.0293573
825800 60.1715 184.29 55.8389 0.41285 0.00962347
826000 60.1715 184.303 55.8389 0.41295 0.0451107
826200 60.1715 184.316 55.8389 0.41305 0.060067
826400 60.1715 184.329 55.8389 0.41315 0.0343382
826600 60.1715 184.342 55.8389 0.41325 0.0485927
826800 60.1715 184.355 55.8389 0.41335 0.0601809
827000 60.1715 184.368 55.8389 0.41345 0.0580011
827200 60.1715 184.382 55.8389 0.41355 0.0574249
827400 60.1715 184.395 55.8389 0.41365 0.0270127
827600 60.1715 184.408 55.8389 0.41375 0.0203137
827800 60.1715 184.421 55.8389 0.41385 -0.00120689
828000 60.1715 184.434 55.8389 0.41395 -0.0379762
828200 60.1715 184.447 55.8389 0.41405 -0.0444088
828400 60.1715 184.46 55.8389 0.41415 -0.0356737
828600 60.1715 184.473 55.8389 0.41425 -0.0374844
828800 60.1715 184.486 55.8389 0.41435 -0.0414258
829000 60.1715 184.499 55.8389 0.41445 -0.0285831
829200 60.1715 184.512 55.8389 0.41455 -0.036732
829400 60.1715 184.525 55.8389 0.41465 -0.0212046
829600 60.1715 184.538 55.8389 0.41475 -0.000683576
829800 60.1715 184.551 55.8389 0.41485 0.0136412
830000 60.1715 184.564 55.8389 0.41495 0.0664146
830200 60.1715 184.577 55.8389 0.41505 0.0594036
830400 60.1715 184.59 55.8389 0.41515 0.0501068
830600 60.1715 184.603 55.8389 0.41525 0.0655502
830800 60.1715 184.616 55.8389 0.41535 0.066032
831000 60.1715 184.629 55.8389 0.41545 0.0444059
831200 60.1715 184.642 55.8389 0.41555 0.0283613
831400 60.1715 184.655 55.8389 0.41565 0.0128448
831600 60.1715 184.668 55.8389 0.41575 0.0127903
831800 60.1715 184.682 55.8389 0.41585 -0.0258423
832000 60.1715 184.695 55.8389 0.41595 -0.0274177
832200 60.1715 184.708 55.8389 0.41605 -0.0512956
832400 60.1715 184.721 55.8389 0.41615 -0.0486096
832600 60.1715 184.734 55.8389 0.41625 -0.0373822
832800 60.1715 184.747 55.8389 0.41635 -0.032069
833000 60.1715 184.76 55.8389 0.41645 -0.0352156
833200 60.1715 184.773 55.8389 0.41655 -0.0131739
833400 60.1715 184.786 55.8389 0.41665 -0.0264468
833600 60.1715 184.799 55.8389 0.41675 0.0130611
833800 60.1715 184.812 55.8389 0.41685 0.012343
834000 60.1715 184.825 55.8389 0.41695 0.0595853
834200 60.1715 184.838 55.8389 0.41705 0.0615326
834400 60.1715 184.851 55.8389 0.41715 0.0634057
834600 60.1715 184.864 55.8389 0.41725 0.072706
834800 60.1715 184.877 55.8389 0.41735 0.0387954
835000 60.1715 184.89 55.8389 0.41745 0.0400179
835200 60.1715 184.903 55.8389 0.41755 0.021313
835400 60.1715 184.916 55.8389 0.41765 0.0374007
835600 60.1715 184.929 55.8389 0.41775 0.0165959
835800 60.1715 184.942 55.8389 0.41785 -0.017237
836000 60.1715 184.955 55.8389 0.41795 -0.0403645
836200 60.1715 184.968 55.8389 0.41805 -0.0458895
836400 60.1715 184.982 55.8389 0.41815 -0.0349889
836600 60.1715 184.995 55.8389 0.41825 -0.0568588
836800 60.1715 185.008 55.8389 0.41835 -0.0372672
837000 60.1715 185.021 55.8389 0.41845 -0.0278782
837200 60.1715 185.034 55.8389 0.41855 -0.0250421
837400 60.1715 185.047 55.8389 0.41865 -0.0220203
837600 60.1715 185.06 55.8389 0.41875 0.0162221
837800 60.1715 185.073 55.8389 0.41885 0.0344805
838000 60.1715 185.086 55.8389 0.41895 0.0389409
838200 60.1715 185.099 55.8389 0.41905 0.0581813
838400 60.1715 185.112 55.8389 0.41915 0.0725758
838600 60.1715 185.125 55.8389 0.41925 0.0732292
838800 60.1715 185.138 55.8389 0.41935 0.0384502
839000 60.1715 185.151 55.8389 0.41945 0.0458774
839200 60.1715 185.164 55.8389 0.41955 0.0276553
839400 60.1715 185.177 55.8389 0.41965 0.0184227
839600 60.1715 185.19 55.8389 0.41975 0.00100738
839800 60.1715 185.203 55.8389 0.41985 -0.0217696
840000 60.1715 185.216 55.8389 0.41995 -0.0313613
840200 60.1715 185.229 55.8389 0.42005 -0.0439858
840400 60.1715 185.242 55.8389 0.42015 -0.0639772
840600 60.1715 185.255 55.8389 0.42025 -0.055754
840800 60.1715 185.268 55.8389 0.42035 -0.0448294
841000 60.1715 185.282 55.8389 0.42045 -0.0179603
841200 60.1715 185.295 55.8389 0.42055 -0.00794037
841400 60.1715 185.308 55.8389 0.42065 -0.00290402
841600 60.1715 185.321 55.8389 0.42075 0.0234217
841800 60.1715 185.334 55.8389 0.42085 0.0300671
842000 60.1715 185.347 55.8389 0.42095 0.0510017
842200 60.1715 185.36 55.8389 0.42105 0.0716844
842400 60.1715 185.373 55.8389 0.42115 0.0642678
842600 60.1715 185.386 55.8389 0.42125 0.0436714
842800 60.1715 185.399 55.8389 0.42135 0.0771953
843000 60.1715 185.412 55.8389 0.42145 0.0395256
843200 60.1715 185.425 55.8389 0.42155 0.0197268
843400 60.1715 185.438 55.8389 0.42165 0.0020813
843600 60.1715 185.451 55.8389 0.42175 0.00568426
843800 60.1715 185.464 55.8389 0.42185 -0.0217566
844000 60.1715 185.477 55.8389 0.42195 -0.0530642
844200 60.1715 185.49 55.8389 0.42205 -0.0402058
844400 60.1715 185.503 55.8389 0.42215 -0.0382292
844600 60.1715 185.516 55.8389 0.42225 -0.0687794
844800 60.1715 185.529 55.8389 0.42235 -0.033913
845000 60.1715 185.542 55.8389 0.42245 -0.0105452
845200 60.1715 185.555 55.8389 0.42255 -0.012706
845400 60.1715 185.568 55.8389 0.42265 -0.0110274
845600 60.1715 185.582 55.8389 0.42275 0.02221
845800 60.1715 185.595 55.8389 0.42285 0.034963
846000 60.1715 185.608 55.8389 0.42295 0.0633083
846200 60.1715 185.621 55.8389 0.42305 0.0513859
846400 60.1715 185.634 55.8389 0.42315 0.0638451
846600 60.1715 185.647 55.8389 0.42325 0.0592181
846800 60.1715 185.66 55.8389 0.42335 0.0669136
847000 60.1715 185.673 55.8389 0.42345 0.0152986
847200 60.1715 185.686 55.8389 0.42355 0.025627
847400 60.1715 185.699 55.8389 0.42365 -0.0113531
847600 60.1715 185.712 55.8389 0.42375 -0.0090213
847800 60.1715 185.725 55.8389 0.42385 -0.0252375
848000 60.1715 185.738 55.8389 0.42395 -0.0355671
848200 60.1715 185.751 55.8389 0.42405 -0.0557682
848400 60.1715 185.764 55.8389 0.42415 -0.0450909
848600 60.1715 185.777 55.8389 0.42425 -0.0362318
848800 60.1715 185.79 55.8389 0.42435 -0.0343254
849000 60.1715 185.803 55.8389 0.42445 -0.0161801
849200 60.1715 185.816 55.8389 0.42455 -7.57971e-05
849400 60.1715 185.829 55.8389 0.42465 0.0167901
849600 60.1715 185.842 55.8389 0.42475 0.0268912
849800 60.1715 185.855 55.8389 0.42485 0.0501862
850000 60.1715 185.869 55.8389 0.42495 0.0536979
850200 60.1715 185.882 55.8389 0.42505 0.0622007
850400 60.1715 185.895 55.8389 0.42515 0.0650111
850600 60.1715 185.908 55.8389 0.42525 0.0383226
850800 60.1715 185.921 55.8389 0.42535 0.0339141
851000 60.1715 185.934 55.8389 0.42545 0.0192113
851200 60.1715 185.947 55.8389 0.42555 0.0285617
851400 60.1715 185.96 55.8389 0.42565 -0.0117264
851600 60.1715 185.973 55.8389 0.42575 -0.00289358
851800 60.1715 185.986 55.8389 0.42585 -0.0217443
852000 60.1715 185.999 55.8389 0.42595 -0.046343
852200 60.1715 186.012 55.8389 0.42605 -0.042986
852400 60.1715 186.025 55.8389 0.42615 -0.04092
852600 60.1715 186.038 55.8389 0.42625 -0.0460498
852800 60.1715 186.051 55.8389 0.42635 -0.0156748
853000 60.1715 186.064 55.8389 0.42645 -0.00299074
853200 60.1715 186.077 55.8389 0.42655 -0.0213033
853400 60.1715 186.09 55.8389 0.42665 0.0218876
853600 60.1715 186.103 55.8389 0.42675 0.0276717
853800 60.1715 186.116 55.8389 0.42685 0.0542341
854000 60.1715 186.129 55.8389 0.42695 0.0336728
854200 60.1715 186.142 55.8389 0.42705 0.0631327
854400 60.1715 186.155 55.8389 0.42715 0.0515816
854600 60.1715 186.169 55.8389 0.42725 0.0349832
854800 60.1715 186.182 55.8389 0.42735 0.0333427
855000 60.1715 186.195 55.8389 0.42745 0.0286459
855200 60.1715 186.208 55.8389 0.42755 0.00340204
855400 60.1715 186.221 55.8389 0.42765 -0.00990144
855600 60.1715 186.234 55.8389 0.42775 -0.0116372
855800 60.1715 186.247 55.8389 0.42785 -0.0229071
856000 60.1715 186.26 55.8389 0.42795 -0.0443465
856200 60.1715 186.273 55.8389 0.42805 -0.033437
856400 60.1715 186.286 55.8389 0.42815 -0.0408493
856600 60.1715 186.299 55.8389 0.42825 -0.00619699
856800 60.1715 186.312 55.8389 0.42835 -0.0168763
857000 60.1715 186.325 55.8389 0.42845 0.00386936
857200 60.1715 186.338 55.8389 0.42855 -0.012035
857400 60.1715 186.351 55.8389 0.42865 0.0211377
857600 60.1715 186.364 55.8389 0.42875 0.0401772
857800 60.1715 186.377 55.8389 0.42885 0.0333444
858000 60.1715 186.39 55.8389 0.42895 0.054595
858200 60.1715 186.403 55.8389 0.42905 0.0494154
858400 60.1715 186.416 55.8389 0.42915 0.0383008
858600 60.1715 186.429 55.8389 0.42925 0.0416976
858800 60.1715 186.442 55.8389 0.42935 0.0303973
859000 60.1715 186.455 55.8389 0.42945 -0.00134413
859200 60.1715 186.469 55.8389 0.42955 0.0257502
859400 60.1715 186.482 55.8389 0.42965 -0.00419433
859600 60.1715 186.495 55.8389 0.42975 -0.0125561
859800 60.1715 186.508 55.8389 0.42985 -0.0524795
860000 60.1715 186.521 55.8389 0.42995 -0.0413794
860200 60.1715 186.534 55.8389 0.43005 -0.0535893
860400 60.1715 186.547 55.8389 0.43015 -0.0337691
860600 60.1715 186.56 55.8389 0.43025 -0.0153754
860800 60.1715 186.573 55.8389 0.43035 -0.0253824
861000 60.1715 186.586 55.8389 0.43045 0.00204479
861200 60.1715 186.599 55.8389 0.43055 0.0203725
861400 60.1715 186.612 55.8389 0.43065 0.0309557
861600 60.1715 186.625 55.8389 0.43075 0.0428493
861800 60.1715 186.638 55.8389 0.43085 0.0378386
862000 60.1715 186.651 55.8389 0.43095 0.0522588
862200 60.1715 186.664 55.8389 0.43105 0.0444105
862400 60.1715 186.677 55.8389 0.43115 0.0640393
862600 60.1715 186.69 55.8389 0.43125 0.0446302
862800 60.1715 186.703 55.8389 0.43135 0.0220774
863000 60.1715 186.716 55.8389 0.43145 0.00679257
863200 60.1715 186.729 55.8389 0.43155 0.00922588
863400 60.1715 186.742 55.8389 0.43165 -0.0256605
863600 60.1715 186.755 55.8389 0.43175 -0.0277584
863800 60.1715 186.769 55.8389 0.43185 -0.0223211
864000 60.1715 186.782 55.8389 0.43195 -0.0316518
864200 60.1715 186.795 55.8389 0.43205 -0.0448674
864400 60.1715 186.808 55.8389 0.43215 -0.0279722
864600 60.1715 186.821 55.8389 0.43225 -0.0277718
864800 60.1715 186.834 55.8389 0.43235 -0.00983053
865000 60.1715 186.847 55.8389 0.43245 0.000118707
865200 60.1715 186.86 55.8389 0.43255 0.0309096
865400 60.1715 186.873 55.8389 0.43265 0.0339238
865600 60.1715 186.886 55.8389 0.43275 0.0357057
865800 60.1715 186.899 55.8389 0.43285 0.032549
866000 60.1715 186.912 55.8389 0.43295 0.0358308
866200 60.1715 186.925 55.8389 0.43305 0.0412168
866400 60.1715 186.938 55.8389 0.43315 0.0471397
866600 60.1715 186.951 55.8389 0.43325 0.0379368
866800 60.1715 186.964 55.8389 0.43335 0.0187414
867000 60.1715 186.977 55.8389 0.43345 -0.0082083
867200 60.1715 186.99 55.8389 0.43355 0.00418123
867400 60.1715 187.003 55.8389 0.43365 -0.0235323
867600 60.1715 187.016 55.8389 0.43375 -0.0442357
867800 60.1715 187.029 55.8389 0.43385 -0.0330665
868000 60.1715 187.042 55.8389 0.43395 -0.0180027
868200 60.1715 187.055 55.8389 0.43405 -0.0388679
868400 60.1715 187.069 55.8389 0.43415 -0.0108688
868600 60.1715 187.082 55.8389 0.43425 -0.00479457
868800 60.1715 187.095 55.8389 0.43435 0.00171089
869000 60.1715 187.108 55.8389 0.43445 -0.00250316
869200 60.1715 187.121 55.8389 0.43455 0.0109328
869400 60.1715 187.134 55.8389 0.43465 0.0528876
869600 60.1715 187.147 55.8389 0.43475 0.0413627
869800 60.1715 187.16 55.8389 0.43485 0.0626263
870000 60.1715 187.173 55.8389 0.43495 0.0411217
870200 60.1715 187.186 55.8389 0.43505 0.0393152
870400 60.1715 187.199 55.8389 0.43515 0.0288432
870600 60.1715 187.212 55.8389 0.43525 0.0366444
870800 60.1715 187.225 55.8389 0.43535 -0.00607532
871000 60.1715 187.238 55.8389 0.43545 0.0141086
871200 60.1715 187.251 55.8389 0.43555 -0.0242873
871400 60.1715 187.264 55.8389 0.43565 -0.0231681
871600 60.1715 187.277 55.8389 0.43575 -0.0392162
871800 60.1715 187.29 55.8389 0.43585 -0.0254484
872000 60.1715 187.303 55.8389 0.43595 -0.0475846
872200 60.1715 187.316 55.8389 0.43605 -0.0222722
872400 60.1715 187.329 55.8389 0.43615 -0.0274854
872600 60.1715 187.342 55.8389 0.43625 -0.00318321
872800 60.1715 187.356 55.8389 0.43635 0.0123197
873000 60.1715 187.369 55.8389 0.43645 0.0310053
873200 60.1715 187.382 55.8389 0.43655 0.0194362
873400 60.1715 187.395 55.8389 0.43665 0.0395348
873600 60.1715 187.408 55.8389 0.43675 0.0370893
873800 60.1715 187.421 55.8389 0.43685 0.042559
874000 60.1715 187.434 55.8389 0.43695 0.0571216
874200 60.1715 187.447 55.8389 0.43705 0.0228265
874400 60.1715 187.46 55.8389 0.43715 0.0434558
874600 60.1715 187.473 55.8389 0.43725 0.01772
874800 60.1715 187.486 55.8389 0.43735 0.0114501
875000 60.1715 187.499 55.8389 0.43745 -0.0251538
875200 60.1715 187.512 55.8389 0.43755 -0.0284079
875400 60.1715 187.525 55.8389 0.43765 -0.00984801
875600 60.1715 187.538 55.8389 0.43775 -0.0296228
875800 60.1715 187.551 55.8389 0.43785 -0.0251044
876000 60.1715 187.564 55.8389 0.43795 -0.0347573
876200 60.1715 187.577 55.8389 0.43805 -0.0248381
876400 60.1715 187.59 55.8389 0.43815 -0.0158336
876600 60.1715 187.603 55.8389 0.43825 0.00864283
876800 60.1715 187.616 55.8389 0.43835 -0.00919586
877000 60.1715 187.629 55.8389 0.43845 0.0318442
877200 60.1715 187.642 55.8389 0.43855 0.0440912
877400 60.1715 187.656 55.8389 0.43865 0.0313968
877600 60.1715 187.669 55.8389 0.43875 0.0426956
877800 60.1715 187.682 55.8389 0.43885 0.0442253
878000 60.1715 187.695 55.8389 0.43895 0.043901
878200 60.1715 187.708 55.8389 0.43905 0.0403858
878400 60.1715 187.721 55.8389 0.43915 0.0239026
878600 60.1715 187.734 55.8389 0.43925 0.0265211
878800 60.1715 187.747 55.8389 0.43935 -0.0134712
879000 60.1715 187.76 55.8389 0.43945 0.00935634
879200 60.1715 187.773 55.8389 0.43955 -0.044995
879400 60.1715 187.786 55.8389 0.43965 -0.0348781
879600 60.1715 187.799 55.8389 0.43975 -0.0388465
879800 60.1715 187.812 55.8389 0.43985 -0.0344499
880000 60.1715 187.825 55.8389 0.43995 -0.0248372
880200 60.1715 187.838 55.8389 0.44005 -0.0224113
880400 60.1715 187.851 55.8389 0.44015 -0.0168117
880600 60.1715 187.864 55.8389 0.44025 -0.0121541
880800 60.1715 187.877 55.8389 0.44035 0.0155669
881000 60.1715 187.89 55.8389 0.44045 0.0309282
881200 60.1715 187.903 55.8389 0.44055 0.0576263
881400 60.1715 187.916 55.8389 0.44065 0.0402484
881600 60.1715 187.929 55.8389 0.44075 0.0564954
881800 60.1715 187.942 55.8389 0.44085 0.0368787
882000 60.1715 187.956 55.8389 0.44095 0.0473288
882200 60.1715 187.969 55.8389 0.44105 0.0532003
882400 60.1715 187.982 55.8389 0.44115 0.0159836
882600 60.1715 187.995 55.8389 0.44125 0.0172291
882800 60.1715 188.008 55.8389 0.44135 -0.0244768
883000 60.1715 188.021 55.8389 0.44145 -0.0247875
883200 60.1715 188.034 55.8389 0.44155 -0.0311363
883400 60.1715 188.047 55.8389 0.44165 -0.0428511
883600 60.1715 188.06 55.8389 0.44175 -0.010174
883800 60.1715 188.073 55.8389 0.44185 -0.0468763
884000 60.1715 188.086 55.8389 0.44195 -0.052525
884200 60.1715 188.099 55.8389 0.44205 0.0074005
884400 60.1715 188.112 55.8389 0.44215 -0.00621281
884600 60.1715 188.125 55.8389 0.44225 0.0131911
884800 60.1715 188.138 55.8389 0.44235 0.0253231
885000 60.1715 188.151 55.8389 0.44245 0.0417791
885200 60.1715 188.164 55.8389 0.44255 0.0425453
885400 60.1715 188.177 55.8389 0.44265 0.0390958
885600 60.1715 188.19 55.8389 0.44275 0.0623469
885800 60.1715 188.203 55.8389 0.44285 0.0432286
886000 60.1715 188.216 55.8389 0.44295 0.0298326
886200 60.1715 188.229 55.8389 0.44305 0.0228048
886400 60.1715 188.242 55.8389 0.44315 0.0183449
886600 60.1715 188.256 55.8389 0.44325 -0.0185405
886800 60.1715 188.269 55.8389 0.44335 -0.0223645
887000 60.1715 188.282 55.8389 0.44345 -0.0290831
887200 60.1715 188.295 55.8389 0.44355 -0.0177137
887400 60.1715 188.308 55.8389 0.44365 -0.0548245
887600 60.1715 188.321 55.8389 0.44375 -0.0342412
887800 60.1715 188.334 55.8389 0.44385 -0.0399029
888000 60.1715 188.347 55.8389 0.44395 0.00454993
888200 60.1715 188.36 55.8389 0.44405 -0.00873915
888400 60.1715 188.373 55.8389 0.44415 0.00392101
888600 60.1715 188.386 55.8389 0.44425 0.0380527
888800 60.1715 188.399 55.8389 0.44435 0.0333949
889000 60.1715 188.412 55.8389 0.44445 0.0442682
889200 60.1715 188.425 55.8389 0.44455 0.0352745
889400 60.1715 188.438 55.8389 0.44465 0.0626666
889600 60.1715 188.451 55.8389 0.44475 0.0439929
889800 60.1715 188.464 55.8389 0.44485 0.0387052
890000 60.1715 188.477 55.8389 0.44495 0.0282078
890200 60.1715 188.49 55.8389 0.44505 0.0141569
890400 60.1715 188.503 55.8389 0.44515 0.00319211
890600 60.1715 188.516 55.8389 0.44525 -0.0147136
890800 60.1715 188.529 55.8389 0.44535 -0.0320944
891000 60.1715 188.542 55.8389 0.44545 -0.045483
891200 60.1715 188.556 55.8389 0.44555 -0.0287174
891400 60.1715 188.569 55.8389 0.44565 -0.0200373
891600 60.1715 188.582 55.8389 0.44575 -0.0219801
891800 60.1715 188.595 55.8389 0.44585 -0.0236498
892000 60.1715 188.608 55.8389 0.44595 -0.01914
892200 60.1715 188.621 55.8389 0.44605 -0.00810612
892400 60.1715 188.634 55.8389 0.44615 0.0175729
892600 60.1715 188.647 55.8389 0.44625 0.0376314
892800 60.1715 188.66 55.8389 0.44635 0.0305798
893000 60.1715 188.673 55.8389 0.44645 0.0469641
893200 60.1715 188.686 55.8389 0.44655 0.0320384
893400 60.1715 188.699 55.8389 0.44665 0.0319926
893600 60.1715 188.712 55.8389 0.44675 0.00918408
893800 60.1715 188.725 55.8389 0.44685 0.031275
894000 60.1715 188.738 55.8389 0.44695 0.0480876
894200 60.1715 188.751 55.8389 0.44705 0.020676
894400 60.1715 188.764 55.8389 0.44715 0.0120245
894600 60.1715 188.777 55.8389 0.44725 -0.0119784
894800 60.1715 188.79 55.8389 0.44735 -0.0105545
895000 60.1715 188.803 55.8389 0.44745 -0.0213083
895200 60.1715 188.816 55.8389 0.44755 -0.0496623
895400 60.1715 188.829 55.8389 0.44765 -0.022566
895600 60.1715 188.843 55.8389 0.44775 -0.0251948
895800 60.1715 188.856 55.8389 0.44785 -9.06818e-05
896000 60.1715 188.869 55.8389 0.44795 -0.0261536
896200 60.1715 188.882 55.8389 0.44805 -0.0210154
896400 60.1715 188.895 55.8389 0.44815 0.00687
896600 60.1715 188.908 55.8389 0.44825 0.0331971
896800 60.1715 188.921 55.8389 0.44835 0.0543931
897000 60.1715 188.934 55.8389 0.44845 0.0553197
897200 60.1715 188.947 55.8389 0.44855 0.0324643
897400 60.1715 188.96 55.8389 0.44865 0.035643
897600 60.1715 188.973 55.8389 0.44875 0.0412253
897800 60.1715 188.986 55.8389 0.44885 0.0267276
898000 60.1715 188.999 55.8389 0.44895 0.0183041
898200 60.1715 189.012 55.8389 0.44905 0.0226039
898400 60.1715 189.025 55.8389 0.44915 -0.00208591
898600 60.1715 189.038 55.8389 0.44925 -0.0223078
898800 60.1715 189.051 55.8389 0.44935 -0.0185657
899000 60.1715 189.064 55.8389 0.44945 -0.043322
899200 60.1715 189.077 55.8389 0.44955 -0.0530705
899400 60.1715 189.09 55.8389 0.44965 -0.0285041
899600 60.1715 189.103 55.8389 0.44975 -0.00777332
899800 60.1715 189.116 55.8389 0.44985 -0.0184963
900000 60.1715 189.129 55.8389 0.44995 -0.0138832
900200 60.1715 189.143 55.8389 0.45005 -0.00037662
900400 60.1715 189.156 55.8389 0.45015 0.0115228
900600 60.1715 189.169 55.8389 0.45025 0.0383326
900800 60.1715 189.182 55.8389 0.45035 0.0440371
901000 60.1715 189.195 55.8389 0.45045 0.0695048
901200 60.1715 189.208 55.8389 0.45055 0.0435499
901400 60.1715 189.221 55.8389 0.45065 0.0485523
901600 60.1715 189.234 55.8389 0.45075 0.0230148
901800 60.1715 189.247 55.8389 0.45085 0.0190563
902000 60.1715 189.26 55.8389 0.45095 0.016019
902200 60.1715 189.273 55.8389 0.45105 -0.00257254
902400 60.1715 189.286 55.8389 0.45115 0.00290681
902600 60.1715 189.299 55.8389 0.45125 0.00210062
902800 60.1715 189.312 55.8389 0.45135 -0.0458808
903000 60.1715 189.325 55.8389 0.45145 -0.0381203
903200 60.1715 189.338 55.8389 0.45155 -0.0311423
903400 60.1715 189.351 55.8389 0.45165 -0.0447788
903600 60.1715 189.364 55.8389 0.45175 -0.01598
903800 60.1715 189.377 55.8389 0.45185 -0.00380565
904000 60.1715 189.39 55.8389 0.45195 0.0214232
904200 60.1715 189.403 55.8389 0.45205 -0.00419496
904400 60.1715 189.416 55.8389 0.45215 0.016902
904600 60.1715 189.429 55.8389 0.45225 0.0327015
904800 60.1715 189.443 55.8389 0.45235 0.0358036
905000 60.1715 189.456 55.8389 0.45245 0.0622269
905200 60.1715 189.469 55.8389 0.45255 0.0413617
905400 60.1715 189.482 55.8389 0.45265 0.052258
905600 60.1715 189.495 55.8389 0.45275 0.0291604
905800 60.1715 189.508 55.8389 0.45285 0.0185053
906000 60.1715 189.521 55.8389 0.45295 -0.0139778
906200 60.1715 189.534 55.8389 0.45305 -0.0143767
906400 60.1715 189.547 55.8389 0.45315 0.0105598
906600 60.1715 189.56 55.8389 0.45325 -0.0233465
906800 60.1715 189.573 55.8389 0.45335 -0.0254433
907000 60.1715 189.586 55.8389 0.45345 -0.0319928
907200 60.1715 189.599 55.8389 0.45355 -0.0506212
907400 60.1715 189.612 55.8389 0.45365 -0.0434346
907600 60.1715 189.625 55.8389 0.45375 -0.0135891
907800 60.1715 189.638 55.8389 0.45385 0.0170333
908000 60.1715 189.651 55.8389 0.45395 0.0246268
908200 60.1715 189.664 55.8389 0.45405 0.0272666
908400 60.1715 189.677 55.8389 0.45415 0.0136641
908600 60.1715 189.69 55.8389 0.45425 0.0389248
908800 60.1715 189.703 55.8389 0.45435 0.0472059
909000 60.1715 189.716 55.8389 0.45445 0.0489632
909200 60.1715 189.729 55.8389 0.45455 0.0459303
909400 60.1715 189.743 55.8389 0.45465 0.0553664
909600 60.1715 189.756 55.8389 0.45475 0.0207205
909800 60.1715 189.769 55.8389 0.45485 -0.00304849
910000 60.1715 189.782 55.8389 0.45495 -0.0145564
910200 60.1715 189.795 55.8389 0.45505 -0.0263374
910400 60.1715 189.808 55.8389 0.45515 -0.00767935
910600 60.1715 189.821 55.8389 0.45525 -0.0165157
910800 60.1715 189.834 55.8389 0.45535 -0.0256123
911000 60.1715 189.847 55.8389 0.45545 -0.0422269
911200 60.1715 189.86 55.8389 0.45555 -0.0308882
911400 60.1715 189.873 55.8389 0.45565 -0.0303725
911600 60.1715 189.886 55.8389 0.45575 0.00714728
911800 60.1715 189.899 55.8389 0.45585 0.0296394
912000 60.1715 189.912 55.8389 0.45595 0.0314093
912200 60.1715 189.925 55.8389 0.45605 0.00792766
912400 60.1715 189.938 55.8389 0.45615 0.0207142
912600 60.1715 189.951 55.8389 0.45625 0.0388206
912800 60.1715 189.964 55.8389 0.45635 0.0422719
913000 60.1715 189.977 55.8389 0.45645 0.0181768
913200 60.1715 189.99 55.8389 0.45655 0.0342042
913400 60.1715 190.003 55.8389 0.45665 0.0236008
913600 60.1715 190.016 55.8389 0.45675 0.0340608
913800 60.1715 190.029 55.8389 0.45685 -0.00430236
914000 60.1715 190.043 55.8389 0.45695 -0.0154857
914200 60.1715 190.056 55.8389 0.45705 0.00616024
914400 60.1715 190.069 55.8389 0.45715 -0.0258591
914600 60.1715 190.082 55.8389 0.45725 -0.0167998
914800 60.1715 190.095 55.8389 0.45735 -0.0197822
915000 60.1715 190.108 55.8389 0.45745 -0.0239399
915200 60.1715 190.121 55.8389 0.45755 -0.0184607
915400 60.1715 190.134 55.8389 0.45765 -0.0139382
915600 60.1715 190.147 55.8389 0.45775 0.0152848
915800 60.1715 190.16 55.8389 0.45785 0.00374394
916000 60.1715 190.173 55.8389 0.45795 0.00953569
916200 60.1715 190.186 55.8389 0.45805 0.0403273
916400 60.1715 190.199 55.8389 0.45815 0.0308232
916600 60.1715 190.212 55.8389 0.45825 0.0435543
916800 60.1715 190.225 55.8389 0.45835 0.0290564
917000 60.1715 190.238 55.8389 0.45845 0.00802111
917200 60.1715 190.251 55.8389 0.45855 0.060356
917400 60.1715 190.264 55.8389 0.45865 0.00835031
917600 60.1715 190.277 55.8389 0.45875 0.0174326
917800 60.1715 190.29 55.8389 0.45885 -0.00822693
918000 60.1715 190.303 55.8389 0.45895 -0.0133761
918200 60.1715 190.316 55.8389 0.45905 -0.00279373
918400 60.1715 190.33 55.8389 0.45915 -0.0262616
918600 60.1715 190.343 55.8389 0.45925 -0.0214114
918800 60.1715 190.356 55.8389 0.45935 -0.0214859
919000 60.1715 190.369 55.8389 0.45945 -0.00744167
919200 60.1715 190.382 55.8389 0.45955 -0.04463
919400 60.1715 190.395 55.8389 0.45965 0.00095662
919600 60.1715 190.408 55.8389 0.45975 0.00219846
919800 60.1715 190.421 55.8389 0.45985 0.0209606
920000 60.1715 190.434 55.8389 0.45995 0.0250092
920200 60.1715 190.447 55.8389 0.46005 0.0300004
920400 60.1715 190.46 55.8389 0.46015 0.0279278
920600 60.1715 190.473 55.8389 0.46025 0.0335017
920800 60.1715 190.486 55.8389 0.46035 0.0309474
921000 60.1715 190.499 55.8389 0.46045 0.0378173
921200 60.1715 190.512 55.8389 0.46055 0.0213959
921400 60.1715 190.525 55.8389 0.46065 -0.00935075
921600 60.1715 190.538 55.8389 0.46075 0.0328134
921800 60.1715 190.551 55.8389 0.46085 0.0147867
922000 60.1715 190.564 55.8389 0.46095 -0.0126116
922200 60.1715 190.577 55.8389 0.46105 -0.0222176
922400 60.1715 190.59 55.8389 0.46115 -0.0128118
922600 60.1715 190.603 55.8389 0.46125 -0.0155936
922800 60.1715 190.616 55.8389 0.46135 -0.0342975
923000 60.1715 190.63 55.8389 0.46145 -0.0257623
923200 60.1715 190.643 55.8389 0.46155 0.00783831
923400 60.1715 190.656 55.8389 0.46165 -0.00766951
923600 60.1715 190.669 55.8389 0.46175 0.0149128
923800 60.1715 190.682 55.8389 0.46185 0.016652
924000 60.1715 190.695 55.8389 0.46195 -0.00721767
924200 60.1715 190.708 55.8389 0.46205 0.0379031
924400 60.1715 190.721 55.8389 0.46215 0.0547041
924600 60.1715 190.734 55.8389 0.46225 0.0306806
924800 60.1715 190.747 55.8389 0.46235 0.0564395
925000 60.1715 190.76 55.8389 0.46245 0.0098663
925200 60.1715 190.773 55.8389 0.46255 0.0197873
925400 60.1715 190.786 55.8389 0.46265 0.00340158
925600 60.1715 190.799 55.8389 0.46275 -0.00412659
925800 60.1715 190.812 55.8389 0.46285 0.00332341
926000 60.1715 190.825 55.8389 0.46295 -0.0186963
926200 60.1715 190.838 55.8389 0.46305 -0.0259657
926400 60.1715 190.851 55.8389 0.46315 -0.0169965
926600 60.1715 190.864 55.8389 0.46325 -0.0358254
926800 60.1715 190.877 55.8389 0.46335 -0.0377587
927000 60.1715 190.89 55.8389 0.46345 -0.00242149
927200 60.1715 190.903 55.8389 0.46355 0.00502689
927400 60.1715 190.916 55.8389 0.46365 0.0153129
927600 60.1715 190.93 55.8389 0.46375 0.0120977
927800 60.1715 190.943 55.8389 0.46385 0.0203853
928000 60.1715 190.956 55.8389 0.46395 0.039965
928200 60.1715 190.969 55.8389 0.46405 0.0226418
928400 60.1715 190.982 55.8389 0.46415 0.0501471
928600 60.1715 190.995 55.8389 0.46425 0.0333839
928800 60.1715 191.008 55.8389 0.46435 0.0478324
929000 60.1715 191.021 55.8389 0.46445 0.026781
929200 60.1715 191.034 55.8389 0.46455 0.016755
929400 60.1715 191.047 55.8389 0.46465 -0.00666489
929600 60.1715 191.06 55.8389 0.46475 -0.0156167
929800 60.1715 191.073 55.8389 0.46485 -0.0155369
930000 60.1715 191.086 55.8389 0.46495 -0.0112764
930200 60.1715 191.099 55.8389 0.46505 -0.0301219
930400 60.1715 191.112 55.8389 0.46515 -0.0287951
930600 60.1715 191.125 55.8389 0.46525 -0.0326733
930800 60.1715 191.138 55.8389 0.46535 -0.0174429
931000 60.1715 191.151 55.8389 0.46545 -0.00447093
931200 60.1715 191.164 55.8389 0.46555 0.00689145
931400 60.1715 191.177 55.8389 0.46565 0.0165121
931600 60.1715 191.19 55.8389 0.46575 0.00290203
931800 60.1715 191.203 55.8389 0.46585 0.0425573
932000 60.1715 191.216 55.8389 0.46595 0.0359438
932200 60.1715 191.23 55.8389 0.46605 0.0429964
932400 60.1715 191.243 55.8389 0.46615 0.0289299
932600 60.1715 191.256 55.8389 0.46625 0.0434297
932800 60.1715 191.269 55.8389 0.46635 0.0306997
933000 60.1715 191.282 55.8389 0.46645 -0.000770043
933200 60.1715 191.295 55.8389 0.46655 -0.0148995
933400 60.1715 191.308 55.8389 0.46665 -0.000214929
933600 60.1715 191.321 55.8389 0.46675 -0.00124762
933800 60.1715 191.334 55.8389 0.46685 -0.00776778
934000 60.1715 191.347 55.8389 0.46695 -0.00670506
934200 60.1715 191.36 55.8389 0.46705 -0.0365083
934400 60.1715 191.373 55.8389 0.46715 -0.020864
934600 60.1715 191.386 55.8389 0.46725 0.00842662
934800 60.1715 191.399 55.8389 0.46735 -0.0132142
935000 60.1715 191.412 55.8389 0.46745 -0.00669076
935200 60.1715 191.425 55.8389 0.46755 0.0121558
935400 60.1715 191.438 55.8389 0.46765 0.0349229
935600 60.1715 191.451 55.8389 0.46775 0.0123805
935800 60.1715 191.464 55.8389 0.46785 0.0203131
936000 60.1715 191.477 55.8389 0.46795 0.0347781
936200 60.1715 191.49 55.8389 0.46805 0.0401507
936400 60.1715 191.503 55.8389 0.46815 0.0321499
936600 60.1715 191.516 55.8389 0.46825 -0.00920734
936800 60.1715 191.53 55.8389 0.46835 0.0398615
937000 60.1715 191.543 55.8389 0.46845 0.0122583
937200 60.1715 191.556 55.8389 0.46855 -0.0135209
937400 60.1715 191.569 55.8389 0.46865 -0.00358809
937600 60.1715 191.582 55.8389 0.46875 -0.0152756
937800 60.1715 191.595 55.8389 0.46885 -0.0144424
938000 60.1715 191.608 55.8389 0.46895 -0.0156548
938200 60.1715 191.621 55.8389 0.46905 -0.0158108
938400 60.1715 191.634 55.8389 0.46915 -0.00850124
938600 60.1715 191.647 55.8389 0.46925 -0.0139775
938800 60.1715 191.66 55.8389 0.46935 0.00404889
939000 60.1715 191.673 55.8389 0.46945 -0.00889775
939200 60.1715 191.686 55.8389 0.46955 -0.000138048
939400 60.1715 191.699 55.8389 0.46965 0.0243541
939600 60.1715 191.712 55.8389 0.46975 0.0280795
939800 60.1715 191.725 55.8389 0.46985 0.0413779
940000 60.1715 191.738 55.8389 0.46995 0.0124367
940200 60.1715 191.751 55.8389 0.47005 0.0442248
940400 60.1715 191.764 55.8389 0.47015 0.0194501
940600 60.1715 191.777 55.8389 0.47025 0.0274993
940800 60.1715 191.79 55.8389 0.47035 0.010742
941000 60.1715 191.803 55.8389 0.47045 0.0192286
941200 60.1715 191.817 55.8389 0.47055 -0.0169196
941400 60.1715 191.83 55.8389 0.47065 -0.0147201
941600 60.1715 191.843 55.8389 0.47075 -0.0043344
941800 60.1715 191.856 55.8389 0.47085 -0.00664032
942000 60.1715 191.869 55.8389 0.47095 -0.025256
942200 60.1715 191.882 55.8389 0.47105 -0.0120543
942400 60.1715 191.895 55.8389 0.47115 -0.00266053
942600 60.1715 191.908 55.8389 0.47125 -0.00185942
942800 60.1715 191.921 55.8389 0.47135 -0.00811536
943000 60.1715 191.934 55.8389 0.47145 0.0221687
943200 60.1715 191.947 55.8389 0.47155 0.00139256
943400 60.1715 191.96 55.8389 0.47165 0.0183047
943600 60.1715 191.973 55.8389 0.47175 0.0409499
943800 60.1715 191.986 55.8389 0.47185 0.0142003
944000 60.1715 191.999 55.8389 0.47195 0.0374774
944200 60.1715 192.012 55.8389 0.47205 0.0120677
944400 60.1715 192.025 55.8389 0.47215 0.000447717
944600 60.1715 192.038 55.8389 0.47225 0.0195487
944800 60.1715 192.051 55.8389 0.47235 0.037942
945000 60.1715 192.064 55.8389 0.47245 -0.0247082
945200 60.1715 192.077 55.8389 0.47255 -0.00807795
945400 60.1715 192.09 55.8389 0.47265 0.0317464
945600 60.1715 192.103 55.8389 0.47275 -0.0428172
945800 60.1715 192.117 55.8389 0.47285 0.000453626
946000 60.1715 192.13 55.8389 0.47295 -0.0244796
946200 60.1715 192.143 55.8389 0.47305 -0.00422973
946400 60.1715 192.156 55.8389 0.47315 -0.0103468
946600 60.1715 192.169 55.8389 0.47325 0.00724594
946800 60.1715 192.182 55.8389 0.47335 0.0110115
947000 60.1715 192.195 55.8389 0.47345 -0.0061837
947200 60.1715 192.208 55.8389 0.47355 0.0167814
947400 60.1715 192.221 55.8389 0.47365 0.0325448
947600 60.1715 192.234 55.8389 0.47375 0.0109445
947800 60.1715 192.247 55.8389 0.47385 0.0217219
948000 60.1715 192.26 55.8389 0.47395 0.0285355
948200 60.1715 192.273 55.8389 0.47405 0.0280263
948400 60.1715 192.286 55.8389 0.47415 0.0161641
948600 60.1715 192.299 55.8389 0.47425 0.00206112
948800 60.1715 192.312 55.8389 0.47435 0.0153788
949000 60.1715 192.325 55.8389 0.47445 0.0217013
949200 60.1715 192.338 55.8389 0.47455 -0.012563
949400 60.1715 192.351 55.8389 0.47465 -0.00681738
949600 60.1715 192.364 55.8389 0.47475 -0.0143292
949800 60.1715 192.377 55.8389 0.47485 -0.00832977
950000 60.1715 192.39 55.8389 0.47495 0.00758346
950200 60.1715 192.403 55.8389 0.47505 -0.0131032
950400 60.1715 192.417 55.8389 0.47515 -0.0275869
950600 60.1715 192.43 55.8389 0.47525 0.02747
950800 60.1715 192.443 55.8389 0.47535 0.000268364
951000 60.1715 192.456 55.8389 0.47545 -0.0102473
951200 60.1715 192.469 55.8389 0.47555 0.00616196
951400 60.1715 192.482 55.8389 0.47565 0.00951585
951600 60.1715 192.495 55.8389 0.47575 0.0268962
951800 60.1715 192.508 55.8389 0.47585 0.0112198
952000 60.1715 192.521 55.8389 0.47595 0.024179
952200 60.1715 192.534 55.8389 0.47605 0.0234594
952400 60.1715 192.547 55.8389 0.47615 0.014655
952600 60.1715 192.56 55.8389 0.47625 0.0403546
952800 60.1715 192.573 55.8389 0.47635 0.00788794
953000 60.1715 192.586 55.8389 0.47645 0.00295469
953200 60.1715 192.599 55.8389 0.47655 0.00423448
953400 60.1715 192.612 55.8389 0.47665 -0.018638
953600 60.1715 192.625 55.8389 0.47675 -0.00579083
953800 60.1715 192.638 55.8389 0.47685 -0.00561816
954000 60.1715 192.651 55.8389 0.47695 -0.000828731
954200 60.1715 192.664 55.8389 0.47705 -0.00516938
954400 60.1715 192.677 55.8389 0.47715 -0.019879
954600 60.1715 192.69 55.8389 0.47725 -0.0229925
954800 60.1715 192.703 55.8389 0.47735 0.00447791
955000 60.1715 192.717 55.8389 0.47745 0.0270827
955200 60.1715 192.73 55.8389 0.47755 0.0304978
955400 60.1715 192.743 55.8389 0.47765 0.00318736
955600 60.1715 192.756 55.8389 0.47775 0.0263426
955800 60.1715 192.769 55.8389 0.47785 0.0105831
956000 60.1715 192.782 55.8389 0.47795 0.0307957
956200 60.1715 192.795 55.8389 0.47805 0.0242366
956400 60.1715 192.808 55.8389 0.47815 0.0117989
956600 60.1715 192.821 55.8389 0.47825 0.0362705
956800 60.1715 192.834 55.8389 0.47835 0.0158035
957000 60.1715 192.847 55.8389 0.47845 -0.0125922
957200 60.1715 192.86 55.8389 0.47855 0.00212908
957400 60.1715 192.873 55.8389 0.47865 -0.0360129
957600 60.1715 192.886 55.8389 0.47875 -0.00444643
957800 60.1715 192.899 55.8389 0.47885 -0.00854221
958000 60.1715 192.912 55.8389 0.47895 0.0107294
958200 60.1715 192.925 55.8389 0.47905 -0.0201076
958400 60.1715 192.938 55.8389 0.47915 -0.0152366
958600 60.1715 192.951 55.8389 0.47925 -0.0150292
958800 60.1715 192.964 55.8389 0.47935 0.00716771
959000 60.1715 192.977 55.8389 0.47945 0.0140568
959200 60.1715 192.99 55.8389 0.47955 -0.00289252
959400 60.1715 193.003 55.8389 0.47965 0.0534478
959600 60.1715 193.017 55.8389 0.47975 0.0195192
959800 60.1715 193.03 55.8389 0.47985 0.0302688
960000 60.1715 193.043 55.8389 0.47995 -0.00859342
960200 60.1715 193.056 55.8389 0.48005 0.0268964
960400 60.1715 193.069 55.8389 0.48015 0.0248468
960600 60.1715 193.082 55.8389 0.48025 0.0285584
960800 60.1715 193.095 55.8389 0.48035 0.0228697
961000 60.1715 193.108 55.8389 0.48045 -0.00869861
961200 60.1715 193.121 55.8389 0.48055 -0.00416745
961400 60.1715 193.134 55.8389 0.48065 -0.0289831
961600 60.1715 193.147 55.8389 0.48075 -0.020774
961800 60.1715 193.16 55.8389 0.48085 0.00515952
962000 60.1715 193.173 55.8389 0.48095 0.000261212
962200 60.1715 193.186 55.8389 0.48105 0.0073368
962400 60.1715 193.199 55.8389 0.48115 -0.00929921
962600 60.1715 193.212 55.8389 0.48125 0.000733826
962800 60.1715 193.225 55.8389 0.48135 -0.0083077
963000 60.1715 193.238 55.8389 0.48145 0.00481693
963200 60.1715 193.251 55.8389 0.48155 0.00895463
963400 60.1715 193.264 55.8389 0.48165 0.0360635
963600 60.1715 193.277 55.8389 0.48175 0.0378837
963800 60.1715 193.29 55.8389 0.48185 0.0167452
964000 60.1715 193.304 55.8389 0.48195 0.00883813
964200 60.1715 193.317 55.8389 0.48205 0.00668812
964400 60.1715 193.33 55.8389 0.48215 0.0179325
964600 60.1715 193.343 55.8389 0.48225 0.00121371
964800 60.1715 193.356 55.8389 0.48235 0.0173415
965000 60.1715 193.369 55.8389 0.48245 0.0118072
965200 60.1715 193.382 55.8389 0.48255 -0.00418969
965400 60.1715 193.395 55.8389 0.48265 -0.00460811
965600 60.1715 193.408 55.8389 0.48275 -0.0248335
965800 60.1715 193.421 55.8389 0.48285 -0.013348
966000 60.1715 193.434 55.8389 0.48295 -0.00437849
966200 60.1715 193.447 55.8389 0.48305 -0.00562665
966400 60.1715 193.46 55.8389 0.48315 0.00995731
966600 60.1715 193.473 55.8389 0.48325 -0.00314958
966800 60.1715 193.486 55.8389 0.48335 0.00836994
967000 60.1715 193.499 55.8389 0.48345 -0.00960704
967200 60.1715 193.512 55.8389 0.48355 0.0203748
967400 60.1715 193.525 55.8389 0.48365 0.0328698
967600 60.1715 193.538 55.8389 0.48375 0.0288744
967800 60.1715 193.551 55.8389 0.48385 0.0201348
968000 60.1715 193.564 55.8389 0.48395 0.027674
968200 60.1715 193.577 55.8389 0.48405 0.00948167
968400 60.1715 193.59 55.8389 0.48415 0.0201155
968600 60.1715 193.604 55.8389 0.48425 -0.0082733
968800 60.1715 193.617 55.8389 0.48435 0.015327
969000 60.1715 193.63 55.8389 0.48445 0.00321672
969200 60.1715 193.643 55.8389 0.48455 0.00226688
969400 60.1715 193.656 55.8389 0.48465 -0.00925098
969600 60.1715 193.669 55.8389 0.48475 -0.0128932
969800 60.1715 193.682 55.8389 0.48485 -0.0140245
970000 60.1715 193.695 55.8389 0.48495 -0.0084878
970200 60.1715 193.708 55.8389 0.48505 0.000505195
970400 60.1715 193.721 55.8389 0.48515 0.0112534
970600 60.1715 193.734 55.8389 0.48525 0.0074735
970800 60.1715 193.747 55.8389 0.48535 -0.00468614
971000 60.1715 193.76 55.8389 0.48545 0.0110789
971200 60.1715 193.773 55.8389 0.48555 0.00982621
971400 60.1715 193.786 55.8389 0.48565 0.00163378
971600 60.1715 193.799 55.8389 0.48575 0.0212813
971800 60.1715 193.812 55.8389 0.48585 0.0255662
972000 60.1715 193.825 55.8389 0.48595 0.0342021
972200 60.1715 193.838 55.8389 0.48605 0.00644279
972400 60.1715 193.851 55.8389 0.48615 0.0162536
972600 60.1715 193.864 55.8389 0.48625 -0.00856333
972800 60.1715 193.877 55.8389 0.48635 0.00635917
973000 60.1715 193.89 55.8389 0.48645 0.0039316
973200 60.1715 193.904 55.8389 0.48655 0.00550489
973400 60.1715 193.917 55.8389 0.48665 -0.0140522
973600 60.1715 193.93 55.8389 0.48675 0.0153062
973800 60.1715 193.943 55.8389 0.48685 -0.00703021
974000 60.1715 193.956 55.8389 0.48695 -0.0459992
974200 60.1715 193.969 55.8389 0.48705 0.000142335
974400 60.1715 193.982 55.8389 0.48715 0.0137158
974600 60.1715 193.995 55.8389 0.48725 0.0212126
974800 60.1715 194.008 55.8389 0.48735 0.00387148
975000 60.1715 194.021 55.8389 0.48745 0.027789
975200 60.1715 194.034 55.8389 0.48755 0.0165617
975400 60.1715 194.047 55.8389 0.48765 0.00711811
975600 60.1715 194.06 55.8389 0.48775 0.0209682
975800 60.1715 194.073 55.8389 0.48785 0.025402
976000 60.1715 194.086 55.8389 0.48795 0.0327428
976200 60.1715 194.099 55.8389 0.48805 0.00718606
976400 60.1715 194.112 55.8389 0.48815 0.00529043
976600 60.1715 194.125 55.8389 0.48825 0.00385294
976800 60.1715 194.138 55.8389 0.48835 -0.0188216
977000 60.1715 194.151 55.8389 0.48845 0.00448631
977200 60.1715 194.164 55.8389 0.48855 -0.00760863
977400 60.1715 194.177 55.8389 0.48865 0.00081215
977600 60.1715 194.19 55.8389 0.48875 0.0029403
977800 60.1715 194.204 55.8389 0.48885 -0.0332555
978000 60.1715 194.217 55.8389 0.48895 -0.0139552
978200 60.1715 194.23 55.8389 0.48905 0.00392243
978400 60.1715 194.243 55.8389 0.48915 0.0117038
978600 60.1715 194.256 55.8389 0.48925 0.0100028
978800 60.1715 194.269 55.8389 0.48935 -0.000302868
979000 60.1715 194.282 55.8389 0.48945 0.0377098
979200 60.1715 194.295 55.8389 0.48955 0.00894715
979400 60.1715 194.308 55.8389 0.48965 0.0331147
979600 60.1715 194.321 55.8389 0.48975 0.0339439
979800 60.1715 194.334 55.8389 0.48985 0.0269758
980000 60.1715 194.347 55.8389 0.48995 0.00895698
980200 60.1715 194.36 55.8389 0.49005 0.0150584
980400 60.1715 194.373 55.8389 0.49015 -0.0150357
980600 60.1715 194.386 55.8389 0.49025 -0.00126695
980800 60.1715 194.399 55.8389 0.49035 -0.0270519
981000 60.1715 194.412 55.8389 0.49045 0.0111139
981200 60.1715 194.425 55.8389 0.49055 -0.010479
981400 60.1715 194.438 55.8389 0.49065 -0.00194992
981600 60.1715 194.451 55.8389 0.49075 -0.0176201
981800 60.1715 194.464 55.8389 0.49085 -0.0023293
982000 60.1715 194.477 55.8389 0.49095 0.0110606
982200 60.1715 194.49 55.8389 0.49105 0.0117934
982400 60.1715 194.504 55.8389 0.49115 0.0143153
982600 60.1715 194.517 55.8389 0.49125 0.0101003
982800 60.1715 194.53 55.8389 0.49135 0.0112688
983000 60.1715 194.543 55.8389 0.49145 0.0306244
983200 60.1715 194.556 55.8389 0.49155 0.0225353
983400 60.1715 194.569 55.8389 0.49165 0.0114247
983600 60.1715 194.582 55.8389 0.49175 0.0445344
983800 60.1715 194.595 55.8389 0.49185 0.00625524
984000 60.1715 194.608 55.8389 0.49195 -0.0120527
984200 60.1715 194.621 55.8389 0.49205 0.0167183
984400 60.1715 194.634 55.8389 0.49215 0.00638507
984600 60.1715 194.647 55.8389 0.49225 -0.0323758
984800 60.1715 194.66 55.8389 0.49235 -0.0137137
985000 60.1715 194.673 55.8389 0.49245 -0.0180188
985200 60.1715 194.686 55.8389 0.49255 -0.00927084
985400 60.1715 194.699 55.8389 0.49265 -0.0111094
985600 60.1715 194.712 55.8389 0.49275 0.00604366
985800 60.1715 194.725 55.8389 0.49285 -0.00302612
986000 60.1715 194.738 55.8389 0.49295 0.0196838
986200 60.1715 194.751 55.8389 0.49305 0.022386
986400 60.1715 194.764 55.8389 0.49315 0.0278556
986600 60.1715 194.777 55.8389 0.49325 0.00607231
986800 60.1715 194.791 55.8389 0.49335 0.0216113
987000 60.1715 194.804 55.8389 0.49345 0.0228931
987200 60.1715 194.817 55.8389 0.49355 0.0351838
987400 60.1715 194.83 55.8389 0.49365 0.0201646
987600 60.1715 194.843 55.8389 0.49375 0.00205273
987800 60.1715 194.856 55.8389 0.49385 0.0151492
988000 60.1715 194.869 55.8389 0.49395 -0.00972804
988200 60.1715 194.882 55.8389 0.49405 -0.00243525
988400 60.1715 194.895 55.8389 0.49415 -0.00674602
988600 60.1715 194.908 55.8389 0.49425 -0.00351039
988800 60.1715 194.921 55.8389 0.49435 -0.0215895
989000 60.1715 194.934 55.8389 0.49445 -0.017734
989200 60.1715 194.947 55.8389 0.49455 0.00410032
989400 60.1715 194.96 55.8389 0.49465 -0.0190078
989600 60.1715 194.973 55.8389 0.49475 0.00869355
989800 60.1715 194.986 55.8389 0.49485 0.0186033
990000 60.1715 194.999 55.8389 0.49495 0.0231233
990200 60.1715 195.012 55.8389 0.49505 0.00520781
990400 60.1715 195.025 55.8389 0.49515 0.0259776
990600 60.1715 195.038 55.8389 0.49525 0.0204205
990800 60.1715 195.051 55.8389 0.49535 0.0258107
991000 60.1715 195.064 55.8389 0.49545 0.022428
991200 60.1715 195.077 55.8389 0.49555 0.0098654
991400 60.1715 195.091 55.8389 0.49565 0.0153422
991600 60.1715 195.104 55.8389 0.49575 -0.00227186
991800 60.1715 195.117 55.8389 0.49585 0.00485448
992000 60.1715 195.13 55.8389 0.49595 0.0114539
992200 60.1715 195.143 55.8389 0.49605 -0.0195287
992400 60.1715 195.156 55.8389 0.49615 -0.00459736
992600 60.1715 195.169 55.8389 0.49625 -0.00333123
992800 60.1715 195.182 55.8389 0.49635 -0.0099624
993000 60.1715 195.195 55.8389 0.49645 -0.0131422
993200 60.1715 195.208 55.8389 0.49655 -0.0132405
993400 60.1715 195.221 55.8389 0.49665 0.00380722
993600 60.1715 195.234 55.8389 0.49675 -0.00690788
993800 60.1715 195.247 55.8389 0.49685 0.00968935
994000 60.1715 195.26 55.8389 0.49695 0.00836799
994200 60.1715 195.273 55.8389 0.49705 0.0285677
994400 60.1715 195.286 55.8389 0.49715 0.0307021
994600 60.1715 195.299 55.8389 0.49725 0.0304
994800 60.1715 195.312 55.8389 0.49735 0.027417
995000 60.1715 195.325 55.8389 0.49745 0.0273705
995200 60.1715 195.338 55.8389 0.49755 0.0242922
995400 60.1715 195.351 55.8389 0.49765 0.0166746
995600 60.1715 195.364 55.8389 0.49775 0.0183914
995800 60.1715 195.377 55.8389 0.49785 0.00102114
996000 60.1715 195.391 55.8389 0.49795 -0.00749556
996200 60.1715 195.404 55.8389 0.49805 -0.0109099
996400 60.1715 195.417 55.8389 0.49815 -0.0111204
996600 60.1715 195.43 55.8389 0.49825 -0.0400274
996800 60.1715 195.443 55.8389 0.49835 -0.0120675
997000 60.1715 195.456 55.8389 0.49845 -0.000949485
997200 60.1715 195.469 55.8389 0.49855 -0.0103863
997400 60.1715 195.482 55.8389 0.49865 -0.00404915
997600 60.1715 195.495 55.8389 0.49875 0.00478071
997800 60.1715 195.508 55.8389 0.49885 0.0155281
998000 60.1715 195.521 55.8389 0.49895 -0.00431883
998200 60.1715 195.534 55.8389 0.49905 0.0160922
998400 60.1715 195.547 55.8389 0.49915 0.0521989
998600 60.1715 195.56 55.8389 0.49925 0.027457
998800 60.1715 195.573 55.8389 0.49935 0.0325014
999000 60.1715 195.586 55.8389 0.49945 0.00879497
999200 60.1715 195.599 55.8389 0.49955 0.0103434
999400 60.1715 195.612 55.8389 0.49965 0.00323706
999600 60.1715 195.625 55.8389 0.49975 0.0349366
999800 60.1715 195.638 55.8389 0.49985 -0.000571773
1000000 60.1715 195.651 55.8389 0.49995 -0.00727773
1000200 60.1715 195.664 55.8389 0.50005 -0.0154778
1000400 60.1715 195.677 55.8389 0.50015 -0.0178769
1000600 60.1715 195.691 55.8389 0.50025 -0.0113829
1000800 60.1715 195.704 55.8389 0.50035 -0.022532
1001000 60.1715 195.717 55.8389 0.50045 0.000865165
1001200 60.1715 195.73 55.8389 0.50055 -0.00991017
1001400 60.1715 195.743 55.8389 0.50065 -0.0139098
1001600 60.1715 195.756 55.8389 0.50075 0.0189341
1001800 60.1715 195.769 55.8389 0.50085 0.0266892
1002000 60.1715 195.782 55.8389 0.50095 0.0312592
1002200 60.1715 195.795 55.8389 0.50105 0.0281222
1002400 60.1715 195.808 55.8389 0.50115 0.0129964
1002600 60.1715 195.821 55.8389 0.50125 0.0314253
1002800 60.1715 195.834 55.8389 0.50135 0.0199377
1003000 60.1715 195.847 55.8389 0.50145 0.0314312
1003200 60.1715 195.86 55.8389 0.50155 0.000901083
1003400 60.1715 195.873 55.8389 0.50165 0.0206368
1003600 60.1715 195.886 55.8389 0.50175 -0.00714216
1003800 60.1715 195.899 55.8389 0.50185 -0.0138195
1004000 60.1715 195.912 55.8389 0.50195 0.000501642
1004200 60.1715 195.925 55.8389 0.50205 -0.021019
1004400 60.1715 195.938 55.8389 0.50215 0.000343486
1004600 60.1715 195.951 55.8389 0.50225 -0.0173133
1004800 60.1715 195.964 55.8389 0.50235 -0.0237214
1005000 60.1715 195.977 55.8389 0.50245 -0.00985694
1005200 60.1715 195.991 55.8389 0.50255 0.0101687
1005400 60.1715 196.004 55.8389 0.50265 0.0195826
1005600 60.1715 196.017 55.8389 0.50275 -0.0127342
1005800 60.1715 196.03 55.8389 0.50285 0.0183964
1006000 60.1715 196.043 55.8389 0.50295 0.000916469
1006200 60.1715 196.056 55.8389 0.50305 0.0400881
1006400 60.1715 196.069 55.8389 0.50315 0.0218124
1006600 60.1715 196.082 55.8389 0.50325 0.0204438
1006800 60.1715 196.095 55.8389 0.50335 0.0376013
1007000 60.1715 196.108 55.8389 0.50345 0.0217621
1007200 60.1715 196.121 55.8389 0.50355 0.0123699
1007400 60.1715 196.134 55.8389 0.50365 0.0209612
1007600 60.1715 196.147 55.8389 0.50375 0.0181289
1007800 60.1715 196.16 55.8389 0.50385 -0.00115818
1008000 60.1715 196.173 55.8389 0.50395 -0.0149182
1008200 60.1715 196.186 55.8389 0.50405 -0.00632396
1008400 60.1715 196.199 55.8389 0.50415 0.00430983
1008600 60.1715 196.212 55.8389 0.50425 -0.0170971
1008800 60.1715 196.225 55.8389 0.50435 -0.0133453
1009000 60.1715 196.238 55.8389 0.50445 -0.0214636
1009200 60.1715 196.251 55.8389 0.50455 -0.0206322
1009400 60.1715 196.264 55.8389 0.50465 0.00288775
1009600 60.1715 196.278 55.8389 0.50475 0.00583572
1009800 60.1715 196.291 55.8389 0.50485 0.0133361
1010000 60.1715 196.304 55.8389 0.50495 0.0206095
1010200 60.1715 196.317 55.8389 0.50505 -9.38654e-05
1010400 60.1715 196.33 55.8389 0.50515 0.0301572
1010600 60.1715 196.343 55.8389 0.50525 0.0329629
1010800 60.1715 196.356 55.8389 0.50535 0.0101514
1011000 60.1715 196.369 55.8389 0.50545 0.0258255
1011200 60.1715 196.382 55.8389 0.50555 0.0290176
1011400 60.1715 196.395 55.8389 0.50565 0.00410429
1011600 60.1715 196.408 55.8389 0.50575 0.0172001
1011800 60.1715 196.421 55.8389 0.50585 -0.00752154
1012000 60.1715 196.434 55.8389 0.50595 -0.00952235
1012200 60.1715 196.447 55.8389 0.50605 0.00404167
1012400 60.1715 196.46 55.8389 0.50615 -0.0116971
1012600 60.1715 196.473 55.8389 0.50625 -0.00950884
1012800 60.1715 196.486 55.8389 0.50635 -0.0108528
1013000 60.1715 196.499 55.8389 0.50645 -0.00717235
1013200 60.1715 196.512 55.8389 0.50655 -0.00619848
1013400 60.1715 196.525 55.8389 0.50665 -0.00551374
1013600 60.1715 196.538 55.8389 0.50675 -0.00770877
1013800 60.1715 196.551 55.8389 0.50685 0.0277517
1014000 60.1715 196.564 55.8389 0.50695 0.0240402
1014200 60.1715 196.578 55.8389 0.50705 0.011662
1014400 60.1715 196.591 55.8389 0.50715 0.0168014
1014600 60.1715 196.604 55.8389 0.50725 0.0233001
1014800 60.1715 196.617 55.8389 0.50735 0.0302561
1015000 60.1715 196.63 55.8389 0.50745 0.0216999
1015200 60.1715 196.643 55.8389 0.50755 0.024984
1015400 60.1715 196.656 55.8389 0.50765 0.0206865
1015600 60.1715 196.669 55.8389 0.50775 -0.00548213
1015800 60.1715 196.682 55.8389 0.50785 0.0239179
1016000 60.1715 196.695 55.8389 0.50795 -0.0127971
1016200 60.1715 196.708 55.8389 0.50805 -0.00797603
1016400 60.1715 196.721 55.8389 0.50815 -0.0109745
1016600 60.1715 196.734 55.8389 0.50825 -0.00268076
1016800 60.1715 196.747 55.8389 0.50835 -0.0105977
1017000 60.1715 196.76 55.8389 0.50845 -0.0210132
1017200 60.1715 196.773 55.8389 0.50855 -0.0265051
1017400 60.1715 196.786 55.8389 0.50865 0.00414621
1017600 60.1715 196.799 55.8389 0.50875 -0.00385145
1017800 60.1715 196.812 55.8389 0.50885 0.0121134
1018000 60.1715 196.825 55.8389 0.50895 0.0118267
1018200 60.1715 196.838 55.8389 0.50905 0.0316951
1018400 60.1715 196.851 55.8389 0.50915 0.0135196
1018600 60.1715 196.864 55.8389 0.50925 0.0151428
1018800 60.1715 196.878 55.8389 0.50935 0.0148586
1019000 60.1715 196.891 55.8389 0.50945 0.0397741
1019200 60.1715 196.904 55.8389 0.50955 0.0275707
1019400 60.1715 196.917 55.8389 0.50965 0.00758366
1019600 60.1715 196.93 55.8389 0.50975 0.0130136
1019800 60.1715 196.943 55.8389 0.50985 -0.000921894
1020000 60.1715 196.956 55.8389 0.50995 0.00276562
1020200 60.1715 196.969 55.8389 0.51005 -0.0204921
1020400 60.1715 196.982 55.8389 0.51015 -0.00328288
1020600 60.1715 196.995 55.8389 0.51025 -0.0106034
1020800 60.1715 197.008 55.8389 0.51035 0.00130863
1021000 60.1715 197.021 55.8389 0.51045 -0.0212413
1021200 60.1715 197.034 55.8389 0.51055 0.00659956
1021400 60.1715 197.047 55.8389 0.51065 0.00120675
1021600 60.1715 197.06 55.8389 0.51075 0.00169356
1021800 60.1715 197.073 55.8389 0.51085 0.0141182
1022000 60.1715 197.086 55.8389 0.51095 0.0213775
1022200 60.1715 197.099 55.8389 0.51105 0.0277023
1022400 60.1715 197.112 55.8389 0.51115 0.014967
1022600 60.1715 197.125 55.8389 0.51125 0.020911
1022800 60.1715 197.138 55.8389 0.51135 0.022116
1023000 60.1715 197.151 55.8389 0.51145 0.026989
1023200 60.1715 197.164 55.8389 0.51155 0.0156839
1023400 60.1715 197.178 55.8389 0.51165 0.0103122
1023600 60.1715 197.191 55.8389 0.51175 -0.0105363
1023800 60.1715 197.204 55.8389 0.51185 -0.0072618
1024000 60.1715 197.217 55.8389 0.51195 0.00776088
1024200 60.1715 197.23 55.8389 0.51205 -0.0101029
1024400 60.1715 197.243 55.8389 0.51215 -0.0232366
1024600 60.1715 197.256 55.8389 0.51225 -0.00737917
1024800 60.1715 197.269 55.8389 0.51235 -0.00868226
1025000 60.1715 197.282 55.8389 0.51245 -0.0193069
1025200 60.1715 197.295 55.8389 0.51255 -0.00756972
1025400 60.1715 197.308 55.8389 0.51265 0.00921937
1025600 60.1715 197.321 55.8389 0.51275 0.00404323
1025800 60.1715 197.334 55.8389 0.51285 0.026325
1026000 60.1715 197.347 55.8389 0.51295 0.0211492
1026200 60.1715 197.36 55.8389 0.51305 0.0347603
1026400 60.1715 197.373 55.8389 0.51315 0.0256759
1026600 60.1715 197.386 55.8389 0.51325 0.0188991
1026800 60.1715 197.399 55.8389 0.51335 0.0207552
1027000 60.1715 197.412 55.8389 0.51345 0.0148865
1027200 60.1715 197.425 55.8389 0.51355 0.0209072
1027400 60.1715 197.438 55.8389 0.51365 0.00830069
1027600 60.1715 197.451 55.8389 0.51375 0.00316313
1027800 60.1715 197.464 55.8389 0.51385 -0.0129303
1028000 60.1715 197.478 55.8389 0.51395 -0.0280428
1028200 60.1715 197.491 55.8389 0.51405 0.000504335
1028400 60.1715 197.504 55.8389 0.51415 0.00206634
1028600 60.1715 197.517 55.8389 0.51425 0.000845722
1028800 60.1715 197.53 55.8389 0.51435 -0.0173302
1029000 60.1715 197.543 55.8389 0.51445 0.000368846
1029200 60.1715 197.556 55.8389 0.51455 -0.0170726
1029400 60.1715 197.569 55.8389 0.51465 0.0171913
1029600 60.1715 197.582 55.8389 0.51475 0.00895077
1029800 60.1715 197.595 55.8389 0.51485 0.0269881
1030000 60.1715 197.608 55.8389 0.51495 0.0182478
1030200 60.1715 197.621 55.8389 0.51505 0.0310394
1030400 60.1715 197.634 55.8389 0.51515 0.00601304
1030600 60.1715 197.647 55.8389 0.51525 0.0201562
1030800 60.1715 197.66 55.8389 0.51535 0.00504258
1031000 60.1715 197.673 55.8389 0.51545 0.00561215
1031200 60.1715 197.686 55.8389 0.51555 0.00862914
1031400 60.1715 197.699 55.8389 0.51565 0.013605
1031600 60.1715 197.712 55.8389 0.51575 -0.0135126
1031800 60.1715 197.725 55.8389 0.51585 0.00968963
1032000 60.1715 197.738 55.8389 0.51595 0.00496794
1032200 60.1715 197.751 55.8389 0.51605 -0.00957186
1032400 60.1715 197.765 55.8389 0.51615 0.000514474
1032600 60.1715 197.778 55.8389 0.51625 0.0134046
1032800 60.1715 197.791 55.8389 0.51635 -0.000314271
1033000 60.1715 197.804 55.8389 0.51645 -0.00106416
1033200 60.1715 197.817 55.8389 0.51655 0.0050141
1033400 60.1715 197.83 55.8389 0.51665 -0.00422711
1033600 60.1715 197.843 55.8389 0.51675 0.0159156
1033800 60.1715 197.856 55.8389 0.51685 0.0220426
1034000 60.1715 197.869 55.8389 0.51695 -0.00421699
1034200 60.1715 197.882 55.8389 0.51705 0.0128003
1034400 60.1715 197.895 55.8389 0.51715 -0.000854393
1034600 60.1715 197.908 55.8389 0.51725 0.0135994
1034800 60.1715 197.921 55.8389 0.51735 0.018829
1035000 60.1715 197.934 55.8389 0.51745 0.0193596
1035200 60.1715 197.947 55.8389 0.51755 0.0177427
1035400 60.1715 197.96 55.8389 0.51765 -0.0160055
1035600 60.1715 197.973 55.8389 0.51775 0.00199467
1035800 60.1715 197.986 55.8389 0.51785 0.0138624
1036000 60.1715 197.999 55.8389 0.51795 -0.0165645
1036200 60.1715 198.012 55.8389 0.51805 0.0203829
1036400 60.1715 198.025 55.8389 0.51815 0.0109764
1036600 60.1715 198.038 55.8389 0.51825 -0.00450532
1036800 60.1715 198.051 55.8389 0.51835 0.00988348
1037000 60.1715 198.065 55.8389 0.51845 -0.00929294
1037200 60.1715 198.078 55.8389 0.51855 0.016138
1037400 60.1715 198.091 55.8389 0.51865 0.0012471
1037600 60.1715 198.104 55.8389 0.51875 0.00514997
1037800 60.1715 198.117 55.8389 0.51885 0.00863151
1038000 60.1715 198.13 55.8389 0.51895 -0.00660363
1038200 60.1715 198.143 55.8389 0.51905 0.0101699
1038400 60.1715 198.156 55.8389 0.51915 0.00232946
1038600 60.1715 198.169 55.8389 0.51925 0.0147063
1038800 60.1715 198.182 55.8389 0.51935 -0.00133179
1039000 60.1715 198.195 55.8389 0.51945 0.00263848
1039200 60.1715 198.208 55.8389 0.51955 0.0103968
1039400 60.1715 198.221 55.8389 0.51965 0.00311917
1039600 60.1715 198.234 55.8389 0.51975 0.00863462
1039800 60.1715 198.247 55.8389 0.51985 0.00874113
1040000 60.1715 198.26 55.8389 0.51995 0.0150061
1040200 60.1715 198.273 55.8389 0.52005 0.0187979
1040400 60.1715 198.286 55.8389 0.52015 0.00581363
1040600 60.1715 198.299 55.8389 0.52025 0.0098253
1040800 60.1715 198.312 55.8389 0.52035 0.0321344
1041000 60.1715 198.325 55.8389 0.52045 0.0155753
1041200 60.1715 198.338 55.8389 0.52055 -0.0138867
1041400 60.1715 198.351 55.8389 0.52065 -0.00121033
1041600 60.1715 198.365 55.8389 0.52075 0.0169818
1041800 60.1715 198.378 55.8389 0.52085 -0.00223288
1042000 60.1715 198.391 55.8389 0.52095 -0.00160305
1042200 60.1715 198.404 55.8389 0.52105 0.00128072
1042400 60.1715 198.417 55.8389 0.52115 -0.00340517
1042600 60.1715 198.43 55.8389 0.52125 0.0234944
1042800 60.1715 198.443 55.8389 0.52135 -0.00602235
1043000 60.1715 198.456 55.8389 0.52145 -0.00451605
1043200 60.1715 198.469 55.8389 0.52155 -0.00278
1043400 60.1715 198.482 55.8389 0.52165 0.01256
1043600 60.1715 198.495 55.8389 0.52175 0.00604192
1043800 60.1715 198.508 55.8389 0.52185 -0.00504101
1044000 60.1715 198.521 55.8389 0.52195 0.023719
1044200 60.1715 198.534 55.8389 0.52205 0.00685096
1044400 60.1715 198.547 55.8389 0.52215 0.0152561
1044600 60.1715 198.56 55.8389 0.52225 0.0129242
1044800 60.1715 198.573 55.8389 0.52235 -0.0126044
1045000 60.1715 198.586 55.8389 0.52245 0.00869118
1045200 60.1715 198.599 55.8389 0.52255 0.0116625
1045400 60.1715 198.612 55.8389 0.52265 0.0139917
1045600 60.1715 198.625 55.8389 0.52275 0.00316126
1045800 60.1715 198.638 55.8389 0.52285 0.00984824
1046000 60.1715 198.651 55.8389 0.52295 -0.00735437
1046200 60.1715 198.665 55.8389 0.52305 0.00138871
1046400 60.1715 198.678 55.8389 0.52315 0.00909757
1046600 60.1715 198.691 55.8389 0.52325 0.00874209
1046800 60.1715 198.704 55.8389 0.52335 0.00739262
1047000 60.1715 198.717 55.8389 0.52345 -0.000364408
1047200 60.1715 198.73 55.8389 0.52355 -0.00712139
1047400 60.1715 198.743 55.8389 0.52365 -0.00691525
1047600 60.1715 198.756 55.8389 0.52375 0.0157058
1047800 60.1715 198.769 55.8389 0.52385 0.00721467
1048000 60.1715 198.782 55.8389 0.52395 0.0346199
1048200 60.1715 198.795 55.8389 0.52405 0.00694114
1048400 60.1715 198.808 55.8389 0.52415 0.0220488
1048600 60.1715 198.821 55.8389 0.52425 0.0116898
1048800 60.1715 198.834 55.8389 0.52435 -0.00328886
1049000 60.1715 198.847 55.8389 0.52445 0.0161823
1049200 60.1715 198.86 55.8389 0.52455 0.0194719
1049400 60.1715 198.873 55.8389 0.52465 0.014795
1049600 60.1715 198.886 55.8389 0.52475 0.0116152
1049800 60.1715 198.899 55.8389 0.52485 -0.00248415
1050000 60.1715 198.912 55.8389 0.52495 -0.0255262
1050200 60.1715 198.925 55.8389 0.52505 -0.01286
1050400 60.1715 198.938 55.8389 0.52515 0.00325733
1050600 60.1715 198.951 55.8389 0.52525 -0.00186655
1050800 60.1715 198.965 55.8389 0.52535 -0.00222551
1051000 60.1715 198.978 55.8389 0.52545 -0.017022
1051200 60.1715 198.991 55.8389 0.52555 0.00524195
1051400 60.1715 199.004 55.8389 0.52565 -0.0032278
1051600 60.1715 199.017 55.8389 0.52575 0.010256
1051800 60.1715 199.03 55.8389 0.52585 0.0239879
1052000 60.1715 199.043 55.8389 0.52595 0.0234256
1052200 60.1715 199.056 55.8389 0.52605 0.025943
1052400 60.1715 199.069 55.8389 0.52615 0.0318411
1052600 60.1715 199.082 55.8389 0.52625 -0.00550337
1052800 60.1715 199.095 55.8389 0.52635 0.0184579
1053000 60.1715 199.108 55.8389 0.52645 0.00618049
1053200 60.1715 199.121 55.8389 0.52655 0.0243256
1053400 60.1715 199.134 55.8389 0.52665 0.00462903
1053600 60.1715 199.147 55.8389 0.52675 0.0159683
1053800 60.1715 199.16 55.8389 0.52685 -0.00184606
1054000 60.1715 199.173 55.8389 0.52695 -0.0257019
1054200 60.1715 199.186 55.8389 0.52705 -0.00922287
1054400 60.1715 199.199 55.8389 0.52715 -0.010365
1054600 60.1715 199.212 55.8389 0.52725 -0.0102075
1054800 60.1715 199.225 55.8389 0.52735 0.012703
1055000 60.1715 199.238 55.8389 0.52745 -0.00944714
1055200 60.1715 199.252 55.8389 0.52755 0.0129444
1055400 60.1715 199.265 55.8389 0.52765 0.00720698
1055600 60.1715 199.278 55.8389 0.52775 0.00272787
1055800 60.1715 199.291 55.8389 0.52785 0.0151524
1056000 60.1715 199.304 55.8389 0.52795 0.0206053
1056200 60.1715 199.317 55.8389 0.52805 0.046783
1056400 60.1715 199.33 55.8389 0.52815 0.0146507
1056600 60.1715 199.343 55.8389 0.52825 0.023815
1056800 60.1715 199.356 55.8389 0.52835 7.75026e-05
1057000 60.1715 199.369 55.8389 0.52845 0.00603088
1057200 60.1715 199.382 55.8389 0.52855 0.0136932
1057400 60.1715 199.395 55.8389 0.52865 0.0131315
1057600 60.1715 199.408 55.8389 0.52875 0.00110041
1057800 60.1715 199.421 55.8389 0.52885 -0.00389483
1058000 60.1715 199.434 55.8389 0.52895 -0.0268627
1058200 60.1715 199.447 55.8389 0.52905 -0.0297942
1058400 60.1715 199.46 55.8389 0.52915 -0.00649124
1058600 60.1715 199.473 55.8389 0.52925 -0.011032
1058800 60.1715 199.486 55.8389 0.52935 0.0206717
1059000 60.1715 199.499 55.8389 0.52945 0.00278518
1059200 60.1715 199.512 55.8389 0.52955 0.00259615
1059400 60.1715 199.525 55.8389 0.52965 0.00435355
1059600 60.1715 199.538 55.8389 0.52975 0.0109696
1059800 60.1715 199.552 55.8389 0.52985 0.00258003
1060000 60.1715 199.565 55.8389 0.52995 0.0290262
1060200 60.1715 199.578 55.8389 0.53005 0.0409747
1060400 60.1715 199.591 55.8389 0.53015 0.0219252
1060600 60.1715 199.604 55.8389 0.53025 0.0321017
1060800 60.1715 199.617 55.8389 0.53035 0.00834795
1061000 60.1715 199.63 55.8389 0.53045 -0.00363904
1061200 60.1715 199.643 55.8389 0.53055 0.0121172
1061400 60.1715 199.656 55.8389 0.53065 0.00392304
1061600 60.1715 199.669 55.8389 0.53075 0.0102462
1061800 60.1715 199.682 55.8389 0.53085 -0.00860083
1062000 60.1715 199.695 55.8389 0.53095 -0.00712356
1062200 60.1715 199.708 55.8389 0.53105 0.00489402
1062400 60.1715 199.721 55.8389 0.53115 -0.0245073
1062600 60.1715 199.734 55.8389 0.53125 -0.0132373
1062800 60.1715 199.747 55.8389 0.53135 -0.00651327
1063000 60.1715 199.76 55.8389 0.53145 0.0257516
1063200 60.1715 199.773 55.8389 0.53155 -0.0106162
1063400 60.1715 199.786 55.8389 0.53165 0.0127409
1063600 60.1715 199.799 55.8389 0.53175 0.0164348
1063800 60.1715 199.812 55.8389 0.53185 -0.00862715
1064000 60.1715 199.825 55.8389 0.53195 0.0237792
1064200 60.1715 199.838 55.8389 0.53205 0.0344915
1064400 60.1715 199.852 55.8389 0.53215 0.00287087
1064600 60.1715 199.865 55.8389 0.53225 0.0422664
1064800 60.1715 199.878 55.8389 0.53235 0.0201065
1065000 60.1715 199.891 55.8389 0.53245 0.00222255
1065200 60.1715 199.904 55.8389 0.53255 -0.0146059
1065400 60.1715 199.917 55.8389 0.53265 0.0123956
1065600 60.1715 199.93 55.8389 0.53275 -0.00856783
1065800 60.1715 199.943 55.8389 0.53285 -0.0144802
1066000 60.1715 199.956 55.8389 0.53295 0.0168201
1066200 60.1715 199.969 55.8389 0.53305 -0.0179411
1066400 60.1715 199.982 55.8389 0.53315 -0.014103
1066600 60.1715 199.995 55.8389 0.53325 -0.0170138
1066800 60.1715 200.008 55.8389 0.53335 0.0176631
1067000 60.1715 200.021 55.8389 0.53345 0.0170541
1067200 60.1715 200.034 55.8389 0.53355 0.0143948
1067400 60.1715 200.047 55.8389 0.53365 -0.000749158
1067600 60.1715 200.06 55.8389 0.53375 0.025293
1067800 60.1715 200.073 55.8389 0.53385 0.00961257
1068000 60.1715 200.086 55.8389 0.53395 0.0223774
1068200 60.1715 200.099 55.8389 0.53405 0.0163389
1068400 60.1715 200.112 55.8389 0.53415 0.023472
1068600 60.1715 200.125 55.8389 0.53425 0.0259586
1068800 60.1715 200.138 55.8389 0.53435 0.00451106
1069000 60.1715 200.152 55.8389 0.53445 0.0133921
1069200 60.1715 200.165 55.8389 0.53455 -0.0171777
1069400 60.1715 200.178 55.8389 0.53465 0.0065816
1069600 60.1715 200.191 55.8389 0.53475 -0.00269198
1069800 60.1715 200.204 55.8389 0.53485 -0.00798687
1070000 60.1715 200.217 55.8389 0.53495 -0.0177818
1070200 60.1715 200.23 55.8389 0.53505 -0.0017449
1070400 60.1715 200.243 55.8389 0.53515 -0.00440903
1070600 60.1715 200.256 55.8389 0.53525 -0.00801448
1070800 60.1715 200.269 55.8389 0.53535 0.00216206
1071000 60.1715 200.282 55.8389 0.53545 0.0106608
1071200 60.1715 200.295 55.8389 0.53555 0.0262935
1071400 60.1715 200.308 55.8389 0.53565 0.013179
1071600 60.1715 200.321 55.8389 0.53575 0.0137014
1071800 60.1715 200.334 55.8389 0.53585 0.0172324
1072000 60.1715 200.347 55.8389 0.53595 0.0145329
1072200 60.1715 200.36 55.8389 0.53605 0.00544779
1072400 60.1715 200.373 55.8389 0.53615 0.0180593
1072600 60.1715 200.386 55.8389 0.53625 0.0303916
1072800 60.1715 200.399 55.8389 0.53635 0.0180016
1073000 60.1715 200.412 55.8389 0.53645 -0.00212965
1073200 60.1715 200.425 55.8389 0.53655 -0.0130921
1073400 60.1715 200.438 55.8389 0.53665 0.00063208
1073600 60.1715 200.452 55.8389 0.53675 0.00832901
1073800 60.1715 200.465 55.8389 0.53685 -0.00848654
1074000 60.1715 200.478 55.8389 0.53695 -0.0319959
1074200 60.1715 200.491 55.8389 0.53705 0.00927376
1074400 60.1715 200.504 55.8389 0.53715 -0.00407323
1074600 60.1715 200.517 55.8389 0.53725 -0.00283084
1074800 60.1715 200.53 55.8389 0.53735 -0.00822587
1075000 60.1715 200.543 55.8389 0.53745 0.0085632
1075200 60.1715 200.556 55.8389 0.53755 0.00929799
1075400 60.1715 200.569 55.8389 0.53765 0.0259649
1075600 60.1715 200.582 55.8389 0.53775 0.0243171
1075800 60.1715 200.595 55.8389 0.53785 0.00771983
1076000 60.1715 200.608 55.8389 0.53795 0.0309403
1076200 60.1715 200.621 55.8389 0.53805 0.0410115
1076400 60.1715 200.634 55.8389 0.53815 0.0293632
1076600 60.1715 200.647 55.8389 0.53825 0.0109174
1076800 60.1715 200.66 55.8389 0.53835 0.00614583
1077000 60.1715 200.673 55.8389 0.53845 -0.0100608
1077200 60.1715 200.686 55.8389 0.53855 -0.000991674
1077400 60.1715 200.699 55.8389 0.53865 0.008197
1077600 60.1715 200.712 55.8389 0.53875 -0.0317505
1077800 60.1715 200.725 55.8389 0.53885 -0.0142155
1078000 60.1715 200.739 55.8389 0.53895 -0.00809776
1078200 60.1715 200.752 55.8389 0.53905 -0.0228397
1078400 60.1715 200.765 55.8389 0.53915 -0.00274142
1078600 60.1715 200.778 55.8389 0.53925 -0.020877
1078800 60.1715 200.791 55.8389 0.53935 0.0141721
1079000 60.1715 200.804 55.8389 0.53945 0.00571697
1079200 60.1715 200.817 55.8389 0.53955 0.0175949
1079400 60.1715 200.83 55.8389 0.53965 0.0437385
1079600 60.1715 200.843 55.8389 0.53975 0.0159116
1079800 60.1715 200.856 55.8389 0.53985 0.00800798
1080000 60.1715 200.869 55.8389 0.53995 0.0314033
1080200 60.1715 200.882 55.8389 0.54005 0.0319332
1080400 60.1715 200.895 55.8389 0.54015 0.0257913
1080600 60.1715 200.908 55.8389 0.54025 0.0197116
1080800 60.1715 200.921 55.8389 0.54035 0.00837166
1081000 60.1715 200.934 55.8389 0.54045 0.00954956
1081200 60.1715 200.947 55.8389 0.54055 -0.0199858
1081400 60.1715 200.96 55.8389 0.54065 -0.00301882
1081600 60.1715 200.973 55.8389 0.54075 -0.0250265
1081800 60.1715 200.986 55.8389 0.54085 -0.00756415
1082000 60.1715 200.999 55.8389 0.54095 -0.0101776
1082200 60.1715 201.012 55.8389 0.54105 0.0020602
1082400 60.1715 201.025 55.8389 0.54115 0.00269548
1082600 60.1715 201.039 55.8389 0.54125 0.000183722
1082800 60.1715 201.052 55.8389 0.54135 0.00485441
1083000 60.1715 201.065 55.8389 0.54145 -0.00592538
1083200 60.1715 201.078 55.8389 0.54155 0.0338536
1083400 60.1715 201.091 55.8389 0.54165 0.0055186
1083600 60.1715 201.104 55.8389 0.54175 0.0340382
1083800 60.1715 201.117 55.8389 0.54185 0.0244995
1084000 60.1715 201.13 55.8389 0.54195 0.00717301
1084200 60.1715 201.143 55.8389 0.54205 0.0209584
1084400 60.1715 201.156 55.8389 0.54215 0.00973006
1084600 60.1715 201.169 55.8389 0.54225 -0.0104836
1084800 60.1715 201.182 55.8389 0.54235 -0.00702383
1085000 60.1715 201.195 55.8389 0.54245 0.022626
1085200 60.1715 201.208 55.8389 0.54255 0.00528579
1085400 60.1715 201.221 55.8389 0.54265 -0.0266579
1085600 60.1715 201.234 55.8389 0.54275 0.010409
1085800 60.1715 201.247 55.8389 0.54285 -0.00834517
1086000 60.1715 201.26 55.8389 0.54295 0.000322462
1086200 60.1715 201.273 55.8389 0.54305 -0.0170422
1086400 60.1715 201.286 55.8389 0.54315 0.0209214
1086600 60.1715 201.299 55.8389 0.54325 0.00717214
1086800 60.1715 201.312 55.8389 0.54335 0.013734
1087000 60.1715 201.325 55.8389 0.54345 0.0169385
1087200 60.1715 201.339 55.8389 0.54355 -0.00649871
1087400 60.1715 201.352 55.8389 0.54365 0.0163578
1087600 60.1715 201.365 55.8389 0.54375 0.022545
1087800 60.1715 201.378 55.8389 0.54385 0.0240037
1088000 60.1715 201.391 55.8389 0.54395 0.0208413
1088200 60.1715 201.404 55.8389 0.54405 0.00819143
1088400 60.1715 201.417 55.8389 0.54415 0.0138212
1088600 60.1715 201.43 55.8389 0.54425 -0.00763603
1088800 60.1715 201.443 55.8389 0.54435 0.0015501
1089000 60.1715 201.456 55.8389 0.54445 -0.00562274
1089200 60.1715 201.469 55.8389 0.54455 0.00561844
1089400 60.1715 201.482 55.8389 0.54465 0.00511542
1089600 60.1715 201.495 55.8389 0.54475 -0.00498307
1089800 60.1715 201.508 55.8389 0.54485 -0.011268
1090000 60.1715 201.521 55.8389 0.54495 -0.0214254
1090200 60.1715 201.534 55.8389 0.54505 -0.00395695
1090400 60.1715 201.547 55.8389 0.54515 0.028117
1090600 60.1715 201.56 55.8389 0.54525 0.00942391
1090800 60.1715 201.573 55.8389 0.54535 0.00244881
1091000 60.1715 201.586 55.8389 0.54545 0.00133142
1091200 60.1715 201.599 55.8389 0.54555 0.00196741
1091400 60.1715 201.612 55.8389 0.54565 0.0247022
1091600 60.1715 201.625 55.8389 0.54575 0.0199976
1091800 60.1715 201.639 55.8389 0.54585 0.0376997
1092000 60.1715 201.652 55.8389 0.54595 0.0205158
1092200 60.1715 201.665 55.8389 0.54605 0.0105787
1092400 60.1715 201.678 55.8389 0.54615 0.023354
1092600 60.1715 201.691 55.8389 0.54625 -0.0010331
1092800 60.1715 201.704 55.8389 0.54635 -0.00421337
1093000 60.1715 201.717 55.8389 0.54645 0.0147859
1093200 60.1715 201.73 55.8389 0.54655 0.00349983
1093400 60.1715 201.743 55.8389 0.54665 -0.00643574
1093600 60.1715 201.756 55.8389 0.54675 -0.00883815
1093800 60.1715 201.769 55.8389 0.54685 -0.0136026
1094000 60.1715 201.782 55.8389 0.54695 -0.0363234
1094200 60.1715 201.795 55.8389 0.54705 -0.00349015
1094400 60.1715 201.808 55.8389 0.54715 -0.00757222
1094600 60.1715 201.821 55.8389 0.54725 0.0101607
1094800 60.1715 201.834 55.8389 0.54735 0.0129169
1095000 60.1715 201.847 55.8389 0.54745 0.0208808
1095200 60.1715 201.86 55.8389 0.54755 0.00892742
1095400 60.1715 201.873 55.8389 0.54765 0.01945
1095600 60.1715 201.886 55.8389 0.54775 0.0239462
1095800 60.1715 201.899 55.8389 0.54785 0.0272334
1096000 60.1715 201.912 55.8389 0.54795 0.0396529
1096200 60.1715 201.925 55.8389 0.54805 0.0291388
1096400 60.1715 201.939 55.8389 0.54815 0.0205526
1096600 60.1715 201.952 55.8389 0.54825 0.0285423
1096800 60.1715 201.965 55.8389 0.54835 -8.60714e-06
1097000 60.1715 201.978 55.8389 0.54845 -0.0242105
1097200 60.1715 201.991 55.8389 0.54855 -0.0136987
1097400 60.1715 202.004 55.8389 0.54865 -0.00634373
1097600 60.1715 202.017 55.8389 0.54875 -0.013066
1097800 60.1715 202.03 55.8389 0.54885 -0.0393415
1098000 60.1715 202.043 55.8389 0.54895 -0.0246437
1098200 60.1715 202.056 55.8389 0.54905 -0.00454796
1098400 60.1715 202.069 55.8389 0.54915 -0.0117518
1098600 60.1715 202.082 55.8389 0.54925 -0.0092783
1098800 60.1715 202.095 55.8389 0.54935 0.0121539
1099000 60.1715 202.108 55.8389 0.54945 0.023585
1099200 60.1715 202.121 55.8389 0.54955 0.0324258
1099400 60.1715 202.134 55.8389 0.54965 0.0284952
1099600 60.1715 202.147 55.8389 0.54975 0.0445907
1099800 60.1715 202.16 55.8389 0.54985 0.0217915
1100000 60.1715 202.173 55.8389 0.54995 0.0375148
1100200 60.1715 202.186 55.8389 0.55005 0.0415567
1100400 60.1715 202.199 55.8389 0.55015 0.021329
1100600 60.1715 202.212 55.8389 0.55025 0.00512203
1100800 60.1715 202.226 55.8389 0.55035 -0.0058292
1101000 60.1715 202.239 55.8389 0.55045 -0.0024744
1101200 60.1715 202.252 55.8389 0.55055 -0.0349318
1101400 60.1715 202.265 55.8389 0.55065 -0.00582634
1101600 60.1715 202.278 55.8389 0.55075 -0.0200841
1101800 60.1715 202.291 55.8389 0.55085 -0.0109054
1102000 60.1715 202.304 55.8389 0.55095 -0.0212301
1102200 60.1715 202.317 55.8389 0.55105 -0.0156178
1102400 60.1715 202.33 55.8389 0.55115 -0.0148744
1102600 60.1715 202.343 55.8389 0.55125 0.0113702
1102800 60.1715 202.356 55.8389 0.55135 0.00312589
1103000 60.1715 202.369 55.8389 0.55145 0.0375187
1103200 60.1715 202.382 55.8389 0.55155 0.0351976
1103400 60.1715 202.395 55.8389 0.55165 0.0144633
1103600 60.1715 202.408 55.8389 0.55175 0.0297873
1103800 60.1715 202.421 55.8389 0.55185 0.0366833
1104000 60.1715 202.434 55.8389 0.55195 0.0136558
1104200 60.1715 202.447 55.8389 0.55205 0.0204517
1104400 60.1715 202.46 55.8389 0.55215 0.0229941
1104600 60.1715 202.473 55.8389 0.55225 0.0293285
1104800 60.1715 202.486 55.8389 0.55235 -0.00600807
1105000 60.1715 202.499 55.8389 0.55245 -0.014751
1105200 60.1715 202.512 55.8389 0.55255 -0.0258782
1105400 60.1715 202.526 55.8389 0.55265 -0.034083
1105600 60.1715 202.539 55.8389 0.55275 -0.0192517
1105800 60.1715 202.552 55.8389 0.55285 0.000395822
1106000 60.1715 202.565 55.8389 0.55295 -0.016483
1106200 60.1715 202.578 55.8389 0.55305 -0.0103778
1106400 60.1715 202.591 55.8389 0.55315 -0.0171723
1106600 60.1715 202.604 55.8389 0.55325 0.024229
1106800 60.1715 202.617 55.8389 0.55335 -0.01163
1107000 60.1715 202.63 55.8389 0.55345 0.0503103
1107200 60.1715 202.643 55.8389 0.55355 0.0321789
1107400 60.1715 202.656 55.8389 0.55365 0.0476028
1107600 60.1715 202.669 55.8389 0.55375 0.0399904
1107800 60.1715 202.682 55.8389 0.55385 0.014561
1108000 60.1715 202.695 55.8389 0.55395 0.0108513
1108200 60.1715 202.708 55.8389 0.55405 0.0357467
1108400 60.1715 202.721 55.8389 0.55415 0.0272875
1108600 60.1715 202.734 55.8389 0.55425 -0.00187723
1108800 60.1715 202.747 55.8389 0.55435 0.00522233
1109000 60.1715 202.76 55.8389 0.55445 -0.0134745
1109200 60.1715 202.773 55.8389 0.55455 -0.052167
1109400 60.1715 202.786 55.8389 0.55465 -0.00545756
1109600 60.1715 202.799 55.8389 0.55475 -0.0278724
1109800 60.1715 202.812 55.8389 0.55485 -0.00237598
1110000 60.1715 202.826 55.8389 0.55495 -0.0179056
1110200 60.1715 202.839 55.8389 0.55505 -0.0245051
1110400 60.1715 202.852 55.8389 0.55515 0.0125364
1110600 60.1715 202.865 55.8389 0.55525 -0.00194545
1110800 60.1715 202.878 55.8389 0.55535 0.00331548
1111000 60.1715 202.891 55.8389 0.55545 0.0374749
1111200 60.1715 202.904 55.8389 0.55555 0.0346206
1111400 60.1715 202.917 55.8389 0.55565 0.0166037
1111600 60.1715 202.93 55.8389 0.55575 0.0368381
1111800 60.1715 202.943 55.8389 0.55585 0.0289805
1112000 60.1715 202.956 55.8389 0.55595 0.0322906
1112200 60.1715 202.969 55.8389 0.55605 0.0377684
1112400 60.1715 202.982 55.8389 0.55615 0.0239247
1112600 60.1715 202.995 55.8389 0.55625 7.65762e-05
1112800 60.1715 203.008 55.8389 0.55635 0.00961751
1113000 60.1715 203.021 55.8389 0.55645 -0.0168982
1113200 60.1715 203.034 55.8389 0.55655 -0.0192939
1113400 60.1715 203.047 55.8389 0.55665 -0.0112116
1113600 60.1715 203.06 55.8389 0.55675 -0.0128567
1113800 60.1715 203.073 55.8389 0.55685 -0.0110914
1114000 60.1715 203.086 55.8389 0.55695 -0.0275077
1114200 60.1715 203.099 55.8389 0.55705 -0.0249819
1114400 60.1715 203.112 55.8389 0.55715 -0.00642445
1114600 60.1715 203.126 55.8389 0.55725 -0.0215307
1114800 60.1715 203.139 55.8389 0.55735 0.023512
1115000 60.1715 203.152 55.8389 0.55745 0.0120202
1115200 60.1715 203.165 55.8389 0.55755 0.0367504
1115400 60.1715 203.178 55.8389 0.55765 0.0324381
1115600 60.1715 203.191 55.8389 0.55775 0.0320364
1115800 60.1715 203.204 55.8389 0.55785 0.0403399
1116000 60.1715 203.217 55.8389 0.55795 0.0360004
1116200 60.1715 203.23 55.8389 0.55805 0.0157268
1116400 60.1715 203.243 55.8389 0.55815 0.0396475
1116600 60.1715 203.256 55.8389 0.55825 0.0173352
1116800 60.1715 203.269 55.8389 0.55835 0.000815103
1117000 60.1715 203.282 55.8389 0.55845 -0.00984084
1117200 60.1715 203.295 55.8389 0.55855 -0.0251762
1117400 60.1715 203.308 55.8389 0.55865 -0.0265856
1117600 60.1715 203.321 55.8389 0.55875 -0.0274828
1117800 60.1715 203.334 55.8389 0.55885 -0.0220913
1118000 60.1715 203.347 55.8389 0.55895 0.0121886
1118200 60.1715 203.36 55.8389 0.55905 -0.0266271
1118400 60.1715 203.373 55.8389 0.55915 -0.0214366
1118600 60.1715 203.386 55.8389 0.55925 0.00472859
1118800 60.1715 203.399 55.8389 0.55935 0.00767225
1119000 60.1715 203.412 55.8389 0.55945 0.0168145
1119200 60.1715 203.426 55.8389 0.55955 0.0349179
1119400 60.1715 203.439 55.8389 0.55965 0.0409143
1119600 60.1715 203.452 55.8389 0.55975 0.0419142
1119800 60.1715 203.465 55.8389 0.55985 0.0208483
1120000 60.1715 203.478 55.8389 0.55995 0.0228026
1120200 60.1715 203.491 55.8389 0.56005 0.0254458
1120400 60.1715 203.504 55.8389 0.56015 0.0293774
1120600 60.1715 203.517 55.8389 0.56025 0.0197491
1120800 60.1715 203.53 55.8389 0.56035 0.0144353
1121000 60.1715 203.543 55.8389 0.56045 -0.00934719
1121200 60.1715 203.556 55.8389 0.56055 -0.0292149
1121400 60.1715 203.569 55.8389 0.56065 -0.0218753
1121600 60.1715 203.582 55.8389 0.56075 -0.0218986
1121800 60.1715 203.595 55.8389 0.56085 -0.0183576
1122000 60.1715 203.608 55.8389 0.56095 0.000316489
1122200 60.1715 203.621 55.8389 0.56105 -0.0290213
1122400 60.1715 203.634 55.8389 0.56115 -0.0120569
1122600 60.1715 203.647 55.8389 0.56125 -0.0282595
1122800 60.1715 203.66 55.8389 0.56135 0.0140554
1123000 60.1715 203.673 55.8389 0.56145 0.0345779
1123200 60.1715 203.686 55.8389 0.56155 0.0169003
1123400 60.1715 203.699 55.8389 0.56165 0.0462418
1123600 60.1715 203.713 55.8389 0.56175 0.0421037
1123800 60.1715 203.726 55.8389 0.56185 0.021492
1124000 60.1715 203.739 55.8389 0.56195 0.0177319
1124200 60.1715 203.752 55.8389 0.56205 0.00984311
1124400 60.1715 203.765 55.8389 0.56215 0.0442201
1124600 60.1715 203.778 55.8389 0.56225 0.0385854
1124800 60.1715 203.791 55.8389 0.56235 0.0112355
1125000 60.1715 203.804 55.8389 0.56245 -0.0221374
1125200 60.1715 203.817 55.8389 0.56255 -0.0220158
1125400 60.1715 203.83 55.8389 0.56265 -0.0164078
1125600 60.1715 203.843 55.8389 0.56275 -0.0380273
1125800 60.1715 203.856 55.8389 0.56285 -0.0124438
1126000 60.1715 203.869 55.8389 0.56295 0.00550619
1126200 60.1715 203.882 55.8389 0.56305 -0.0134651
1126400 60.1715 203.895 55.8389 0.56315 -0.027701
1126600 60.1715 203.908 55.8389 0.56325 -0.0185053
1126800 60.1715 203.921 55.8389 0.56335 0.00667154
1127000 60.1715 203.934 55.8389 0.56345 0.034433
1127200 60.1715 203.947 55.8389 0.56355 0.0447242
1127400 60.1715 203.96 55.8389 0.56365 0.0457965
1127600 60.1715 203.973 55.8389 0.56375 0.0320437
1127800 60.1715 203.986 55.8389 0.56385 0.0206535
1128000 60.1715 203.999 55.8389 0.56395 0.0277654
1128200 60.1715 204.013 55.8389 0.56405 0.0333788
1128400 60.1715 204.026 55.8389 0.56415 0.0152067
1128600 60.1715 204.039 55.8389 0.56425 0.047826
1128800 60.1715 204.052 55.8389 0.56435 0.00263076
1129000 60.1715 204.065 55.8389 0.56445 -0.0228128
1129200 60.1715 204.078 55.8389 0.56455 -0.0315829
1129400 60.1715 204.091 55.8389 0.56465 -0.0569772
1129600 60.1715 204.104 55.8389 0.56475 -0.0355354
1129800 60.1715 204.117 55.8389 0.56485 0.0117004
1130000 60.1715 204.13 55.8389 0.56495 -0.0139518
1130200 60.1715 204.143 55.8389 0.56505 -0.0149635
1130400 60.1715 204.156 55.8389 0.56515 -0.0248058
1130600 60.1715 204.169 55.8389 0.56525 0.0120801
1130800 60.1715 204.182 55.8389 0.56535 0.0108943
1131000 60.1715 204.195 55.8389 0.56545 0.0251518
1131200 60.1715 204.208 55.8389 0.56555 0.0266752
1131400 60.1715 204.221 55.8389 0.56565 0.0583625
1131600 60.1715 204.234 55.8389 0.56575 0.0498785
1131800 60.1715 204.247 55.8389 0.56585 0.0331052
1132000 60.1715 204.26 55.8389 0.56595 0.0119509
1132200 60.1715 204.273 55.8389 0.56605 0.0183165
1132400 60.1715 204.286 55.8389 0.56615 0.0241544
1132600 60.1715 204.299 55.8389 0.56625 0.00883474
1132800 60.1715 204.313 55.8389 0.56635 0.0145253
1133000 60.1715 204.326 55.8389 0.56645 -0.0156009
1133200 60.1715 204.339 55.8389 0.56655 -0.0389986
1133400 60.1715 204.352 55.8389 0.56665 -0.0244688
1133600 60.1715 204.365 55.8389 0.56675 -0.0335439
1133800 60.1715 204.378 55.8389 0.56685 -0.0134138
1134000 60.1715 204.391 55.8389 0.56695 -0.0118094
1134200 60.1715 204.404 55.8389 0.56705 -0.00947005
1134400 60.1715 204.417 55.8389 0.56715 -0.0025047
1134600 60.1715 204.43 55.8389 0.56725 0.00397094
1134800 60.1715 204.443 55.8389 0.56735 0.00733453
1135000 60.1715 204.456 55.8389 0.56745 0.0266548
1135200 60.1715 204.469 55.8389 0.56755 0.0546996
1135400 60.1715 204.482 55.8389 0.56765 0.0537362
1135600 60.1715 204.495 55.8389 0.56775 0.0470123
1135800 60.1715 204.508 55.8389 0.56785 0.0327633
1136000 60.1715 204.521 55.8389 0.56795 0.0357756
1136200 60.1715 204.534 55.8389 0.56805 -0.00777645
1136400 60.1715 204.547 55.8389 0.56815 0.0172579
1136600 60.1715 204.56 55.8389 0.56825 -0.00381429
1136800 60.1715 204.573 55.8389 0.56835 0.00145438
1137000 60.1715 204.586 55.8389 0.56845 -0.0271107
1137200 60.1715 204.599 55.8389 0.56855 -0.0303548
1137400 60.1715 204.613 55.8389 0.56865 -0.0545081
1137600 60.1715 204.626 55.8389 0.56875 -0.0157321
1137800 60.1715 204.639 55.8389 0.56885 -0.0161623
1138000 60.1715 204.652 55.8389 0.56895 -0.0229706
1138200 60.1715 204.665 55.8389 0.56905 -0.00427996
1138400 60.1715 204.678 55.8389 0.56915 -2.14994e-05
1138600 60.1715 204.691 55.8389 0.56925 0.0276923
1138800 60.1715 204.704 55.8389 0.56935 0.0327511
1139000 60.1715 204.717 55.8389 0.56945 0.0318948
1139200 60.1715 204.73 55.8389 0.56955 0.0379414
1139400 60.1715 204.743 55.8389 0.56965 0.0404871
1139600 60.1715 204.756 55.8389 0.56975 0.0508634
1139800 60.1715 204.769 55.8389 0.56985 0.0294195
1140000 60.1715 204.782 55.8389 0.56995 0.0485247
1140200 60.1715 204.795 55.8389 0.57005 0.0194533
1140400 60.1715 204.808 55.8389 0.57015 -0.0100012
1140600 60.1715 204.821 55.8389 0.57025 0.00710128
1140800 60.1715 204.834 55.8389 0.57035 -0.0287526
1141000 60.1715 204.847 55.8389 0.57045 -0.0208774
1141200 60.1715 204.86 55.8389 0.57055 -0.0204004
1141400 60.1715 204.873 55.8389 0.57065 -0.0518734
1141600 60.1715 204.886 55.8389 0.57075 -0.0315719
1141800 60.1715 204.899 55.8389 0.57085 -0.0249919
1142000 60.1715 204.913 55.8389 0.57095 -0.0137137
1142200 60.1715 204.926 55.8389 0.57105 -0.00116396
1142400 60.1715 204.939 55.8389 0.57115 0.011231
1142600 60.1715 204.952 55.8389 0.57125 0.013202
1142800 60.1715 204.965 55.8389 0.57135 0.0315817
1143000 60.1715 204.978 55.8389 0.57145 0.0451726
1143200 60.1715 204.991 55.8389 0.57155 0.0586306
1143400 60.1715 205.004 55.8389 0.57165 0.0252983
1143600 60.1715 205.017 55.8389 0.57175 0.0471886
1143800 60.1715 205.03 55.8389 0.57185 0.0593766
1144000 60.1715 205.043 55.8389 0.57195 0.0291927
1144200 60.1715 205.056 55.8389 0.57205 -0.00580284
1144400 60.1715 205.069 55.8389 0.57215 0.00992426
1144600 60.1715 205.082 55.8389 0.57225 -0.0179199
1144800 60.1715 205.095 55.8389 0.57235 -0.0203779
1145000 60.1715 205.108 55.8389 0.57245 -0.0254478
1145200 60.1715 205.121 55.8389 0.57255 -0.0430142
1145400 60.1715 205.134 55.8389 0.57265 -0.0320138
1145600 60.1715 205.147 55.8389 0.57275 -0.0242994
1145800 60.1715 205.16 55.8389 0.57285 -0.0339203
1146000 60.1715 205.173 55.8389 0.57295 -0.004237
1146200 60.1715 205.186 55.8389 0.57305 -0.013451
1146400 60.1715 205.2 55.8389 0.57315 0.0281848
1146600 60.1715 205.213 55.8389 0.57325 0.0176102
1146800 60.1715 205.226 55.8389 0.57335 0.0281378
1147000 60.1715 205.239 55.8389 0.57345 0.0452058
1147200 60.1715 205.252 55.8389 0.57355 0.0572945
1147400 60.1715 205.265 55.8389 0.57365 0.0398327
1147600 60.1715 205.278 55.8389 0.57375 0.0603261
1147800 60.1715 205.291 55.8389 0.57385 0.0388607
1148000 60.1715 205.304 55.8389 0.57395 0.0112504
1148200 60.1715 205.317 55.8389 0.57405 0.0313406
1148400 60.1715 205.33 55.8389 0.57415 -0.0214403
1148600 60.1715 205.343 55.8389 0.57425 0.00447641
1148800 60.1715 205.356 55.8389 0.57435 -0.0275088
1149000 60.1715 205.369 55.8389 0.57445 -0.031174
1149200 60.1715 205.382 55.8389 0.57455 -0.0542502
1149400 60.1715 205.395 55.8389 0.57465 -0.0380141
1149600 60.1715 205.408 55.8389 0.57475 -0.0150813
1149800 60.1715 205.421 55.8389 0.57485 -0.0371006
1150000 60.1715 205.434 55.8389 0.57495 -0.0152981
1150200 60.1715 205.447 55.8389 0.57505 -0.006739
1150400 60.1715 205.46 55.8389 0.57515 0.0165377
1150600 60.1715 205.473 55.8389 0.57525 0.0292156
1150800 60.1715 205.486 55.8389 0.57535 0.0360389
1151000 60.1715 205.5 55.8389 0.57545 0.0455947
1151200 60.1715 205.513 55.8389 0.57555 0.0528283
1151400 60.1715 205.526 55.8389 0.57565 0.0537037
1151600 60.1715 205.539 55.8389 0.57575 0.0473226
1151800 60.1715 205.552 55.8389 0.57585 0.0464798
1152000 60.1715 205.565 55.8389 0.57595 0.0216421
1152200 60.1715 205.578 55.8389 0.57605 0.00822334
1152400 60.1715 205.591 55.8389 0.57615 0.00186291
1152600 60.1715 205.604 55.8389 0.57625 -0.0255192
1152800 60.1715 205.617 55.8389 0.57635 -0.0224791
1153000 60.1715 205.63 55.8389 0.57645 -0.0368684
1153200 60.1715 205.643 55.8389 0.57655 -0.0375156
1153400 60.1715 205.656 55.8389 0.57665 -0.0345963
1153600 60.1715 205.669 55.8389 0.57675 -0.0272926
1153800 60.1715 205.682 55.8389 0.57685 -0.0228463
1154000 60.1715 205.695 55.8389 0.57695 0.00354909
1154200 60.1715 205.708 55.8389 0.57705 -0.0170375
1154400 60.1715 205.721 55.8389 0.57715 0.0300831
1154600 60.1715 205.734 55.8389 0.57725 0.0360333
1154800 60.1715 205.747 55.8389 0.57735 0.0401979
1155000 60.1715 205.76 55.8389 0.57745 0.0406651
1155200 60.1715 205.773 55.8389 0.57755 0.0436023
1155400 60.1715 205.786 55.8389 0.57765 0.0493462
1155600 60.1715 205.8 55.8389 0.57775 0.0328321
1155800 60.1715 205.813 55.8389 0.57785 0.0304101
1156000 60.1715 205.826 55.8389 0.57795 0.0302339
1156200 60.1715 205.839 55.8389 0.57805 -0.00549528
1156400 60.1715 205.852 55.8389 0.57815 -0.0103765
1156600 60.1715 205.865 55.8389 0.57825 -0.0171196
1156800 60.1715 205.878 55.8389 0.57835 -0.0189093
1157000 60.1715 205.891 55.8389 0.57845 -0.0447514
1157200 60.1715 205.904 55.8389 0.57855 -0.0320605
1157400 60.1715 205.917 55.8389 0.57865 -0.0346031
1157600 60.1715 205.93 55.8389 0.57875 -0.0115698
1157800 60.1715 205.943 55.8389 0.57885 -0.0134005
1158000 60.1715 205.956 55.8389 0.57895 -0.0196574
1158200 60.1715 205.969 55.8389 0.57905 0.0176617
1158400 60.1715 205.982 55.8389 0.57915 0.0282358
1158600 60.1715 205.995 55.8389 0.57925 0.0414117
1158800 60.1715 206.008 55.8389 0.57935 0.0288004
1159000 60.1715 206.021 55.8389 0.57945 0.0391015
1159200 60.1715 206.034 55.8389 0.57955 0.0436732
1159400 60.1715 206.047 55.8389 0.57965 0.0581279
1159600 60.1715 206.06 55.8389 0.57975 0.040128
1159800 60.1715 206.073 55.8389 0.57985 0.0185127
1160000 60.1715 206.086 55.8389 0.57995 0.00966817
1160200 60.1715 206.1 55.8389 0.58005 -0.00857945
1160400 60.1715 206.113 55.8389 0.58015 -0.00800266
1160600 60.1715 206.126 55.8389 0.58025 -0.0274229
1160800 60.1715 206.139 55.8389 0.58035 -0.0310241
1161000 60.1715 206.152 55.8389 0.58045 -0.0105342
1161200 60.1715 206.165 55.8389 0.58055 -0.0358299
1161400 60.1715 206.178 55.8389 0.58065 -0.014079
1161600 60.1715 206.191 55.8389 0.58075 -0.0227444
1161800 60.1715 206.204 55.8389 0.58085 -0.0276723
1162000 60.1715 206.217 55.8389 0.58095 0.0105293
1162200 60.1715 206.23 55.8389 0.58105 0.0143922
1162400 60.1715 206.243 55.8389 0.58115 0.0264389
1162600 60.1715 206.256 55.8389 0.58125 0.0182202
1162800 60.1715 206.269 55.8389 0.58135 0.043384
1163000 60.1715 206.282 55.8389 0.58145 0.03973
1163200 60.1715 206.295 55.8389 0.58155 0.0484686
1163400 60.1715 206.308 55.8389 0.58165 0.0305141
1163600 60.1715 206.321 55.8389 0.58175 0.0455793
1163800 60.1715 206.334 55.8389 0.58185 0.0203907
1164000 60.1715 206.347 55.8389 0.58195 0.00576361
1164200 60.1715 206.36 55.8389 0.58205 -0.00231076
1164400 60.1715 206.373 55.8389 0.58215 -0.0311513
1164600 60.1715 206.386 55.8389 0.58225 -0.0262578
1164800 60.1715 206.4 55.8389 0.58235 -0.0216943
1165000 60.1715 206.413 55.8389 0.58245 -0.0298086
1165200 60.1715 206.426 55.8389 0.58255 -0.0267151
1165400 60.1715 206.439 55.8389 0.58265 -0.00793117
1165600 60.1715 206.452 55.8389 0.58275 -0.0154104
1165800 60.1715 206.465 55.8389 0.58285 -0.0134151
1166000 60.1715 206.478 55.8389 0.58295 0.0259234
1166200 60.1715 206.491 55.8389 0.58305 0.00556898
1166400 60.1715 206.504 55.8389 0.58315 0.0284121
1166600 60.1715 206.517 55.8389 0.58325 0.0518256
1166800 60.1715 206.53 55.8389 0.58335 0.0318972
1167000 60.1715 206.543 55.8389 0.58345 0.0598357
1167200 60.1715 206.556 55.8389 0.58355 0.0280839
1167400 60.1715 206.569 55.8389 0.58365 0.0208257
1167600 60.1715 206.582 55.8389 0.58375 0.0242267
1167800 60.1715 206.595 55.8389 0.58385 0.0364752
1168000 60.1715 206.608 55.8389 0.58395 -0.0145597
1168200 60.1715 206.621 55.8389 0.58405 0.00197366
1168400 60.1715 206.634 55.8389 0.58415 -0.0265605
1168600 60.1715 206.647 55.8389 0.58425 -0.0423337
1168800 60.1715 206.66 55.8389 0.58435 -0.0282528
1169000 60.1715 206.673 55.8389 0.58445 -0.0204648
1169200 60.1715 206.687 55.8389 0.58455 -0.0274197
1169400 60.1715 206.7 55.8389 0.58465 -0.00232956
1169600 60.1715 206.713 55.8389 0.58475 -0.00665712
1169800 60.1715 206.726 55.8389 0.58485 -0.0149858
1170000 60.1715 206.739 55.8389 0.58495 0.0222208
1170200 60.1715 206.752 55.8389 0.58505 0.0211824
1170400 60.1715 206.765 55.8389 0.58515 0.0172914
1170600 60.1715 206.778 55.8389 0.58525 0.0511848
1170800 60.1715 206.791 55.8389 0.58535 0.0581282
1171000 60.1715 206.804 55.8389 0.58545 0.0303417
1171200 60.1715 206.817 55.8389 0.58555 0.00259485
1171400 60.1715 206.83 55.8389 0.58565 0.0373788
1171600 60.1715 206.843 55.8389 0.58575 0.0205938
1171800 60.1715 206.856 55.8389 0.58585 0.0108153
1172000 60.1715 206.869 55.8389 0.58595 0.0120009
1172200 60.1715 206.882 55.8389 0.58605 -0.0263437
1172400 60.1715 206.895 55.8389 0.58615 -0.0356948
1172600 60.1715 206.908 55.8389 0.58625 -0.00591742
1172800 60.1715 206.921 55.8389 0.58635 -0.0255972
1173000 60.1715 206.934 55.8389 0.58645 -0.00866589
1173200 60.1715 206.947 55.8389 0.58655 -0.00527757
1173400 60.1715 206.96 55.8389 0.58665 -0.0177499
1173600 60.1715 206.973 55.8389 0.58675 -0.00429347
1173800 60.1715 206.987 55.8389 0.58685 -0.00300658
1174000 60.1715 207 55.8389 0.58695 0.0246769
1174200 60.1715 207.013 55.8389 0.58705 0.012414
1174400 60.1715 207.026 55.8389 0.58715 0.0362649
1174600 60.1715 207.039 55.8389 0.58725 0.056185
1174800 60.1715 207.052 55.8389 0.58735 0.0249216
1175000 60.1715 207.065 55.8389 0.58745 0.0342653
1175200 60.1715 207.078 55.8389 0.58755 0.0204745
1175400 60.1715 207.091 55.8389 0.58765 0.0159714
1175600 60.1715 207.104 55.8389 0.58775 -0.00450324
1175800 60.1715 207.117 55.8389 0.58785 0.0111698
1176000 60.1715 207.13 55.8389 0.58795 0.0137146
1176200 60.1715 207.143 55.8389 0.58805 -0.0235477
1176400 60.1715 207.156 55.8389 0.58815 -0.0219251
1176600 60.1715 207.169 55.8389 0.58825 -0.0289824
1176800 60.1715 207.182 55.8389 0.58835 -0.017659
1177000 60.1715 207.195 55.8389 0.58845 -0.00379555
1177200 60.1715 207.208 55.8389 0.58855 -0.0175208
1177400 60.1715 207.221 55.8389 0.58865 0.012569
1177600 60.1715 207.234 55.8389 0.58875 0.00345623
1177800 60.1715 207.247 55.8389 0.58885 -0.00593622
1178000 60.1715 207.26 55.8389 0.58895 0.00630295
1178200 60.1715 207.273 55.8389 0.58905 0.0348476
1178400 60.1715 207.287 55.8389 0.58915 0.0278692
1178600 60.1715 207.3 55.8389 0.58925 0.0369975
1178800 60.1715 207.313 55.8389 0.58935 0.0289348
1179000 60.1715 207.326 55.8389 0.58945 0.012341
1179200 60.1715 207.339 55.8389 0.58955 0.0283167
1179400 60.1715 207.352 55.8389 0.58965 0.0064735
1179600 60.1715 207.365 55.8389 0.58975 0.0115301
1179800 60.1715 207.378 55.8389 0.58985 0.00451089
1180000 60.1715 207.391 55.8389 0.58995 0.0158485
1180200 60.1715 207.404 55.8389 0.59005 -0.00308405
1180400 60.1715 207.417 55.8389 0.59015 -0.024272
1180600 60.1715 207.43 55.8389 0.59025 -0.00198549
1180800 60.1715 207.443 55.8389 0.59035 -0.0304014
1181000 60.1715 207.456 55.8389 0.59045 -0.0130685
1181200 60.1715 207.469 55.8389 0.59055 -0.0109571
1181400 60.1715 207.482 55.8389 0.59065 0.00872974
1181600 60.1715 207.495 55.8389 0.59075 0.00901995
1181800 60.1715 207.508 55.8389 0.59085 -0.00172182
1182000 60.1715 207.521 55.8389 0.59095 -0.00239747
1182200 60.1715 207.534 55.8389 0.59105 0.0309076
1182400 60.1715 207.547 55.8389 0.59115 0.0211594
1182600 60.1715 207.56 55.8389 0.59125 0.0312281
1182800 60.1715 207.573 55.8389 0.59135 0.0296376
1183000 60.1715 207.587 55.8389 0.59145 0.0231862
1183200 60.1715 207.6 55.8389 0.59155 0.033971
1183400 60.1715 207.613 55.8389 0.59165 0.0154261
1183600 60.1715 207.626 55.8389 0.59175 0.00115286
1183800 60.1715 207.639 55.8389 0.59185 0.0166396
1184000 60.1715 207.652 55.8389 0.59195 0.0015884
1184200 60.1715 207.665 55.8389 0.59205 -0.00355239
1184400 60.1715 207.678 55.8389 0.59215 -0.033981
1184600 60.1715 207.691 55.8389 0.59225 -0.0173924
1184800 60.1715 207.704 55.8389 0.59235 -0.0234859
1185000 60.1715 207.717 55.8389 0.59245 -0.00986542
1185200 60.1715 207.73 55.8389 0.59255 -0.0171694
1185400 60.1715 207.743 55.8389 0.59265 -0.0129733
1185600 60.1715 207.756 55.8389 0.59275 0.0204715
1185800 60.1715 207.769 55.8389 0.59285 0.00896888
1186000 60.1715 207.782 55.8389 0.59295 0.0166205
1186200 60.1715 207.795 55.8389 0.59305 0.0215379
1186400 60.1715 207.808 55.8389 0.59315 0.0237016
1186600 60.1715 207.821 55.8389 0.59325 0.0346695
1186800 60.1715 207.834 55.8389 0.59335 0.0468484
1187000 60.1715 207.847 55.8389 0.59345 0.023986
1187200 60.1715 207.86 55.8389 0.59355 0.0332525
1187400 60.1715 207.873 55.8389 0.59365 0.0125599
1187600 60.1715 207.887 55.8389 0.59375 0.0133569
1187800 60.1715 207.9 55.8389 0.59385 0.0122056
1188000 60.1715 207.913 55.8389 0.59395 -0.0136779
1188200 60.1715 207.926 55.8389 0.59405 -0.00717443
1188400 60.1715 207.939 55.8389 0.59415 -0.00438906
1188600 60.1715 207.952 55.8389 0.59425 -0.0238158
1188800 60.1715 207.965 55.8389 0.59435 -0.0346156
1189000 60.1715 207.978 55.8389 0.59445 -0.0249349
1189200 60.1715 207.991 55.8389 0.59455 -0.00636776
1189400 60.1715 208.004 55.8389 0.59465 -0.00443889
1189600 60.1715 208.017 55.8389 0.59475 0.00407764
1189800 60.1715 208.03 55.8389 0.59485 0.000846635
1190000 60.1715 208.043 55.8389 0.59495 0.00986759
1190200 60.1715 208.056 55.8389 0.59505 0.0288959
1190400 60.1715 208.069 55.8389 0.59515 0.0357906
1190600 60.1715 208.082 55.8389 0.59525 0.0348766
1190800 60.1715 208.095 55.8389 0.59535 0.0353671
1191000 60.1715 208.108 55.8389 0.59545 0.0492127
1191200 60.1715 208.121 55.8389 0.59555 0.0181457
1191400 60.1715 208.134 55.8389 0.59565 0.0133436
1191600 60.1715 208.147 55.8389 0.59575 -0.00671931
1191800 60.1715 208.16 55.8389 0.59585 0.000299001
1192000 60.1715 208.174 55.8389 0.59595 -0.0104158
1192200 60.1715 208.187 55.8389 0.59605 -0.0117818
1192400 60.1715 208.2 55.8389 0.59615 -0.0100974
1192600 60.1715 208.213 55.8389 0.59625 -0.0243718
1192800 60.1715 208.226 55.8389 0.59635 -0.0213587
1193000 60.1715 208.239 55.8389 0.59645 -0.0101819
1193200 60.1715 208.252 55.8389 0.59655 0.000960941
1193400 60.1715 208.265 55.8389 0.59665 -0.00371052
1193600 60.1715 208.278 55.8389 0.59675 -0.00183538
1193800 60.1715 208.291 55.8389 0.59685 0.022085
1194000 60.1715 208.304 55.8389 0.59695 0.0231664
1194200 60.1715 208.317 55.8389 0.59705 0.0407598
1194400 60.1715 208.33 55.8389 0.59715 0.0183443
1194600 60.1715 208.343 55.8389 0.59725 0.037328
1194800 60.1715 208.356 55.8389 0.59735 0.0196723
1195000 60.1715 208.369 55.8389 0.59745 0.032373
1195200 60.1715 208.382 55.8389 0.59755 0.0198716
1195400 60.1715 208.395 55.8389 0.59765 0.0161382
1195600 60.1715 208.408 55.8389 0.59775 -0.0114099
1195800 60.1715 208.421 55.8389 0.59785 -0.00741564
1196000 60.1715 208.434 55.8389 0.59795 -0.00622176
1196200 60.1715 208.447 55.8389 0.59805 -0.0151148
1196400 60.1715 208.46 55.8389 0.59815 -0.0133968
1196600 60.1715 208.474 55.8389 0.59825 -0.0161548
1196800 60.1715 208.487 55.8389 0.59835 -0.0174134
1197000 60.1715 208.5 55.8389 0.59845 -0.00348084
1197200 60.1715 208.513 55.8389 0.59855 -0.0188842
1197400 60.1715 208.526 55.8389 0.59865 -0.0130968
1197600 60.1715 208.539 55.8389 0.59875 0.030183
1197800 60.1715 208.552 55.8389 0.59885 0.017981
1198000 60.1715 208.565 55.8389 0.59895 0.0204019
1198200 60.1715 208.578 55.8389 0.59905 0.0328586
1198400 60.1715 208.591 55.8389 0.59915 0.0442464
1198600 60.1715 208.604 55.8389 0.59925 0.0213033
1198800 60.1715 208.617 55.8389 0.59935 0.0157707
1199000 60.1715 208.63 55.8389 0.59945 0.0348024
1199200 60.1715 208.643 55.8389 0.59955 0.0396504
1199400 60.1715 208.656 55.8389 0.59965 0.0102388
1199600 60.1715 208.669 55.8389 0.59975 -0.0176934
1199800 60.1715 208.682 55.8389 0.59985 -0.0163535
1200000 60.1715 208.695 55.8389 0.59995 -0.00351938
1200200 60.1715 208.708 55.8389 0.60005 -0.0348648
1200400 60.1715 208.721 55.8389 0.60015 -0.00514887
1200600 60.1715 208.734 55.8389 0.60025 -0.0166477
1200800 60.1715 208.747 55.8389 0.60035 -0.0204806
1201000 60.1715 208.76 55.8389 0.60045 -0.00605173
1201200 60.1715 208.774 55.8389 0.60055 -0.0098652
1201400 60.1715 208.787 55.8389 0.60065 0.00976044
1201600 60.1715 208.8 55.8389 0.60075 0.0244015
1201800 60.1715 208.813 55.8389 0.60085 0.0228958
1202000 60.1715 208.826 55.8389 0.60095 0.0383604
1202200 60.1715 208.839 55.8389 0.60105 0.019714
1202400 60.1715 208.852 55.8389 0.60115 0.0358684
1202600 60.1715 208.865 55.8389 0.60125 0.0253043
1202800 60.1715 208.878 55.8389 0.60135 0.0152015
1203000 60.1715 208.891 55.8389 0.60145 0.0179157
1203200 60.1715 208.904 55.8389 0.60155 0.0347074
1203400 60.1715 208.917 55.8389 0.60165 0.000141492
1203600 60.1715 208.93 55.8389 0.60175 -0.0118142
1203800 60.1715 208.943 55.8389 0.60185 -0.0234258
1204000 60.1715 208.956 55.8389 0.60195 -0.0138693
1204200 60.1715 208.969 55.8389 0.60205 -0.0130613
1204400 60.1715 208.982 55.8389 0.60215 -0.0143539
1204600 60.1715 208.995 55.8389 0.60225 -0.0202064
1204800 60.1715 209.008 55.8389 0.60235 -0.0083269
1205000 60.1715 209.021 55.8389 0.60245 -0.0101701
1205200 60.1715 209.034 55.8389 0.60255 0.0054285
1205400 60.1715 209.047 55.8389 0.60265 0.00873949
1205600 60.1715 209.06 55.8389 0.60275 0.0160711
1205800 60.1715 209.074 55.8389 0.60285 0.0203894
1206000 60.1715 209.087 55.8389 0.60295 0.0400209
1206200 60.1715 209.1 55.8389 0.60305 0.0260016
1206400 60.1715 209.113 55.8389 0.60315 0.0387362
1206600 60.1715 209.126 55.8389 0.60325 0.0295092
1206800 60.1715 209.139 55.8389 0.60335 0.0305322
1207000 60.1715 209.152 55.8389 0.60345 0.023732
1207200 60.1715 209.165 55.8389 0.60355 0.00185871
1207400 60.1715 209.178 55.8389 0.60365 0.0114021
1207600 60.1715 209.191 55.8389 0.60375 -0.0188875
1207800 60.1715 209.204 55.8389 0.60385 -0.0157717
1208000 60.1715 209.217 55.8389 0.60395 -0.00369228
1208200 60.1715 209.23 55.8389 0.60405 -0.0295824
1208400 60.1715 209.243 55.8389 0.60415 0.0105188
1208600 60.1715 209.256 55.8389 0.60425 -0.0256327
1208800 60.1715 209.269 55.8389 0.60435 -0.0179792
1209000 60.1715 209.282 55.8389 0.60445 -0.00593992
1209200 60.1715 209.295 55.8389 0.60455 -0.00445328
1209400 60.1715 209.308 55.8389 0.60465 0.0135878
1209600 60.1715 209.321 55.8389 0.60475 0.0317041
1209800 60.1715 209.334 55.8389 0.60485 0.025666
1210000 60.1715 209.347 55.8389 0.60495 0.0304241
1210200 60.1715 209.36 55.8389 0.60505 0.0114338
1210400 60.1715 209.374 55.8389 0.60515 0.0260492
1210600 60.1715 209.387 55.8389 0.60525 0.0360086
1210800 60.1715 209.4 55.8389 0.60535 0.000271527
1211000 60.1715 209.413 55.8389 0.60545 0.0293819
1211200 60.1715 209.426 55.8389 0.60555 -0.00636257
1211400 60.1715 209.439 55.8389 0.60565 0.0162731
1211600 60.1715 209.452 55.8389 0.60575 -0.00789217
1211800 60.1715 209.465 55.8389 0.60585 -0.015024
1212000 60.1715 209.478 55.8389 0.60595 -0.0172355
1212200 60.1715 209.491 55.8389 0.60605 -0.0292837
1212400 60.1715 209.504 55.8389 0.60615 0.000221258
1212600 60.1715 209.517 55.8389 0.60625 -0.00486675
1212800 60.1715 209.53 55.8389 0.60635 0.0057231
1213000 60.1715 209.543 55.8389 0.60645 -0.00739385
1213200 60.1715 209.556 55.8389 0.60655 0.0205324
1213400 60.1715 209.569 55.8389 0.60665 -0.000274874
1213600 60.1715 209.582 55.8389 0.60675 0.0187198
1213800 60.1715 209.595 55.8389 0.60685 0.0278984
1214000 60.1715 209.608 55.8389 0.60695 0.0372986
1214200 60.1715 209.621 55.8389 0.60705 0.0306104
1214400 60.1715 209.634 55.8389 0.60715 0.0320641
1214600 60.1715 209.647 55.8389 0.60725 0.0220511
1214800 60.1715 209.661 55.8389 0.60735 0.00562326
1215000 60.1715 209.674 55.8389 0.60745 -0.00246281
1215200 60.1715 209.687 55.8389 0.60755 0.0200991
1215400 60.1715 209.7 55.8389 0.60765 0.00914417
1215600 60.1715 209.713 55.8389 0.60775 -0.02054
1215800 60.1715 209.726 55.8389 0.60785 -0.0142258
1216000 60.1715 209.739 55.8389 0.60795 -0.00877638
1216200 60.1715 209.752 55.8389 0.60805 -0.0427417
1216400 60.1715 209.765 55.8389 0.60815 -0.0232881
1216600 60.1715 209.778 55.8389 0.60825 -0.00154606
1216800 60.1715 209.791 55.8389 0.60835 0.00568006
1217000 60.1715 209.804 55.8389 0.60845 0.00662774
1217200 60.1715 209.817 55.8389 0.60855 0.0236563
1217400 60.1715 209.83 55.8389 0.60865 0.00301389
1217600 60.1715 209.843 55.8389 0.60875 0.0364801
1217800 60.1715 209.856 55.8389 0.60885 0.036218
1218000 60.1715 209.869 55.8389 0.60895 0.0223407
1218200 60.1715 209.882 55.8389 0.60905 0.0286501
1218400 60.1715 209.895 55.8389 0.60915 0.0394669
1218600 60.1715 209.908 55.8389 0.60925 0.0153569
1218800 60.1715 209.921 55.8389 0.60935 0.00775082
1219000 60.1715 209.934 55.8389 0.60945 -0.0107107
1219200 60.1715 209.947 55.8389 0.60955 0.00128244
1219400 60.1715 209.961 55.8389 0.60965 -0.000192963
1219600 60.1715 209.974 55.8389 0.60975 -0.00169837
1219800 60.1715 209.987 55.8389 0.60985 -0.0156474
1220000 60.1715 210 55.8389 0.60995 -0.038983
1220200 60.1715 210.013 55.8389 0.61005 -0.00823091
1220400 60.1715 210.026 55.8389 0.61015 -0.00921391
1220600 60.1715 210.039 55.8389 0.61025 0.0135483
1220800 60.1715 210.052 55.8389 0.61035 -0.0114792
1221000 60.1715 210.065 55.8389 0.61045 0.0140777
1221200 60.1715 210.078 55.8389 0.61055 0.024927
1221400 60.1715 210.091 55.8389 0.61065 0.0145872
1221600 60.1715 210.104 55.8389 0.61075 0.0271258
1221800 60.1715 210.117 55.8389 0.61085 0.0249545
1222000 60.1715 210.13 55.8389 0.61095 0.0328946
1222200 60.1715 210.143 55.8389 0.61105 0.0290065
1222400 60.1715 210.156 55.8389 0.61115 0.0237215
1222600 60.1715 210.169 55.8389 0.61125 0.010398
1222800 60.1715 210.182 55.8389 0.61135 -0.0162719
1223000 60.1715 210.195 55.8389 0.61145 0.0043455
1223200 60.1715 210.208 55.8389 0.61155 -0.00653595
1223400 60.1715 210.221 55.8389 0.61165 -0.0112496
1223600 60.1715 210.234 55.8389 0.61175 -0.0112645
1223800 60.1715 210.247 55.8389 0.61185 -0.00960504
1224000 60.1715 210.261 55.8389 0.61195 -0.00848234
1224200 60.1715 210.274 55.8389 0.61205 -0.00767836
1224400 60.1715 210.287 55.8389 0.61215 -0.0228694
1224600 60.1715 210.3 55.8389 0.61225 0.0107003
1224800 60.1715 210.313 55.8389 0.61235 0.0187741
1225000 60.1715 210.326 55.8389 0.61245 0.0143829
1225200 60.1715 210.339 55.8389 0.61255 0.00913788
1225400 60.1715 210.352 55.8389 0.61265 0.0202156
1225600 60.1715 210.365 55.8389 0.61275 0.0137711
1225800 60.1715 210.378 55.8389 0.61285 0.0391904
1226000 60.1715 210.391 55.8389 0.61295 0.0364572
1226200 60.1715 210.404 55.8389 0.61305 0.0199146
1226400 60.1715 210.417 55.8389 0.61315 0.0280714
1226600 60.1715 210.43 55.8389 0.61325 0.0211873
1226800 60.1715 210.443 55.8389 0.61335 0.00921504
1227000 60.1715 210.456 55.8389 0.61345 -0.00963434
1227200 60.1715 210.469 55.8389 0.61355 0.000480716
1227400 60.1715 210.482 55.8389 0.61365 -0.00943875
1227600 60.1715 210.495 55.8389 0.61375 -0.0200278
1227800 60.1715 210.508 55.8389 0.61385 -0.0206136
1228000 60.1715 210.521 55.8389 0.61395 -0.0134566
1228200 60.1715 210.534 55.8389 0.61405 -0.00887028
1228400 60.1715 210.547 55.8389 0.61415 -0.0241925
1228600 60.1715 210.561 55.8389 0.61425 0.00515225
1228800 60.1715 210.574 55.8389 0.61435 -0.00780341
1229000 60.1715 210.587 55.8389 0.61445 0.018034
1229200 60.1715 210.6 55.8389 0.61455 0.0218623
1229400 60.1715 210.613 55.8389 0.61465 0.0355571
1229600 60.1715 210.626 55.8389 0.61475 0.0195206
1229800 60.1715 210.639 55.8389 0.61485 0.0222313
1230000 60.1715 210.652 55.8389 0.61495 0.027959
1230200 60.1715 210.665 55.8389 0.61505 0.0328859
1230400 60.1715 210.678 55.8389 0.61515 0.0164135
1230600 60.1715 210.691 55.8389 0.61525 0.0356696
1230800 60.1715 210.704 55.8389 0.61535 0.0045216
1231000 60.1715 210.717 55.8389 0.61545 0.007237
1231200 60.1715 210.73 55.8389 0.61555 -0.0184646
1231400 60.1715 210.743 55.8389 0.61565 -0.00741915
1231600 60.1715 210.756 55.8389 0.61575 -0.0361155
1231800 60.1715 210.769 55.8389 0.61585 0.0191635
1232000 60.1715 210.782 55.8389 0.61595 -0.0282173
1232200 60.1715 210.795 55.8389 0.61605 -0.019943
1232400 60.1715 210.808 55.8389 0.61615 0.0064585
1232600 60.1715 210.821 55.8389 0.61625 -0.0102505
1232800 60.1715 210.834 55.8389 0.61635 -0.0069301
1233000 60.1715 210.847 55.8389 0.61645 0.00834093
1233200 60.1715 210.861 55.8389 0.61655 0.0096974
1233400 60.1715 210.874 55.8389 0.61665 0.0464165
1233600 60.1715 210.887 55.8389 0.61675 0.0250031
1233800 60.1715 210.9 55.8389 0.61685 0.0276078
1234000 60.1715 210.913 55.8389 0.61695 0.0249119
1234200 60.1715 210.926 55.8389 0.61705 0.0295109
1234400 60.1715 210.939 55.8389 0.61715 0.0259009
1234600 60.1715 210.952 55.8389 0.61725 0.0223223
1234800 60.1715 210.965 55.8389 0.61735 0.0109157
1235000 60.1715 210.978 55.8389 0.61745 0.00119444
1235200 60.1715 210.991 55.8389 0.61755 0.0081311
1235400 60.1715 211.004 55.8389 0.61765 -0.0251165
1235600 60.1715 211.017 55.8389 0.61775 -0.0191868
1235800 60.1715 211.03 55.8389 0.61785 -0.0278146
1236000 60.1715 211.043 55.8389 0.61795 -0.0132542
1236200 60.1715 211.056 55.8389 0.61805 -0.00904544
1236400 60.1715 211.069 55.8389 0.61815 -0.0109379
1236600 60.1715 211.082 55.8389 0.61825 -0.00994554
1236800 60.1715 211.095 55.8389 0.61835 -0.0099764
1237000 60.1715 211.108 55.8389 0.61845 0.0248113
1237200 60.1715 211.121 55.8389 0.61855 0.0169168
1237400 60.1715 211.134 55.8389 0.61865 0.0206445
1237600 60.1715 211.148 55.8389 0.61875 0.0317125
1237800 60.1715 211.161 55.8389 0.61885 0.039667
1238000 60.1715 211.174 55.8389 0.61895 0.0473228
1238200 60.1715 211.187 55.8389 0.61905 0.014583
1238400 60.1715 211.2 55.8389 0.61915 0.0147055
1238600 60.1715 211.213 55.8389 0.61925 0.0140346
1238800 60.1715 211.226 55.8389 0.61935 0.0178943
1239000 60.1715 211.239 55.8389 0.61945 0.00270693
1239200 60.1715 211.252 55.8389 0.61955 -0.00327745
1239400 60.1715 211.265 55.8389 0.61965 -0.00429485
1239600 60.1715 211.278 55.8389 0.61975 -0.0236431
1239800 60.1715 211.291 55.8389 0.61985 -0.0219166
1240000 60.1715 211.304 55.8389 0.61995 -0.0161378
1240200 60.1715 211.317 55.8389 0.62005 -0.012362
1240400 60.1715 211.33 55.8389 0.62015 -0.0116654
1240600 60.1715 211.343 55.8389 0.62025 0.0129075
1240800 60.1715 211.356 55.8389 0.62035 0.00630837
1241000 60.1715 211.369 55.8389 0.62045 0.00696739
1241200 60.1715 211.382 55.8389 0.62055 0.0206319
1241400 60.1715 211.395 55.8389 0.62065 0.00816077
1241600 60.1715 211.408 55.8389 0.62075 0.0310691
1241800 60.1715 211.421 55.8389 0.62085 0.0355474
1242000 60.1715 211.434 55.8389 0.62095 0.0260254
1242200 60.1715 211.448 55.8389 0.62105 0.0316991
1242400 60.1715 211.461 55.8389 0.62115 0.00673055
1242600 60.1715 211.474 55.8389 0.62125 0.0106732
1242800 60.1715 211.487 55.8389 0.62135 0.010984
1243000 60.1715 211.5 55.8389 0.62145 -0.00931238
1243200 60.1715 211.513 55.8389 0.62155 0.00221551
1243400 60.1715 211.526 55.8389 0.62165 -0.00241298
1243600 60.1715 211.539 55.8389 0.62175 -0.0121062
1243800 60.1715 211.552 55.8389 0.62185 -0.0302192
1244000 60.1715 211.565 55.8389 0.62195 -0.0151686
1244200 60.1715 211.578 55.8389 0.62205 -0.00140141
1244400 60.1715 211.591 55.8389 0.62215 -0.0011343
1244600 60.1715 211.604 55.8389 0.62225 0.00424798
1244800 60.1715 211.617 55.8389 0.62235 7.44221e-05
1245000 60.1715 211.63 55.8389 0.62245 0.0168482
1245200 60.1715 211.643 55.8389 0.62255 0.0169869
1245400 60.1715 211.656 55.8389 0.62265 0.027495
1245600 60.1715 211.669 55.8389 0.62275 0.0347689
1245800 60.1715 211.682 55.8389 0.62285 0.018591
1246000 60.1715 211.695 55.8389 0.62295 0.0298495
1246200 60.1715 211.708 55.8389 0.62305 0.023842
1246400 60.1715 211.721 55.8389 0.62315 0.0118241
1246600 60.1715 211.734 55.8389 0.62325 -0.00440386
1246800 60.1715 211.748 55.8389 0.62335 0.00927566
1247000 60.1715 211.761 55.8389 0.62345 0.00142005
1247200 60.1715 211.774 55.8389 0.62355 -0.00118254
1247400 60.1715 211.787 55.8389 0.62365 -0.0124228
1247600 60.1715 211.8 55.8389 0.62375 -0.0178306
1247800 60.1715 211.813 55.8389 0.62385 -0.00829253
1248000 60.1715 211.826 55.8389 0.62395 -0.00782385
1248200 60.1715 211.839 55.8389 0.62405 -0.0134086
1248400 60.1715 211.852 55.8389 0.62415 0.0110779
1248600 60.1715 211.865 55.8389 0.62425 -0.00226172
1248800 60.1715 211.878 55.8389 0.62435 0.00746414
1249000 60.1715 211.891 55.8389 0.62445 0.0182309
1249200 60.1715 211.904 55.8389 0.62455 0.020981
1249400 60.1715 211.917 55.8389 0.62465 0.0147394
1249600 60.1715 211.93 55.8389 0.62475 0.0417792
1249800 60.1715 211.943 55.8389 0.62485 0.0298851
1250000 60.1715 211.956 55.8389 0.62495 0.0139131
1250200 60.1715 211.969 55.8389 0.62505 0.00616185
1250400 60.1715 211.982 55.8389 0.62515 0.0146094
1250600 60.1715 211.995 55.8389 0.62525 0.0285632
1250800 60.1715 212.008 55.8389 0.62535 0.00109484
1251000 60.1715 212.021 55.8389 0.62545 -0.0161218
1251200 60.1715 212.034 55.8389 0.62555 -0.017935
1251400 60.1715 212.048 55.8389 0.62565 -0.0101469
1251600 60.1715 212.061 55.8389 0.62575 -0.0156969
1251800 60.1715 212.074 55.8389 0.62585 0.00302828
1252000 60.1715 212.087 55.8389 0.62595 -0.00461779
1252200 60.1715 212.1 55.8389 0.62605 -0.0120478
1252400 60.1715 212.113 55.8389 0.62615 -0.00911892
1252600 60.1715 212.126 55.8389 0.62625 0.0077379
1252800 60.1715 212.139 55.8389 0.62635 0.0149488
1253000 60.1715 212.152 55.8389 0.62645 0.030224
1253200 60.1715 212.165 55.8389 0.62655 0.0397868
1253400 60.1715 212.178 55.8389 0.62665 0.00909069
1253600 60.1715 212.191 55.8389 0.62675 0.0327147
1253800 60.1715 212.204 55.8389 0.62685 0.0151795
1254000 60.1715 212.217 55.8389 0.62695 0.0409853
1254200 60.1715 212.23 55.8389 0.62705 0.00412821
1254400 60.1715 212.243 55.8389 0.62715 0.0129581
1254600 60.1715 212.256 55.8389 0.62725 0.0159253
1254800 60.1715 212.269 55.8389 0.62735 0.00108816
1255000 60.1715 212.282 55.8389 0.62745 -0.0273296
1255200 60.1715 212.295 55.8389 0.62755 -0.0167408
1255400 60.1715 212.308 55.8389 0.62765 -0.0330067
1255600 60.1715 212.321 55.8389 0.62775 -0.000124442
1255800 60.1715 212.334 55.8389 0.62785 -0.0121805
1256000 60.1715 212.348 55.8389 0.62795 -0.00479965
1256200 60.1715 212.361 55.8389 0.62805 -0.0135781
1256400 60.1715 212.374 55.8389 0.62815 0.00729095
1256600 60.1715 212.387 55.8389 0.62825 0.0118946
1256800 60.1715 212.4 55.8389 0.62835 0.0052017
1257000 60.1715 212.413 55.8389 0.62845 0.0374193
1257200 60.1715 212.426 55.8389 0.62855 0.0301291
1257400 60.1715 212.439 55.8389 0.62865 0.0358835
1257600 60.1715 212.452 55.8389 0.62875 0.0249083
1257800 60.1715 212.465 55.8389 0.62885 0.0198118
1258000 60.1715 212.478 55.8389 0.62895 0.0186325
1258200 60.1715 212.491 55.8389 0.62905 0.0320977
1258400 60.1715 212.504 55.8389 0.62915 0.00327953
1258600 60.1715 212.517 55.8389 0.62925 0.00723191
1258800 60.1715 212.53 55.8389 0.62935 0.00416253
1259000 60.1715 212.543 55.8389 0.62945 -0.0249324
1259200 60.1715 212.556 55.8389 0.62955 -0.0105774
1259400 60.1715 212.569 55.8389 0.62965 -0.0223187
1259600 60.1715 212.582 55.8389 0.62975 -0.0125065
1259800 60.1715 212.595 55.8389 0.62985 -0.0132711
1260000 60.1715 212.608 55.8389 0.62995 -0.00927273
1260200 60.1715 212.621 55.8389 0.63005 -0.00789656
1260400 60.1715 212.635 55.8389 0.63015 -0.00239823
1260600 60.1715 212.648 55.8389 0.63025 0.0148967
1260800 60.1715 212.661 55.8389 0.63035 0.0203063
1261000 60.1715 212.674 55.8389 0.63045 0.0390874
1261200 60.1715 212.687 55.8389 0.63055 0.0236546
1261400 60.1715 212.7 55.8389 0.63065 0.0313225
1261600 60.1715 212.713 55.8389 0.63075 0.028226
1261800 60.1715 212.726 55.8389 0.63085 0.0434149
1262000 60.1715 212.739 55.8389 0.63095 0.0132862
1262200 60.1715 212.752 55.8389 0.63105 0.00408152
1262400 60.1715 212.765 55.8389 0.63115 0.0184691
1262600 60.1715 212.778 55.8389 0.63125 -0.0169108
1262800 60.1715 212.791 55.8389 0.63135 -0.00268149
1263000 60.1715 212.804 55.8389 0.63145 -0.0217272
1263200 60.1715 212.817 55.8389 0.63155 -0.028023
1263400 60.1715 212.83 55.8389 0.63165 -0.0140236
1263600 60.1715 212.843 55.8389 0.63175 0.00214927
1263800 60.1715 212.856 55.8389 0.63185 -0.0132102
1264000 60.1715 212.869 55.8389 0.63195 -0.00474478
1264200 60.1715 212.882 55.8389 0.63205 -0.00829446
1264400 60.1715 212.895 55.8389 0.63215 0.00482857
1264600 60.1715 212.908 55.8389 0.63225 0.0261025
1264800 60.1715 212.921 55.8389 0.63235 0.0279181
1265000 60.1715 212.935 55.8389 0.63245 0.0120107
1265200 60.1715 212.948 55.8389 0.63255 0.0367811
1265400 60.1715 212.961 55.8389 0.63265 0.0401422
1265600 60.1715 212.974 55.8389 0.63275 0.024114
1265800 60.1715 212.987 55.8389 0.63285 0.0263898
1266000 60.1715 213 55.8389 0.63295 0.0152324
1266200 60.1715 213.013 55.8389 0.63305 0.0199784
1266400 60.1715 213.026 55.8389 0.63315 -0.00367737
1266600 60.1715 213.039 55.8389 0.63325 0.0153909
1266800 60.1715 213.052 55.8389 0.63335 -0.00832528
1267000 60.1715 213.065 55.8389 0.63345 -0.0318477
1267200 60.1715 213.078 55.8389 0.63355 -0.0291591
1267400 60.1715 213.091 55.8389 0.63365 -0.0172856
1267600 60.1715 213.104 55.8389 0.63375 -0.00291983
1267800 60.1715 213.117 55.8389 0.63385 -0.00617466
1268000 60.1715 213.13 55.8389 0.63395 -0.00599373
1268200 60.1715 213.143 55.8389 0.63405 0.00376587
1268400 60.1715 213.156 55.8389 0.63415 -0.00386988
1268600 60.1715 213.169 55.8389 0.63425 0.0196745
1268800 60.1715 213.182 55.8389 0.63435 0.0324629
1269000 60.1715 213.195 55.8389 0.63445 0.00966635
1269200 60.1715 213.208 55.8389 0.63455 0.0432101
1269400 60.1715 213.221 55.8389 0.63465 0.037074
1269600 60.1715 213.235 55.8389 0.63475 0.0199913
1269800 60.1715 213.248 55.8389 0.63485 0.00706499
1270000 60.1715 213.261 55.8389 0.63495 0.0135039
1270200 60.1715 213.274 55.8389 0.63505 0.0139334
1270400 60.1715 213.287 55.8389 0.63515 -0.00263016
1270600 60.1715 213.3 55.8389 0.63525 0.0059548
1270800 60.1715 213.313 55.8389 0.63535 0.00412473
1271000 60.1715 213.326 55.8389 0.63545 -0.0342871
1271200 60.1715 213.339 55.8389 0.63555 -0.0110365
1271400 60.1715 213.352 55.8389 0.63565 -0.0236208
1271600 60.1715 213.365 55.8389 0.63575 -0.0122882
1271800 60.1715 213.378 55.8389 0.63585 0.0100732
1272000 60.1715 213.391 55.8389 0.63595 -0.00364005
1272200 60.1715 213.404 55.8389 0.63605 0.015924
1272400 60.1715 213.417 55.8389 0.63615 0.00781191
1272600 60.1715 213.43 55.8389 0.63625 0.0168834
1272800 60.1715 213.443 55.8389 0.63635 0.0226936
1273000 60.1715 213.456 55.8389 0.63645 0.00860971
1273200 60.1715 213.469 55.8389 0.63655 0.044525
1273400 60.1715 213.482 55.8389 0.63665 0.047659
1273600 60.1715 213.495 55.8389 0.63675 0.0255937
1273800 60.1715 213.508 55.8389 0.63685 0.0138441
1274000 60.1715 213.521 55.8389 0.63695 0.0077272
1274200 60.1715 213.535 55.8389 0.63705 -0.00173054
1274400 60.1715 213.548 55.8389 0.63715 0.00646019
1274600 60.1715 213.561 55.8389 0.63725 -0.00985766
1274800 60.1715 213.574 55.8389 0.63735 -0.00678786
1275000 60.1715 213.587 55.8389 0.63745 -0.0157268
1275200 60.1715 213.6 55.8389 0.63755 -0.0219272
1275400 60.1715 213.613 55.8389 0.63765 -0.0221434
1275600 60.1715 213.626 55.8389 0.63775 -0.0211888
1275800 60.1715 213.639 55.8389 0.63785 -0.0037508
1276000 60.1715 213.652 55.8389 0.63795 -0.0042503
1276200 60.1715 213.665 55.8389 0.63805 0.0151403
1276400 60.1715 213.678 55.8389 0.63815 0.0204282
1276600 60.1715 213.691 55.8389 0.63825 0.0282877
1276800 60.1715 213.704 55.8389 0.63835 0.00824294
1277000 60.1715 213.717 55.8389 0.63845 0.0290285
1277200 60.1715 213.73 55.8389 0.63855 0.038021
1277400 60.1715 213.743 55.8389 0.63865 0.0382783
1277600 60.1715 213.756 55.8389 0.63875 0.0444027
1277800 60.1715 213.769 55.8389 0.63885 0.0310783
1278000 60.1715 213.782 55.8389 0.63895 0.00212377
1278200 60.1715 213.795 55.8389 0.63905 -0.00419462
1278400 60.1715 213.808 55.8389 0.63915 -0.016488
1278600 60.1715 213.821 55.8389 0.63925 -0.00776726
1278800 60.1715 213.835 55.8389 0.63935 -0.00626725
1279000 60.1715 213.848 55.8389 0.63945 -0.0331309
1279200 60.1715 213.861 55.8389 0.63955 -0.017145
1279400 60.1715 213.874 55.8389 0.63965 -0.0146523
1279600 60.1715 213.887 55.8389 0.63975 -0.0309368
1279800 60.1715 213.9 55.8389 0.63985 0.00290253
1280000 60.1715 213.913 55.8389 0.63995 -0.00149657
1280200 60.1715 213.926 55.8389 0.64005 0.0215528
1280400 60.1715 213.939 55.8389 0.64015 0.0214042
1280600 60.1715 213.952 55.8389 0.64025 0.0437342
1280800 60.1715 213.965 55.8389 0.64035 0.0211789
1281000 60.1715 213.978 55.8389 0.64045 0.0310278
1281200 60.1715 213.991 55.8389 0.64055 0.0307994
1281400 60.1715 214.004 55.8389 0.64065 0.0446088
1281600 60.1715 214.017 55.8389 0.64075 0.0177709
1281800 60.1715 214.03 55.8389 0.64085 0.0190447
1282000 60.1715 214.043 55.8389 0.64095 0.00976704
1282200 60.1715 214.056 55.8389 0.64105 -0.0199446
1282400 60.1715 214.069 55.8389 0.64115 -0.00929149
1282600 60.1715 214.082 55.8389 0.64125 -0.0263835
1282800 60.1715 214.095 55.8389 0.64135 -0.0141763
1283000 60.1715 214.108 55.8389 0.64145 -0.0308224
1283200 60.1715 214.122 55.8389 0.64155 0.000814129
1283400 60.1715 214.135 55.8389 0.64165 -0.0320178
1283600 60.1715 214.148 55.8389 0.64175 -0.00203553
1283800 60.1715 214.161 55.8389 0.64185 -0.00789338
1284000 60.1715 214.174 55.8389 0.64195 0.000529892
1284200 60.1715 214.187 55.8389 0.64205 0.0174624
1284400 60.1715 214.2 55.8389 0.64215 0.053827
1284600 60.1715 214.213 55.8389 0.64225 0.0255527
1284800 60.1715 214.226 55.8389 0.64235 0.048753
1285000 60.1715 214.239 55.8389 0.64245 0.0354286
1285200 60.1715 214.252 55.8389 0.64255 0.013272
1285400 60.1715 214.265 55.8389 0.64265 0.0427943
1285600 60.1715 214.278 55.8389 0.64275 0.0302623
1285800 60.1715 214.291 55.8389 0.64285 0.00900503
1286000 60.1715 214.304 55.8389 0.64295 0.000234915
1286200 60.1715 214.317 55.8389 0.64305 0.00452064
1286400 60.1715 214.33 55.8389 0.64315 -0.0297485
1286600 60.1715 214.343 55.8389 0.64325 -0.0280813
1286800 60.1715 214.356 55.8389 0.64335 -0.0311615
1287000 60.1715 214.369 55.8389 0.64345 -0.0254319
1287200 60.1715 214.382 55.8389 0.64355 -0.0182362
1287400 60.1715 214.395 55.8389 0.64365 -0.0064101
1287600 60.1715 214.408 55.8389 0.64375 -0.00634127
1287800 60.1715 214.422 55.8389 0.64385 -0.0060505
1288000 60.1715 214.435 55.8389 0.64395 0.0114846
1288200 60.1715 214.448 55.8389 0.64405 0.0159755
1288400 60.1715 214.461 55.8389 0.64415 0.0371957
1288600 60.1715 214.474 55.8389 0.64425 0.0491885
1288800 60.1715 214.487 55.8389 0.64435 0.0433732
1289000 60.1715 214.5 55.8389 0.64445 0.0333843
1289200 60.1715 214.513 55.8389 0.64455 0.0235104
1289400 60.1715 214.526 55.8389 0.64465 0.031122
1289600 60.1715 214.539 55.8389 0.64475 0.0250244
1289800 60.1715 214.552 55.8389 0.64485 0.00835852
1290000 60.1715 214.565 55.8389 0.64495 -0.0147613
1290200 60.1715 214.578 55.8389 0.64505 0.0164575
1290400 60.1715 214.591 55.8389 0.64515 -0.0307444
1290600 60.1715 214.604 55.8389 0.64525 -0.0376843
1290800 60.1715 214.617 55.8389 0.64535 -0.0251601
1291000 60.1715 214.63 55.8389 0.64545 -0.0233007
1291200 60.1715 214.643 55.8389 0.64555 -0.0263635
1291400 60.1715 214.656 55.8389 0.64565 0.00228034
1291600 60.1715 214.669 55.8389 0.64575 -0.0329093
1291800 60.1715 214.682 55.8389 0.64585 0.00928626
1292000 60.1715 214.695 55.8389 0.64595 0.0133974
1292200 60.1715 214.708 55.8389 0.64605 0.0272877
1292400 60.1715 214.722 55.8389 0.64615 0.0593958
1292600 60.1715 214.735 55.8389 0.64625 0.0328963
1292800 60.1715 214.748 55.8389 0.64635 0.0546913
1293000 60.1715 214.761 55.8389 0.64645 0.0399119
1293200 60.1715 214.774 55.8389 0.64655 0.026626
1293400 60.1715 214.787 55.8389 0.64665 0.0310417
1293600 60.1715 214.8 55.8389 0.64675 0.0223565
1293800 60.1715 214.813 55.8389 0.64685 0.0107784
1294000 60.1715 214.826 55.8389 0.64695 0.0018293
1294200 60.1715 214.839 55.8389 0.64705 -0.032158
1294400 60.1715 214.852 55.8389 0.64715 -0.0211372
1294600 60.1715 214.865 55.8389 0.64725 -0.0282292
1294800 60.1715 214.878 55.8389 0.64735 -0.0472378
1295000 60.1715 214.891 55.8389 0.64745 -0.0185144
1295200 60.1715 214.904 55.8389 0.64755 -0.0357757
1295400 60.1715 214.917 55.8389 0.64765 -0.0300126
1295600 60.1715 214.93 55.8389 0.64775 -0.00797264
1295800 60.1715 214.943 55.8389 0.64785 0.00880575
1296000 60.1715 214.956 55.8389 0.64795 0.0349315
1296200 60.1715 214.969 55.8389 0.64805 0.0187254
1296400 60.1715 214.982 55.8389 0.64815 0.0537621
1296600 60.1715 214.995 55.8389 0.64825 0.0503302
1296800 60.1715 215.008 55.8389 0.64835 0.0346422
1297000 60.1715 215.022 55.8389 0.64845 0.0603857
1297200 60.1715 215.035 55.8389 0.64855 0.0260314
1297400 60.1715 215.048 55.8389 0.64865 0.0335992
1297600 60.1715 215.061 55.8389 0.64875 0.0234954
1297800 60.1715 215.074 55.8389 0.64885 0.00465585
1298000 60.1715 215.087 55.8389 0.64895 -0.01908
1298200 60.1715 215.1 55.8389 0.64905 -0.00981972
1298400 60.1715 215.113 55.8389 0.64915 -0.0232137
1298600 60.1715 215.126 55.8389 0.64925 -0.045782
1298800 60.1715 215.139 55.8389 0.64935 -0.0353989
1299000 60.1715 215.152 55.8389 0.64945 -0.0277532
1299200 60.1715 215.165 55.8389 0.64955 -0.0113024
1299400 60.1715 215.178 55.8389 0.64965 -0.0127906
1299600 60.1715 215.191 55.8389 0.64975 -0.00408724
1299800 60.1715 215.204 55.8389 0.64985 0.025357
1300000 60.1715 215.217 55.8389 0.64995 0.0232846
1300200 60.1715 215.23 55.8389 0.65005 0.0465391
1300400 60.1715 215.243 55.8389 0.65015 0.0255182
1300600 60.1715 215.256 55.8389 0.65025 0.0342933
1300800 60.1715 215.269 55.8389 0.65035 0.050979
1301000 60.1715 215.282 55.8389 0.65045 0.0316516
1301200 60.1715 215.295 55.8389 0.65055 0.0353596
1301400 60.1715 215.308 55.8389 0.65065 0.0228905
1301600 60.1715 215.322 55.8389 0.65075 0.00375159
1301800 60.1715 215.335 55.8389 0.65085 0.000645722
1302000 60.1715 215.348 55.8389 0.65095 -0.0283356
1302200 60.1715 215.361 55.8389 0.65105 -0.0167611
1302400 60.1715 215.374 55.8389 0.65115 -0.033413
1302600 60.1715 215.387 55.8389 0.65125 -0.0213569
1302800 60.1715 215.4 55.8389 0.65135 -0.0200375
1303000 60.1715 215.413 55.8389 0.65145 -0.0157786
1303200 60.1715 215.426 55.8389 0.65155 -0.0331321
1303400 60.1715 215.439 55.8389 0.65165 0.00894438
1303600 60.1715 215.452 55.8389 0.65175 0.0117051
1303800 60.1715 215.465 55.8389 0.65185 0.00232786
1304000 60.1715 215.478 55.8389 0.65195 0.0246485
1304200 60.1715 215.491 55.8389 0.65205 0.0516839
1304400 60.1715 215.504 55.8389 0.65215 0.0395991
1304600 60.1715 215.517 55.8389 0.65225 0.0351521
1304800 60.1715 215.53 55.8389 0.65235 0.0341912
1305000 60.1715 215.543 55.8389 0.65245 0.0428157
1305200 60.1715 215.556 55.8389 0.65255 0.0116835
1305400 60.1715 215.569 55.8389 0.65265 0.025321
1305600 60.1715 215.582 55.8389 0.65275 -0.00693363
1305800 60.1715 215.595 55.8389 0.65285 0.00165588
1306000 60.1715 215.609 55.8389 0.65295 -0.0258571
1306200 60.1715 215.622 55.8389 0.65305 -0.0257491
1306400 60.1715 215.635 55.8389 0.65315 -0.00718704
1306600 60.1715 215.648 55.8389 0.65325 -0.0197748
1306800 60.1715 215.661 55.8389 0.65335 -0.0209406
1307000 60.1715 215.674 55.8389 0.65345 -0.0131368
1307200 60.1715 215.687 55.8389 0.65355 -0.0149301
1307400 60.1715 215.7 55.8389 0.65365 -0.00029576
1307600 60.1715 215.713 55.8389 0.65375 0.0102789
1307800 60.1715 215.726 55.8389 0.65385 0.0316702
1308000 60.1715 215.739 55.8389 0.65395 0.0218437
1308200 60.1715 215.752 55.8389 0.65405 0.0344861
1308400 60.1715 215.765 55.8389 0.65415 0.0417333
1308600 60.1715 215.778 55.8389 0.65425 0.0297365
1308800 60.1715 215.791 55.8389 0.65435 0.0154548
1309000 60.1715 215.804 55.8389 0.65445 0.0407511
1309200 60.1715 215.817 55.8389 0.65455 0.0188633
1309400 60.1715 215.83 55.8389 0.65465 0.00671874
1309600 60.1715 215.843 55.8389 0.65475 -0.00450271
1309800 60.1715 215.856 55.8389 0.65485 -0.00788184
1310000 60.1715 215.869 55.8389 0.65495 -0.0161985
1310200 60.1715 215.882 55.8389 0.65505 -0.01963
1310400 60.1715 215.895 55.8389 0.65515 -0.0279188
1310600 60.1715 215.909 55.8389 0.65525 -0.0148952
1310800 60.1715 215.922 55.8389 0.65535 -0.0208773
1311000 60.1715 215.935 55.8389 0.65545 -0.00432566
1311200 60.1715 215.948 55.8389 0.65555 0.00080561
1311400 60.1715 215.961 55.8389 0.65565 0.0112729
1311600 60.1715 215.974 55.8389 0.65575 0.0113617
1311800 60.1715 215.987 55.8389 0.65585 0.028232
1312000 60.1715 216 55.8389 0.65595 0.0529093
1312200 60.1715 216.013 55.8389 0.65605 0.0260053
1312400 60.1715 216.026 55.8389 0.65615 0.0272853
1312600 60.1715 216.039 55.8389 0.65625 0.0149903
1312800 60.1715 216.052 55.8389 0.65635 0.0396986
1313000 60.1715 216.065 55.8389 0.65645 0.0227889
1313200 60.1715 216.078 55.8389 0.65655 0.00235195
1313400 60.1715 216.091 55.8389 0.65665 -0.00593377
1313600 60.1715 216.104 55.8389 0.65675 -0.0040217
1313800 60.1715 216.117 55.8389 0.65685 -0.00692411
1314000 60.1715 216.13 55.8389 0.65695 -0.0327288
1314200 60.1715 216.143 55.8389 0.65705 -0.0160474
1314400 60.1715 216.156 55.8389 0.65715 -0.0173896
1314600 60.1715 216.169 55.8389 0.65725 -0.0100773
1314800 60.1715 216.182 55.8389 0.65735 0.012362
1315000 60.1715 216.195 55.8389 0.65745 0.00617072
1315200 60.1715 216.209 55.8389 0.65755 -0.0114077
1315400 60.1715 216.222 55.8389 0.65765 0.0121072
1315600 60.1715 216.235 55.8389 0.65775 0.0284502
1315800 60.1715 216.248 55.8389 0.65785 0.0191679
1316000 60.1715 216.261 55.8389 0.65795 0.0212672
1316200 60.1715 216.274 55.8389 0.65805 0.0374899
1316400 60.1715 216.287 55.8389 0.65815 0.0388614
1316600 60.1715 216.3 55.8389 0.65825 0.00717123
1316800 60.1715 216.313 55.8389 0.65835 0.00729745
1317000 60.1715 216.326 55.8389 0.65845 0.00455476
1317200 60.1715 216.339 55.8389 0.65855 0.0247716
1317400 60.1715 216.352 55.8389 0.65865 0.00941735
1317600 60.1715 216.365 55.8389 0.65875 -0.0208602
1317800 60.1715 216.378 55.8389 0.65885 -0.00435007
1318000 60.1715 216.391 55.8389 0.65895 -0.015593
1318200 60.1715 216.404 55.8389 0.65905 -0.0294772
1318400 60.1715 216.417 55.8389 0.65915 -0.000196869
1318600 60.1715 216.43 55.8389 0.65925 -0.00986123
1318800 60.1715 216.443 55.8389 0.65935 -0.0124367
1319000 60.1715 216.456 55.8389 0.65945 0.015616
1319200 60.1715 216.469 55.8389 0.65955 0.0202357
1319400 60.1715 216.482 55.8389 0.65965 0.00977735
1319600 60.1715 216.495 55.8389 0.65975 0.00737055
1319800 60.1715 216.509 55.8389 0.65985 0.0182525
1320000 60.1715 216.522 55.8389 0.65995 0.0410019
1320200 60.1715 216.535 55.8389 0.66005 0.0348715
1320400 60.1715 216.548 55.8389 0.66015 0.0354297
1320600 60.1715 216.561 55.8389 0.66025 0.0415349
1320800 60.1715 216.574 55.8389 0.66035 0.00308424
1321000 60.1715 216.587 55.8389 0.66045 0.00630996
1321200 60.1715 216.6 55.8389 0.66055 -0.00448829
1321400 60.1715 216.613 55.8389 0.66065 0.00465356
1321600 60.1715 216.626 55.8389 0.66075 -0.0123249
1321800 60.1715 216.639 55.8389 0.66085 -0.0152869
1322000 60.1715 216.652 55.8389 0.66095 -0.017914
1322200 60.1715 216.665 55.8389 0.66105 -0.0201688
1322400 60.1715 216.678 55.8389 0.66115 -0.0342061
1322600 60.1715 216.691 55.8389 0.66125 -0.0157997
1322800 60.1715 216.704 55.8389 0.66135 -0.00544741
1323000 60.1715 216.717 55.8389 0.66145 0.0138749
1323200 60.1715 216.73 55.8389 0.66155 0.0232139
1323400 60.1715 216.743 55.8389 0.66165 0.0112959
1323600 60.1715 216.756 55.8389 0.66175 -0.00162095
1323800 60.1715 216.769 55.8389 0.66185 0.0284644
1324000 60.1715 216.782 55.8389 0.66195 0.0513843
1324200 60.1715 216.795 55.8389 0.66205 0.0393072
1324400 60.1715 216.809 55.8389 0.66215 0.0292416
1324600 60.1715 216.822 55.8389 0.66225 0.0297034
1324800 60.1715 216.835 55.8389 0.66235 0.0322621
1325000 60.1715 216.848 55.8389 0.66245 0.00985337
1325200 60.1715 216.861 55.8389 0.66255 -0.0201163
1325400 60.1715 216.874 55.8389 0.66265 -0.00886967
1325600 60.1715 216.887 55.8389 0.66275 0.0136005
1325800 60.1715 216.9 55.8389 0.66285 -0.000330792
1326000 60.1715 216.913 55.8389 0.66295 -0.0277249
1326200 60.1715 216.926 55.8389 0.66305 -0.0358238
1326400 60.1715 216.939 55.8389 0.66315 -0.0205041
1326600 60.1715 216.952 55.8389 0.66325 -0.00872503
1326800 60.1715 216.965 55.8389 0.66335 -0.00414449
1327000 60.1715 216.978 55.8389 0.66345 0.007672
1327200 60.1715 216.991 55.8389 0.66355 0.022168
1327400 60.1715 217.004 55.8389 0.66365 0.00771126
1327600 60.1715 217.017 55.8389 0.66375 0.0210148
1327800 60.1715 217.03 55.8389 0.66385 0.0151098
1328000 60.1715 217.043 55.8389 0.66395 0.0366007
1328200 60.1715 217.056 55.8389 0.66405 0.0359659
1328400 60.1715 217.069 55.8389 0.66415 0.0418184
1328600 60.1715 217.082 55.8389 0.66425 0.0343159
1328800 60.1715 217.096 55.8389 0.66435 0.00689878
1329000 60.1715 217.109 55.8389 0.66445 -0.00591937
1329200 60.1715 217.122 55.8389 0.66455 0.0117266
1329400 60.1715 217.135 55.8389 0.66465 -0.00836835
1329600 60.1715 217.148 55.8389 0.66475 -0.0209629
1329800 60.1715 217.161 55.8389 0.66485 -0.00414291
1330000 60.1715 217.174 55.8389 0.66495 -0.0115182
1330200 60.1715 217.187 55.8389 0.66505 -0.0361284
1330400 60.1715 217.2 55.8389 0.66515 -0.0232215
1330600 60.1715 217.213 55.8389 0.66525 -0.00420604
1330800 60.1715 217.226 55.8389 0.66535 -0.0099117
1331000 60.1715 217.239 55.8389 0.66545 0.0167711
1331200 60.1715 217.252 55.8389 0.66555 0.0144826
1331400 60.1715 217.265 55.8389 0.66565 0.00967977
1331600 60.1715 217.278 55.8389 0.66575 0.032831
1331800 60.1715 217.291 55.8389 0.66585 0.0340321
1332000 60.1715 217.304 55.8389 0.66595 0.0407133
1332200 60.1715 217.317 55.8389 0.66605 0.0376819
1332400 60.1715 217.33 55.8389 0.66615 0.0376346
1332600 60.1715 217.343 55.8389 0.66625 0.041497
1332800 60.1715 217.356 55.8389 0.66635 -0.00504172
1333000 60.1715 217.369 55.8389 0.66645 -0.00387143
1333200 60.1715 217.382 55.8389 0.66655 -0.0135624
1333400 60.1715 217.396 55.8389 0.66665 -0.0156362
1333600 60.1715 217.409 55.8389 0.66675 0.00439384
1333800 60.1715 217.422 55.8389 0.66685 -0.0131131
1334000 60.1715 217.435 55.8389 0.66695 -0.00770627
1334200 60.1715 217.448 55.8389 0.66705 -0.0298634
1334400 60.1715 217.461 55.8389 0.66715 -0.0148135
1334600 60.1715 217.474 55.8389 0.66725 -0.00557975
1334800 60.1715 217.487 55.8389 0.66735 0.00239286
1335000 60.1715 217.5 55.8389 0.66745 0.0091749
1335200 60.1715 217.513 55.8389 0.66755 0.00398501
1335400 60.1715 217.526 55.8389 0.66765 0.0253192
1335600 60.1715 217.539 55.8389 0.66775 0.0171644
1335800 60.1715 217.552 55.8389 0.66785 0.0240017
1336000 60.1715 217.565 55.8389 0.66795 0.0437485
1336200 60.1715 217.578 55.8389 0.66805 0.0291983
1336400 60.1715 217.591 55.8389 0.66815 0.0268109
1336600 60.1715 217.604 55.8389 0.66825 0.0325621
1336800 60.1715 217.617 55.8389 0.66835 0.0055837
1337000 60.1715 217.63 55.8389 0.66845 0.00864619
1337200 60.1715 217.643 55.8389 0.66855 -0.0141117
1337400 60.1715 217.656 55.8389 0.66865 -0.0159819
1337600 60.1715 217.669 55.8389 0.66875 -0.00493153
1337800 60.1715 217.682 55.8389 0.66885 -0.0308973
1338000 60.1715 217.696 55.8389 0.66895 -0.00421628
1338200 60.1715 217.709 55.8389 0.66905 -0.0169406
1338400 60.1715 217.722 55.8389 0.66915 -0.0022013
1338600 60.1715 217.735 55.8389 0.66925 -0.00457459
1338800 60.1715 217.748 55.8389 0.66935 -0.00617896
1339000 60.1715 217.761 55.8389 0.66945 0.0129869
1339200 60.1715 217.774 55.8389 0.66955 0.021133
1339400 60.1715 217.787 55.8389 0.66965 0.0302753
1339600 60.1715 217.8 55.8389 0.66975 0.0360616
1339800 60.1715 217.813 55.8389 0.66985 0.0260731
1340000 60.1715 217.826 55.8389 0.66995 0.0395318
1340200 60.1715 217.839 55.8389 0.67005 0.0210955
1340400 60.1715 217.852 55.8389 0.67015 0.017212
1340600 60.1715 217.865 55.8389 0.67025 0.0144438
1340800 60.1715 217.878 55.8389 0.67035 0.00709745
1341000 60.1715 217.891 55.8389 0.67045 0.00564669
1341200 60.1715 217.904 55.8389 0.67055 0.00156679
1341400 60.1715 217.917 55.8389 0.67065 -0.0196024
1341600 60.1715 217.93 55.8389 0.67075 -0.0257184
1341800 60.1715 217.943 55.8389 0.67085 -0.0118898
1342000 60.1715 217.956 55.8389 0.67095 -0.0344906
1342200 60.1715 217.969 55.8389 0.67105 0.00377948
1342400 60.1715 217.982 55.8389 0.67115 -0.0175361
1342600 60.1715 217.996 55.8389 0.67125 0.00774621
1342800 60.1715 218.009 55.8389 0.67135 -0.000160929
1343000 60.1715 218.022 55.8389 0.67145 0.0135426
1343200 60.1715 218.035 55.8389 0.67155 0.0254208
1343400 60.1715 218.048 55.8389 0.67165 0.014242
1343600 60.1715 218.061 55.8389 0.67175 0.0394017
1343800 60.1715 218.074 55.8389 0.67185 0.037751
1344000 60.1715 218.087 55.8389 0.67195 0.033295
1344200 60.1715 218.1 55.8389 0.67205 0.0125239
1344400 60.1715 218.113 55.8389 0.67215 0.0375309
1344600 60.1715 218.126 55.8389 0.67225 0.0122586
1344800 60.1715 218.139 55.8389 0.67235 0.0205502
1345000 60.1715 218.152 55.8389 0.67245 -0.0240647
1345200 60.1715 218.165 55.8389 0.67255 -0.0030475
1345400 60.1715 218.178 55.8389 0.67265 -0.0144357
1345600 60.1715 218.191 55.8389 0.67275 -0.0107162
1345800 60.1715 218.204 55.8389 0.67285 -0.0150525
1346000 60.1715 218.217 55.8389 0.67295 -0.0197331
1346200 60.1715 218.23 55.8389 0.67305 -0.0199345
1346400 60.1715 218.243 55.8389 0.67315 -0.0195996
1346600 60.1715 218.256 55.8389 0.67325 -0.00368179
1346800 60.1715 218.269 55.8389 0.67335 0.00923335
1347000 60.1715 218.282 55.8389 0.67345 0.0132989
1347200 60.1715 218.296 55.8389 0.67355 0.0213281
1347400 60.1715 218.309 55.8389 0.67365 0.0390643
1347600 60.1715 218.322 55.8389 0.67375 0.0272573
1347800 60.1715 218.335 55.8389 0.67385 0.0462928
1348000 60.1715 218.348 55.8389 0.67395 0.0444114
1348200 60.1715 218.361 55.8389 0.67405 0.0282836
1348400 60.1715 218.374 55.8389 0.67415 0.018318
1348600 60.1715 218.387 55.8389 0.67425 0.0174188
1348800 60.1715 218.4 55.8389 0.67435 -0.00781551
1349000 60.1715 218.413 55.8389 0.67445 0.00759856
1349200 60.1715 218.426 55.8389 0.67455 -0.0297088
1349400 60.1715 218.439 55.8389 0.67465 -0.019359
1349600 60.1715 218.452 55.8389 0.67475 -0.0135811
1349800 60.1715 218.465 55.8389 0.67485 -0.0250259
1350000 60.1715 218.478 55.8389 0.67495 -0.0203673
1350200 60.1715 218.491 55.8389 0.67505 -0.0198071
1350400 60.1715 218.504 55.8389 0.67515 -0.00153133
1350600 60.1715 218.517 55.8389 0.67525 0.000832478
1350800 60.1715 218.53 55.8389 0.67535 -0.000631089
1351000 60.1715 218.543 55.8389 0.67545 0.0364388
1351200 60.1715 218.556 55.8389 0.67555 0.0304258
1351400 60.1715 218.569 55.8389 0.67565 0.0313072
1351600 60.1715 218.583 55.8389 0.67575 0.0330764
1351800 60.1715 218.596 55.8389 0.67585 0.0476679
1352000 60.1715 218.609 55.8389 0.67595 0.0342554
1352200 60.1715 218.622 55.8389 0.67605 0.0277503
1352400 60.1715 218.635 55.8389 0.67615 0.0128635
1352600 60.1715 218.648 55.8389 0.67625 0.018496
1352800 60.1715 218.661 55.8389 0.67635 -0.00811474
1353000 60.1715 218.674 55.8389 0.67645 -0.0226713
1353200 60.1715 218.687 55.8389 0.67655 -0.0132792
1353400 60.1715 218.7 55.8389 0.67665 -0.0361642
1353600 60.1715 218.713 55.8389 0.67675 -0.0227943
1353800 60.1715 218.726 55.8389 0.67685 -0.00917166
1354000 60.1715 218.739 55.8389 0.67695 -0.0166258
1354200 60.1715 218.752 55.8389 0.67705 -0.0179242
1354400 60.1715 218.765 55.8389 0.67715 0.0081027
1354600 60.1715 218.778 55.8389 0.67725 0.00249333
1354800 60.1715 218.791 55.8389 0.67735 0.0319315
1355000 60.1715 218.804 55.8389 0.67745 0.0300927
1355200 60.1715 218.817 55.8389 0.67755 0.0305459
1355400 60.1715 218.83 55.8389 0.67765 0.0166015
1355600 60.1715 218.843 55.8389 0.67775 0.0529159
1355800 60.1715 218.856 55.8389 0.67785 0.0371474
1356000 60.1715 218.869 55.8389 0.67795 0.0131276
1356200 60.1715 218.883 55.8389 0.67805 0.0338511
1356400 60.1715 218.896 55.8389 0.67815 0.00892714
1356600 60.1715 218.909 55.8389 0.67825 -0.0101175
1356800 60.1715 218.922 55.8389 0.67835 -0.0224014
1357000 60.1715 218.935 55.8389 0.67845 -0.00494072
1357200 60.1715 218.948 55.8389 0.67855 -0.0160911
1357400 60.1715 218.961 55.8389 0.67865 -0.0319607
1357600 60.1715 218.974 55.8389 0.67875 -0.0191887
1357800 60.1715 218.987 55.8389 0.67885 -0.0203338
1358000 60.1715 219 55.8389 0.67895 0.00281341
1358200 60.1715 219.013 55.8389 0.67905 -0.00889817
1358400 60.1715 219.026 55.8389 0.67915 0.00736058
1358600 60.1715 219.039 55.8389 0.67925 0.0314906
1358800 60.1715 219.052 55.8389 0.67935 0.0365732
1359000 60.1715 219.065 55.8389 0.67945 0.0225137
1359200 60.1715 219.078 55.8389 0.67955 0.0300046
1359400 60.1715 219.091 55.8389 0.67965 0.0304334
1359600 60.1715 219.104 55.8389 0.67975 0.0402821
1359800 60.1715 219.117 55.8389 0.67985 0.0249215
1360000 60.1715 219.13 55.8389 0.67995 0.0237463
1360200 60.1715 219.143 55.8389 0.68005 -0.0015391
1360400 60.1715 219.156 55.8389 0.68015 0.000337087
1360600 60.1715 219.169 55.8389 0.68025 0.00520904
1360800 60.1715 219.183 55.8389 0.68035 -0.0382499
1361000 60.1715 219.196 55.8389 0.68045 -0.0149716
1361200 60.1715 219.209 55.8389 0.68055 -0.00280376
1361400 60.1715 219.222 55.8389 0.68065 -0.0252033
1361600 60.1715 219.235 55.8389 0.68075 -0.0172632
1361800 60.1715 219.248 55.8389 0.68085 -0.00841093
1362000 60.1715 219.261 55.8389 0.68095 -0.0040589
1362200 60.1715 219.274 55.8389 0.68105 -0.00137202
1362400 60.1715 219.287 55.8389 0.68115 0.0162541
1362600 60.1715 219.3 55.8389 0.68125 0.0186809
1362800 60.1715 219.313 55.8389 0.68135 0.0288438
1363000 60.1715 219.326 55.8389 0.68145 0.0363411
1363200 60.1715 219.339 55.8389 0.68155 0.0201347
1363400 60.1715 219.352 55.8389 0.68165 0.042621
1363600 60.1715 219.365 55.8389 0.68175 0.0275064
1363800 60.1715 219.378 55.8389 0.68185 0.0148616
1364000 60.1715 219.391 55.8389 0.68195 0.0175926
1364200 60.1715 219.404 55.8389 0.68205 -0.00387476
1364400 60.1715 219.417 55.8389 0.68215 0.00806646
1364600 60.1715 219.43 55.8389 0.68225 -0.00262857
1364800 60.1715 219.443 55.8389 0.68235 -0.0210878
1365000 60.1715 219.456 55.8389 0.68245 -0.00448303
1365200 60.1715 219.469 55.8389 0.68255 -0.0114017
1365400 60.1715 219.483 55.8389 0.68265 -0.0301181
1365600 60.1715 219.496 55.8389 0.68275 -0.0077028
1365800 60.1715 219.509 55.8389 0.68285 -0.0013644
1366000 60.1715 219.522 55.8389 0.68295 0.00342806
1366200 60.1715 219.535 55.8389 0.68305 0.0121452
1366400 60.1715 219.548 55.8389 0.68315 0.00979191
1366600 60.1715 219.561 55.8389 0.68325 0.0130595
1366800 60.1715 219.574 55.8389 0.68335 0.0236847
1367000 60.1715 219.587 55.8389 0.68345 0.0274009
1367200 60.1715 219.6 55.8389 0.68355 0.0319234
1367400 60.1715 219.613 55.8389 0.68365 0.00757553
1367600 60.1715 219.626 55.8389 0.68375 0.0286736
1367800 60.1715 219.639 55.8389 0.68385 0.0241166
1368000 60.1715 219.652 55.8389 0.68395 -0.00073627
1368200 60.1715 219.665 55.8389 0.68405 0.0112686
1368400 60.1715 219.678 55.8389 0.68415 0.0173128
1368600 60.1715 219.691 55.8389 0.68425 -0.000776641
1368800 60.1715 219.704 55.8389 0.68435 -0.00663527
1369000 60.1715 219.717 55.8389 0.68445 -0.0294843
1369200 60.1715 219.73 55.8389 0.68455 0.000331369
1369400 60.1715 219.743 55.8389 0.68465 -0.0301421
1369600 60.1715 219.756 55.8389 0.68475 -0.01089
1369800 60.1715 219.769 55.8389 0.68485 -0.00948417
1370000 60.1715 219.783 55.8389 0.68495 0.0247239
1370200 60.1715 219.796 55.8389 0.68505 0.00411091
1370400 60.1715 219.809 55.8389 0.68515 0.0162762
1370600 60.1715 219.822 55.8389 0.68525 -0.00290278
1370800 60.1715 219.835 55.8389 0.68535 0.0246863
1371000 60.1715 219.848 55.8389 0.68545 0.0236671
1371200 60.1715 219.861 55.8389 0.68555 0.0504008
1371400 60.1715 219.874 55.8389 0.68565 0.0259866
1371600 60.1715 219.887 55.8389 0.68575 0.0245909
1371800 60.1715 219.9 55.8389 0.68585 0.0159553
1372000 60.1715 219.913 55.8389 0.68595 -0.00545764
1372200 60.1715 219.926 55.8389 0.68605 0.00290878
1372400 60.1715 219.939 55.8389 0.68615 0.00594929
1372600 60.1715 219.952 55.8389 0.68625 -0.00728111
1372800 60.1715 219.965 55.8389 0.68635 0.00286167
1373000 60.1715 219.978 55.8389 0.68645 -0.0202178
1373200 60.1715 219.991 55.8389 0.68655 -0.0155521
1373400 60.1715 220.004 55.8389 0.68665 -0.039075
1373600 60.1715 220.017 55.8389 0.68675 -0.00339747
1373800 60.1715 220.03 55.8389 0.68685 0.0086067
1374000 60.1715 220.043 55.8389 0.68695 0.00537181
1374200 60.1715 220.056 55.8389 0.68705 0.00570435
1374400 60.1715 220.07 55.8389 0.68715 0.0234359
1374600 60.1715 220.083 55.8389 0.68725 0.0235453
1374800 60.1715 220.096 55.8389 0.68735 0.0144604
1375000 60.1715 220.109 55.8389 0.68745 0.0219636
1375200 60.1715 220.122 55.8389 0.68755 0.0355469
1375400 60.1715 220.135 55.8389 0.68765 0.0377042
1375600 60.1715 220.148 55.8389 0.68775 0.027277
1375800 60.1715 220.161 55.8389 0.68785 0.0105641
1376000 60.1715 220.174 55.8389 0.68795 0.0143928
1376200 60.1715 220.187 55.8389 0.68805 -0.0237566
1376400 60.1715 220.2 55.8389 0.68815 0.0113474
1376600 60.1715 220.213 55.8389 0.68825 -0.00207996
1376800 60.1715 220.226 55.8389 0.68835 -0.0136333
1377000 60.1715 220.239 55.8389 0.68845 -0.0158124
1377200 60.1715 220.252 55.8389 0.68855 -0.0230144
1377400 60.1715 220.265 55.8389 0.68865 -0.0324233
1377600 60.1715 220.278 55.8389 0.68875 -0.0112995
1377800 60.1715 220.291 55.8389 0.68885 -0.0021617
1378000 60.1715 220.304 55.8389 0.68895 0.012257
1378200 60.1715 220.317 55.8389 0.68905 0.0307447
1378400 60.1715 220.33 55.8389 0.68915 0.0177502
1378600 60.1715 220.343 55.8389 0.68925 0.0320893
1378800 60.1715 220.356 55.8389 0.68935 0.00849346
1379000 60.1715 220.37 55.8389 0.68945 0.0312359
1379200 60.1715 220.383 55.8389 0.68955 0.0422703
1379400 60.1715 220.396 55.8389 0.68965 0.0395159
1379600 60.1715 220.409 55.8389 0.68975 0.0257138
1379800 60.1715 220.422 55.8389 0.68985 0.00742665
1380000 60.1715 220.435 55.8389 0.68995 -0.0124314
1380200 60.1715 220.448 55.8389 0.69005 -0.00192449
1380400 60.1715 220.461 55.8389 0.69015 -0.0106138
1380600 60.1715 220.474 55.8389 0.69025 -0.00287948
1380800 60.1715 220.487 55.8389 0.69035 -0.0119264
1381000 60.1715 220.5 55.8389 0.69045 -0.0220141
1381200 60.1715 220.513 55.8389 0.69055 -0.0205582
1381400 60.1715 220.526 55.8389 0.69065 -0.0227349
1381600 60.1715 220.539 55.8389 0.69075 -0.0149004
1381800 60.1715 220.552 55.8389 0.69085 0.0158458
1382000 60.1715 220.565 55.8389 0.69095 0.0117996
1382200 60.1715 220.578 55.8389 0.69105 0.0255958
1382400 60.1715 220.591 55.8389 0.69115 0.0147657
1382600 60.1715 220.604 55.8389 0.69125 0.032006
1382800 60.1715 220.617 55.8389 0.69135 0.00565416
1383000 60.1715 220.63 55.8389 0.69145 0.0221899
1383200 60.1715 220.643 55.8389 0.69155 0.049567
1383400 60.1715 220.656 55.8389 0.69165 0.0368372
1383600 60.1715 220.67 55.8389 0.69175 0.016357
1383800 60.1715 220.683 55.8389 0.69185 0.0182189
1384000 60.1715 220.696 55.8389 0.69195 0.000318713
1384200 60.1715 220.709 55.8389 0.69205 -0.0153454
1384400 60.1715 220.722 55.8389 0.69215 -0.0144834
1384600 60.1715 220.735 55.8389 0.69225 -0.00769362
1384800 60.1715 220.748 55.8389 0.69235 -0.0105811
1385000 60.1715 220.761 55.8389 0.69245 -0.0163937
1385200 60.1715 220.774 55.8389 0.69255 -0.0277225
1385400 60.1715 220.787 55.8389 0.69265 -0.00651183
1385600 60.1715 220.8 55.8389 0.69275 -0.013994
1385800 60.1715 220.813 55.8389 0.69285 0.00553215
1386000 60.1715 220.826 55.8389 0.69295 -0.00052628
1386200 60.1715 220.839 55.8389 0.69305 0.0400051
1386400 60.1715 220.852 55.8389 0.69315 0.032597
1386600 60.1715 220.865 55.8389 0.69325 0.0244927
1386800 60.1715 220.878 55.8389 0.69335 0.0373842
1387000 60.1715 220.891 55.8389 0.69345 0.0295781
1387200 60.1715 220.904 55.8389 0.69355 0.0261819
1387400 60.1715 220.917 55.8389 0.69365 0.0277795
1387600 60.1715 220.93 55.8389 0.69375 0.0266267
1387800 60.1715 220.943 55.8389 0.69385 0.00254287
1388000 60.1715 220.956 55.8389 0.69395 -0.0200144
1388200 60.1715 220.97 55.8389 0.69405 -0.0084432
1388400 60.1715 220.983 55.8389 0.69415 -0.0291967
1388600 60.1715 220.996 55.8389 0.69425 -0.0168881
1388800 60.1715 221.009 55.8389 0.69435 -0.024739
1389000 60.1715 221.022 55.8389 0.69445 -0.0042852
1389200 60.1715 221.035 55.8389 0.69455 -0.00724336
1389400 60.1715 221.048 55.8389 0.69465 -0.0345964
1389600 60.1715 221.061 55.8389 0.69475 0.023745
1389800 60.1715 221.074 55.8389 0.69485 0.00563615
1390000 60.1715 221.087 55.8389 0.69495 0.0242748
1390200 60.1715 221.1 55.8389 0.69505 0.0345716
1390400 60.1715 221.113 55.8389 0.69515 0.0319637
1390600 60.1715 221.126 55.8389 0.69525 0.0368637
1390800 60.1715 221.139 55.8389 0.69535 0.0361507
1391000 60.1715 221.152 55.8389 0.69545 0.0132546
1391200 60.1715 221.165 55.8389 0.69555 0.00999944
1391400 60.1715 221.178 55.8389 0.69565 0.0188338
1391600 60.1715 221.191 55.8389 0.69575 0.00603826
1391800 60.1715 221.204 55.8389 0.69585 0.0146771
1392000 60.1715 221.217 55.8389 0.69595 -0.00862905
1392200 60.1715 221.23 55.8389 0.69605 -0.0262183
1392400 60.1715 221.243 55.8389 0.69615 -0.0111289
1392600 60.1715 221.256 55.8389 0.69625 -0.0166241
1392800 60.1715 221.27 55.8389 0.69635 -0.0170629
1393000 60.1715 221.283 55.8389 0.69645 0.00428529
1393200 60.1715 221.296 55.8389 0.69655 -0.00698687
1393400 60.1715 221.309 55.8389 0.69665 0.0269729
1393600 60.1715 221.322 55.8389 0.69675 0.00567974
1393800 60.1715 221.335 55.8389 0.69685 0.00353164
1394000 60.1715 221.348 55.8389 0.69695 0.0154287
1394200 60.1715 221.361 55.8389 0.69705 0.0209958
1394400 60.1715 221.374 55.8389 0.69715 0.0282912
1394600 60.1715 221.387 55.8389 0.69725 0.0366718
1394800 60.1715 221.4 55.8389 0.69735 0.00400716
1395000 60.1715 221.413 55.8389 0.69745 0.0256426
1395200 60.1715 221.426 55.8389 0.69755 0.0186769
1395400 60.1715 221.439 55.8389 0.69765 -0.0120477
1395600 60.1715 221.452 55.8389 0.69775 -0.00116971
1395800 60.1715 221.465 55.8389 0.69785 -0.0104457
1396000 60.1715 221.478 55.8389 0.69795 -0.000881015
1396200 60.1715 221.491 55.8389 0.69805 -0.00197276
1396400 60.1715 221.504 55.8389 0.69815 -0.0183425
1396600 60.1715 221.517 55.8389 0.69825 -0.00921609
1396800 60.1715 221.53 55.8389 0.69835 -0.0182318
1397000 60.1715 221.543 55.8389 0.69845 0.00301305
1397200 60.1715 221.557 55.8389 0.69855 0.017026
1397400 60.1715 221.57 55.8389 0.69865 0.0101073
1397600 60.1715 221.583 55.8389 0.69875 0.0250847
1397800 60.1715 221.596 55.8389 0.69885 0.022197
1398000 60.1715 221.609 55.8389 0.69895 0.0121608
1398200 60.1715 221.622 55.8389 0.69905 0.0191404
1398400 60.1715 221.635 55.8389 0.69915 0.0243807
1398600 60.1715 221.648 55.8389 0.69925 0.0294411
1398800 60.1715 221.661 55.8389 0.69935 0.0288583
1399000 60.1715 221.674 55.8389 0.69945 -0.00188292
1399200 60.1715 221.687 55.8389 0.69955 0.0027917
1399400 60.1715 221.7 55.8389 0.69965 -0.00026158
1399600 60.1715 221.713 55.8389 0.69975 0.00230522
1399800 60.1715 221.726 55.8389 0.69985 -0.0276642
1400000 60.1715 221.739 55.8389 0.69995 0.00204101
1400200 60.1715 221.752 55.8389 0.70005 -0.00523698
1400400 60.1715 221.765 55.8389 0.70015 -0.0028043
1400600 60.1715 221.778 55.8389 0.70025 -0.00350876
1400800 60.1715 221.791 55.8389 0.70035 0.00100159
1401000 60.1715 221.804 55.8389 0.70045 -0.00507295
1401200 60.1715 221.817 55.8389 0.70055 0.0147255
1401400 60.1715 221.83 55.8389 0.70065 0.0223781
1401600 60.1715 221.843 55.8389 0.70075 -0.000248989
1401800 60.1715 221.857 55.8389 0.70085 0.0302417
1402000 60.1715 221.87 55.8389 0.70095 0.0249534
1402200 60.1715 221.883 55.8389 0.70105 0.0188805
1402400 60.1715 221.896 55.8389 0.70115 0.00883142
1402600 60.1715 221.909 55.8389 0.70125 0.0128081
1402800 60.1715 221.922 55.8389 0.70135 0.0174509
1403000 60.1715 221.935 55.8389 0.70145 0.00722563
1403200 60.1715 221.948 55.8389 0.70155 0.00939641
1403400 60.1715 221.961 55.8389 0.70165 -0.00666848
1403600 60.1715 221.974 55.8389 0.70175 -0.0171635
1403800 60.1715 221.987 55.8389 0.70185 -0.00124541
1404000 60.1715 222 55.8389 0.70195 -0.00524123
1404200 60.1715 222.013 55.8389 0.70205 -0.00584744
1404400 60.1715 222.026 55.8389 0.70215 -0.00858868
1404600 60.1715 222.039 55.8389 0.70225 0.0150944
1404800 60.1715 222.052 55.8389 0.70235 0.0110707
1405000 60.1715 222.065 55.8389 0.70245 0.00745325
1405200 60.1715 222.078 55.8389 0.70255 -0.00304716
1405400 60.1715 222.091 55.8389 0.70265 0.0116985
1405600 60.1715 222.104 55.8389 0.70275 0.0211127
1405800 60.1715 222.117 55.8389 0.70285 0.00863041
1406000 60.1715 222.13 55.8389 0.70295 0.0416529
1406200 60.1715 222.143 55.8389 0.70305 -0.00283549
1406400 60.1715 222.157 55.8389 0.70315 0.0241319
1406600 60.1715 222.17 55.8389 0.70325 0.00143326
1406800 60.1715 222.183 55.8389 0.70335 0.00574911
1407000 60.1715 222.196 55.8389 0.70345 0.0325897
1407200 60.1715 222.209 55.8389 0.70355 -0.0170692
1407400 60.1715 222.222 55.8389 0.70365 0.00140435
1407600 60.1715 222.235 55.8389 0.70375 -0.00190967
1407800 60.1715 222.248 55.8389 0.70385 -0.00200348
1408000 60.1715 222.261 55.8389 0.70395 -0.0105167
1408200 60.1715 222.274 55.8389 0.70405 0.00442244
1408400 60.1715 222.287 55.8389 0.70415 0.00315735
1408600 60.1715 222.3 55.8389 0.70425 -0.00911006
1408800 60.1715 222.313 55.8389 0.70435 0.0167156
1409000 60.1715 222.326 55.8389 0.70445 -0.000849326
1409200 60.1715 222.339 55.8389 0.70455 0.0164173
1409400 60.1715 222.352 55.8389 0.70465 0.0319435
1409600 60.1715 222.365 55.8389 0.70475 -0.0159113
1409800 60.1715 222.378 55.8389 0.70485 0.0205081
1410000 60.1715 222.391 55.8389 0.70495 0.0132053
1410200 60.1715 222.404 55.8389 0.70505 0.0247476
1410400 60.1715 222.417 55.8389 0.70515 0.0262851
1410600 60.1715 222.43 55.8389 0.70525 -0.00132815
1410800 60.1715 222.443 55.8389 0.70535 0.00833789
1411000 60.1715 222.457 55.8389 0.70545 0.00836187
1411200 60.1715 222.47 55.8389 0.70555 -0.000962679
1411400 60.1715 222.483 55.8389 0.70565 -0.00461399
1411600 60.1715 222.496 55.8389 0.70575 -0.00225529
1411800 60.1715 222.509 55.8389 0.70585 0.01909
1412000 60.1715 222.522 55.8389 0.70595 -0.00822107
1412200 60.1715 222.535 55.8389 0.70605 -0.00224853
1412400 60.1715 222.548 55.8389 0.70615 -0.0151261
1412600 60.1715 222.561 55.8389 0.70625 0.0029398
1412800 60.1715 222.574 55.8389 0.70635 0.00392981
1413000 60.1715 222.587 55.8389 0.70645 -0.00244157
1413200 60.1715 222.6 55.8389 0.70655 0.0317656
1413400 60.1715 222.613 55.8389 0.70665 0.01838
1413600 60.1715 222.626 55.8389 0.70675 0.0191608
1413800 60.1715 222.639 55.8389 0.70685 0.00627569
1414000 60.1715 222.652 55.8389 0.70695 0.02347
1414200 60.1715 222.665 55.8389 0.70705 0.0194823
1414400 60.1715 222.678 55.8389 0.70715 0.021852
1414600 60.1715 222.691 55.8389 0.70725 0.00155131
1414800 60.1715 222.704 55.8389 0.70735 0.0103461
1415000 60.1715 222.717 55.8389 0.70745 -0.00562303
1415200 60.1715 222.73 55.8389 0.70755 -0.00490359
1415400 60.1715 222.743 55.8389 0.70765 0.0056087
1415600 60.1715 222.757 55.8389 0.70775 -0.00408586
1415800 60.1715 222.77 55.8389 0.70785 -0.0252967
1416000 60.1715 222.783 55.8389 0.70795 0.00318926
1416200 60.1715 222.796 55.8389 0.70805 0.010544
1416400 60.1715 222.809 55.8389 0.70815 -0.00654172
1416600 60.1715 222.822 55.8389 0.70825 -0.019175
1416800 60.1715 222.835 55.8389 0.70835 0.00374236
1417000 60.1715 222.848 55.8389 0.70845 0.0291208
1417200 60.1715 222.861 55.8389 0.70855 0.0118898
1417400 60.1715 222.874 55.8389 0.70865 0.0284326
1417600 60.1715 222.887 55.8389 0.70875 0.0143446
1417800 60.1715 222.9 55.8389 0.70885 0.0144934
1418000 60.1715 222.913 55.8389 0.70895 0.044901
1418200 60.1715 222.926 55.8389 0.70905 0.00614225
1418400 60.1715 222.939 55.8389 0.70915 0.0194123
1418600 60.1715 222.952 55.8389 0.70925 0.0247366
1418800 60.1715 222.965 55.8389 0.70935 0.00722609
1419000 60.1715 222.978 55.8389 0.70945 0.00101051
1419200 60.1715 222.991 55.8389 0.70955 -0.0158497
1419400 60.1715 223.004 55.8389 0.70965 -0.00486236
1419600 60.1715 223.017 55.8389 0.70975 0.00134664
1419800 60.1715 223.03 55.8389 0.70985 -0.0169599
1420000 60.1715 223.044 55.8389 0.70995 -0.00929943
1420200 60.1715 223.057 55.8389 0.71005 -0.0103812
1420400 60.1715 223.07 55.8389 0.71015 -0.0122237
1420600 60.1715 223.083 55.8389 0.71025 -0.00380581
1420800 60.1715 223.096 55.8389 0.71035 0.00980305
1421000 60.1715 223.109 55.8389 0.71045 0.00677658
1421200 60.1715 223.122 55.8389 0.71055 0.0269853
1421400 60.1715 223.135 55.8389 0.71065 0.0179089
1421600 60.1715 223.148 55.8389 0.71075 0.0205634
1421800 60.1715 223.161 55.8389 0.71085 0.023736
1422000 60.1715 223.174 55.8389 0.71095 0.0196251
1422200 60.1715 223.187 55.8389 0.71105 0.0265761
1422400 60.1715 223.2 55.8389 0.71115 0.0249484
1422600 60.1715 223.213 55.8389 0.71125 0.00832661
1422800 60.1715 223.226 55.8389 0.71135 0.0176937
1423000 60.1715 223.239 55.8389 0.71145 -0.00754778
1423200 60.1715 223.252 55.8389 0.71155 0.00309751
1423400 60.1715 223.265 55.8389 0.71165 -0.0164302
1423600 60.1715 223.278 55.8389 0.71175 -0.0110161
1423800 60.1715 223.291 55.8389 0.71185 -0.0131632
1424000 60.1715 223.304 55.8389 0.71195 0.000364332
1424200 60.1715 223.317 55.8389 0.71205 -0.00639746
1424400 60.1715 223.33 55.8389 0.71215 -0.00921282
1424600 60.1715 223.344 55.8389 0.71225 -0.000379391
1424800 60.1715 223.357 55.8389 0.71235 0.0126526
1425000 60.1715 223.37 55.8389 0.71245 0.00417647
1425200 60.1715 223.383 55.8389 0.71255 0.0371195
1425400 60.1715 223.396 55.8389 0.71265 0.0410902
1425600 60.1715 223.409 55.8389 0.71275 0.0101239
1425800 60.1715 223.422 55.8389 0.71285 0.0263386
1426000 60.1715 223.435 55.8389 0.71295 0.0155334
1426200 60.1715 223.448 55.8389 0.71305 0.0208628
1426400 60.1715 223.461 55.8389 0.71315 0.00543283
1426600 60.1715 223.474 55.8389 0.71325 0.0115826
1426800 60.1715 223.487 55.8389 0.71335 0.000508416
1427000 60.1715 223.5 55.8389 0.71345 -0.0128202
1427200 60.1715 223.513 55.8389 0.71355 0.000148013
1427400 60.1715 223.526 55.8389 0.71365 -0.014567
1427600 60.1715 223.539 55.8389 0.71375 -0.0286371
1427800 60.1715 223.552 55.8389 0.71385 -0.00858145
1428000 60.1715 223.565 55.8389 0.71395 0.000911691
1428200 60.1715 223.578 55.8389 0.71405 -0.00553948
1428400 60.1715 223.591 55.8389 0.71415 0.0243954
1428600 60.1715 223.604 55.8389 0.71425 0.00620024
1428800 60.1715 223.617 55.8389 0.71435 0.0199988
1429000 60.1715 223.63 55.8389 0.71445 0.00780742
1429200 60.1715 223.644 55.8389 0.71455 0.0274931
1429400 60.1715 223.657 55.8389 0.71465 0.0235934
1429600 60.1715 223.67 55.8389 0.71475 0.0280655
1429800 60.1715 223.683 55.8389 0.71485 0.029508
1430000 60.1715 223.696 55.8389 0.71495 0.0160072
1430200 60.1715 223.709 55.8389 0.71505 0.0129624
1430400 60.1715 223.722 55.8389 0.71515 -0.0156306
1430600 60.1715 223.735 55.8389 0.71525 0.00763485
1430800 60.1715 223.748 55.8389 0.71535 0.00403893
1431000 60.1715 223.761 55.8389 0.71545 7.82254e-05
1431200 60.1715 223.774 55.8389 0.71555 0.000341561
1431400 60.1715 223.787 55.8389 0.71565 -0.0155753
1431600 60.1715 223.8 55.8389 0.71575 -0.0287609
1431800 60.1715 223.813 55.8389 0.71585 0.00336406
1432000 60.1715 223.826 55.8389 0.71595 0.00863748
1432200 60.1715 223.839 55.8389 0.71605 -0.0105822
1432400 60.1715 223.852 55.8389 0.71615 0.000577962
1432600 60.1715 223.865 55.8389 0.71625 0.0188578
1432800 60.1715 223.878 55.8389 0.71635 0.0193794
1433000 60.1715 223.891 55.8389 0.71645 0.00212581
1433200 60.1715 223.904 55.8389 0.71655 0.0356738
1433400 60.1715 223.917 55.8389 0.71665 0.02961
1433600 60.1715 223.93 55.8389 0.71675 0.0269235
1433800 60.1715 223.944 55.8389 0.71685 0.0172029
1434000 60.1715 223.957 55.8389 0.71695 0.0203001
1434200 60.1715 223.97 55.8389 0.71705 0.008517
1434400 60.1715 223.983 55.8389 0.71715 0.0122244
1434600 60.1715 223.996 55.8389 0.71725 -0.00556805
1434800 60.1715 224.009 55.8389 0.71735 -0.0129577
1435000 60.1715 224.022 55.8389 0.71745 0.000420976
1435200 60.1715 224.035 55.8389 0.71755 0.00314947
1435400 60.1715 224.048 55.8389 0.71765 -0.0247528
1435600 60.1715 224.061 55.8389 0.71775 -0.0170632
1435800 60.1715 224.074 55.8389 0.71785 -0.00293172
1436000 60.1715 224.087 55.8389 0.71795 -0.0104741
1436200 60.1715 224.1 55.8389 0.71805 0.0160567
1436400 60.1715 224.113 55.8389 0.71815 -0.00321018
1436600 60.1715 224.126 55.8389 0.71825 0.0174002
1436800 60.1715 224.139 55.8389 0.71835 0.028569
1437000 60.1715 224.152 55.8389 0.71845 0.00575145
1437200 60.1715 224.165 55.8389 0.71855 0.0416633
1437400 60.1715 224.178 55.8389 0.71865 0.0203469
1437600 60.1715 224.191 55.8389 0.71875 0.0164648
1437800 60.1715 224.204 55.8389 0.71885 0.018535
1438000 60.1715 224.217 55.8389 0.71895 0.0135193
1438200 60.1715 224.23 55.8389 0.71905 0.0117279
1438400 60.1715 224.244 55.8389 0.71915 0.026017
1438600 60.1715 224.257 55.8389 0.71925 -0.00808442
1438800 60.1715 224.27 55.8389 0.71935 -0.0242287
1439000 60.1715 224.283 55.8389 0.71945 0.000571074
1439200 60.1715 224.296 55.8389 0.71955 0.00768723
1439400 60.1715 224.309 55.8389 0.71965 -0.000561652
1439600 60.1715 224.322 55.8389 0.71975 -0.0171266
1439800 60.1715 224.335 55.8389 0.71985 0.00379932
1440000 60.1715 224.348 55.8389 0.71995 0.00136475
1440200 60.1715 224.361 55.8389 0.72005 -0.00355878
1440400 60.1715 224.374 55.8389 0.72015 0.00508736
1440600 60.1715 224.387 55.8389 0.72025 0.00918436
1440800 60.1715 224.4 55.8389 0.72035 0.00868351
1441000 60.1715 224.413 55.8389 0.72045 0.0122257
1441200 60.1715 224.426 55.8389 0.72055 0.0208373
1441400 60.1715 224.439 55.8389 0.72065 0.00666981
1441600 60.1715 224.452 55.8389 0.72075 0.0231544
1441800 60.1715 224.465 55.8389 0.72085 0.00941441
1442000 60.1715 224.478 55.8389 0.72095 0.0198867
1442200 60.1715 224.491 55.8389 0.72105 0.00737636
1442400 60.1715 224.504 55.8389 0.72115 0.0274107
1442600 60.1715 224.517 55.8389 0.72125 -0.00948112
1442800 60.1715 224.531 55.8389 0.72135 0.00602224
1443000 60.1715 224.544 55.8389 0.72145 0.00115933
1443200 60.1715 224.557 55.8389 0.72155 -0.00865523
1443400 60.1715 224.57 55.8389 0.72165 0.00353071
1443600 60.1715 224.583 55.8389 0.72175 0.00632942
1443800 60.1715 224.596 55.8389 0.72185 -0.00503871
1444000 60.1715 224.609 55.8389 0.72195 -0.000541044
1444200 60.1715 224.622 55.8389 0.72205 -0.0108341
1444400 60.1715 224.635 55.8389 0.72215 0.0194405
1444600 60.1715 224.648 55.8389 0.72225 0.00757208
1444800 60.1715 224.661 55.8389 0.72235 0.00870396
1445000 60.1715 224.674 55.8389 0.72245 0.0189324
1445200 60.1715 224.687 55.8389 0.72255 0.0294134
1445400 60.1715 224.7 55.8389 0.72265 0.00502104
1445600 60.1715 224.713 55.8389 0.72275 0.0238265
1445800 60.1715 224.726 55.8389 0.72285 0.0149347
1446000 60.1715 224.739 55.8389 0.72295 -0.00132272
1446200 60.1715 224.752 55.8389 0.72305 0.00540578
1446400 60.1715 224.765 55.8389 0.72315 0.0146919
1446600 60.1715 224.778 55.8389 0.72325 -0.00217156
1446800 60.1715 224.791 55.8389 0.72335 0.00721426
1447000 60.1715 224.804 55.8389 0.72345 -0.0127486
1447200 60.1715 224.817 55.8389 0.72355 -0.00403993
1447400 60.1715 224.831 55.8389 0.72365 0.0115865
1447600 60.1715 224.844 55.8389 0.72375 -0.0160465
1447800 60.1715 224.857 55.8389 0.72385 0.0118285
1448000 60.1715 224.87 55.8389 0.72395 0.00667631
1448200 60.1715 224.883 55.8389 0.72405 0.00210745
1448400 60.1715 224.896 55.8389 0.72415 0.00698543
1448600 60.1715 224.909 55.8389 0.72425 0.012185
1448800 60.1715 224.922 55.8389 0.72435 0.0140614
1449000 60.1715 224.935 55.8389 0.72445 0.00795001
1449200 60.1715 224.948 55.8389 0.72455 0.0208179
1449400 60.1715 224.961 55.8389 0.72465 0.0328348
1449600 60.1715 224.974 55.8389 0.72475 0.00715674
1449800 60.1715 224.987 55.8389 0.72485 0.0149633
1450000 60.1715 225 55.8389 0.72495 -0.016663
1450200 60.1715 225.013 55.8389 0.72505 0.0105275
1450400 60.1715 225.026 55.8389 0.72515 0.0198821
1450600 60.1715 225.039 55.8389 0.72525 -0.0109384
1450800 60.1715 225.052 55.8389 0.72535 0.01604
1451000 60.1715 225.065 55.8389 0.72545 -0.00718326
1451200 60.1715 225.078 55.8389 0.72555 -0.0043794
1451400 60.1715 225.091 55.8389 0.72565 -0.0142686
1451600 60.1715 225.104 55.8389 0.72575 0.00862206
1451800 60.1715 225.117 55.8389 0.72585 0.0147639
1452000 60.1715 225.131 55.8389 0.72595 0.00531142
1452200 60.1715 225.144 55.8389 0.72605 0.00964675
1452400 60.1715 225.157 55.8389 0.72615 0.0222383
1452600 60.1715 225.17 55.8389 0.72625 0.00512908
1452800 60.1715 225.183 55.8389 0.72635 -0.000188804
1453000 60.1715 225.196 55.8389 0.72645 0.0132661
1453200 60.1715 225.209 55.8389 0.72655 0.0271877
1453400 60.1715 225.222 55.8389 0.72665 0.0169175
1453600 60.1715 225.235 55.8389 0.72675 0.0182546
1453800 60.1715 225.248 55.8389 0.72685 -0.00371543
1454000 60.1715 225.261 55.8389 0.72695 -0.00286062
1454200 60.1715 225.274 55.8389 0.72705 -0.00385178
1454400 60.1715 225.287 55.8389 0.72715 0.000948332
1454600 60.1715 225.3 55.8389 0.72725 0.00238727
1454800 60.1715 225.313 55.8389 0.72735 0.00644584
1455000 60.1715 225.326 55.8389 0.72745 0.00803441
1455200 60.1715 225.339 55.8389 0.72755 -0.0155267
1455400 60.1715 225.352 55.8389 0.72765 0.0012215
1455600 60.1715 225.365 55.8389 0.72775 -0.00736587
1455800 60.1715 225.378 55.8389 0.72785 0.0150768
1456000 60.1715 225.391 55.8389 0.72795 0.00887487
1456200 60.1715 225.404 55.8389 0.72805 0.00780836
1456400 60.1715 225.417 55.8389 0.72815 0.0143786
1456600 60.1715 225.431 55.8389 0.72825 0.0172312
1456800 60.1715 225.444 55.8389 0.72835 0.0159722
1457000 60.1715 225.457 55.8389 0.72845 0.0212909
1457200 60.1715 225.47 55.8389 0.72855 0.00931481
1457400 60.1715 225.483 55.8389 0.72865 0.00877388
1457600 60.1715 225.496 55.8389 0.72875 0.0400955
1457800 60.1715 225.509 55.8389 0.72885 0.00820408
1458000 60.1715 225.522 55.8389 0.72895 -0.00559277
1458200 60.1715 225.535 55.8389 0.72905 0.00294475
1458400 60.1715 225.548 55.8389 0.72915 -0.00558163
1458600 60.1715 225.561 55.8389 0.72925 0.00633287
1458800 60.1715 225.574 55.8389 0.72935 -0.00853
1459000 60.1715 225.587 55.8389 0.72945 -0.0108434
1459200 60.1715 225.6 55.8389 0.72955 0.0053482
1459400 60.1715 225.613 55.8389 0.72965 -0.000445164
1459600 60.1715 225.626 55.8389 0.72975 -0.00605391
1459800 60.1715 225.639 55.8389 0.72985 0.0117108
1460000 60.1715 225.652 55.8389 0.72995 -0.00139985
1460200 60.1715 225.665 55.8389 0.73005 0.0216999
1460400 60.1715 225.678 55.8389 0.73015 0.0125313
1460600 60.1715 225.691 55.8389 0.73025 0.0101774
1460800 60.1715 225.704 55.8389 0.73035 0.0304895
1461000 60.1715 225.717 55.8389 0.73045 0.018178
1461200 60.1715 225.731 55.8389 0.73055 0.0133037
1461400 60.1715 225.744 55.8389 0.73065 -0.00268419
1461600 60.1715 225.757 55.8389 0.73075 0.0209115
1461800 60.1715 225.77 55.8389 0.73085 0.00715866
1462000 60.1715 225.783 55.8389 0.73095 0.0125032
1462200 60.1715 225.796 55.8389 0.73105 -0.00312684
1462400 60.1715 225.809 55.8389 0.73115 -0.00540777
1462600 60.1715 225.822 55.8389 0.73125 -0.00870676
1462800 60.1715 225.835 55.8389 0.73135 -0.00596777
1463000 60.1715 225.848 55.8389 0.73145 -0.00474275
1463200 60.1715 225.861 55.8389 0.73155 0.00873977
1463400 60.1715 225.874 55.8389 0.73165 -0.00282369
1463600 60.1715 225.887 55.8389 0.73175 0.0114719
1463800 60.1715 225.9 55.8389 0.73185 -0.000746711
1464000 60.1715 225.913 55.8389 0.73195 0.00482856
1464200 60.1715 225.926 55.8389 0.73205 0.0070374
1464400 60.1715 225.939 55.8389 0.73215 0.0133498
1464600 60.1715 225.952 55.8389 0.73225 0.0440531
1464800 60.1715 225.965 55.8389 0.73235 0.0141793
1465000 60.1715 225.978 55.8389 0.73245 0.0109722
1465200 60.1715 225.991 55.8389 0.73255 0.00443374
1465400 60.1715 226.004 55.8389 0.73265 0.0156988
1465600 60.1715 226.018 55.8389 0.73275 0.00326054
1465800 60.1715 226.031 55.8389 0.73285 0.0134717
1466000 60.1715 226.044 55.8389 0.73295 0.00237043
1466200 60.1715 226.057 55.8389 0.73305 0.00685143
1466400 60.1715 226.07 55.8389 0.73315 0.0118877
1466600 60.1715 226.083 55.8389 0.73325 -0.0179856
1466800 60.1715 226.096 55.8389 0.73335 -0.0241414
1467000 60.1715 226.109 55.8389 0.73345 -0.000400863
1467200 60.1715 226.122 55.8389 0.73355 0.0160973
1467400 60.1715 226.135 55.8389 0.73365 0.0162889
1467600 60.1715 226.148 55.8389 0.73375 0.000657977
1467800 60.1715 226.161 55.8389 0.73385 -0.00358095
1468000 60.1715 226.174 55.8389 0.73395 0.0108774
1468200 60.1715 226.187 55.8389 0.73405 0.00989586
1468400 60.1715 226.2 55.8389 0.73415 0.00372476
1468600 60.1715 226.213 55.8389 0.73425 0.0175261
1468800 60.1715 226.226 55.8389 0.73435 0.0332468
1469000 60.1715 226.239 55.8389 0.73445 0.00737813
1469200 60.1715 226.252 55.8389 0.73455 0.00956314
1469400 60.1715 226.265 55.8389 0.73465 0.0115805
1469600 60.1715 226.278 55.8389 0.73475 0.00445838
1469800 60.1715 226.291 55.8389 0.73485 0.00706515
1470000 60.1715 226.304 55.8389 0.73495 0.0273237
1470200 60.1715 226.318 55.8389 0.73505 -0.0157102
1470400 60.1715 226.331 55.8389 0.73515 -0.00184218
1470600 60.1715 226.344 55.8389 0.73525 -0.010026
1470800 60.1715 226.357 55.8389 0.73535 0.00291111
1471000 60.1715 226.37 55.8389 0.73545 -0.0057413
1471200 60.1715 226.383 55.8389 0.73555 0.00140348
1471400 60.1715 226.396 55.8389 0.73565 0.0128577
1471600 60.1715 226.409 55.8389 0.73575 -0.00774782
1471800 60.1715 226.422 55.8389 0.73585 0.021525
1472000 60.1715 226.435 55.8389 0.73595 0.00170269
1472200 60.1715 226.448 55.8389 0.73605 0.027459
1472400 60.1715 226.461 55.8389 0.73615 0.0128194
1472600 60.1715 226.474 55.8389 0.73625 0.00933138
1472800 60.1715 226.487 55.8389 0.73635 0.020612
1473000 60.1715 226.5 55.8389 0.73645 0.00865453
1473200 60.1715 226.513 55.8389 0.73655 0.0122501
1473400 60.1715 226.526 55.8389 0.73665 0.0147366
1473600 60.1715 226.539 55.8389 0.73675 0.0183169
1473800 60.1715 226.552 55.8389 0.73685 -0.0142776
1474000 60.1715 226.565 55.8389 0.73695 -0.00337421
1474200 60.1715 226.578 55.8389 0.73705 0.0175932
1474400 60.1715 226.591 55.8389 0.73715 -0.0107498
1474600 60.1715 226.604 55.8389 0.73725 -0.018339
1474800 60.1715 226.618 55.8389 0.73735 -0.00186129
1475000 60.1715 226.631 55.8389 0.73745 0.00838035
1475200 60.1715 226.644 55.8389 0.73755 0.00823763
1475400 60.1715 226.657 55.8389 0.73765 0.00180857
1475600 60.1715 226.67 55.8389 0.73775 -0.000171484
1475800 60.1715 226.683 55.8389 0.73785 0.00736445
1476000 60.1715 226.696 55.8389 0.73795 0.010379
1476200 60.1715 226.709 55.8389 0.73805 0.0209471
1476400 60.1715 226.722 55.8389 0.73815 0.0227345
1476600 60.1715 226.735 55.8389 0.73825 0.00764355
1476800 60.1715 226.748 55.8389 0.73835 0.029988
1477000 60.1715 226.761 55.8389 0.73845 0.00331889
1477200 60.1715 226.774 55.8389 0.73855 0.00857718
1477400 60.1715 226.787 55.8389 0.73865 0.0170184
1477600 60.1715 226.8 55.8389 0.73875 0.0233387
1477800 60.1715 226.813 55.8389 0.73885 -0.0065989
1478000 60.1715 226.826 55.8389 0.73895 -0.00408568
1478200 60.1715 226.839 55.8389 0.73905 0.00250333
1478400 60.1715 226.852 55.8389 0.73915 -0.0203667
1478600 60.1715 226.865 55.8389 0.73925 -0.000410709
1478800 60.1715 226.878 55.8389 0.73935 -8.49253e-05
1479000 60.1715 226.891 55.8389 0.73945 0.00303496
1479200 60.1715 226.904 55.8389 0.73955 -0.000135276
1479400 60.1715 226.918 55.8389 0.73965 -0.00185211
1479600 60.1715 226.931 55.8389 0.73975 0.00233809
1479800 60.1715 226.944 55.8389 0.73985 0.0062961
1480000 60.1715 226.957 55.8389 0.73995 0.0148401
1480200 60.1715 226.97 55.8389 0.74005 0.0270651
1480400 60.1715 226.983 55.8389 0.74015 0.0345243
1480600 60.1715 226.996 55.8389 0.74025 0.00736355
1480800 60.1715 227.009 55.8389 0.74035 0.00499629
1481000 60.1715 227.022 55.8389 0.74045 0.0204507
1481200 60.1715 227.035 55.8389 0.74055 0.00227404
1481400 60.1715 227.048 55.8389 0.74065 0.0124229
1481600 60.1715 227.061 55.8389 0.74075 0.0252053
1481800 60.1715 227.074 55.8389 0.74085 0.00176834
1482000 60.1715 227.087 55.8389 0.74095 -0.00149658
1482200 60.1715 227.1 55.8389 0.74105 -0.0129766
1482400 60.1715 227.113 55.8389 0.74115 -0.0173307
1482600 60.1715 227.126 55.8389 0.74125 -0.0100661
1482800 60.1715 227.139 55.8389 0.74135 -0.000952857
1483000 60.1715 227.152 55.8389 0.74145 0.0112925
1483200 60.1715 227.165 55.8389 0.74155 -0.00733311
1483400 60.1715 227.178 55.8389 0.74165 0.00559795
1483600 60.1715 227.191 55.8389 0.74175 0.0042898
1483800 60.1715 227.204 55.8389 0.74185 0.00336426
1484000 60.1715 227.218 55.8389 0.74195 0.0150582
1484200 60.1715 227.231 55.8389 0.74205 0.0318734
1484400 60.1715 227.244 55.8389 0.74215 0.0101846
1484600 60.1715 227.257 55.8389 0.74225 0.0262531
1484800 60.1715 227.27 55.8389 0.74235 0.0205277
1485000 60.1715 227.283 55.8389 0.74245 0.0084299
1485200 60.1715 227.296 55.8389 0.74255 -0.00126579
1485400 60.1715 227.309 55.8389 0.74265 0.0223959
1485600 60.1715 227.322 55.8389 0.74275 0.0115481
1485800 60.1715 227.335 55.8389 0.74285 0.00145199
1486000 60.1715 227.348 55.8389 0.74295 0.00611077
1486200 60.1715 227.361 55.8389 0.74305 -0.00416662
1486400 60.1715 227.374 55.8389 0.74315 0.00233573
1486600 60.1715 227.387 55.8389 0.74325 -0.0114114
1486800 60.1715 227.4 55.8389 0.74335 0.00810149
1487000 60.1715 227.413 55.8389 0.74345 -0.0111331
1487200 60.1715 227.426 55.8389 0.74355 0.00189061
1487400 60.1715 227.439 55.8389 0.74365 0.0120441
1487600 60.1715 227.452 55.8389 0.74375 -0.0121222
1487800 60.1715 227.465 55.8389 0.74385 -8.95506e-05
1488000 60.1715 227.478 55.8389 0.74395 0.00303166
1488200 60.1715 227.491 55.8389 0.74405 0.0208848
1488400 60.1715 227.505 55.8389 0.74415 0.013472
1488600 60.1715 227.518 55.8389 0.74425 0.0162105
1488800 60.1715 227.531 55.8389 0.74435 0.0203838
1489000 60.1715 227.544 55.8389 0.74445 0.0110172
1489200 60.1715 227.557 55.8389 0.74455 0.00619425
1489400 60.1715 227.57 55.8389 0.74465 0.0337697
1489600 60.1715 227.583 55.8389 0.74475 -0.00527283
1489800 60.1715 227.596 55.8389 0.74485 0.021796
1490000 60.1715 227.609 55.8389 0.74495 0.0134773
1490200 60.1715 227.622 55.8389 0.74505 -0.00107968
1490400 60.1715 227.635 55.8389 0.74515 -0.0196075
1490600 60.1715 227.648 55.8389 0.74525 -0.00181579
1490800 60.1715 227.661 55.8389 0.74535 -0.0118595
1491000 60.1715 227.674 55.8389 0.74545 0.00730263
1491200 60.1715 227.687 55.8389 0.74555 0.00201119
1491400 60.1715 227.7 55.8389 0.74565 0.0108556
1491600 60.1715 227.713 55.8389 0.74575 -0.000560888
1491800 60.1715 227.726 55.8389 0.74585 0.0031526
1492000 60.1715 227.739 55.8389 0.74595 0.0171028
1492200 60.1715 227.752 55.8389 0.74605 0.0105619
1492400 60.1715 227.765 55.8389 0.74615 -3.75303e-05
1492600 60.1715 227.778 55.8389 0.74625 0.0211013
1492800 60.1715 227.791 55.8389 0.74635 0.0162198
1493000 60.1715 227.805 55.8389 0.74645 0.0185537
1493200 60.1715 227.818 55.8389 0.74655 -0.00525992
1493400 60.1715 227.831 55.8389 0.74665 0.0140733
1493600 60.1715 227.844 55.8389 0.74675 0.0197448
1493800 60.1715 227.857 55.8389 0.74685 -0.00648473
1494000 60.1715 227.87 55.8389 0.74695 0.0198154
1494200 60.1715 227.883 55.8389 0.74705 0.00875619
1494400 60.1715 227.896 55.8389 0.74715 -0.00749045
1494600 60.1715 227.909 55.8389 0.74725 -0.0082561
1494800 60.1715 227.922 55.8389 0.74735 -0.0172603
1495000 60.1715 227.935 55.8389 0.74745 0.00260185
1495200 60.1715 227.948 55.8389 0.74755 0.00426973
1495400 60.1715 227.961 55.8389 0.74765 -0.00243344
1495600 60.1715 227.974 55.8389 0.74775 0.00905424
1495800 60.1715 227.987 55.8389 0.74785 -0.0095781
1496000 60.1715 228 55.8389 0.74795 0.0120975
1496200 60.1715 228.013 55.8389 0.74805 0.0214603
1496400 60.1715 228.026 55.8389 0.74815 0.0267088
1496600 60.1715 228.039 55.8389 0.74825 0.0251708
1496800 60.1715 228.052 55.8389 0.74835 -0.000110731
1497000 60.1715 228.065 55.8389 0.74845 0.0372663
1497200 60.1715 228.078 55.8389 0.74855 0.0235913
1497400 60.1715 228.091 55.8389 0.74865 0.0157967
1497600 60.1715 228.105 55.8389 0.74875 0.00286311
1497800 60.1715 228.118 55.8389 0.74885 -0.00466728
1498000 60.1715 228.131 55.8389 0.74895 -0.00137489
1498200 60.1715 228.144 55.8389 0.74905 0.00750945
1498400 60.1715 228.157 55.8389 0.74915 -0.0193409
1498600 60.1715 228.17 55.8389 0.74925 0.00752802
1498800 60.1715 228.183 55.8389 0.74935 -0.0235561
1499000 60.1715 228.196 55.8389 0.74945 -0.0145065
1499200 60.1715 228.209 55.8389 0.74955 -0.00917105
1499400 60.1715 228.222 55.8389 0.74965 0.00687039
1499600 60.1715 228.235 55.8389 0.74975 0.00183238
1499800 60.1715 228.248 55.8389 0.74985 0.0162267
1500000 60.1715 228.261 55.8389 0.74995 0.0138896
1500200 60.1715 228.274 55.8389 0.75005 0.022868
1500400 60.1715 228.287 55.8389 0.75015 0.0145585
1500600 60.1715 228.3 55.8389 0.75025 0.0217146
1500800 60.1715 228.313 55.8389 0.75035 0.0324125
1501000 60.1715 228.326 55.8389 0.75045 0.00908504
1501200 60.1715 228.339 55.8389 0.75055 0.0216744
1501400 60.1715 228.352 55.8389 0.75065 0.0313644
1501600 60.1715 228.365 55.8389 0.75075 -0.00210174
1501800 60.1715 228.378 55.8389 0.75085 -0.00521048
1502000 60.1715 228.391 55.8389 0.75095 0.0018364
1502200 60.1715 228.405 55.8389 0.75105 -0.0133222
1502400 60.1715 228.418 55.8389 0.75115 -0.00546089
1502600 60.1715 228.431 55.8389 0.75125 -0.0103787
1502800 60.1715 228.444 55.8389 0.75135 -0.0199695
1503000 60.1715 228.457 55.8389 0.75145 -0.00416966
1503200 60.1715 228.47 55.8389 0.75155 -0.0125834
1503400 60.1715 228.483 55.8389 0.75165 -0.00158494
1503600 60.1715 228.496 55.8389 0.75175 0.00565766
1503800 60.1715 228.509 55.8389 0.75185 0.0173872
1504000 60.1715 228.522 55.8389 0.75195 0.0266437
1504200 60.1715 228.535 55.8389 0.75205 0.0286906
1504400 60.1715 228.548 55.8389 0.75215 0.00863757
1504600 60.1715 228.561 55.8389 0.75225 0.0171003
1504800 60.1715 228.574 55.8389 0.75235 0.0300872
1505000 60.1715 228.587 55.8389 0.75245 0.023467
1505200 60.1715 228.6 55.8389 0.75255 0.027766
1505400 60.1715 228.613 55.8389 0.75265 0.00464756
1505600 60.1715 228.626 55.8389 0.75275 0.017307
1505800 60.1715 228.639 55.8389 0.75285 -0.0149575
1506000 60.1715 228.652 55.8389 0.75295 0.00265956
1506200 60.1715 228.665 55.8389 0.75305 -0.0186239
1506400 60.1715 228.678 55.8389 0.75315 -0.011421
1506600 60.1715 228.691 55.8389 0.75325 0.00288491
1506800 60.1715 228.705 55.8389 0.75335 -0.0113493
1507000 60.1715 228.718 55.8389 0.75345 -0.00881725
1507200 60.1715 228.731 55.8389 0.75355 -0.0196868
1507400 60.1715 228.744 55.8389 0.75365 0.00379922
1507600 60.1715 228.757 55.8389 0.75375 0.0103425
1507800 60.1715 228.77 55.8389 0.75385 0.0108694
1508000 60.1715 228.783 55.8389 0.75395 0.0295941
1508200 60.1715 228.796 55.8389 0.75405 0.0227318
1508400 60.1715 228.809 55.8389 0.75415 0.0282014
1508600 60.1715 228.822 55.8389 0.75425 0.0200522
1508800 60.1715 228.835 55.8389 0.75435 0.0303802
1509000 60.1715 228.848 55.8389 0.75445 0.014185
1509200 60.1715 228.861 55.8389 0.75455 0.0113685
1509400 60.1715 228.874 55.8389 0.75465 0.0311341
1509600 60.1715 228.887 55.8389 0.75475 0.00212975
1509800 60.1715 228.9 55.8389 0.75485 -0.026347
1510000 60.1715 228.913 55.8389 0.75495 0.000483054
1510200 60.1715 228.926 55.8389 0.75505 -0.0118466
1510400 60.1715 228.939 55.8389 0.75515 -0.0308503
1510600 60.1715 228.952 55.8389 0.75525 0.00244023
1510800 60.1715 228.965 55.8389 0.75535 -0.0188098
1511000 60.1715 228.978 55.8389 0.75545 0.0095554
1511200 60.1715 228.992 55.8389 0.75555 -0.0184979
1511400 60.1715 229.005 55.8389 0.75565 0.0177752
1511600 60.1715 229.018 55.8389 0.75575 0.0167369
1511800 60.1715 229.031 55.8389 0.75585 0.00710109
1512000 60.1715 229.044 55.8389 0.75595 0.0306825
1512200 60.1715 229.057 55.8389 0.75605 0.0291505
1512400 60.1715 229.07 55.8389 0.75615 0.0320242
1512600 60.1715 229.083 55.8389 0.75625 0.0157124
1512800 60.1715 229.096 55.8389 0.75635 0.0402166
1513000 60.1715 229.109 55.8389 0.75645 -0.013284
1513200 60.1715 229.122 55.8389 0.75655 0.00616478
1513400 60.1715 229.135 55.8389 0.75665 0.0175269
1513600 60.1715 229.148 55.8389 0.75675 0.00514823
1513800 60.1715 229.161 55.8389 0.75685 -0.00392326
1514000 60.1715 229.174 55.8389 0.75695 -0.013291
1514200 60.1715 229.187 55.8389 0.75705 -0.00650257
1514400 60.1715 229.2 55.8389 0.75715 -0.0132262
1514600 60.1715 229.213 55.8389 0.75725 -0.0126995
1514800 60.1715 229.226 55.8389 0.75735 -0.0032539
1515000 60.1715 229.239 55.8389 0.75745 -0.00891389
1515200 60.1715 229.252 55.8389 0.75755 -0.00240548
1515400 60.1715 229.265 55.8389 0.75765 0.00902649
1515600 60.1715 229.278 55.8389 0.75775 0.0120936
1515800 60.1715 229.292 55.8389 0.75785 0.020283
1516000 60.1715 229.305 55.8389 0.75795 0.0256032
1516200 60.1715 229.318 55.8389 0.75805 0.0217994
1516400 60.1715 229.331 55.8389 0.75815 0.0343527
1516600 60.1715 229.344 55.8389 0.75825 0.0293126
1516800 60.1715 229.357 55.8389 0.75835 0.0114748
1517000 60.1715 229.37 55.8389 0.75845 0.0117132
1517200 60.1715 229.383 55.8389 0.75855 0.0172967
1517400 60.1715 229.396 55.8389 0.75865 0.00636945
1517600 60.1715 229.409 55.8389 0.75875 -0.0151729
1517800 60.1715 229.422 55.8389 0.75885 -1.74271e-05
1518000 60.1715 229.435 55.8389 0.75895 -0.0107326
1518200 60.1715 229.448 55.8389 0.75905 -0.0174891
1518400 60.1715 229.461 55.8389 0.75915 -0.0171824
1518600 60.1715 229.474 55.8389 0.75925 0.00208742
1518800 60.1715 229.487 55.8389 0.75935 -0.00147066
1519000 60.1715 229.5 55.8389 0.75945 -0.017309
1519200 60.1715 229.513 55.8389 0.75955 0.024625
1519400 60.1715 229.526 55.8389 0.75965 0.000792466
1519600 60.1715 229.539 55.8389 0.75975 0.0158888
1519800 60.1715 229.552 55.8389 0.75985 0.00818014
1520000 60.1715 229.565 55.8389 0.75995 0.0278465
1520200 60.1715 229.578 55.8389 0.76005 0.0240774
1520400 60.1715 229.592 55.8389 0.76015 0.0303249
1520600 60.1715 229.605 55.8389 0.76025 0.0264694
1520800 60.1715 229.618 55.8389 0.76035 0.0204544
1521000 60.1715 229.631 55.8389 0.76045 0.0219594
1521200 60.1715 229.644 55.8389 0.76055 -0.0141828
1521400 60.1715 229.657 55.8389 0.76065 0.00708187
1521600 60.1715 229.67 55.8389 0.76075 0.000674613
1521800 60.1715 229.683 55.8389 0.76085 -0.00187485
1522000 60.1715 229.696 55.8389 0.76095 -0.010825
1522200 60.1715 229.709 55.8389 0.76105 -0.0217376
1522400 60.1715 229.722 55.8389 0.76115 -0.0128465
1522600 60.1715 229.735 55.8389 0.76125 -0.0190428
1522800 60.1715 229.748 55.8389 0.76135 -0.00906045
1523000 60.1715 229.761 55.8389 0.76145 0.00528798
1523200 60.1715 229.774 55.8389 0.76155 0.00542043
1523400 60.1715 229.787 55.8389 0.76165 0.0247364
1523600 60.1715 229.8 55.8389 0.76175 0.0248316
1523800 60.1715 229.813 55.8389 0.76185 0.024024
1524000 60.1715 229.826 55.8389 0.76195 0.0147829
1524200 60.1715 229.839 55.8389 0.76205 0.0480995
1524400 60.1715 229.852 55.8389 0.76215 0.0210901
1524600 60.1715 229.865 55.8389 0.76225 0.0204223
1524800 60.1715 229.878 55.8389 0.76235 0.0244647
1525000 60.1715 229.892 55.8389 0.76245 -0.00383801
1525200 60.1715 229.905 55.8389 0.76255 0.0056337
1525400 60.1715 229.918 55.8389 0.76265 -0.011364
1525600 60.1715 229.931 55.8389 0.76275 -0.00499955
1525800 60.1715 229.944 55.8389 0.76285 -0.00919543
1526000 60.1715 229.957 55.8389 0.76295 -0.0138805
1526200 60.1715 229.97 55.8389 0.76305 -0.0226634
1526400 60.1715 229.983 55.8389 0.76315 -0.00643221
1526600 60.1715 229.996 55.8389 0.76325 -0.024647
1526800 60.1715 230.009 55.8389 0.76335 -0.0117375
1527000 60.1715 230.022 55.8389 0.76345 0.0078483
1527200 60.1715 230.035 55.8389 0.76355 0.0254835
1527400 60.1715 230.048 55.8389 0.76365 0.0182534
1527600 60.1715 230.061 55.8389 0.76375 0.0338587
1527800 60.1715 230.074 55.8389 0.76385 0.0279336
1528000 60.1715 230.087 55.8389 0.76395 0.0239489
1528200 60.1715 230.1 55.8389 0.76405 0.0245373
1528400 60.1715 230.113 55.8389 0.76415 0.0382837
1528600 60.1715 230.126 55.8389 0.76425 0.0288826
1528800 60.1715 230.139 55.8389 0.76435 0.00944426
1529000 60.1715 230.152 55.8389 0.76445 0.00709098
1529200 60.1715 230.165 55.8389 0.76455 -0.00732261
1529400 60.1715 230.178 55.8389 0.76465 -0.0273963
1529600 60.1715 230.192 55.8389 0.76475 -0.00566447
1529800 60.1715 230.205 55.8389 0.76485 -0.000367273
1530000 60.1715 230.218 55.8389 0.76495 -0.00276767
1530200 60.1715 230.231 55.8389 0.76505 -0.0320244
1530400 60.1715 230.244 55.8389 0.76515 -0.0078243
1530600 60.1715 230.257 55.8389 0.76525 -0.00985033
1530800 60.1715 230.27 55.8389 0.76535 -0.00342452
1531000 60.1715 230.283 55.8389 0.76545 0.0125665
1531200 60.1715 230.296 55.8389 0.76555 0.0171844
1531400 60.1715 230.309 55.8389 0.76565 0.0196457
1531600 60.1715 230.322 55.8389 0.76575 0.0440949
1531800 60.1715 230.335 55.8389 0.76585 0.0135639
1532000 60.1715 230.348 55.8389 0.76595 0.0275684
1532200 60.1715 230.361 55.8389 0.76605 0.0184113
1532400 60.1715 230.374 55.8389 0.76615 0.0204496
1532600 60.1715 230.387 55.8389 0.76625 0.0245769
1532800 60.1715 230.4 55.8389 0.76635 0.0322196
1533000 60.1715 230.413 55.8389 0.76645 -0.00155347
1533200 60.1715 230.426 55.8389 0.76655 -0.0159365
1533400 60.1715 230.439 55.8389 0.76665 -0.000876557
1533600 60.1715 230.452 55.8389 0.76675 -0.0257722
1533800 60.1715 230.465 55.8389 0.76685 -0.00446803
1534000 60.1715 230.479 55.8389 0.76695 -0.011969
1534200 60.1715 230.492 55.8389 0.76705 -0.00247325
1534400 60.1715 230.505 55.8389 0.76715 -0.0226628
1534600 60.1715 230.518 55.8389 0.76725 -0.0240249
1534800 60.1715 230.531 55.8389 0.76735 0.0014071
1535000 60.1715 230.544 55.8389 0.76745 0.00608118
1535200 60.1715 230.557 55.8389 0.76755 0.00957489
1535400 60.1715 230.57 55.8389 0.76765 0.0344979
1535600 60.1715 230.583 55.8389 0.76775 0.0333044
1535800 60.1715 230.596 55.8389 0.76785 0.0423635
1536000 60.1715 230.609 55.8389 0.76795 0.0247625
1536200 60.1715 230.622 55.8389 0.76805 0.0159141
1536400 60.1715 230.635 55.8389 0.76815 0.0296298
1536600 60.1715 230.648 55.8389 0.76825 0.0307983
1536800 60.1715 230.661 55.8389 0.76835 0.0177982
1537000 60.1715 230.674 55.8389 0.76845 -0.00247176
1537200 60.1715 230.687 55.8389 0.76855 -0.00203402
1537400 60.1715 230.7 55.8389 0.76865 -0.00533325
1537600 60.1715 230.713 55.8389 0.76875 -0.0278139
1537800 60.1715 230.726 55.8389 0.76885 -0.0236713
1538000 60.1715 230.739 55.8389 0.76895 -0.0132281
1538200 60.1715 230.752 55.8389 0.76905 -0.0178246
1538400 60.1715 230.765 55.8389 0.76915 -0.00830429
1538600 60.1715 230.779 55.8389 0.76925 0.0126825
1538800 60.1715 230.792 55.8389 0.76935 -0.0112583
1539000 60.1715 230.805 55.8389 0.76945 0.00645213
1539200 60.1715 230.818 55.8389 0.76955 0.0251692
1539400 60.1715 230.831 55.8389 0.76965 0.0176429
1539600 60.1715 230.844 55.8389 0.76975 0.0392594
1539800 60.1715 230.857 55.8389 0.76985 0.0340864
1540000 60.1715 230.87 55.8389 0.76995 0.0270645
1540200 60.1715 230.883 55.8389 0.77005 0.0243334
1540400 60.1715 230.896 55.8389 0.77015 0.0122721
1540600 60.1715 230.909 55.8389 0.77025 0.0167709
1540800 60.1715 230.922 55.8389 0.77035 0.0104183
1541000 60.1715 230.935 55.8389 0.77045 0.00060111
1541200 60.1715 230.948 55.8389 0.77055 -0.00123269
1541400 60.1715 230.961 55.8389 0.77065 -0.00345286
1541600 60.1715 230.974 55.8389 0.77075 -0.00884487
1541800 60.1715 230.987 55.8389 0.77085 -0.0372623
1542000 60.1715 231 55.8389 0.77095 -0.0138095
1542200 60.1715 231.013 55.8389 0.77105 0.00460627
1542400 60.1715 231.026 55.8389 0.77115 -0.00640737
1542600 60.1715 231.039 55.8389 0.77125 0.00229989
1542800 60.1715 231.052 55.8389 0.77135 0.0079402
1543000 60.1715 231.065 55.8389 0.77145 0.0055352
1543200 60.1715 231.079 55.8389 0.77155 -0.01676
1543400 60.1715 231.092 55.8389 0.77165 0.0434232
1543600 60.1715 231.105 55.8389 0.77175 0.0335704
1543800 60.1715 231.118 55.8389 0.77185 0.0305988
1544000 60.1715 231.131 55.8389 0.77195 0.0293885
1544200 60.1715 231.144 55.8389 0.77205 0.0280358
1544400 60.1715 231.157 55.8389 0.77215 0.00860767
1544600 60.1715 231.17 55.8389 0.77225 0.00765187
1544800 60.1715 231.183 55.8389 0.77235 0.0031646
1545000 60.1715 231.196 55.8389 0.77245 0.00921457
1545200 60.1715 231.209 55.8389 0.77255 0.00802791
1545400 60.1715 231.222 55.8389 0.77265 -0.0181072
1545600 60.1715 231.235 55.8389 0.77275 -0.00822314
1545800 60.1715 231.248 55.8389 0.77285 -0.0244701
1546000 60.1715 231.261 55.8389 0.77295 -0.0182744
1546200 60.1715 231.274 55.8389 0.77305 0.00186497
1546400 60.1715 231.287 55.8389 0.77315 -0.0147974
1546600 60.1715 231.3 55.8389 0.77325 0.0145856
1546800 60.1715 231.313 55.8389 0.77335 0.0212119
1547000 60.1715 231.326 55.8389 0.77345 0.00975271
1547200 60.1715 231.339 55.8389 0.77355 -0.00208
1547400 60.1715 231.352 55.8389 0.77365 0.0198964
1547600 60.1715 231.365 55.8389 0.77375 0.0185273
1547800 60.1715 231.379 55.8389 0.77385 0.0410471
1548000 60.1715 231.392 55.8389 0.77395 0.0152493
1548200 60.1715 231.405 55.8389 0.77405 0.0374263
1548400 60.1715 231.418 55.8389 0.77415 0.00199149
1548600 60.1715 231.431 55.8389 0.77425 0.0209478
1548800 60.1715 231.444 55.8389 0.77435 0.00327069
1549000 60.1715 231.457 55.8389 0.77445 0.0190967
1549200 60.1715 231.47 55.8389 0.77455 -0.00949056
1549400 60.1715 231.483 55.8389 0.77465 0.00483073
1549600 60.1715 231.496 55.8389 0.77475 -0.0139742
1549800 60.1715 231.509 55.8389 0.77485 -0.0305212
1550000 60.1715 231.522 55.8389 0.77495 -0.0147166
1550200 60.1715 231.535 55.8389 0.77505 0.00195441
1550400 60.1715 231.548 55.8389 0.77515 -0.0150827
1550600 60.1715 231.561 55.8389 0.77525 0.00754785
1550800 60.1715 231.574 55.8389 0.77535 -0.00585888
1551000 60.1715 231.587 55.8389 0.77545 0.0169337
1551200 60.1715 231.6 55.8389 0.77555 0.00413068
1551400 60.1715 231.613 55.8389 0.77565 0.0197731
1551600 60.1715 231.626 55.8389 0.77575 0.0294851
1551800 60.1715 231.639 55.8389 0.77585 0.0303882
1552000 60.1715 231.652 55.8389 0.77595 0.0437894
1552200 60.1715 231.665 55.8389 0.77605 0.0210058
1552400 60.1715 231.679 55.8389 0.77615 0.0275652
1552600 60.1715 231.692 55.8389 0.77625 0.0320258
1552800 60.1715 231.705 55.8389 0.77635 -0.00084148
1553000 60.1715 231.718 55.8389 0.77645 -0.0138405
1553200 60.1715 231.731 55.8389 0.77655 0.00296854
1553400 60.1715 231.744 55.8389 0.77665 -0.0051218
1553600 60.1715 231.757 55.8389 0.77675 -0.011044
1553800 60.1715 231.77 55.8389 0.77685 -0.035057
1554000 60.1715 231.783 55.8389 0.77695 -0.0202742
1554200 60.1715 231.796 55.8389 0.77705 -0.0150198
1554400 60.1715 231.809 55.8389 0.77715 -0.0151233
1554600 60.1715 231.822 55.8389 0.77725 -0.0157751
1554800 60.1715 231.835 55.8389 0.77735 0.0295572
1555000 60.1715 231.848 55.8389 0.77745 0.0269314
1555200 60.1715 231.861 55.8389 0.77755 0.0123175
1555400 60.1715 231.874 55.8389 0.77765 0.00797119
1555600 60.1715 231.887 55.8389 0.77775 0.0441995
1555800 60.1715 231.9 55.8389 0.77785 0.0309502
1556000 60.1715 231.913 55.8389 0.77795 0.0465447
1556200 60.1715 231.926 55.8389 0.77805 0.0412882
1556400 60.1715 231.939 55.8389 0.77815 0.0139618
1556600 60.1715 231.952 55.8389 0.77825 0.0162781
1556800 60.1715 231.966 55.8389 0.77835 0.00478282
1557000 60.1715 231.979 55.8389 0.77845 -0.0230408
1557200 60.1715 231.992 55.8389 0.77855 -0.00310504
1557400 60.1715 232.005 55.8389 0.77865 -0.011562
1557600 60.1715 232.018 55.8389 0.77875 -0.0194388
1557800 60.1715 232.031 55.8389 0.77885 -0.0210331
1558000 60.1715 232.044 55.8389 0.77895 -0.0331724
1558200 60.1715 232.057 55.8389 0.77905 -0.0261542
1558400 60.1715 232.07 55.8389 0.77915 -0.0070515
1558600 60.1715 232.083 55.8389 0.77925 0.00839399
1558800 60.1715 232.096 55.8389 0.77935 0.00741414
1559000 60.1715 232.109 55.8389 0.77945 0.0343449
1559200 60.1715 232.122 55.8389 0.77955 0.0346836
1559400 60.1715 232.135 55.8389 0.77965 0.0193293
1559600 60.1715 232.148 55.8389 0.77975 0.0361899
1559800 60.1715 232.161 55.8389 0.77985 0.0544853
1560000 60.1715 232.174 55.8389 0.77995 0.0214899
1560200 60.1715 232.187 55.8389 0.78005 0.0412395
1560400 60.1715 232.2 55.8389 0.78015 0.0143494
1560600 60.1715 232.213 55.8389 0.78025 0.00219868
1560800 60.1715 232.226 55.8389 0.78035 -0.00994031
1561000 60.1715 232.239 55.8389 0.78045 -0.0146116
1561200 60.1715 232.252 55.8389 0.78055 -0.0145323
1561400 60.1715 232.266 55.8389 0.78065 -0.00568582
1561600 60.1715 232.279 55.8389 0.78075 -0.0159334
1561800 60.1715 232.292 55.8389 0.78085 -0.0200669
1562000 60.1715 232.305 55.8389 0.78095 -0.0462602
1562200 60.1715 232.318 55.8389 0.78105 -0.00705054
1562400 60.1715 232.331 55.8389 0.78115 -0.00960244
1562600 60.1715 232.344 55.8389 0.78125 0.0171966
1562800 60.1715 232.357 55.8389 0.78135 0.0292809
1563000 60.1715 232.37 55.8389 0.78145 0.017579
1563200 60.1715 232.383 55.8389 0.78155 0.0284487
1563400 60.1715 232.396 55.8389 0.78165 0.0275593
1563600 60.1715 232.409 55.8389 0.78175 0.0419318
1563800 60.1715 232.422 55.8389 0.78185 0.0272542
1564000 60.1715 232.435 55.8389 0.78195 0.0320179
1564200 60.1715 232.448 55.8389 0.78205 0.0364022
1564400 60.1715 232.461 55.8389 0.78215 0.0173276
1564600 60.1715 232.474 55.8389 0.78225 0.00809979
1564800 60.1715 232.487 55.8389 0.78235 -0.010489
1565000 60.1715 232.5 55.8389 0.78245 -0.0335276
1565200 60.1715 232.513 55.8389 0.78255 -0.023254
1565400 60.1715 232.526 55.8389 0.78265 -0.00966889
1565600 60.1715 232.539 55.8389 0.78275 -0.00942592
1565800 60.1715 232.552 55.8389 0.78285 -0.0213978
1566000 60.1715 232.566 55.8389 0.78295 -0.00969055
1566200 60.1715 232.579 55.8389 0.78305 -0.0158391
1566400 60.1715 232.592 55.8389 0.78315 -0.00789432
1566600 60.1715 232.605 55.8389 0.78325 0.00766906
1566800 60.1715 232.618 55.8389 0.78335 0.0149788
1567000 60.1715 232.631 55.8389 0.78345 0.0370499
1567200 60.1715 232.644 55.8389 0.78355 0.0531967
1567400 60.1715 232.657 55.8389 0.78365 0.0310927
1567600 60.1715 232.67 55.8389 0.78375 0.0323869
1567800 60.1715 232.683 55.8389 0.78385 0.0115974
1568000 60.1715 232.696 55.8389 0.78395 0.0330783
1568200 60.1715 232.709 55.8389 0.78405 0.0316417
1568400 60.1715 232.722 55.8389 0.78415 0.012659
1568600 60.1715 232.735 55.8389 0.78425 -0.00688156
1568800 60.1715 232.748 55.8389 0.78435 -0.0108591
1569000 60.1715 232.761 55.8389 0.78445 -0.0191911
1569200 60.1715 232.774 55.8389 0.78455 -0.0259704
1569400 60.1715 232.787 55.8389 0.78465 -0.0254497
1569600 60.1715 232.8 55.8389 0.78475 -0.00993208
1569800 60.1715 232.813 55.8389 0.78485 -0.00356213
1570000 60.1715 232.826 55.8389 0.78495 -0.0229213
1570200 60.1715 232.839 55.8389 0.78505 0.0104035
1570400 60.1715 232.852 55.8389 0.78515 0.00843711
1570600 60.1715 232.866 55.8389 0.78525 0.00517533
1570800 60.1715 232.879 55.8389 0.78535 0.0287102
1571000 60.1715 232.892 55.8389 0.78545 0.0469444
1571200 60.1715 232.905 55.8389 0.78555 0.0196026
1571400 60.1715 232.918 55.8389 0.78565 0.0282633
1571600 60.1715 232.931 55.8389 0.78575 0.0350349
1571800 60.1715 232.944 55.8389 0.78585 0.0161197
1572000 60.1715 232.957 55.8389 0.78595 0.00727653
1572200 60.1715 232.97 55.8389 0.78605 0.0244483
1572400 60.1715 232.983 55.8389 0.78615 0.00699101
1572600 60.1715 232.996 55.8389 0.78625 0.000743404
1572800 60.1715 233.009 55.8389 0.78635 -0.0108362
1573000 60.1715 233.022 55.8389 0.78645 -0.0184803
1573200 60.1715 233.035 55.8389 0.78655 -0.0275325
1573400 60.1715 233.048 55.8389 0.78665 -0.0280377
1573600 60.1715 233.061 55.8389 0.78675 -0.0126027
1573800 60.1715 233.074 55.8389 0.78685 -0.00638974
1574000 60.1715 233.087 55.8389 0.78695 0.000354512
1574200 60.1715 233.1 55.8389 0.78705 -0.00135759
1574400 60.1715 233.113 55.8389 0.78715 0.004741
1574600 60.1715 233.126 55.8389 0.78725 0.0168068
1574800 60.1715 233.139 55.8389 0.78735 0.026857
1575000 60.1715 233.152 55.8389 0.78745 0.0328367
1575200 60.1715 233.166 55.8389 0.78755 0.05456
1575400 60.1715 233.179 55.8389 0.78765 0.0369376
1575600 60.1715 233.192 55.8389 0.78775 0.0244927
1575800 60.1715 233.205 55.8389 0.78785 0.0284443
1576000 60.1715 233.218 55.8389 0.78795 0.00689659
1576200 60.1715 233.231 55.8389 0.78805 0.00310248
1576400 60.1715 233.244 55.8389 0.78815 -0.003583
1576600 60.1715 233.257 55.8389 0.78825 0.0153542
1576800 60.1715 233.27 55.8389 0.78835 -0.0323012
1577000 60.1715 233.283 55.8389 0.78845 -0.0173235
1577200 60.1715 233.296 55.8389 0.78855 -0.0300561
1577400 60.1715 233.309 55.8389 0.78865 -0.0291858
1577600 60.1715 233.322 55.8389 0.78875 -0.00647812
1577800 60.1715 233.335 55.8389 0.78885 -0.00742077
1578000 60.1715 233.348 55.8389 0.78895 3.49173e-05
1578200 60.1715 233.361 55.8389 0.78905 0.00749178
1578400 60.1715 233.374 55.8389 0.78915 0.0143062
1578600 60.1715 233.387 55.8389 0.78925 0.0238564
1578800 60.1715 233.4 55.8389 0.78935 0.0167053
1579000 60.1715 233.413 55.8389 0.78945 0.041768
1579200 60.1715 233.426 55.8389 0.78955 0.0376015
1579400 60.1715 233.439 55.8389 0.78965 0.0415376
1579600 60.1715 233.453 55.8389 0.78975 0.0240296
1579800 60.1715 233.466 55.8389 0.78985 0.039868
1580000 60.1715 233.479 55.8389 0.78995 0.0184971
1580200 60.1715 233.492 55.8389 0.79005 -0.0104113
1580400 60.1715 233.505 55.8389 0.79015 -0.0188847
1580600 60.1715 233.518 55.8389 0.79025 -0.00559005
1580800 60.1715 233.531 55.8389 0.79035 -0.0214145
1581000 60.1715 233.544 55.8389 0.79045 -0.0247221
1581200 60.1715 233.557 55.8389 0.79055 -0.0254689
1581400 60.1715 233.57 55.8389 0.79065 -0.0298112
1581600 60.1715 233.583 55.8389 0.79075 -0.0175389
1581800 60.1715 233.596 55.8389 0.79085 -0.00349291
1582000 60.1715 233.609 55.8389 0.79095 -0.00191253
1582200 60.1715 233.622 55.8389 0.79105 0.0195868
1582400 60.1715 233.635 55.8389 0.79115 0.0256171
1582600 60.1715 233.648 55.8389 0.79125 0.0425508
1582800 60.1715 233.661 55.8389 0.79135 0.0277525
1583000 60.1715 233.674 55.8389 0.79145 0.0361315
1583200 60.1715 233.687 55.8389 0.79155 0.0391593
1583400 60.1715 233.7 55.8389 0.79165 0.0323904
1583600 60.1715 233.713 55.8389 0.79175 0.0369576
1583800 60.1715 233.726 55.8389 0.79185 0.0191446
1584000 60.1715 233.739 55.8389 0.79195 0.000378492
1584200 60.1715 233.753 55.8389 0.79205 -0.00644359
1584400 60.1715 233.766 55.8389 0.79215 -0.0379007
1584600 60.1715 233.779 55.8389 0.79225 -0.0134781
1584800 60.1715 233.792 55.8389 0.79235 -0.0193056
1585000 60.1715 233.805 55.8389 0.79245 -0.034063
1585200 60.1715 233.818 55.8389 0.79255 0.00399839
1585400 60.1715 233.831 55.8389 0.79265 -0.0182812
1585600 60.1715 233.844 55.8389 0.79275 -0.0109154
1585800 60.1715 233.857 55.8389 0.79285 0.00501944
1586000 60.1715 233.87 55.8389 0.79295 0.0113928
1586200 60.1715 233.883 55.8389 0.79305 0.0180996
1586400 60.1715 233.896 55.8389 0.79315 0.0209426
1586600 60.1715 233.909 55.8389 0.79325 0.0418869
1586800 60.1715 233.922 55.8389 0.79335 0.0386436
1587000 60.1715 233.935 55.8389 0.79345 0.0257653
1587200 60.1715 233.948 55.8389 0.79355 0.0256339
1587400 60.1715 233.961 55.8389 0.79365 0.0154685
1587600 60.1715 233.974 55.8389 0.79375 0.0267097
1587800 60.1715 233.987 55.8389 0.79385 0.0006898
1588000 60.1715 234 55.8389 0.79395 0.00529581
1588200 60.1715 234.013 55.8389 0.79405 -0.00383972
1588400 60.1715 234.026 55.8389 0.79415 -0.0223718
1588600 60.1715 234.039 55.8389 0.79425 -0.0185757
1588800 60.1715 234.053 55.8389 0.79435 -0.0213479
1589000 60.1715 234.066 55.8389 0.79445 -0.0154068
1589200 60.1715 234.079 55.8389 0.79455 -0.0118218
1589400 60.1715 234.092 55.8389 0.79465 -0.00987835
1589600 60.1715 234.105 55.8389 0.79475 -0.00236236
1589800 60.1715 234.118 55.8389 0.79485 0.0107609
1590000 60.1715 234.131 55.8389 0.79495 0.00949447
1590200 60.1715 234.144 55.8389 0.79505 0.0243107
1590400 60.1715 234.157 55.8389 0.79515 0.0299279
1590600 60.1715 234.17 55.8389 0.79525 0.0369668
1590800 60.1715 234.183 55.8389 0.79535 0.0278686
1591000 60.1715 234.196 55.8389 0.79545 0.0483841
1591200 60.1715 234.209 55.8389 0.79555 0.0124713
1591400 60.1715 234.222 55.8389 0.79565 0.00950262
1591600 60.1715 234.235 55.8389 0.79575 0.00998407
1591800 60.1715 234.248 55.8389 0.79585 -0.0062557
1592000 60.1715 234.261 55.8389 0.79595 0.00518371
1592200 60.1715 234.274 55.8389 0.79605 0.00271073
1592400 60.1715 234.287 55.8389 0.79615 -0.0208754
1592600 60.1715 234.3 55.8389 0.79625 -0.0277998
1592800 60.1715 234.313 55.8389 0.79635 -0.0212462
1593000 60.1715 234.326 55.8389 0.79645 -0.0136655
1593200 60.1715 234.339 55.8389 0.79655 -0.0123755
1593400 60.1715 234.353 55.8389 0.79665 0.00149222
1593600 60.1715 234.366 55.8389 0.79675 0.00393001
1593800 60.1715 234.379 55.8389 0.79685 0.0140823
1594000 60.1715 234.392 55.8389 0.79695 0.00919309
1594200 60.1715 234.405 55.8389 0.79705 0.0206899
1594400 60.1715 234.418 55.8389 0.79715 0.0409185
1594600 60.1715 234.431 55.8389 0.79725 0.0181978
1594800 60.1715 234.444 55.8389 0.79735 0.0413384
1595000 60.1715 234.457 55.8389 0.79745 0.0312729
1595200 60.1715 234.47 55.8389 0.79755 0.0211597
1595400 60.1715 234.483 55.8389 0.79765 0.0136654
1595600 60.1715 234.496 55.8389 0.79775 0.00147806
1595800 60.1715 234.509 55.8389 0.79785 -0.0111187
1596000 60.1715 234.522 55.8389 0.79795 -0.00758513
1596200 60.1715 234.535 55.8389 0.79805 -0.0111386
1596400 60.1715 234.548 55.8389 0.79815 -0.0129805
1596600 60.1715 234.561 55.8389 0.79825 -0.0161589
1596800 60.1715 234.574 55.8389 0.79835 -0.00937977
1597000 60.1715 234.587 55.8389 0.79845 -0.0160387
1597200 60.1715 234.6 55.8389 0.79855 -0.0155361
1597400 60.1715 234.613 55.8389 0.79865 0.010134
1597600 60.1715 234.626 55.8389 0.79875 0.0180422
1597800 60.1715 234.639 55.8389 0.79885 0.0116352
1598000 60.1715 234.653 55.8389 0.79895 0.0167196
1598200 60.1715 234.666 55.8389 0.79905 0.0301851
1598400 60.1715 234.679 55.8389 0.79915 0.0154722
1598600 60.1715 234.692 55.8389 0.79925 0.0238661
1598800 60.1715 234.705 55.8389 0.79935 0.0307184
1599000 60.1715 234.718 55.8389 0.79945 0.023784
1599200 60.1715 234.731 55.8389 0.79955 0.0165847
1599400 60.1715 234.744 55.8389 0.79965 0.0047195
1599600 60.1715 234.757 55.8389 0.79975 -0.00352579
1599800 60.1715 234.77 55.8389 0.79985 0.0107147
1600000 60.1715 234.783 55.8389 0.79995 -0.00636434
1600200 60.1715 234.796 55.8389 0.80005 -0.0163487
1600400 60.1715 234.809 55.8389 0.80015 -0.000460796
1600600 60.1715 234.822 55.8389 0.80025 -0.0136664
1600800 60.1715 234.835 55.8389 0.80035 -0.0163067
1601000 60.1715 234.848 55.8389 0.80045 -0.00826463
1601200 60.1715 234.861 55.8389 0.80055 -0.000984804
1601400 60.1715 234.874 55.8389 0.80065 0.0030637
1601600 60.1715 234.887 55.8389 0.80075 0.00883518
1601800 60.1715 234.9 55.8389 0.80085 0.00607479
1602000 60.1715 234.913 55.8389 0.80095 0.0227702
1602200 60.1715 234.926 55.8389 0.80105 0.0195994
1602400 60.1715 234.94 55.8389 0.80115 0.0213771
1602600 60.1715 234.953 55.8389 0.80125 0.0261006
1602800 60.1715 234.966 55.8389 0.80135 0.0316479
1603000 60.1715 234.979 55.8389 0.80145 0.0128888
1603200 60.1715 234.992 55.8389 0.80155 0.015462
1603400 60.1715 235.005 55.8389 0.80165 0.0070627
1603600 60.1715 235.018 55.8389 0.80175 0.00904961
1603800 60.1715 235.031 55.8389 0.80185 -0.00549305
1604000 60.1715 235.044 55.8389 0.80195 -0.00279968
1604200 60.1715 235.057 55.8389 0.80205 -0.0143187
1604400 60.1715 235.07 55.8389 0.80215 -0.0119837
1604600 60.1715 235.083 55.8389 0.80225 -0.0189762
1604800 60.1715 235.096 55.8389 0.80235 0.00439163
1605000 60.1715 235.109 55.8389 0.80245 -0.0240277
1605200 60.1715 235.122 55.8389 0.80255 0.000469809
1605400 60.1715 235.135 55.8389 0.80265 0.00653627
1605600 60.1715 235.148 55.8389 0.80275 0.0270547
1605800 60.1715 235.161 55.8389 0.80285 -0.000702472
1606000 60.1715 235.174 55.8389 0.80295 0.0129528
1606200 60.1715 235.187 55.8389 0.80305 0.0196579
1606400 60.1715 235.2 55.8389 0.80315 0.0529264
1606600 60.1715 235.213 55.8389 0.80325 0.0194888
1606800 60.1715 235.226 55.8389 0.80335 0.0216161
1607000 60.1715 235.24 55.8389 0.80345 0.00339773
1607200 60.1715 235.253 55.8389 0.80355 0.0111847
1607400 60.1715 235.266 55.8389 0.80365 0.0154096
1607600 60.1715 235.279 55.8389 0.80375 0.000517173
1607800 60.1715 235.292 55.8389 0.80385 -0.00954949
1608000 60.1715 235.305 55.8389 0.80395 -0.0118745
1608200 60.1715 235.318 55.8389 0.80405 0.00231836
1608400 60.1715 235.331 55.8389 0.80415 -0.0313125
1608600 60.1715 235.344 55.8389 0.80425 -0.0165947
1608800 60.1715 235.357 55.8389 0.80435 -0.0118846
1609000 60.1715 235.37 55.8389 0.80445 -0.0113438
1609200 60.1715 235.383 55.8389 0.80455 0.014025
1609400 60.1715 235.396 55.8389 0.80465 0.0176611
1609600 60.1715 235.409 55.8389 0.80475 0.0060725
1609800 60.1715 235.422 55.8389 0.80485 0.0157138
1610000 60.1715 235.435 55.8389 0.80495 0.0234698
1610200 60.1715 235.448 55.8389 0.80505 0.0373521
1610400 60.1715 235.461 55.8389 0.80515 0.0289298
1610600 60.1715 235.474 55.8389 0.80525 0.0251717
1610800 60.1715 235.487 55.8389 0.80535 0.020949
1611000 60.1715 235.5 55.8389 0.80545 0.0219511
1611200 60.1715 235.513 55.8389 0.80555 0.000445533
1611400 60.1715 235.526 55.8389 0.80565 -0.00831827
1611600 60.1715 235.54 55.8389 0.80575 -0.000976534
1611800 60.1715 235.553 55.8389 0.80585 -0.0119918
1612000 60.1715 235.566 55.8389 0.80595 0.00305727
1612200 60.1715 235.579 55.8389 0.80605 -0.0314274
1612400 60.1715 235.592 55.8389 0.80615 -0.0201233
1612600 60.1715 235.605 55.8389 0.80625 -0.0155427
1612800 60.1715 235.618 55.8389 0.80635 -0.0102176
1613000 60.1715 235.631 55.8389 0.80645 -0.0041348
1613200 60.1715 235.644 55.8389 0.80655 0.00554384
1613400 60.1715 235.657 55.8389 0.80665 0.0225429
1613600 60.1715 235.67 55.8389 0.80675 0.0228038
1613800 60.1715 235.683 55.8389 0.80685 0.0291883
1614000 60.1715 235.696 55.8389 0.80695 0.0472862
1614200 60.1715 235.709 55.8389 0.80705 0.0249731
1614400 60.1715 235.722 55.8389 0.80715 0.0213926
1614600 60.1715 235.735 55.8389 0.80725 0.0156581
1614800 60.1715 235.748 55.8389 0.80735 0.0209255
1615000 60.1715 235.761 55.8389 0.80745 0.00158667
1615200 60.1715 235.774 55.8389 0.80755 0.0166456
1615400 60.1715 235.787 55.8389 0.80765 -0.0153377
1615600 60.1715 235.8 55.8389 0.80775 -0.0125748
1615800 60.1715 235.813 55.8389 0.80785 -0.0223258
1616000 60.1715 235.826 55.8389 0.80795 -0.0168814
1616200 60.1715 235.84 55.8389 0.80805 -0.0286901
1616400 60.1715 235.853 55.8389 0.80815 -0.00176146
1616600 60.1715 235.866 55.8389 0.80825 -0.00661137
1616800 60.1715 235.879 55.8389 0.80835 -0.0170294
1617000 60.1715 235.892 55.8389 0.80845 0.00832807
1617200 60.1715 235.905 55.8389 0.80855 0.00528054
1617400 60.1715 235.918 55.8389 0.80865 0.0245649
1617600 60.1715 235.931 55.8389 0.80875 0.0346461
1617800 60.1715 235.944 55.8389 0.80885 0.0359809
1618000 60.1715 235.957 55.8389 0.80895 0.020905
1618200 60.1715 235.97 55.8389 0.80905 0.0285383
1618400 60.1715 235.983 55.8389 0.80915 0.032123
1618600 60.1715 235.996 55.8389 0.80925 0.0247524
1618800 60.1715 236.009 55.8389 0.80935 0.0174107
1619000 60.1715 236.022 55.8389 0.80945 0.00157307
1619200 60.1715 236.035 55.8389 0.80955 -0.00455248
1619400 60.1715 236.048 55.8389 0.80965 0.0143661
1619600 60.1715 236.061 55.8389 0.80975 -0.0412639
1619800 60.1715 236.074 55.8389 0.80985 -0.0157007
1620000 60.1715 236.087 55.8389 0.80995 -0.0267911
1620200 60.1715 236.1 55.8389 0.81005 -0.0087818
1620400 60.1715 236.113 55.8389 0.81015 -0.0303029
1620600 60.1715 236.126 55.8389 0.81025 -0.00895787
1620800 60.1715 236.14 55.8389 0.81035 0.00931878
1621000 60.1715 236.153 55.8389 0.81045 -0.00195155
1621200 60.1715 236.166 55.8389 0.81055 0.00767043
1621400 60.1715 236.179 55.8389 0.81065 0.0221564
1621600 60.1715 236.192 55.8389 0.81075 0.0418591
1621800 60.1715 236.205 55.8389 0.81085 0.0285199
1622000 60.1715 236.218 55.8389 0.81095 0.0348976
1622200 60.1715 236.231 55.8389 0.81105 0.0358001
1622400 60.1715 236.244 55.8389 0.81115 0.0269157
1622600 60.1715 236.257 55.8389 0.81125 0.0182507
1622800 60.1715 236.27 55.8389 0.81135 -0.000489128
1623000 60.1715 236.283 55.8389 0.81145 0.0156447
1623200 60.1715 236.296 55.8389 0.81155 0.0176892
1623400 60.1715 236.309 55.8389 0.81165 -0.0122327
1623600 60.1715 236.322 55.8389 0.81175 -0.0183304
1623800 60.1715 236.335 55.8389 0.81185 -0.0302842
1624000 60.1715 236.348 55.8389 0.81195 -0.0361282
1624200 60.1715 236.361 55.8389 0.81205 -0.0208009
1624400 60.1715 236.374 55.8389 0.81215 -0.00692467
1624600 60.1715 236.387 55.8389 0.81225 -0.016843
1624800 60.1715 236.4 55.8389 0.81235 0.00155665
1625000 60.1715 236.413 55.8389 0.81245 0.014547
1625200 60.1715 236.427 55.8389 0.81255 0.0124781
1625400 60.1715 236.44 55.8389 0.81265 0.00895874
1625600 60.1715 236.453 55.8389 0.81275 0.0421899
1625800 60.1715 236.466 55.8389 0.81285 0.0422651
1626000 60.1715 236.479 55.8389 0.81295 0.0458642
1626200 60.1715 236.492 55.8389 0.81305 0.0369718
1626400 60.1715 236.505 55.8389 0.81315 0.00180578
1626600 60.1715 236.518 55.8389 0.81325 0.0112382
1626800 60.1715 236.531 55.8389 0.81335 0.0192695
1627000 60.1715 236.544 55.8389 0.81345 -0.00535947
1627200 60.1715 236.557 55.8389 0.81355 -0.00347813
1627400 60.1715 236.57 55.8389 0.81365 -0.0187111
1627600 60.1715 236.583 55.8389 0.81375 -0.0198042
1627800 60.1715 236.596 55.8389 0.81385 -0.0302538
1628000 60.1715 236.609 55.8389 0.81395 -0.0171002
1628200 60.1715 236.622 55.8389 0.81405 -0.0200533
1628400 60.1715 236.635 55.8389 0.81415 0.00351948
1628600 60.1715 236.648 55.8389 0.81425 0.000374593
1628800 60.1715 236.661 55.8389 0.81435 0.00818348
1629000 60.1715 236.674 55.8389 0.81445 0.0183635
1629200 60.1715 236.687 55.8389 0.81455 0.0220145
1629400 60.1715 236.7 55.8389 0.81465 0.00894096
1629600 60.1715 236.713 55.8389 0.81475 0.0378718
1629800 60.1715 236.727 55.8389 0.81485 0.0229821
1630000 60.1715 236.74 55.8389 0.81495 0.0489269
1630200 60.1715 236.753 55.8389 0.81505 0.0347217
1630400 60.1715 236.766 55.8389 0.81515 0.0146415
1630600 60.1715 236.779 55.8389 0.81525 0.0186136
1630800 60.1715 236.792 55.8389 0.81535 -0.00707755
1631000 60.1715 236.805 55.8389 0.81545 -0.00788034
1631200 60.1715 236.818 55.8389 0.81555 -0.0093477
1631400 60.1715 236.831 55.8389 0.81565 -0.00869243
1631600 60.1715 236.844 55.8389 0.81575 -0.0219517
1631800 60.1715 236.857 55.8389 0.81585 -0.0209371
1632000 60.1715 236.87 55.8389 0.81595 -0.0274235
1632200 60.1715 236.883 55.8389 0.81605 -0.0277249
1632400 60.1715 236.896 55.8389 0.81615 -0.00158296
1632600 60.1715 236.909 55.8389 0.81625 0.0101043
1632800 60.1715 236.922 55.8389 0.81635 0.00577176
1633000 60.1715 236.935 55.8389 0.81645 0.0173773
1633200 60.1715 236.948 55.8389 0.81655 0.0261751
1633400 60.1715 236.961 55.8389 0.81665 0.0180855
1633600 60.1715 236.974 55.8389 0.81675 0.0352111
1633800 60.1715 236.987 55.8389 0.81685 0.0415562
1634000 60.1715 237 55.8389 0.81695 0.0278448
1634200 60.1715 237.013 55.8389 0.81705 0.0170306
1634400 60.1715 237.027 55.8389 0.81715 0.0386889
1634600 60.1715 237.04 55.8389 0.81725 0.00988545
1634800 60.1715 237.053 55.8389 0.81735 -0.0207896
1635000 60.1715 237.066 55.8389 0.81745 -0.00621204
1635200 60.1715 237.079 55.8389 0.81755 -0.00924659
1635400 60.1715 237.092 55.8389 0.81765 -0.018229
1635600 60.1715 237.105 55.8389 0.81775 -0.0217954
1635800 60.1715 237.118 55.8389 0.81785 -0.00862929
1636000 60.1715 237.131 55.8389 0.81795 -0.0180068
1636200 60.1715 237.144 55.8389 0.81805 -0.0236662
1636400 60.1715 237.157 55.8389 0.81815 -0.000500674
1636600 60.1715 237.17 55.8389 0.81825 0.0139979
1636800 60.1715 237.183 55.8389 0.81835 0.00529204
1637000 60.1715 237.196 55.8389 0.81845 0.0275047
1637200 60.1715 237.209 55.8389 0.81855 0.044829
1637400 60.1715 237.222 55.8389 0.81865 0.0138472
1637600 60.1715 237.235 55.8389 0.81875 0.0203855
1637800 60.1715 237.248 55.8389 0.81885 0.027159
1638000 60.1715 237.261 55.8389 0.81895 0.0250989
1638200 60.1715 237.274 55.8389 0.81905 0.016124
1638400 60.1715 237.287 55.8389 0.81915 0.0224157
1638600 60.1715 237.3 55.8389 0.81925 0.0051939
1638800 60.1715 237.313 55.8389 0.81935 0.00314358
1639000 60.1715 237.327 55.8389 0.81945 -0.0143181
1639200 60.1715 237.34 55.8389 0.81955 -0.0289241
1639400 60.1715 237.353 55.8389 0.81965 -0.0168889
1639600 60.1715 237.366 55.8389 0.81975 -0.0143976
1639800 60.1715 237.379 55.8389 0.81985 -0.00910692
1640000 60.1715 237.392 55.8389 0.81995 -0.000226086
1640200 60.1715 237.405 55.8389 0.82005 -0.0137293
1640400 60.1715 237.418 55.8389 0.82015 -0.0161874
1640600 60.1715 237.431 55.8389 0.82025 0.0159218
1640800 60.1715 237.444 55.8389 0.82035 0.0233972
1641000 60.1715 237.457 55.8389 0.82045 0.0299406
1641200 60.1715 237.47 55.8389 0.82055 0.0175295
1641400 60.1715 237.483 55.8389 0.82065 0.0493969
1641600 60.1715 237.496 55.8389 0.82075 0.0324152
1641800 60.1715 237.509 55.8389 0.82085 0.00355537
1642000 60.1715 237.522 55.8389 0.82095 0.0247928
1642200 60.1715 237.535 55.8389 0.82105 0.0174243
1642400 60.1715 237.548 55.8389 0.82115 0.00862986
1642600 60.1715 237.561 55.8389 0.82125 0.0111479
1642800 60.1715 237.574 55.8389 0.82135 -0.00270221
1643000 60.1715 237.587 55.8389 0.82145 -0.0259807
1643200 60.1715 237.6 55.8389 0.82155 -0.0250186
1643400 60.1715 237.613 55.8389 0.82165 -0.026264
1643600 60.1715 237.627 55.8389 0.82175 -0.00731645
1643800 60.1715 237.64 55.8389 0.82185 -0.00111386
1644000 60.1715 237.653 55.8389 0.82195 -0.00673108
1644200 60.1715 237.666 55.8389 0.82205 -0.0024625
1644400 60.1715 237.679 55.8389 0.82215 0.00794378
1644600 60.1715 237.692 55.8389 0.82225 -0.00508448
1644800 60.1715 237.705 55.8389 0.82235 0.00961398
1645000 60.1715 237.718 55.8389 0.82245 0.0357875
1645200 60.1715 237.731 55.8389 0.82255 0.0298513
1645400 60.1715 237.744 55.8389 0.82265 0.0447973
1645600 60.1715 237.757 55.8389 0.82275 0.0198929
1645800 60.1715 237.77 55.8389 0.82285 0.0164414
1646000 60.1715 237.783 55.8389 0.82295 -0.000834067
1646200 60.1715 237.796 55.8389 0.82305 0.0239229
1646400 60.1715 237.809 55.8389 0.82315 0.00243218
1646600 60.1715 237.822 55.8389 0.82325 0.0406874
1646800 60.1715 237.835 55.8389 0.82335 -0.00387665
1647000 60.1715 237.848 55.8389 0.82345 -0.0335173
1647200 60.1715 237.861 55.8389 0.82355 -0.0256021
1647400 60.1715 237.874 55.8389 0.82365 -0.0186448
1647600 60.1715 237.887 55.8389 0.82375 -0.00935499
1647800 60.1715 237.9 55.8389 0.82385 -0.0186099
1648000 60.1715 237.914 55.8389 0.82395 0.0161484
1648200 60.1715 237.927 55.8389 0.82405 0.000317256
1648400 60.1715 237.94 55.8389 0.82415 -0.000505877
1648600 60.1715 237.953 55.8389 0.82425 -0.00234175
1648800 60.1715 237.966 55.8389 0.82435 0.00539171
1649000 60.1715 237.979 55.8389 0.82445 0.0285185
1649200 60.1715 237.992 55.8389 0.82455 0.0326125
1649400 60.1715 238.005 55.8389 0.82465 0.0390856
1649600 60.1715 238.018 55.8389 0.82475 0.0268421
1649800 60.1715 238.031 55.8389 0.82485 0.0155504
1650000 60.1715 238.044 55.8389 0.82495 0.0112563
1650200 60.1715 238.057 55.8389 0.82505 0.0160728
1650400 60.1715 238.07 55.8389 0.82515 0.0187857
1650600 60.1715 238.083 55.8389 0.82525 -0.00269386
1650800 60.1715 238.096 55.8389 0.82535 0.00937249
1651000 60.1715 238.109 55.8389 0.82545 -0.0150418
1651200 60.1715 238.122 55.8389 0.82555 -0.016103
1651400 60.1715 238.135 55.8389 0.82565 -0.0388276
1651600 60.1715 238.148 55.8389 0.82575 -0.026803
1651800 60.1715 238.161 55.8389 0.82585 -0.0104222
1652000 60.1715 238.174 55.8389 0.82595 0.0111546
1652200 60.1715 238.187 55.8389 0.82605 -0.000767911
1652400 60.1715 238.2 55.8389 0.82615 0.00301357
1652600 60.1715 238.214 55.8389 0.82625 0.00456792
1652800 60.1715 238.227 55.8389 0.82635 0.0154587
1653000 60.1715 238.24 55.8389 0.82645 0.0325097
1653200 60.1715 238.253 55.8389 0.82655 0.0361128
1653400 60.1715 238.266 55.8389 0.82665 0.0433903
1653600 60.1715 238.279 55.8389 0.82675 0.0356546
1653800 60.1715 238.292 55.8389 0.82685 0.0116356
1654000 60.1715 238.305 55.8389 0.82695 0.0154913
1654200 60.1715 238.318 55.8389 0.82705 0.000337781
1654400 60.1715 238.331 55.8389 0.82715 -0.0148106
1654600 60.1715 238.344 55.8389 0.82725 0.0102904
1654800 60.1715 238.357 55.8389 0.82735 0.0158953
1655000 60.1715 238.37 55.8389 0.82745 -0.0117529
1655200 60.1715 238.383 55.8389 0.82755 -0.0393972
1655400 60.1715 238.396 55.8389 0.82765 -0.0255412
1655600 60.1715 238.409 55.8389 0.82775 -0.0123497
1655800 60.1715 238.422 55.8389 0.82785 -0.0185756
1656000 60.1715 238.435 55.8389 0.82795 0.00639742
1656200 60.1715 238.448 55.8389 0.82805 0.0212327
1656400 60.1715 238.461 55.8389 0.82815 0.0126666
1656600 60.1715 238.474 55.8389 0.82825 0.0139518
1656800 60.1715 238.487 55.8389 0.82835 0.0112499
1657000 60.1715 238.5 55.8389 0.82845 0.0141844
1657200 60.1715 238.514 55.8389 0.82855 0.0359197
1657400 60.1715 238.527 55.8389 0.82865 0.0481546
1657600 60.1715 238.54 55.8389 0.82875 0.0379151
1657800 60.1715 238.553 55.8389 0.82885 0.012318
1658000 60.1715 238.566 55.8389 0.82895 0.015324
1658200 60.1715 238.579 55.8389 0.82905 -0.00570233
1658400 60.1715 238.592 55.8389 0.82915 -0.0186815
1658600 60.1715 238.605 55.8389 0.82925 0.00220955
1658800 60.1715 238.618 55.8389 0.82935 -0.00483151
1659000 60.1715 238.631 55.8389 0.82945 -0.00240022
1659200 60.1715 238.644 55.8389 0.82955 -0.0255146
1659400 60.1715 238.657 55.8389 0.82965 -0.0188872
1659600 60.1715 238.67 55.8389 0.82975 -0.0327222
1659800 60.1715 238.683 55.8389 0.82985 -0.00793592
1660000 60.1715 238.696 55.8389 0.82995 0.0182232
1660200 60.1715 238.709 55.8389 0.83005 0.00476839
1660400 60.1715 238.722 55.8389 0.83015 0.0228559
1660600 60.1715 238.735 55.8389 0.83025 0.0257682
1660800 60.1715 238.748 55.8389 0.83035 0.0148481
1661000 60.1715 238.761 55.8389 0.83045 0.0226652
1661200 60.1715 238.774 55.8389 0.83055 0.00322887
1661400 60.1715 238.787 55.8389 0.83065 0.043177
1661600 60.1715 238.8 55.8389 0.83075 0.0345189
1661800 60.1715 238.814 55.8389 0.83085 0.017751
1662000 60.1715 238.827 55.8389 0.83095 0.00796868
1662200 60.1715 238.84 55.8389 0.83105 0.00402095
1662400 60.1715 238.853 55.8389 0.83115 -0.0113033
1662600 60.1715 238.866 55.8389 0.83125 -0.0104375
1662800 60.1715 238.879 55.8389 0.83135 0.00304217
1663000 60.1715 238.892 55.8389 0.83145 -0.0124577
1663200 60.1715 238.905 55.8389 0.83155 -0.00192236
1663400 60.1715 238.918 55.8389 0.83165 -0.021241
1663600 60.1715 238.931 55.8389 0.83175 -0.0146906
1663800 60.1715 238.944 55.8389 0.83185 -0.0192604
1664000 60.1715 238.957 55.8389 0.83195 0.00969935
1664200 60.1715 238.97 55.8389 0.83205 0.0178801
1664400 60.1715 238.983 55.8389 0.83215 0.00369265
1664600 60.1715 238.996 55.8389 0.83225 0.0183598
1664800 60.1715 239.009 55.8389 0.83235 0.0295064
1665000 60.1715 239.022 55.8389 0.83245 0.0129495
1665200 60.1715 239.035 55.8389 0.83255 0.0226624
1665400 60.1715 239.048 55.8389 0.83265 0.00925452
1665600 60.1715 239.061 55.8389 0.83275 0.0424029
1665800 60.1715 239.074 55.8389 0.83285 0.025561
1666000 60.1715 239.087 55.8389 0.83295 0.0203505
1666200 60.1715 239.1 55.8389 0.83305 0.00619517
1666400 60.1715 239.114 55.8389 0.83315 -0.0128128
1666600 60.1715 239.127 55.8389 0.83325 -0.00077205
1666800 60.1715 239.14 55.8389 0.83335 -0.00934137
1667000 60.1715 239.153 55.8389 0.83345 -0.0113946
1667200 60.1715 239.166 55.8389 0.83355 -0.00620908
1667400 60.1715 239.179 55.8389 0.83365 -0.0147116
1667600 60.1715 239.192 55.8389 0.83375 -0.0152364
1667800 60.1715 239.205 55.8389 0.83385 -0.0127627
1668000 60.1715 239.218 55.8389 0.83395 -0.013605
1668200 60.1715 239.231 55.8389 0.83405 0.00575943
1668400 60.1715 239.244 55.8389 0.83415 0.015932
1668600 60.1715 239.257 55.8389 0.83425 0.0189081
1668800 60.1715 239.27 55.8389 0.83435 0.0226934
1669000 60.1715 239.283 55.8389 0.83445 0.033065
1669200 60.1715 239.296 55.8389 0.83455 0.0131423
1669400 60.1715 239.309 55.8389 0.83465 0.0311504
1669600 60.1715 239.322 55.8389 0.83475 0.0175183
1669800 60.1715 239.335 55.8389 0.83485 0.025967
1670000 60.1715 239.348 55.8389 0.83495 0.0123987
1670200 60.1715 239.361 55.8389 0.83505 0.0173265
1670400 60.1715 239.374 55.8389 0.83515 -0.00502074
1670600 60.1715 239.387 55.8389 0.83525 -0.017007
1670800 60.1715 239.401 55.8389 0.83535 0.0047512
1671000 60.1715 239.414 55.8389 0.83545 -0.00136484
1671200 60.1715 239.427 55.8389 0.83555 -0.0207987
1671400 60.1715 239.44 55.8389 0.83565 -0.0201919
1671600 60.1715 239.453 55.8389 0.83575 -0.00421418
1671800 60.1715 239.466 55.8389 0.83585 -0.00430063
1672000 60.1715 239.479 55.8389 0.83595 -0.0087608
1672200 60.1715 239.492 55.8389 0.83605 -0.00302807
1672400 60.1715 239.505 55.8389 0.83615 0.015837
1672600 60.1715 239.518 55.8389 0.83625 0.0175425
1672800 60.1715 239.531 55.8389 0.83635 0.030587
1673000 60.1715 239.544 55.8389 0.83645 0.012532
1673200 60.1715 239.557 55.8389 0.83655 0.020271
1673400 60.1715 239.57 55.8389 0.83665 0.0186736
1673600 60.1715 239.583 55.8389 0.83675 0.0204229
1673800 60.1715 239.596 55.8389 0.83685 0.0404962
1674000 60.1715 239.609 55.8389 0.83695 0.0235913
1674200 60.1715 239.622 55.8389 0.83705 -0.012455
1674400 60.1715 239.635 55.8389 0.83715 -0.00287361
1674600 60.1715 239.648 55.8389 0.83725 0.00377005
1674800 60.1715 239.661 55.8389 0.83735 -0.00290126
1675000 60.1715 239.674 55.8389 0.83745 -0.0288616
1675200 60.1715 239.687 55.8389 0.83755 -0.0114568
1675400 60.1715 239.701 55.8389 0.83765 -0.0096304
1675600 60.1715 239.714 55.8389 0.83775 -0.00444036
1675800 60.1715 239.727 55.8389 0.83785 -0.00509681
1676000 60.1715 239.74 55.8389 0.83795 -0.00410637
1676200 60.1715 239.753 55.8389 0.83805 0.00899587
1676400 60.1715 239.766 55.8389 0.83815 0.0146519
1676600 60.1715 239.779 55.8389 0.83825 0.0213815
1676800 60.1715 239.792 55.8389 0.83835 0.0323848
1677000 60.1715 239.805 55.8389 0.83845 0.00745621
1677200 60.1715 239.818 55.8389 0.83855 0.0389887
1677400 60.1715 239.831 55.8389 0.83865 0.00347194
1677600 60.1715 239.844 55.8389 0.83875 0.0192407
1677800 60.1715 239.857 55.8389 0.83885 0.0140895
1678000 60.1715 239.87 55.8389 0.83895 0.0180775
1678200 60.1715 239.883 55.8389 0.83905 0.00106733
1678400 60.1715 239.896 55.8389 0.83915 0.0124624
1678600 60.1715 239.909 55.8389 0.83925 -0.0212904
1678800 60.1715 239.922 55.8389 0.83935 -0.0188575
1679000 60.1715 239.935 55.8389 0.83945 0.00177277
1679200 60.1715 239.948 55.8389 0.83955 1.16901e-05
1679400 60.1715 239.961 55.8389 0.83965 -0.0102281
1679600 60.1715 239.974 55.8389 0.83975 -0.00582861
1679800 60.1715 239.987 55.8389 0.83985 -0.0109777
1680000 60.1715 240.001 55.8389 0.83995 -9.26207e-05
1680200 60.1715 240.014 55.8389 0.84005 0.0217853
1680400 60.1715 240.027 55.8389 0.84015 0.00550007
1680600 60.1715 240.04 55.8389 0.84025 0.0263017
1680800 60.1715 240.053 55.8389 0.84035 0.0163066
1681000 60.1715 240.066 55.8389 0.84045 0.0128265
1681200 60.1715 240.079 55.8389 0.84055 0.0107803
1681400 60.1715 240.092 55.8389 0.84065 0.0277634
1681600 60.1715 240.105 55.8389 0.84075 0.000811208
1681800 60.1715 240.118 55.8389 0.84085 0.0255413
1682000 60.1715 240.131 55.8389 0.84095 0.0214411
1682200 60.1715 240.144 55.8389 0.84105 -0.0107852
1682400 60.1715 240.157 55.8389 0.84115 -0.0117884
1682600 60.1715 240.17 55.8389 0.84125 -0.00904212
1682800 60.1715 240.183 55.8389 0.84135 -0.000559774
1683000 60.1715 240.196 55.8389 0.84145 0.00543536
1683200 60.1715 240.209 55.8389 0.84155 -0.0128597
1683400 60.1715 240.222 55.8389 0.84165 0.000764981
1683600 60.1715 240.235 55.8389 0.84175 0.00879626
1683800 60.1715 240.248 55.8389 0.84185 0.0133532
1684000 60.1715 240.261 55.8389 0.84195 0.0010532
1684200 60.1715 240.274 55.8389 0.84205 0.0145848
1684400 60.1715 240.287 55.8389 0.84215 0.00332387
1684600 60.1715 240.301 55.8389 0.84225 0.0144649
1684800 60.1715 240.314 55.8389 0.84235 0.0176053
1685000 60.1715 240.327 55.8389 0.84245 0.0134607
1685200 60.1715 240.34 55.8389 0.84255 0.0133465
1685400 60.1715 240.353 55.8389 0.84265 0.00479719
1685600 60.1715 240.366 55.8389 0.84275 0.0174145
1685800 60.1715 240.379 55.8389 0.84285 0.00378432
1686000 60.1715 240.392 55.8389 0.84295 0.0132231
1686200 60.1715 240.405 55.8389 0.84305 -0.0116978
1686400 60.1715 240.418 55.8389 0.84315 0.0074692
1686600 60.1715 240.431 55.8389 0.84325 0.00318895
1686800 60.1715 240.444 55.8389 0.84335 -0.00203517
1687000 60.1715 240.457 55.8389 0.84345 -0.0113453
1687200 60.1715 240.47 55.8389 0.84355 -0.0152402
1687400 60.1715 240.483 55.8389 0.84365 0.0173527
1687600 60.1715 240.496 55.8389 0.84375 -0.00494229
1687800 60.1715 240.509 55.8389 0.84385 0.0266648
1688000 60.1715 240.522 55.8389 0.84395 -0.00187278
1688200 60.1715 240.535 55.8389 0.84405 0.00077191
1688400 60.1715 240.548 55.8389 0.84415 0.0069995
1688600 60.1715 240.561 55.8389 0.84425 0.0102747
1688800 60.1715 240.574 55.8389 0.84435 0.00648744
1689000 60.1715 240.587 55.8389 0.84445 0.0264674
1689200 60.1715 240.601 55.8389 0.84455 0.022706
1689400 60.1715 240.614 55.8389 0.84465 0.0197392
1689600 60.1715 240.627 55.8389 0.84475 0.00587614
1689800 60.1715 240.64 55.8389 0.84485 -0.00328217
1690000 60.1715 240.653 55.8389 0.84495 -0.00511443
1690200 60.1715 240.666 55.8389 0.84505 0.0206333
1690400 60.1715 240.679 55.8389 0.84515 0.00412541
1690600 60.1715 240.692 55.8389 0.84525 -0.00320193
1690800 60.1715 240.705 55.8389 0.84535 0.005785
1691000 60.1715 240.718 55.8389 0.84545 -0.00894
1691200 60.1715 240.731 55.8389 0.84555 -0.0069187
1691400 60.1715 240.744 55.8389 0.84565 -0.0126587
1691600 60.1715 240.757 55.8389 0.84575 0.00827392
1691800 60.1715 240.77 55.8389 0.84585 0.0212977
1692000 60.1715 240.783 55.8389 0.84595 -0.00886304
1692200 60.1715 240.796 55.8389 0.84605 0.00952278
1692400 60.1715 240.809 55.8389 0.84615 0.00834647
1692600 60.1715 240.822 55.8389 0.84625 0.0215873
1692800 60.1715 240.835 55.8389 0.84635 -0.00411404
1693000 60.1715 240.848 55.8389 0.84645 0.0134503
1693200 60.1715 240.861 55.8389 0.84655 0.017637
1693400 60.1715 240.874 55.8389 0.84665 0.0217691
1693600 60.1715 240.888 55.8389 0.84675 0.0174869
1693800 60.1715 240.901 55.8389 0.84685 -0.0080278
1694000 60.1715 240.914 55.8389 0.84695 0.00256399
1694200 60.1715 240.927 55.8389 0.84705 -0.000896094
1694400 60.1715 240.94 55.8389 0.84715 0.00466146
1694600 60.1715 240.953 55.8389 0.84725 0.000707302
1694800 60.1715 240.966 55.8389 0.84735 -0.00211457
1695000 60.1715 240.979 55.8389 0.84745 0.0101686
1695200 60.1715 240.992 55.8389 0.84755 -0.000472254
1695400 60.1715 241.005 55.8389 0.84765 0.00455448
1695600 60.1715 241.018 55.8389 0.84775 -0.00640621
1695800 60.1715 241.031 55.8389 0.84785 0.0114911
1696000 60.1715 241.044 55.8389 0.84795 0.0115635
1696200 60.1715 241.057 55.8389 0.84805 0.00801334
1696400 60.1715 241.07 55.8389 0.84815 0.00708999
1696600 60.1715 241.083 55.8389 0.84825 0.0107867
1696800 60.1715 241.096 55.8389 0.84835 0.000901057
1697000 60.1715 241.109 55.8389 0.84845 0.017814
1697200 60.1715 241.122 55.8389 0.84855 0.00721513
1697400 60.1715 241.135 55.8389 0.84865 0.00875148
1697600 60.1715 241.148 55.8389 0.84875 0.00596055
1697800 60.1715 241.161 55.8389 0.84885 0.00251906
1698000 60.1715 241.174 55.8389 0.84895 0.0159119
1698200 60.1715 241.188 55.8389 0.84905 0.0123012
1698400 60.1715 241.201 55.8389 0.84915 -0.0185481
1698600 60.1715 241.214 55.8389 0.84925 0.00686935
1698800 60.1715 241.227 55.8389 0.84935 0.0153115
1699000 60.1715 241.24 55.8389 0.84945 0.00530812
1699200 60.1715 241.253 55.8389 0.84955 0.00179519
1699400 60.1715 241.266 55.8389 0.84965 -0.0135424
1699600 60.1715 241.279 55.8389 0.84975 0.00525112
1699800 60.1715 241.292 55.8389 0.84985 -0.000779221
1700000 60.1715 241.305 55.8389 0.84995 0.00360142
1700200 60.1715 241.318 55.8389 0.85005 0.0114572
1700400 60.1715 241.331 55.8389 0.85015 0.0156634
1700600 60.1715 241.344 55.8389 0.85025 0.0118732
1700800 60.1715 241.357 55.8389 0.85035 0.01001
1701000 60.1715 241.37 55.8389 0.85045 0.00550721
1701200 60.1715 241.383 55.8389 0.85055 0.0104289
1701400 60.1715 241.396 55.8389 0.85065 0.0219843
1701600 60.1715 241.409 55.8389 0.85075 0.00450843
1701800 60.1715 241.422 55.8389 0.85085 -0.000150118
1702000 60.1715 241.435 55.8389 0.85095 0.00839651
1702200 60.1715 241.448 55.8389 0.85105 0.00444968
1702400 60.1715 241.461 55.8389 0.85115 -0.00445549
1702600 60.1715 241.474 55.8389 0.85125 -0.0056832
1702800 60.1715 241.488 55.8389 0.85135 0.0126259
1703000 60.1715 241.501 55.8389 0.85145 -0.00191641
1703200 60.1715 241.514 55.8389 0.85155 0.00518151
1703400 60.1715 241.527 55.8389 0.85165 -0.00811442
1703600 60.1715 241.54 55.8389 0.85175 0.00783438
1703800 60.1715 241.553 55.8389 0.85185 0.00969173
1704000 60.1715 241.566 55.8389 0.85195 0.00168353
1704200 60.1715 241.579 55.8389 0.85205 0.0178226
1704400 60.1715 241.592 55.8389 0.85215 0.00588756
1704600 60.1715 241.605 55.8389 0.85225 0.00887258
1704800 60.1715 241.618 55.8389 0.85235 0.00376531
1705000 60.1715 241.631 55.8389 0.85245 0.00100694
1705200 60.1715 241.644 55.8389 0.85255 0.02075
1705400 60.1715 241.657 55.8389 0.85265 0.0121851
1705600 60.1715 241.67 55.8389 0.85275 -0.00478098
1705800 60.1715 241.683 55.8389 0.85285 0.0195712
1706000 60.1715 241.696 55.8389 0.85295 -0.000491697
1706200 60.1715 241.709 55.8389 0.85305 0.000313309
1706400 60.1715 241.722 55.8389 0.85315 -0.0023267
1706600 60.1715 241.735 55.8389 0.85325 0.0151648
1706800 60.1715 241.748 55.8389 0.85335 0.00560977
1707000 60.1715 241.761 55.8389 0.85345 -0.00323304
1707200 60.1715 241.774 55.8389 0.85355 -0.00313663
1707400 60.1715 241.788 55.8389 0.85365 0.0114966
1707600 60.1715 241.801 55.8389 0.85375 0.00179266
1707800 60.1715 241.814 55.8389 0.85385 0.0100599
1708000 60.1715 241.827 55.8389 0.85395 -0.000912046
1708200 60.1715 241.84 55.8389 0.85405 -0.00142783
1708400 60.1715 241.853 55.8389 0.85415 0.0149508
1708600 60.1715 241.866 55.8389 0.85425 0.0152319
1708800 60.1715 241.879 55.8389 0.85435 0.0118482
1709000 60.1715 241.892 55.8389 0.85445 0.0110166
1709200 60.1715 241.905 55.8389 0.85455 0.00949012
1709400 60.1715 241.918 55.8389 0.85465 -0.000873399
1709600 60.1715 241.931 55.8389 0.85475 0.00276255
1709800 60.1715 241.944 55.8389 0.85485 0.00597954
1710000 60.1715 241.957 55.8389 0.85495 0.0110798
1710200 60.1715 241.97 55.8389 0.85505 0.00280977
1710400 60.1715 241.983 55.8389 0.85515 -0.000225034
1710600 60.1715 241.996 55.8389 0.85525 0.00468061
1710800 60.1715 242.009 55.8389 0.85535 -0.000772691
1711000 60.1715 242.022 55.8389 0.85545 -0.00419112
1711200 60.1715 242.035 55.8389 0.85555 0.00196745
1711400 60.1715 242.048 55.8389 0.85565 0.0177107
1711600 60.1715 242.061 55.8389 0.85575 0.00242057
1711800 60.1715 242.074 55.8389 0.85585 -0.0100577
1712000 60.1715 242.088 55.8389 0.85595 0.0120227
1712200 60.1715 242.101 55.8389 0.85605 0.00755256
1712400 60.1715 242.114 55.8389 0.85615 0.0257077
1712600 60.1715 242.127 55.8389 0.85625 0.00876269
1712800 60.1715 242.14 55.8389 0.85635 0.00246444
1713000 60.1715 242.153 55.8389 0.85645 0.0172647
1713200 60.1715 242.166 55.8389 0.85655 0.0203357
1713400 60.1715 242.179 55.8389 0.85665 -0.00220338
1713600 60.1715 242.192 55.8389 0.85675 -0.00487459
1713800 60.1715 242.205 55.8389 0.85685 0.00254665
1714000 60.1715 242.218 55.8389 0.85695 -0.00190595
1714200 60.1715 242.231 55.8389 0.85705 0.0109674
1714400 60.1715 242.244 55.8389 0.85715 0.00157775
1714600 60.1715 242.257 55.8389 0.85725 -0.0118517
1714800 60.1715 242.27 55.8389 0.85735 0.0113298
1715000 60.1715 242.283 55.8389 0.85745 -0.0160644
1715200 60.1715 242.296 55.8389 0.85755 0.0165451
1715400 60.1715 242.309 55.8389 0.85765 -0.0141741
1715600 60.1715 242.322 55.8389 0.85775 0.0290451
1715800 60.1715 242.335 55.8389 0.85785 0.0151577
1716000 60.1715 242.348 55.8389 0.85795 0.000632885
1716200 60.1715 242.361 55.8389 0.85805 0.0201581
1716400 60.1715 242.375 55.8389 0.85815 0.0026679
1716600 60.1715 242.388 55.8389 0.85825 0.025433
1716800 60.1715 242.401 55.8389 0.85835 0.0114324
1717000 60.1715 242.414 55.8389 0.85845 0.014218
1717200 60.1715 242.427 55.8389 0.85855 0.00868384
1717400 60.1715 242.44 55.8389 0.85865 0.00224976
1717600 60.1715 242.453 55.8389 0.85875 -0.00389904
1717800 60.1715 242.466 55.8389 0.85885 -0.0198295
1718000 60.1715 242.479 55.8389 0.85895 0.0150137
1718200 60.1715 242.492 55.8389 0.85905 -0.00126781
1718400 60.1715 242.505 55.8389 0.85915 -0.00759835
1718600 60.1715 242.518 55.8389 0.85925 -0.00629943
1718800 60.1715 242.531 55.8389 0.85935 -0.00605112
1719000 60.1715 242.544 55.8389 0.85945 -0.00229866
1719200 60.1715 242.557 55.8389 0.85955 0.00692698
1719400 60.1715 242.57 55.8389 0.85965 0.010096
1719600 60.1715 242.583 55.8389 0.85975 0.0331912
1719800 60.1715 242.596 55.8389 0.85985 0.0121058
1720000 60.1715 242.609 55.8389 0.85995 0.0161065
1720200 60.1715 242.622 55.8389 0.86005 -0.00307556
1720400 60.1715 242.635 55.8389 0.86015 0.0228627
1720600 60.1715 242.648 55.8389 0.86025 0.0156886
1720800 60.1715 242.661 55.8389 0.86035 0.0153761
1721000 60.1715 242.675 55.8389 0.86045 0.0181581
1721200 60.1715 242.688 55.8389 0.86055 -0.0126746
1721400 60.1715 242.701 55.8389 0.86065 -0.00606268
1721600 60.1715 242.714 55.8389 0.86075 -0.00828363
1721800 60.1715 242.727 55.8389 0.86085 -0.0100203
1722000 60.1715 242.74 55.8389 0.86095 0.00779836
1722200 60.1715 242.753 55.8389 0.86105 0.00983567
1722400 60.1715 242.766 55.8389 0.86115 0.000363387
1722600 60.1715 242.779 55.8389 0.86125 -0.00659441
1722800 60.1715 242.792 55.8389 0.86135 -0.00153585
1723000 60.1715 242.805 55.8389 0.86145 -0.00504125
1723200 60.1715 242.818 55.8389 0.86155 0.00414902
1723400 60.1715 242.831 55.8389 0.86165 0.0375267
1723600 60.1715 242.844 55.8389 0.86175 0.0207248
1723800 60.1715 242.857 55.8389 0.86185 -1.77961e-05
1724000 60.1715 242.87 55.8389 0.86195 0.00423479
1724200 60.1715 242.883 55.8389 0.86205 0.0135467
1724400 60.1715 242.896 55.8389 0.86215 0.00269408
1724600 60.1715 242.909 55.8389 0.86225 0.0130013
1724800 60.1715 242.922 55.8389 0.86235 0.0223173
1725000 60.1715 242.935 55.8389 0.86245 0.0112227
1725200 60.1715 242.948 55.8389 0.86255 -0.00821977
1725400 60.1715 242.961 55.8389 0.86265 0.00364264
1725600 60.1715 242.975 55.8389 0.86275 -0.0102867
1725800 60.1715 242.988 55.8389 0.86285 -0.00750181
1726000 60.1715 243.001 55.8389 0.86295 0.00213921
1726200 60.1715 243.014 55.8389 0.86305 1.02608e-05
1726400 60.1715 243.027 55.8389 0.86315 -0.00502517
1726600 60.1715 243.04 55.8389 0.86325 0.00781284
1726800 60.1715 243.053 55.8389 0.86335 -0.00559489
1727000 60.1715 243.066 55.8389 0.86345 0.000300651
1727200 60.1715 243.079 55.8389 0.86355 0.0147911
1727400 60.1715 243.092 55.8389 0.86365 0.0173044
1727600 60.1715 243.105 55.8389 0.86375 0.0066975
1727800 60.1715 243.118 55.8389 0.86385 0.0165616
1728000 60.1715 243.131 55.8389 0.86395 0.0191957
1728200 60.1715 243.144 55.8389 0.86405 0.0116986
1728400 60.1715 243.157 55.8389 0.86415 0.0162816
1728600 60.1715 243.17 55.8389 0.86425 0.0116164
1728800 60.1715 243.183 55.8389 0.86435 0.00477501
1729000 60.1715 243.196 55.8389 0.86445 0.0179263
1729200 60.1715 243.209 55.8389 0.86455 0.000580751
1729400 60.1715 243.222 55.8389 0.86465 -0.00320957
1729600 60.1715 243.235 55.8389 0.86475 0.000136533
1729800 60.1715 243.248 55.8389 0.86485 -0.00899173
1730000 60.1715 243.261 55.8389 0.86495 -0.0111374
1730200 60.1715 243.275 55.8389 0.86505 0.00596794
1730400 60.1715 243.288 55.8389 0.86515 -0.0119474
1730600 60.1715 243.301 55.8389 0.86525 -0.00730508
1730800 60.1715 243.314 55.8389 0.86535 0.00236651
1731000 60.1715 243.327 55.8389 0.86545 0.00014611
1731200 60.1715 243.34 55.8389 0.86555 0.0128527
1731400 60.1715 243.353 55.8389 0.86565 0.0126114
1731600 60.1715 243.366 55.8389 0.86575 0.00564085
1731800 60.1715 243.379 55.8389 0.86585 0.0291998
1732000 60.1715 243.392 55.8389 0.86595 0.00446944
1732200 60.1715 243.405 55.8389 0.86605 0.033911
1732400 60.1715 243.418 55.8389 0.86615 0.0154476
1732600 60.1715 243.431 55.8389 0.86625 0.016023
1732800 60.1715 243.444 55.8389 0.86635 0.00965021
1733000 60.1715 243.457 55.8389 0.86645 -0.00401775
1733200 60.1715 243.47 55.8389 0.86655 0.00306734
1733400 60.1715 243.483 55.8389 0.86665 -0.00739993
1733600 60.1715 243.496 55.8389 0.86675 -0.00303036
1733800 60.1715 243.509 55.8389 0.86685 -0.00125663
1734000 60.1715 243.522 55.8389 0.86695 -0.00334198
1734200 60.1715 243.535 55.8389 0.86705 -0.00170641
1734400 60.1715 243.548 55.8389 0.86715 -0.00665405
1734600 60.1715 243.561 55.8389 0.86725 -0.00458753
1734800 60.1715 243.575 55.8389 0.86735 0.00552632
1735000 60.1715 243.588 55.8389 0.86745 0.000526904
1735200 60.1715 243.601 55.8389 0.86755 0.008084
1735400 60.1715 243.614 55.8389 0.86765 -4.65834e-05
1735600 60.1715 243.627 55.8389 0.86775 0.0242838
1735800 60.1715 243.64 55.8389 0.86785 0.0122668
1736000 60.1715 243.653 55.8389 0.86795 0.0214937
1736200 60.1715 243.666 55.8389 0.86805 0.0236315
1736400 60.1715 243.679 55.8389 0.86815 0.00186466
1736600 60.1715 243.692 55.8389 0.86825 0.00829262
1736800 60.1715 243.705 55.8389 0.86835 0.0214496
1737000 60.1715 243.718 55.8389 0.86845 0.00907998
1737200 60.1715 243.731 55.8389 0.86855 -0.00388748
1737400 60.1715 243.744 55.8389 0.86865 -0.00513236
1737600 60.1715 243.757 55.8389 0.86875 0.013447
1737800 60.1715 243.77 55.8389 0.86885 -0.0253758
1738000 60.1715 243.783 55.8389 0.86895 0.00325897
1738200 60.1715 243.796 55.8389 0.86905 -0.00169457
1738400 60.1715 243.809 55.8389 0.86915 0.00749432
1738600 60.1715 243.822 55.8389 0.86925 6.5311e-05
1738800 60.1715 243.835 55.8389 0.86935 -0.00277496
1739000 60.1715 243.848 55.8389 0.86945 -0.00150622
1739200 60.1715 243.862 55.8389 0.86955 0.0147472
1739400 60.1715 243.875 55.8389 0.86965 -0.0018729
1739600 60.1715 243.888 55.8389 0.86975 0.00944588
1739800 60.1715 243.901 55.8389 0.86985 0.0196611
1740000 60.1715 243.914 55.8389 0.86995 0.0161089
1740200 60.1715 243.927 55.8389 0.87005 0.0170877
1740400 60.1715 243.94 55.8389 0.87015 0.00911467
1740600 60.1715 243.953 55.8389 0.87025 0.0170508
1740800 60.1715 243.966 55.8389 0.87035 -0.00335021
1741000 60.1715 243.979 55.8389 0.87045 0.0216248
1741200 60.1715 243.992 55.8389 0.87055 0.00793103
1741400 60.1715 244.005 55.8389 0.87065 -0.00509911
1741600 60.1715 244.018 55.8389 0.87075 0.00291558
1741800 60.1715 244.031 55.8389 0.87085 -0.0135405
1742000 60.1715 244.044 55.8389 0.87095 0.000141465
1742200 60.1715 244.057 55.8389 0.87105 -0.00268944
1742400 60.1715 244.07 55.8389 0.87115 -0.0149915
1742600 60.1715 244.083 55.8389 0.87125 -0.00843856
1742800 60.1715 244.096 55.8389 0.87135 0.00687858
1743000 60.1715 244.109 55.8389 0.87145 0.0122508
1743200 60.1715 244.122 55.8389 0.87155 -0.00749399
1743400 60.1715 244.135 55.8389 0.87165 0.0198526
1743600 60.1715 244.148 55.8389 0.87175 0.00377036
1743800 60.1715 244.162 55.8389 0.87185 0.0117691
1744000 60.1715 244.175 55.8389 0.87195 0.0295441
1744200 60.1715 244.188 55.8389 0.87205 0.012931
1744400 60.1715 244.201 55.8389 0.87215 0.0169626
1744600 60.1715 244.214 55.8389 0.87225 0.0293816
1744800 60.1715 244.227 55.8389 0.87235 0.00934575
1745000 60.1715 244.24 55.8389 0.87245 0.00429417
1745200 60.1715 244.253 55.8389 0.87255 0.00806876
1745400 60.1715 244.266 55.8389 0.87265 -0.000535515
1745600 60.1715 244.279 55.8389 0.87275 -0.00606235
1745800 60.1715 244.292 55.8389 0.87285 -0.00752178
1746000 60.1715 244.305 55.8389 0.87295 -0.0122631
1746200 60.1715 244.318 55.8389 0.87305 -0.00025232
1746400 60.1715 244.331 55.8389 0.87315 -0.0172874
1746600 60.1715 244.344 55.8389 0.87325 -0.00412863
1746800 60.1715 244.357 55.8389 0.87335 -0.000158793
1747000 60.1715 244.37 55.8389 0.87345 0.00653154
1747200 60.1715 244.383 55.8389 0.87355 0.0152695
1747400 60.1715 244.396 55.8389 0.87365 -0.00101335
1747600 60.1715 244.409 55.8389 0.87375 0.0232511
1747800 60.1715 244.422 55.8389 0.87385 0.0140463
1748000 60.1715 244.435 55.8389 0.87395 0.013885
1748200 60.1715 244.448 55.8389 0.87405 0.0225605
1748400 60.1715 244.462 55.8389 0.87415 0.0173321
1748600 60.1715 244.475 55.8389 0.87425 0.0120872
1748800 60.1715 244.488 55.8389 0.87435 0.00796235
1749000 60.1715 244.501 55.8389 0.87445 0.0128385
1749200 60.1715 244.514 55.8389 0.87455 0.00272537
1749400 60.1715 244.527 55.8389 0.87465 -0.00923223
1749600 60.1715 244.54 55.8389 0.87475 -0.0114304
1749800 60.1715 244.553 55.8389 0.87485 0.0103795
1750000 60.1715 244.566 55.8389 0.87495 -0.00706967
1750200 60.1715 244.579 55.8389 0.87505 -0.0122407
1750400 60.1715 244.592 55.8389 0.87515 -0.00494329
1750600 60.1715 244.605 55.8389 0.87525 0.00103243
1750800 60.1715 244.618 55.8389 0.87535 -0.00652395
1751000 60.1715 244.631 55.8389 0.87545 0.00101543
1751200 60.1715 244.644 55.8389 0.87555 0.00647139
1751400 60.1715 244.657 55.8389 0.87565 0.02377
1751600 60.1715 244.67 55.8389 0.87575 0.0296099
1751800 60.1715 244.683 55.8389 0.87585 0.00911981
1752000 60.1715 244.696 55.8389 0.87595 0.01474
1752200 60.1715 244.709 55.8389 0.87605 0.0124588
1752400 60.1715 244.722 55.8389 0.87615 0.0168392
1752600 60.1715 244.735 55.8389 0.87625 0.0170398
1752800 60.1715 244.748 55.8389 0.87635 0.0154331
1753000 60.1715 244.762 55.8389 0.87645 -0.00599055
1753200 60.1715 244.775 55.8389 0.87655 0.0093947
1753400 60.1715 244.788 55.8389 0.87665 -0.0148163
1753600 60.1715 244.801 55.8389 0.87675 -0.00801456
1753800 60.1715 244.814 55.8389 0.87685 -0.0105277
1754000 60.1715 244.827 55.8389 0.87695 0.0027958
1754200 60.1715 244.84 55.8389 0.87705 0.000207911
1754400 60.1715 244.853 55.8389 0.87715 -0.00974359
1754600 60.1715 244.866 55.8389 0.87725 -0.00277995
1754800 60.1715 244.879 55.8389 0.87735 -0.0171973
1755000 60.1715 244.892 55.8389 0.87745 0.0112819
1755200 60.1715 244.905 55.8389 0.87755 0.00114585
1755400 60.1715 244.918 55.8389 0.87765 0.0282211
1755600 60.1715 244.931 55.8389 0.87775 0.0161894
1755800 60.1715 244.944 55.8389 0.87785 0.0297271
1756000 60.1715 244.957 55.8389 0.87795 0.0170323
1756200 60.1715 244.97 55.8389 0.87805 0.0157345
1756400 60.1715 244.983 55.8389 0.87815 0.00907116
1756600 60.1715 244.996 55.8389 0.87825 0.0207066
1756800 60.1715 245.009 55.8389 0.87835 0.017041
1757000 60.1715 245.022 55.8389 0.87845 0.00473648
1757200 60.1715 245.035 55.8389 0.87855 -0.0017123
1757400 60.1715 245.048 55.8389 0.87865 -0.0131532
1757600 60.1715 245.062 55.8389 0.87875 -0.0105481
1757800 60.1715 245.075 55.8389 0.87885 0.00785645
1758000 60.1715 245.088 55.8389 0.87895 -0.0236863
1758200 60.1715 245.101 55.8389 0.87905 -0.00765165
1758400 60.1715 245.114 55.8389 0.87915 -0.0141299
1758600 60.1715 245.127 55.8389 0.87925 0.00589794
1758800 60.1715 245.14 55.8389 0.87935 0.000104125
1759000 60.1715 245.153 55.8389 0.87945 -0.000949865
1759200 60.1715 245.166 55.8389 0.87955 0.0197354
1759400 60.1715 245.179 55.8389 0.87965 0.0104168
1759600 60.1715 245.192 55.8389 0.87975 0.0323633
1759800 60.1715 245.205 55.8389 0.87985 0.022499
1760000 60.1715 245.218 55.8389 0.87995 0.0198923
1760200 60.1715 245.231 55.8389 0.88005 0.0222259
1760400 60.1715 245.244 55.8389 0.88015 0.00864217
1760600 60.1715 245.257 55.8389 0.88025 0.0184174
1760800 60.1715 245.27 55.8389 0.88035 0.0112664
1761000 60.1715 245.283 55.8389 0.88045 0.00457962
1761200 60.1715 245.296 55.8389 0.88055 -0.0130383
1761400 60.1715 245.309 55.8389 0.88065 -0.0187468
1761600 60.1715 245.322 55.8389 0.88075 -0.0108097
1761800 60.1715 245.335 55.8389 0.88085 -0.0134344
1762000 60.1715 245.349 55.8389 0.88095 -0.0138528
1762200 60.1715 245.362 55.8389 0.88105 0.00148932
1762400 60.1715 245.375 55.8389 0.88115 -0.00432391
1762600 60.1715 245.388 55.8389 0.88125 0.0113428
1762800 60.1715 245.401 55.8389 0.88135 0.00255532
1763000 60.1715 245.414 55.8389 0.88145 0.00477521
1763200 60.1715 245.427 55.8389 0.88155 0.0146085
1763400 60.1715 245.44 55.8389 0.88165 0.015757
1763600 60.1715 245.453 55.8389 0.88175 0.03784
1763800 60.1715 245.466 55.8389 0.88185 0.0375969
1764000 60.1715 245.479 55.8389 0.88195 0.00758542
1764200 60.1715 245.492 55.8389 0.88205 0.00983538
1764400 60.1715 245.505 55.8389 0.88215 0.0146581
1764600 60.1715 245.518 55.8389 0.88225 0.00771085
1764800 60.1715 245.531 55.8389 0.88235 -0.00695242
1765000 60.1715 245.544 55.8389 0.88245 0.00385883
1765200 60.1715 245.557 55.8389 0.88255 -0.00640467
1765400 60.1715 245.57 55.8389 0.88265 -0.012443
1765600 60.1715 245.583 55.8389 0.88275 -0.00809448
1765800 60.1715 245.596 55.8389 0.88285 -0.0306616
1766000 60.1715 245.609 55.8389 0.88295 -0.0172038
1766200 60.1715 245.622 55.8389 0.88305 0.00436023
1766400 60.1715 245.635 55.8389 0.88315 0.00601987
1766600 60.1715 245.649 55.8389 0.88325 0.00352426
1766800 60.1715 245.662 55.8389 0.88335 0.0108397
1767000 60.1715 245.675 55.8389 0.88345 0.0165892
1767200 60.1715 245.688 55.8389 0.88355 0.0296505
1767400 60.1715 245.701 55.8389 0.88365 0.0227065
1767600 60.1715 245.714 55.8389 0.88375 0.00482673
1767800 60.1715 245.727 55.8389 0.88385 0.0346548
1768000 60.1715 245.74 55.8389 0.88395 0.036114
1768200 60.1715 245.753 55.8389 0.88405 0.0109561
1768400 60.1715 245.766 55.8389 0.88415 0.00767926
1768600 60.1715 245.779 55.8389 0.88425 -0.00214615
1768800 60.1715 245.792 55.8389 0.88435 -0.0039382
1769000 60.1715 245.805 55.8389 0.88445 -0.0123266
1769200 60.1715 245.818 55.8389 0.88455 -0.0123487
1769400 60.1715 245.831 55.8389 0.88465 -0.00760624
1769600 60.1715 245.844 55.8389 0.88475 -0.00350945
1769800 60.1715 245.857 55.8389 0.88485 -0.0291286
1770000 60.1715 245.87 55.8389 0.88495 -0.00826045
1770200 60.1715 245.883 55.8389 0.88505 -0.00962484
1770400 60.1715 245.896 55.8389 0.88515 0.0249873
1770600 60.1715 245.909 55.8389 0.88525 0.00667753
1770800 60.1715 245.922 55.8389 0.88535 0.0112507
1771000 60.1715 245.935 55.8389 0.88545 0.0187484
1771200 60.1715 245.949 55.8389 0.88555 0.013514
1771400 60.1715 245.962 55.8389 0.88565 0.00899316
1771600 60.1715 245.975 55.8389 0.88575 0.0248675
1771800 60.1715 245.988 55.8389 0.88585 0.030856
1772000 60.1715 246.001 55.8389 0.88595 0.0196229
1772200 60.1715 246.014 55.8389 0.88605 0.0132187
1772400 60.1715 246.027 55.8389 0.88615 0.00917296
1772600 60.1715 246.04 55.8389 0.88625 -0.00787715
1772800 60.1715 246.053 55.8389 0.88635 0.0103025
1773000 60.1715 246.066 55.8389 0.88645 -0.0151196
1773200 60.1715 246.079 55.8389 0.88655 0.00464789
1773400 60.1715 246.092 55.8389 0.88665 -0.00712187
1773600 60.1715 246.105 55.8389 0.88675 -0.0192468
1773800 60.1715 246.118 55.8389 0.88685 -0.0138253
1774000 60.1715 246.131 55.8389 0.88695 -0.0157697
1774200 60.1715 246.144 55.8389 0.88705 -0.0157403
1774400 60.1715 246.157 55.8389 0.88715 0.011094
1774600 60.1715 246.17 55.8389 0.88725 0.0184306
1774800 60.1715 246.183 55.8389 0.88735 0.0215774
1775000 60.1715 246.196 55.8389 0.88745 0.00799019
1775200 60.1715 246.209 55.8389 0.88755 0.0128505
1775400 60.1715 246.222 55.8389 0.88765 0.0287574
1775600 60.1715 246.235 55.8389 0.88775 0.00897353
1775800 60.1715 246.249 55.8389 0.88785 0.0348637
1776000 60.1715 246.262 55.8389 0.88795 0.02329
1776200 60.1715 246.275 55.8389 0.88805 0.0145137
1776400 60.1715 246.288 55.8389 0.88815 0.0178904
1776600 60.1715 246.301 55.8389 0.88825 -0.00106726
1776800 60.1715 246.314 55.8389 0.88835 -0.00883291
1777000 60.1715 246.327 55.8389 0.88845 -0.0115982
1777200 60.1715 246.34 55.8389 0.88855 -0.0197648
1777400 60.1715 246.353 55.8389 0.88865 -0.0126613
1777600 60.1715 246.366 55.8389 0.88875 -0.00978814
1777800 60.1715 246.379 55.8389 0.88885 -0.00580173
1778000 60.1715 246.392 55.8389 0.88895 -0.0202448
1778200 60.1715 246.405 55.8389 0.88905 -0.0210568
1778400 60.1715 246.418 55.8389 0.88915 0.0160225
1778600 60.1715 246.431 55.8389 0.88925 0.0132219
1778800 60.1715 246.444 55.8389 0.88935 0.023534
1779000 60.1715 246.457 55.8389 0.88945 0.0220375
1779200 60.1715 246.47 55.8389 0.88955 0.0211841
1779400 60.1715 246.483 55.8389 0.88965 0.0119304
1779600 60.1715 246.496 55.8389 0.88975 0.0273622
1779800 60.1715 246.509 55.8389 0.88985 0.0317147
1780000 60.1715 246.522 55.8389 0.88995 0.0251863
1780200 60.1715 246.535 55.8389 0.89005 0.0238631
1780400 60.1715 246.549 55.8389 0.89015 -0.00693074
1780600 60.1715 246.562 55.8389 0.89025 -0.00182792
1780800 60.1715 246.575 55.8389 0.89035 -0.014266
1781000 60.1715 246.588 55.8389 0.89045 -0.0114881
1781200 60.1715 246.601 55.8389 0.89055 -0.010973
1781400 60.1715 246.614 55.8389 0.89065 -0.0127746
1781600 60.1715 246.627 55.8389 0.89075 -0.00861132
1781800 60.1715 246.64 55.8389 0.89085 -0.0234134
1782000 60.1715 246.653 55.8389 0.89095 -0.00985731
1782200 60.1715 246.666 55.8389 0.89105 0.00494185
1782400 60.1715 246.679 55.8389 0.89115 0.00366514
1782600 60.1715 246.692 55.8389 0.89125 0.0214711
1782800 60.1715 246.705 55.8389 0.89135 0.0196917
1783000 60.1715 246.718 55.8389 0.89145 0.0172713
1783200 60.1715 246.731 55.8389 0.89155 0.0200218
1783400 60.1715 246.744 55.8389 0.89165 0.0250862
1783600 60.1715 246.757 55.8389 0.89175 0.0309521
1783800 60.1715 246.77 55.8389 0.89185 0.0107006
1784000 60.1715 246.783 55.8389 0.89195 0.0292376
1784200 60.1715 246.796 55.8389 0.89205 0.0031257
1784400 60.1715 246.809 55.8389 0.89215 0.00137704
1784600 60.1715 246.822 55.8389 0.89225 0.000954402
1784800 60.1715 246.836 55.8389 0.89235 -0.0129786
1785000 60.1715 246.849 55.8389 0.89245 -0.0091438
1785200 60.1715 246.862 55.8389 0.89255 -0.0230898
1785400 60.1715 246.875 55.8389 0.89265 -0.0202243
1785600 60.1715 246.888 55.8389 0.89275 -0.00680122
1785800 60.1715 246.901 55.8389 0.89285 -0.00428903
1786000 60.1715 246.914 55.8389 0.89295 -0.0198054
1786200 60.1715 246.927 55.8389 0.89305 -0.00736258
1786400 60.1715 246.94 55.8389 0.89315 0.0380594
1786600 60.1715 246.953 55.8389 0.89325 0.0059634
1786800 60.1715 246.966 55.8389 0.89335 0.022369
1787000 60.1715 246.979 55.8389 0.89345 0.0302493
1787200 60.1715 246.992 55.8389 0.89355 0.027477
1787400 60.1715 247.005 55.8389 0.89365 0.0182285
1787600 60.1715 247.018 55.8389 0.89375 0.0312401
1787800 60.1715 247.031 55.8389 0.89385 0.0255392
1788000 60.1715 247.044 55.8389 0.89395 0.00916715
1788200 60.1715 247.057 55.8389 0.89405 -0.00564662
1788400 60.1715 247.07 55.8389 0.89415 0.0152115
1788600 60.1715 247.083 55.8389 0.89425 -0.015229
1788800 60.1715 247.096 55.8389 0.89435 -0.0287752
1789000 60.1715 247.109 55.8389 0.89445 -0.026538
1789200 60.1715 247.122 55.8389 0.89455 -0.00884335
1789400 60.1715 247.136 55.8389 0.89465 0.000196827
1789600 60.1715 247.149 55.8389 0.89475 -0.0302705
1789800 60.1715 247.162 55.8389 0.89485 -0.0026761
1790000 60.1715 247.175 55.8389 0.89495 0.00251178
1790200 60.1715 247.188 55.8389 0.89505 0.0073822
1790400 60.1715 247.201 55.8389 0.89515 0.0178215
1790600 60.1715 247.214 55.8389 0.89525 0.016506
1790800 60.1715 247.227 55.8389 0.89535 0.0440128
1791000 60.1715 247.24 55.8389 0.89545 0.0287677
1791200 60.1715 247.253 55.8389 0.89555 0.0252637
1791400 60.1715 247.266 55.8389 0.89565 0.0126592
1791600 60.1715 247.279 55.8389 0.89575 0.0122431
1791800 60.1715 247.292 55.8389 0.89585 0.0121039
1792000 60.1715 247.305 55.8389 0.89595 0.00715355
1792200 60.1715 247.318 55.8389 0.89605 0.0154186
1792400 60.1715 247.331 55.8389 0.89615 -0.00595884
1792600 60.1715 247.344 55.8389 0.89625 -0.0231892
1792800 60.1715 247.357 55.8389 0.89635 -0.0183564
1793000 60.1715 247.37 55.8389 0.89645 -0.00667216
1793200 60.1715 247.383 55.8389 0.89655 -0.0180464
1793400 60.1715 247.396 55.8389 0.89665 -0.0171493
1793600 60.1715 247.409 55.8389 0.89675 0.00242691
1793800 60.1715 247.422 55.8389 0.89685 -0.00953959
1794000 60.1715 247.436 55.8389 0.89695 0.00646701
1794200 60.1715 247.449 55.8389 0.89705 0.0100414
1794400 60.1715 247.462 55.8389 0.89715 0.00464933
1794600 60.1715 247.475 55.8389 0.89725 0.0353827
1794800 60.1715 247.488 55.8389 0.89735 0.0197451
1795000 60.1715 247.501 55.8389 0.89745 0.0286897
1795200 60.1715 247.514 55.8389 0.89755 0.0218574
1795400 60.1715 247.527 55.8389 0.89765 0.0277961
1795600 60.1715 247.54 55.8389 0.89775 0.0191898
1795800 60.1715 247.553 55.8389 0.89785 0.00963737
1796000 60.1715 247.566 55.8389 0.89795 0.00114709
1796200 60.1715 247.579 55.8389 0.89805 -0.00175927
1796400 60.1715 247.592 55.8389 0.89815 -0.0123678
1796600 60.1715 247.605 55.8389 0.89825 -0.00454518
1796800 60.1715 247.618 55.8389 0.89835 -0.0122967
1797000 60.1715 247.631 55.8389 0.89845 -0.0112308
1797200 60.1715 247.644 55.8389 0.89855 -0.0173961
1797400 60.1715 247.657 55.8389 0.89865 -0.0194645
1797600 60.1715 247.67 55.8389 0.89875 -0.0180354
1797800 60.1715 247.683 55.8389 0.89885 0.0138323
1798000 60.1715 247.696 55.8389 0.89895 0.0193147
1798200 60.1715 247.709 55.8389 0.89905 -0.0019719
1798400 60.1715 247.722 55.8389 0.89915 0.0222714
1798600 60.1715 247.736 55.8389 0.89925 0.0251894
1798800 60.1715 247.749 55.8389 0.89935 0.0269651
1799000 60.1715 247.762 55.8389 0.89945 0.0235678
1799200 60.1715 247.775 55.8389 0.89955 0.000671501
1799400 60.1715 247.788 55.8389 0.89965 0.0273825
1799600 60.1715 247.801 55.8389 0.89975 0.0118682
1799800 60.1715 247.814 55.8389 0.89985 0.0172419
1800000 60.1715 247.827 55.8389 0.89995 -0.00696042
1800200 60.1715 247.84 55.8389 0.90005 -0.00641537
1800400 60.1715 247.853 55.8389 0.90015 -0.0152549
1800600 60.1715 247.866 55.8389 0.90025 -4.81764e-05
1800800 60.1715 247.879 55.8389 0.90035 -0.0136574
1801000 60.1715 247.892 55.8389 0.90045 -0.0163443
1801200 60.1715 247.905 55.8389 0.90055 -0.0121476
1801400 60.1715 247.918 55.8389 0.90065 0.00225214
1801600 60.1715 247.931 55.8389 0.90075 0.00881997
1801800 60.1715 247.944 55.8389 0.90085 -0.00678987
1802000 60.1715 247.957 55.8389 0.90095 0.012137
1802200 60.1715 247.97 55.8389 0.90105 0.0148527
1802400 60.1715 247.983 55.8389 0.90115 0.0207128
1802600 60.1715 247.996 55.8389 0.90125 0.0278496
1802800 60.1715 248.009 55.8389 0.90135 0.0151158
1803000 60.1715 248.022 55.8389 0.90145 0.022016
1803200 60.1715 248.036 55.8389 0.90155 0.0180153
1803400 60.1715 248.049 55.8389 0.90165 0.0163601
1803600 60.1715 248.062 55.8389 0.90175 0.00351121
1803800 60.1715 248.075 55.8389 0.90185 0.00341156
1804000 60.1715 248.088 55.8389 0.90195 0.00493345
1804200 60.1715 248.101 55.8389 0.90205 -0.0108655
1804400 60.1715 248.114 55.8389 0.90215 -0.0182043
1804600 60.1715 248.127 55.8389 0.90225 -0.0117545
1804800 60.1715 248.14 55.8389 0.90235 -0.0129685
1805000 60.1715 248.153 55.8389 0.90245 -0.010091
1805200 60.1715 248.166 55.8389 0.90255 0.000414176
1805400 60.1715 248.179 55.8389 0.90265 -0.00242471
1805600 60.1715 248.192 55.8389 0.90275 -0.00703005
1805800 60.1715 248.205 55.8389 0.90285 0.00457616
1806000 60.1715 248.218 55.8389 0.90295 0.0185951
1806200 60.1715 248.231 55.8389 0.90305 0.0171138
1806400 60.1715 248.244 55.8389 0.90315 0.0253868
1806600 60.1715 248.257 55.8389 0.90325 0.0340544
1806800 60.1715 248.27 55.8389 0.90335 0.0124473
1807000 60.1715 248.283 55.8389 0.90345 0.00659729
1807200 60.1715 248.296 55.8389 0.90355 0.0259494
1807400 60.1715 248.309 55.8389 0.90365 0.0154838
1807600 60.1715 248.323 55.8389 0.90375 -0.00127075
1807800 60.1715 248.336 55.8389 0.90385 0.00388833
1808000 60.1715 248.349 55.8389 0.90395 -0.00153965
1808200 60.1715 248.362 55.8389 0.90405 -0.00524174
1808400 60.1715 248.375 55.8389 0.90415 -0.0242474
1808600 60.1715 248.388 55.8389 0.90425 -0.00163565
1808800 60.1715 248.401 55.8389 0.90435 -0.0177152
1809000 60.1715 248.414 55.8389 0.90445 0.00520333
1809200 60.1715 248.427 55.8389 0.90455 -0.00902738
1809400 60.1715 248.44 55.8389 0.90465 -0.0145577
1809600 60.1715 248.453 55.8389 0.90475 0.0024995
1809800 60.1715 248.466 55.8389 0.90485 0.00975555
1810000 60.1715 248.479 55.8389 0.90495 0.0192726
1810200 60.1715 248.492 55.8389 0.90505 0.0123868
1810400 60.1715 248.505 55.8389 0.90515 0.0177896
1810600 60.1715 248.518 55.8389 0.90525 0.0174893
1810800 60.1715 248.531 55.8389 0.90535 0.0232274
1811000 60.1715 248.544 55.8389 0.90545 0.0243427
1811200 60.1715 248.557 55.8389 0.90555 0.00703485
1811400 60.1715 248.57 55.8389 0.90565 0.0099627
1811600 60.1715 248.583 55.8389 0.90575 0.00134324
1811800 60.1715 248.596 55.8389 0.90585 0.00997538
1812000 60.1715 248.609 55.8389 0.90595 0.000681593
1812200 60.1715 248.623 55.8389 0.90605 0.00149995
1812400 60.1715 248.636 55.8389 0.90615 -0.0165093
1812600 60.1715 248.649 55.8389 0.90625 -0.0150631
1812800 60.1715 248.662 55.8389 0.90635 -0.0124593
1813000 60.1715 248.675 55.8389 0.90645 0.00790915
1813200 60.1715 248.688 55.8389 0.90655 -0.00567804
1813400 60.1715 248.701 55.8389 0.90665 -0.00373295
1813600 60.1715 248.714 55.8389 0.90675 0.00321089
1813800 60.1715 248.727 55.8389 0.90685 -0.012331
1814000 60.1715 248.74 55.8389 0.90695 0.0130162
1814200 60.1715 248.753 55.8389 0.90705 0.0167342
1814400 60.1715 248.766 55.8389 0.90715 0.0241395
1814600 60.1715 248.779 55.8389 0.90725 0.0239209
1814800 60.1715 248.792 55.8389 0.90735 0.0148514
1815000 60.1715 248.805 55.8389 0.90745 0.0266113
1815200 60.1715 248.818 55.8389 0.90755 -0.00242947
1815400 60.1715 248.831 55.8389 0.90765 0.0250388
1815600 60.1715 248.844 55.8389 0.90775 0.00152039
1815800 60.1715 248.857 55.8389 0.90785 0.00645384
1816000 60.1715 248.87 55.8389 0.90795 0.00565229
1816200 60.1715 248.883 55.8389 0.90805 -0.0172375
1816400 60.1715 248.896 55.8389 0.90815 -0.0037399
1816600 60.1715 248.909 55.8389 0.90825 -0.0231976
1816800 60.1715 248.923 55.8389 0.90835 -0.00853577
1817000 60.1715 248.936 55.8389 0.90845 -0.00157765
1817200 60.1715 248.949 55.8389 0.90855 0.000835524
1817400 60.1715 248.962 55.8389 0.90865 0.0111646
1817600 60.1715 248.975 55.8389 0.90875 -0.018739
1817800 60.1715 248.988 55.8389 0.90885 0.0107756
1818000 60.1715 249.001 55.8389 0.90895 0.0110365
1818200 60.1715 249.014 55.8389 0.90905 0.0189665
1818400 60.1715 249.027 55.8389 0.90915 0.0132032
1818600 60.1715 249.04 55.8389 0.90925 0.0281629
1818800 60.1715 249.053 55.8389 0.90935 0.0237656
1819000 60.1715 249.066 55.8389 0.90945 0.00365698
1819200 60.1715 249.079 55.8389 0.90955 0.0116745
1819400 60.1715 249.092 55.8389 0.90965 0.0154543
1819600 60.1715 249.105 55.8389 0.90975 0.00127554
1819800 60.1715 249.118 55.8389 0.90985 0.00448098
1820000 60.1715 249.131 55.8389 0.90995 -0.0117143
1820200 60.1715 249.144 55.8389 0.91005 0.0137987
1820400 60.1715 249.157 55.8389 0.91015 -0.041073
1820600 60.1715 249.17 55.8389 0.91025 -0.011958
1820800 60.1715 249.183 55.8389 0.91035 0.0037438
1821000 60.1715 249.196 55.8389 0.91045 -0.00411822
1821200 60.1715 249.209 55.8389 0.91055 0.000703032
1821400 60.1715 249.223 55.8389 0.91065 0.00724692
1821600 60.1715 249.236 55.8389 0.91075 0.013856
1821800 60.1715 249.249 55.8389 0.91085 -0.00575162
1822000 60.1715 249.262 55.8389 0.91095 0.0209189
1822200 60.1715 249.275 55.8389 0.91105 0.0193386
1822400 60.1715 249.288 55.8389 0.91115 0.0240738
1822600 60.1715 249.301 55.8389 0.91125 0.0157002
1822800 60.1715 249.314 55.8389 0.91135 0.0130343
1823000 60.1715 249.327 55.8389 0.91145 0.0213382
1823200 60.1715 249.34 55.8389 0.91155 -0.000185153
1823400 60.1715 249.353 55.8389 0.91165 0.00252427
1823600 60.1715 249.366 55.8389 0.91175 0.00623101
1823800 60.1715 249.379 55.8389 0.91185 -0.00568585
1824000 60.1715 249.392 55.8389 0.91195 0.00018378
1824200 60.1715 249.405 55.8389 0.91205 -0.0223573
1824400 60.1715 249.418 55.8389 0.91215 -0.00878892
1824600 60.1715 249.431 55.8389 0.91225 -0.0130958
1824800 60.1715 249.444 55.8389 0.91235 -0.00397566
1825000 60.1715 249.457 55.8389 0.91245 0.00920287
1825200 60.1715 249.47 55.8389 0.91255 0.000698492
1825400 60.1715 249.483 55.8389 0.91265 0.00654231
1825600 60.1715 249.496 55.8389 0.91275 0.0052762
1825800 60.1715 249.509 55.8389 0.91285 0.0176068
1826000 60.1715 249.523 55.8389 0.91295 0.000754603
1826200 60.1715 249.536 55.8389 0.91305 0.0338208
1826400 60.1715 249.549 55.8389 0.91315 0.0183164
1826600 60.1715 249.562 55.8389 0.91325 0.0161693
1826800 60.1715 249.575 55.8389 0.91335 0.0229541
1827000 60.1715 249.588 55.8389 0.91345 -0.00468121
1827200 60.1715 249.601 55.8389 0.91355 0.00577858
1827400 60.1715 249.614 55.8389 0.91365 -0.00419017
1827600 60.1715 249.627 55.8389 0.91375 0.000506884
1827800 60.1715 249.64 55.8389 0.91385 0.00433098
1828000 60.1715 249.653 55.8389 0.91395 -0.00428513
1828200 60.1715 249.666 55.8389 0.91405 -0.0139593
1828400 60.1715 249.679 55.8389 0.91415 -0.0148714
1828600 60.1715 249.692 55.8389 0.91425 0.000252118
1828800 60.1715 249.705 55.8389 0.91435 -0.0018425
1829000 60.1715 249.718 55.8389 0.91445 -0.00269795
1829200 60.1715 249.731 55.8389 0.91455 0.00796512
1829400 60.1715 249.744 55.8389 0.91465 -0.00146286
1829600 60.1715 249.757 55.8389 0.91475 0.0186661
1829800 60.1715 249.77 55.8389 0.91485 0.0171741
1830000 60.1715 249.783 55.8389 0.91495 0.0131225
1830200 60.1715 249.796 55.8389 0.91505 0.0124434
1830400 60.1715 249.81 55.8389 0.91515 0.0136814
1830600 60.1715 249.823 55.8389 0.91525 0.0230281
1830800 60.1715 249.836 55.8389 0.91535 0.0222095
1831000 60.1715 249.849 55.8389 0.91545 -0.00520069
1831200 60.1715 249.862 55.8389 0.91555 0.00466438
1831400 60.1715 249.875 55.8389 0.91565 0.00180938
1831600 60.1715 249.888 55.8389 0.91575 -0.00718918
1831800 60.1715 249.901 55.8389 0.91585 -0.000765815
1832000 60.1715 249.914 55.8389 0.91595 -0.00313037
1832200 60.1715 249.927 55.8389 0.91605 -0.00625703
1832400 60.1715 249.94 55.8389 0.91615 0.00141213
1832600 60.1715 249.953 55.8389 0.91625 -0.0153039
1832800 60.1715 249.966 55.8389 0.91635 -0.0128864
1833000 60.1715 249.979 55.8389 0.91645 0.00862246
1833200 60.1715 249.992 55.8389 0.91655 -0.00302957
1833400 60.1715 250.005 55.8389 0.91665 0.0215757
1833600 60.1715 250.018 55.8389 0.91675 0.0169781
1833800 60.1715 250.031 55.8389 0.91685 0.0134931
1834000 60.1715 250.044 55.8389 0.91695 0.00749599
1834200 60.1715 250.057 55.8389 0.91705 0.024882
1834400 60.1715 250.07 55.8389 0.91715 0.00759985
1834600 60.1715 250.083 55.8389 0.91725 0.0144364
1834800 60.1715 250.096 55.8389 0.91735 0.00335416
1835000 60.1715 250.11 55.8389 0.91745 0.0152302
1835200 60.1715 250.123 55.8389 0.91755 0.00028186
1835400 60.1715 250.136 55.8389 0.91765 0.00140397
1835600 60.1715 250.149 55.8389 0.91775 -0.000535438
1835800 60.1715 250.162 55.8389 0.91785 -0.0169541
1836000 60.1715 250.175 55.8389 0.91795 0.00908648
1836200 60.1715 250.188 55.8389 0.91805 -0.00447227
1836400 60.1715 250.201 55.8389 0.91815 -0.00492904
1836600 60.1715 250.214 55.8389 0.91825 -0.001209
1836800 60.1715 250.227 55.8389 0.91835 -0.0027403
1837000 60.1715 250.24 55.8389 0.91845 -0.00654983
1837200 60.1715 250.253 55.8389 0.91855 -0.000984289
1837400 60.1715 250.266 55.8389 0.91865 9.55606e-05
1837600 60.1715 250.279 55.8389 0.91875 0.0142781
1837800 60.1715 250.292 55.8389 0.91885 0.025866
1838000 60.1715 250.305 55.8389 0.91895 0.00707478
1838200 60.1715 250.318 55.8389 0.91905 0.0126835
1838400 60.1715 250.331 55.8389 0.91915 0.0153176
1838600 60.1715 250.344 55.8389 0.91925 0.0122244
1838800 60.1715 250.357 55.8389 0.91935 0.0151938
1839000 60.1715 250.37 55.8389 0.91945 0.00609211
1839200 60.1715 250.383 55.8389 0.91955 0.0131181
1839400 60.1715 250.396 55.8389 0.91965 0.00829143
1839600 60.1715 250.41 55.8389 0.91975 -0.0116487
1839800 60.1715 250.423 55.8389 0.91985 -0.00701849
1840000 60.1715 250.436 55.8389 0.91995 -0.00156598
1840200 60.1715 250.449 55.8389 0.92005 0.011556
1840400 60.1715 250.462 55.8389 0.92015 -0.0130286
1840600 60.1715 250.475 55.8389 0.92025 -0.0138425
1840800 60.1715 250.488 55.8389 0.92035 0.00133063
1841000 60.1715 250.501 55.8389 0.92045 -0.000360105
1841200 60.1715 250.514 55.8389 0.92055 0.000702143
1841400 60.1715 250.527 55.8389 0.92065 0.00718288
1841600 60.1715 250.54 55.8389 0.92075 0.00505455
1841800 60.1715 250.553 55.8389 0.92085 0.0185133
1842000 60.1715 250.566 55.8389 0.92095 0.0133301
1842200 60.1715 250.579 55.8389 0.92105 0.0263163
1842400 60.1715 250.592 55.8389 0.92115 0.00468047
1842600 60.1715 250.605 55.8389 0.92125 0.00956352
1842800 60.1715 250.618 55.8389 0.92135 0.0116485
1843000 60.1715 250.631 55.8389 0.92145 0.00304446
1843200 60.1715 250.644 55.8389 0.92155 0.0111483
1843400 60.1715 250.657 55.8389 0.92165 0.00686286
1843600 60.1715 250.67 55.8389 0.92175 0.00294201
1843800 60.1715 250.683 55.8389 0.92185 -0.0104992
1844000 60.1715 250.696 55.8389 0.92195 -0.0141876
1844200 60.1715 250.71 55.8389 0.92205 -0.0105009
1844400 60.1715 250.723 55.8389 0.92215 0.000117672
1844600 60.1715 250.736 55.8389 0.92225 0.00223341
1844800 60.1715 250.749 55.8389 0.92235 -0.00408406
1845000 60.1715 250.762 55.8389 0.92245 0.00304361
1845200 60.1715 250.775 55.8389 0.92255 0.00481273
1845400 60.1715 250.788 55.8389 0.92265 0.0281272
1845600 60.1715 250.801 55.8389 0.92275 -0.00378005
1845800 60.1715 250.814 55.8389 0.92285 0.00903777
1846000 60.1715 250.827 55.8389 0.92295 0.0163809
1846200 60.1715 250.84 55.8389 0.92305 0.0146994
1846400 60.1715 250.853 55.8389 0.92315 -0.00064009
1846600 60.1715 250.866 55.8389 0.92325 0.0178545
1846800 60.1715 250.879 55.8389 0.92335 0.00985055
1847000 60.1715 250.892 55.8389 0.92345 0.00983379
1847200 60.1715 250.905 55.8389 0.92355 0.00632614
1847400 60.1715 250.918 55.8389 0.92365 0.0034775
1847600 60.1715 250.931 55.8389 0.92375 -0.0023505
1847800 60.1715 250.944 55.8389 0.92385 -0.00275383
1848000 60.1715 250.957 55.8389 0.92395 -0.0050764
1848200 60.1715 250.97 55.8389 0.92405 0.00913038
1848400 60.1715 250.983 55.8389 0.92415 -0.00575403
1848600 60.1715 250.996 55.8389 0.92425 -0.0017929
1848800 60.1715 251.01 55.8389 0.92435 -0.00427104
1849000 60.1715 251.023 55.8389 0.92445 0.0068366
1849200 60.1715 251.036 55.8389 0.92455 0.0018718
1849400 60.1715 251.049 55.8389 0.92465 0.00084143
1849600 60.1715 251.062 55.8389 0.92475 0.002358
1849800 60.1715 251.075 55.8389 0.92485 0.0102854
1850000 60.1715 251.088 55.8389 0.92495 0.00860561
1850200 60.1715 251.101 55.8389 0.92505 0.0070995
1850400 60.1715 251.114 55.8389 0.92515 0.00825898
1850600 60.1715 251.127 55.8389 0.92525 0.0262877
1850800 60.1715 251.14 55.8389 0.92535 0.0023308
1851000 60.1715 251.153 55.8389 0.92545 0.00527446
1851200 60.1715 251.166 55.8389 0.92555 0.0100571
1851400 60.1715 251.179 55.8389 0.92565 -0.011913
1851600 60.1715 251.192 55.8389 0.92575 0.00931443
1851800 60.1715 251.205 55.8389 0.92585 0.00845101
1852000 60.1715 251.218 55.8389 0.92595 0.00176225
1852200 60.1715 251.231 55.8389 0.92605 0.00115609
1852400 60.1715 251.244 55.8389 0.92615 -0.00620692
1852600 60.1715 251.257 55.8389 0.92625 -0.000710946
1852800 60.1715 251.27 55.8389 0.92635 0.00784583
1853000 60.1715 251.283 55.8389 0.92645 0.00430842
1853200 60.1715 251.297 55.8389 0.92655 0.00836071
1853400 60.1715 251.31 55.8389 0.92665 0.012358
1853600 60.1715 251.323 55.8389 0.92675 -0.00398988
1853800 60.1715 251.336 55.8389 0.92685 0.00493705
1854000 60.1715 251.349 55.8389 0.92695 0.00546713
1854200 60.1715 251.362 55.8389 0.92705 0.00963638
1854400 60.1715 251.375 55.8389 0.92715 0.00936145
1854600 60.1715 251.388 55.8389 0.92725 -0.00235832
1854800 60.1715 251.401 55.8389 0.92735 0.0153813
1855000 60.1715 251.414 55.8389 0.92745 -0.00182474
1855200 60.1715 251.427 55.8389 0.92755 0.00813862
1855400 60.1715 251.44 55.8389 0.92765 -0.00101815
1855600 60.1715 251.453 55.8389 0.92775 0.00540807
1855800 60.1715 251.466 55.8389 0.92785 0.00462508
1856000 60.1715 251.479 55.8389 0.92795 0.000913751
1856200 60.1715 251.492 55.8389 0.92805 0.0189481
1856400 60.1715 251.505 55.8389 0.92815 -0.0126803
1856600 60.1715 251.518 55.8389 0.92825 0.00127617
1856800 60.1715 251.531 55.8389 0.92835 0.0135009
1857000 60.1715 251.544 55.8389 0.92845 -0.00985471
1857200 60.1715 251.557 55.8389 0.92855 0.0120129
1857400 60.1715 251.57 55.8389 0.92865 -0.00428322
1857600 60.1715 251.583 55.8389 0.92875 0.0121455
1857800 60.1715 251.597 55.8389 0.92885 0.0016104
1858000 60.1715 251.61 55.8389 0.92895 0.0109564
1858200 60.1715 251.623 55.8389 0.92905 0.0110124
1858400 60.1715 251.636 55.8389 0.92915 -0.00836014
1858600 60.1715 251.649 55.8389 0.92925 0.0067363
1858800 60.1715 251.662 55.8389 0.92935 0.0168017
1859000 60.1715 251.675 55.8389 0.92945 0.0119159
1859200 60.1715 251.688 55.8389 0.92955 0.0164619
1859400 60.1715 251.701 55.8389 0.92965 -0.00468158
1859600 60.1715 251.714 55.8389 0.92975 0.00372917
1859800 60.1715 251.727 55.8389 0.92985 -0.00442924
1860000 60.1715 251.74 55.8389 0.92995 -0.00919438
1860200 60.1715 251.753 55.8389 0.93005 0.0110411
1860400 60.1715 251.766 55.8389 0.93015 0.00272314
1860600 60.1715 251.779 55.8389 0.93025 -0.00188877
1860800 60.1715 251.792 55.8389 0.93035 -0.00526501
1861000 60.1715 251.805 55.8389 0.93045 -0.00430704
1861200 60.1715 251.818 55.8389 0.93055 0.0137015
1861400 60.1715 251.831 55.8389 0.93065 0.00832204
1861600 60.1715 251.844 55.8389 0.93075 0.00630324
1861800 60.1715 251.857 55.8389 0.93085 0.00728584
1862000 60.1715 251.87 55.8389 0.93095 0.0215972
1862200 60.1715 251.883 55.8389 0.93105 0.00694935
1862400 60.1715 251.897 55.8389 0.93115 -0.00205228
1862600 60.1715 251.91 55.8389 0.93125 0.00410024
1862800 60.1715 251.923 55.8389 0.93135 0.0268137
1863000 60.1715 251.936 55.8389 0.93145 0.00433622
1863200 60.1715 251.949 55.8389 0.93155 -0.00813401
1863400 60.1715 251.962 55.8389 0.93165 0.014419
1863600 60.1715 251.975 55.8389 0.93175 -0.00684194
1863800 60.1715 251.988 55.8389 0.93185 -0.0136148
1864000 60.1715 252.001 55.8389 0.93195 -0.015023
1864200 60.1715 252.014 55.8389 0.93205 0.0154635
1864400 60.1715 252.027 55.8389 0.93215 0.00952588
1864600 60.1715 252.04 55.8389 0.93225 -0.00147256
1864800 60.1715 252.053 55.8389 0.93235 0.0104319
1865000 60.1715 252.066 55.8389 0.93245 -0.00177277
1865200 60.1715 252.079 55.8389 0.93255 0.0089648
1865400 60.1715 252.092 55.8389 0.93265 0.00177315
1865600 60.1715 252.105 55.8389 0.93275 0.0184981
1865800 60.1715 252.118 55.8389 0.93285 0.00910537
1866000 60.1715 252.131 55.8389 0.93295 0.0215728
1866200 60.1715 252.144 55.8389 0.93305 -0.00138078
1866400 60.1715 252.157 55.8389 0.93315 0.0171291
1866600 60.1715 252.17 55.8389 0.93325 -0.00433586
1866800 60.1715 252.183 55.8389 0.93335 -0.00341702
1867000 60.1715 252.197 55.8389 0.93345 0.0101602
1867200 60.1715 252.21 55.8389 0.93355 0.00080013
1867400 60.1715 252.223 55.8389 0.93365 0.00225159
1867600 60.1715 252.236 55.8389 0.93375 0.00216011
1867800 60.1715 252.249 55.8389 0.93385 -0.017384
1868000 60.1715 252.262 55.8389 0.93395 0.00359034
1868200 60.1715 252.275 55.8389 0.93405 -0.00962921
1868400 60.1715 252.288 55.8389 0.93415 0.00670651
1868600 60.1715 252.301 55.8389 0.93425 0.0114772
1868800 60.1715 252.314 55.8389 0.93435 0.00150148
1869000 60.1715 252.327 55.8389 0.93445 0.00821823
1869200 60.1715 252.34 55.8389 0.93455 0.00476023
1869400 60.1715 252.353 55.8389 0.93465 0.00327961
1869600 60.1715 252.366 55.8389 0.93475 0.0133774
1869800 60.1715 252.379 55.8389 0.93485 0.0280565
1870000 60.1715 252.392 55.8389 0.93495 0.0110229
1870200 60.1715 252.405 55.8389 0.93505 0.0152634
1870400 60.1715 252.418 55.8389 0.93515 0.0151405
1870600 60.1715 252.431 55.8389 0.93525 -0.00531535
1870800 60.1715 252.444 55.8389 0.93535 -0.00119181
1871000 60.1715 252.457 55.8389 0.93545 0.00215049
1871200 60.1715 252.47 55.8389 0.93555 -0.0107011
1871400 60.1715 252.483 55.8389 0.93565 0.00291521
1871600 60.1715 252.497 55.8389 0.93575 0.00285061
1871800 60.1715 252.51 55.8389 0.93585 -0.0176673
1872000 60.1715 252.523 55.8389 0.93595 -0.00578635
1872200 60.1715 252.536 55.8389 0.93605 0.00957731
1872400 60.1715 252.549 55.8389 0.93615 -0.0145199
1872600 60.1715 252.562 55.8389 0.93625 -0.00551476
1872800 60.1715 252.575 55.8389 0.93635 0.0264276
1873000 60.1715 252.588 55.8389 0.93645 0.0212033
1873200 60.1715 252.601 55.8389 0.93655 0.00118326
1873400 60.1715 252.614 55.8389 0.93665 0.0176002
1873600 60.1715 252.627 55.8389 0.93675 0.0134373
1873800 60.1715 252.64 55.8389 0.93685 0.0121137
1874000 60.1715 252.653 55.8389 0.93695 0.0103722
1874200 60.1715 252.666 55.8389 0.93705 0.0153274
1874400 60.1715 252.679 55.8389 0.93715 0.00475586
1874600 60.1715 252.692 55.8389 0.93725 0.0124266
1874800 60.1715 252.705 55.8389 0.93735 -0.00543174
1875000 60.1715 252.718 55.8389 0.93745 -0.00763726
1875200 60.1715 252.731 55.8389 0.93755 -0.0120263
1875400 60.1715 252.744 55.8389 0.93765 -0.0104357
1875600 60.1715 252.757 55.8389 0.93775 0.0109175
1875800 60.1715 252.77 55.8389 0.93785 0.00247413
1876000 60.1715 252.784 55.8389 0.93795 -0.000662079
1876200 60.1715 252.797 55.8389 0.93805 -0.0100099
1876400 60.1715 252.81 55.8389 0.93815 -0.00298386
1876600 60.1715 252.823 55.8389 0.93825 0.00233413
1876800 60.1715 252.836 55.8389 0.93835 0.00723743
1877000 60.1715 252.849 55.8389 0.93845 0.0225569
1877200 60.1715 252.862 55.8389 0.93855 0.0160245
1877400 60.1715 252.875 55.8389 0.93865 0.0125608
1877600 60.1715 252.888 55.8389 0.93875 0.0105318
1877800 60.1715 252.901 55.8389 0.93885 0.00724849
1878000 60.1715 252.914 55.8389 0.93895 0.00811386
1878200 60.1715 252.927 55.8389 0.93905 0.0191374
1878400 60.1715 252.94 55.8389 0.93915 0.013455
1878600 60.1715 252.953 55.8389 0.93925 -0.00253913
1878800 60.1715 252.966 55.8389 0.93935 -0.00812004
1879000 60.1715 252.979 55.8389 0.93945 -0.00649141
1879200 60.1715 252.992 55.8389 0.93955 -0.000310986
1879400 60.1715 253.005 55.8389 0.93965 -0.00614529
1879600 60.1715 253.018 55.8389 0.93975 -0.00637863
1879800 60.1715 253.031 55.8389 0.93985 0.00212524
1880000 60.1715 253.044 55.8389 0.93995 0.00136222
1880200 60.1715 253.057 55.8389 0.94005 0.00236467
1880400 60.1715 253.07 55.8389 0.94015 0.00241893
1880600 60.1715 253.084 55.8389 0.94025 -0.000339695
1880800 60.1715 253.097 55.8389 0.94035 0.0175342
1881000 60.1715 253.11 55.8389 0.94045 0.0186581
1881200 60.1715 253.123 55.8389 0.94055 0.0179559
1881400 60.1715 253.136 55.8389 0.94065 0.00457931
1881600 60.1715 253.149 55.8389 0.94075 0.0136197
1881800 60.1715 253.162 55.8389 0.94085 0.00497408
1882000 60.1715 253.175 55.8389 0.94095 -0.00285266
1882200 60.1715 253.188 55.8389 0.94105 0.0152445
1882400 60.1715 253.201 55.8389 0.94115 0.00611031
1882600 60.1715 253.214 55.8389 0.94125 0.00686777
1882800 60.1715 253.227 55.8389 0.94135 0.00508438
1883000 60.1715 253.24 55.8389 0.94145 -0.0154294
1883200 60.1715 253.253 55.8389 0.94155 -0.00269842
1883400 60.1715 253.266 55.8389 0.94165 -0.0105816
1883600 60.1715 253.279 55.8389 0.94175 -0.00248381
1883800 60.1715 253.292 55.8389 0.94185 -0.00427771
1884000 60.1715 253.305 55.8389 0.94195 0.00488434
1884200 60.1715 253.318 55.8389 0.94205 -0.000781173
1884400 60.1715 253.331 55.8389 0.94215 0.00991981
1884600 60.1715 253.344 55.8389 0.94225 0.0111933
1884800 60.1715 253.357 55.8389 0.94235 -0.00605453
1885000 60.1715 253.37 55.8389 0.94245 0.0180687
1885200 60.1715 253.384 55.8389 0.94255 0.0228751
1885400 60.1715 253.397 55.8389 0.94265 0.00762942
1885600 60.1715 253.41 55.8389 0.94275 0.0227466
1885800 60.1715 253.423 55.8389 0.94285 0.00948265
1886000 60.1715 253.436 55.8389 0.94295 0.00403718
1886200 60.1715 253.449 55.8389 0.94305 0.0159308
1886400 60.1715 253.462 55.8389 0.94315 -0.00984495
1886600 60.1715 253.475 55.8389 0.94325 0.0018793
1886800 60.1715 253.488 55.8389 0.94335 -0.00841211
1887000 60.1715 253.501 55.8389 0.94345 -0.00163774
1887200 60.1715 253.514 55.8389 0.94355 -0.000285433
1887400 60.1715 253.527 55.8389 0.94365 -0.0119458
1887600 60.1715 253.54 55.8389 0.94375 -0.00777428
1887800 60.1715 253.553 55.8389 0.94385 -0.00166693
1888000 60.1715 253.566 55.8389 0.94395 0.012291
1888200 60.1715 253.579 55.8389 0.94405 -0.00798169
1888400 60.1715 253.592 55.8389 0.94415 0.0126221
1888600 60.1715 253.605 55.8389 0.94425 0.0145575
1888800 60.1715 253.618 55.8389 0.94435 0.00139456
1889000 60.1715 253.631 55.8389 0.94445 0.0131232
1889200 60.1715 253.644 55.8389 0.94455 0.01981
1889400 60.1715 253.657 55.8389 0.94465 0.0226236
1889600 60.1715 253.67 55.8389 0.94475 0.000876183
1889800 60.1715 253.684 55.8389 0.94485 0.0119897
1890000 60.1715 253.697 55.8389 0.94495 0.00678464
1890200 60.1715 253.71 55.8389 0.94505 -0.0029797
1890400 60.1715 253.723 55.8389 0.94515 -0.00865879
1890600 60.1715 253.736 55.8389 0.94525 0.016144
1890800 60.1715 253.749 55.8389 0.94535 0.00337835
1891000 60.1715 253.762 55.8389 0.94545 -0.00612793
1891200 60.1715 253.775 55.8389 0.94555 -0.00882299
1891400 60.1715 253.788 55.8389 0.94565 0.00148875
1891600 60.1715 253.801 55.8389 0.94575 -0.010747
1891800 60.1715 253.814 55.8389 0.94585 -0.00628993
1892000 60.1715 253.827 55.8389 0.94595 0.00490361
1892200 60.1715 253.84 55.8389 0.94605 0.0052998
1892400 60.1715 253.853 55.8389 0.94615 0.0114891
1892600 60.1715 253.866 55.8389 0.94625 -0.00574268
1892800 60.1715 253.879 55.8389 0.94635 0.00232561
1893000 60.1715 253.892 55.8389 0.94645 0.0230073
1893200 60.1715 253.905 55.8389 0.94655 0.00963197
1893400 60.1715 253.918 55.8389 0.94665 0.0186099
1893600 60.1715 253.931 55.8389 0.94675 0.0183408
1893800 60.1715 253.944 55.8389 0.94685 0.0136101
1894000 60.1715 253.957 55.8389 0.94695 -0.00363389
1894200 60.1715 253.97 55.8389 0.94705 0.000412398
1894400 60.1715 253.984 55.8389 0.94715 0.0132998
1894600 60.1715 253.997 55.8389 0.94725 0.00579599
1894800 60.1715 254.01 55.8389 0.94735 -0.0208834
1895000 60.1715 254.023 55.8389 0.94745 0.00336667
1895200 60.1715 254.036 55.8389 0.94755 -0.00107149
1895400 60.1715 254.049 55.8389 0.94765 -0.00127667
1895600 60.1715 254.062 55.8389 0.94775 -0.000537172
1895800 60.1715 254.075 55.8389 0.94785 -0.0164124
1896000 60.1715 254.088 55.8389 0.94795 0.00966584
1896200 60.1715 254.101 55.8389 0.94805 0.00629791
1896400 60.1715 254.114 55.8389 0.94815 7.11277e-05
1896600 60.1715 254.127 55.8389 0.94825 0.0124754
1896800 60.1715 254.14 55.8389 0.94835 0.0141368
1897000 60.1715 254.153 55.8389 0.94845 0.00625391
1897200 60.1715 254.166 55.8389 0.94855 0.0242093
1897400 60.1715 254.179 55.8389 0.94865 0.0130988
1897600 60.1715 254.192 55.8389 0.94875 0.000170524
1897800 60.1715 254.205 55.8389 0.94885 0.0163131
1898000 60.1715 254.218 55.8389 0.94895 0.00453596
1898200 60.1715 254.231 55.8389 0.94905 -0.0013816
1898400 60.1715 254.244 55.8389 0.94915 0.00965555
1898600 60.1715 254.257 55.8389 0.94925 0.00532329
1898800 60.1715 254.271 55.8389 0.94935 -0.00101158
1899000 60.1715 254.284 55.8389 0.94945 -0.0312854
1899200 60.1715 254.297 55.8389 0.94955 0.0118286
1899400 60.1715 254.31 55.8389 0.94965 0.00599525
1899600 60.1715 254.323 55.8389 0.94975 -0.0234448
1899800 60.1715 254.336 55.8389 0.94985 -0.00725961
1900000 60.1715 254.349 55.8389 0.94995 0.00199711
1900200 60.1715 254.362 55.8389 0.95005 0.00833184
1900400 60.1715 254.375 55.8389 0.95015 0.0173093
1900600 60.1715 254.388 55.8389 0.95025 0.00217688
1900800 60.1715 254.401 55.8389 0.95035 0.00963869
1901000 60.1715 254.414 55.8389 0.95045 0.0214571
1901200 60.1715 254.427 55.8389 0.95055 0.0167332
1901400 60.1715 254.44 55.8389 0.95065 -0.00438758
1901600 60.1715 254.453 55.8389 0.95075 0.0228566
1901800 60.1715 254.466 55.8389 0.95085 0.0273255
1902000 60.1715 254.479 55.8389 0.95095 -0.00497316
1902200 60.1715 254.492 55.8389 0.95105 0.0022532
1902400 60.1715 254.505 55.8389 0.95115 -0.00279309
1902600 60.1715 254.518 55.8389 0.95125 -0.0127067
1902800 60.1715 254.531 55.8389 0.95135 -0.0123471
1903000 60.1715 254.544 55.8389 0.95145 -0.00995964
1903200 60.1715 254.557 55.8389 0.95155 0.00810407
1903400 60.1715 254.571 55.8389 0.95165 -0.0130441
1903600 60.1715 254.584 55.8389 0.95175 0.00461143
1903800 60.1715 254.597 55.8389 0.95185 -0.00649023
1904000 60.1715 254.61 55.8389 0.95195 0.00165773
1904200 60.1715 254.623 55.8389 0.95205 0.00142526
1904400 60.1715 254.636 55.8389 0.95215 0.0163012
1904600 60.1715 254.649 55.8389 0.95225 0.033567
1904800 60.1715 254.662 55.8389 0.95235 0.0135896
1905000 60.1715 254.675 55.8389 0.95245 0.0126832
1905200 60.1715 254.688 55.8389 0.95255 0.00215482
1905400 60.1715 254.701 55.8389 0.95265 0.0113092
1905600 60.1715 254.714 55.8389 0.95275 0.00886849
1905800 60.1715 254.727 55.8389 0.95285 0.0146469
1906000 60.1715 254.74 55.8389 0.95295 0.0116359
1906200 60.1715 254.753 55.8389 0.95305 -0.00217255
1906400 60.1715 254.766 55.8389 0.95315 0.00434474
1906600 60.1715 254.779 55.8389 0.95325 -0.0184059
1906800 60.1715 254.792 55.8389 0.95335 -0.00680771
1907000 60.1715 254.805 55.8389 0.95345 -0.0197377
1907200 60.1715 254.818 55.8389 0.95355 0.00172254
1907400 60.1715 254.831 55.8389 0.95365 -0.00514451
1907600 60.1715 254.844 55.8389 0.95375 -0.00029408
1907800 60.1715 254.857 55.8389 0.95385 -0.00341826
1908000 60.1715 254.871 55.8389 0.95395 -0.0172647
1908200 60.1715 254.884 55.8389 0.95405 -0.00194545
1908400 60.1715 254.897 55.8389 0.95415 0.020626
1908600 60.1715 254.91 55.8389 0.95425 0.0110585
1908800 60.1715 254.923 55.8389 0.95435 0.00768051
1909000 60.1715 254.936 55.8389 0.95445 0.0285542
1909200 60.1715 254.949 55.8389 0.95455 0.0382924
1909400 60.1715 254.962 55.8389 0.95465 0.00877963
1909600 60.1715 254.975 55.8389 0.95475 0.0205893
1909800 60.1715 254.988 55.8389 0.95485 0.0161232
1910000 60.1715 255.001 55.8389 0.95495 0.0106552
1910200 60.1715 255.014 55.8389 0.95505 0.00950983
1910400 60.1715 255.027 55.8389 0.95515 -0.0122859
1910600 60.1715 255.04 55.8389 0.95525 -0.0149228
1910800 60.1715 255.053 55.8389 0.95535 -0.00543669
1911000 60.1715 255.066 55.8389 0.95545 -0.015028
1911200 60.1715 255.079 55.8389 0.95555 -0.0230589
1911400 60.1715 255.092 55.8389 0.95565 -0.0083544
1911600 60.1715 255.105 55.8389 0.95575 -0.00978439
1911800 60.1715 255.118 55.8389 0.95585 0.000542176
1912000 60.1715 255.131 55.8389 0.95595 0.000560741
1912200 60.1715 255.144 55.8389 0.95605 -0.00142174
1912400 60.1715 255.157 55.8389 0.95615 0.000822569
1912600 60.1715 255.171 55.8389 0.95625 0.00945309
1912800 60.1715 255.184 55.8389 0.95635 0.0396357
1913000 60.1715 255.197 55.8389 0.95645 0.017031
1913200 60.1715 255.21 55.8389 0.95655 0.0398572
1913400 60.1715 255.223 55.8389 0.95665 0.0122734
1913600 60.1715 255.236 55.8389 0.95675 0.00947827
1913800 60.1715 255.249 55.8389 0.95685 0.014687
1914000 60.1715 255.262 55.8389 0.95695 0.00647274
1914200 60.1715 255.275 55.8389 0.95705 0.000480827
1914400 60.1715 255.288 55.8389 0.95715 0.00100816
1914600 60.1715 255.301 55.8389 0.95725 0.000140776
1914800 60.1715 255.314 55.8389 0.95735 -0.019682
1915000 60.1715 255.327 55.8389 0.95745 -0.0257326
1915200 60.1715 255.34 55.8389 0.95755 -0.0219983
1915400 60.1715 255.353 55.8389 0.95765 -0.00226131
1915600 60.1715 255.366 55.8389 0.95775 -0.0176262
1915800 60.1715 255.379 55.8389 0.95785 0.00963654
1916000 60.1715 255.392 55.8389 0.95795 -0.00793232
1916200 60.1715 255.405 55.8389 0.95805 0.0144939
1916400 60.1715 255.418 55.8389 0.95815 0.000899023
1916600 60.1715 255.431 55.8389 0.95825 0.011337
1916800 60.1715 255.444 55.8389 0.95835 0.0289116
1917000 60.1715 255.457 55.8389 0.95845 0.0289588
1917200 60.1715 255.471 55.8389 0.95855 0.0465269
1917400 60.1715 255.484 55.8389 0.95865 0.0152362
1917600 60.1715 255.497 55.8389 0.95875 -0.00807576
1917800 60.1715 255.51 55.8389 0.95885 0.00515597
1918000 60.1715 255.523 55.8389 0.95895 0.0145998
1918200 60.1715 255.536 55.8389 0.95905 -0.00296913
1918400 60.1715 255.549 55.8389 0.95915 -0.00329536
1918600 60.1715 255.562 55.8389 0.95925 -0.00956911
1918800 60.1715 255.575 55.8389 0.95935 -0.0128197
1919000 60.1715 255.588 55.8389 0.95945 -0.0340797
1919200 60.1715 255.601 55.8389 0.95955 -0.0213995
1919400 60.1715 255.614 55.8389 0.95965 -0.000235411
1919600 60.1715 255.627 55.8389 0.95975 -0.0149386
1919800 60.1715 255.64 55.8389 0.95985 0.0152165
1920000 60.1715 255.653 55.8389 0.95995 0.00233099
1920200 60.1715 255.666 55.8389 0.96005 0.0200281
1920400 60.1715 255.679 55.8389 0.96015 0.00231679
1920600 60.1715 255.692 55.8389 0.96025 0.00797112
1920800 60.1715 255.705 55.8389 0.96035 0.0395045
1921000 60.1715 255.718 55.8389 0.96045 0.019039
1921200 60.1715 255.731 55.8389 0.96055 0.0235442
1921400 60.1715 255.744 55.8389 0.96065 0.015031
1921600 60.1715 255.758 55.8389 0.96075 0.0160534
1921800 60.1715 255.771 55.8389 0.96085 0.0145833
1922000 60.1715 255.784 55.8389 0.96095 -0.0211468
1922200 60.1715 255.797 55.8389 0.96105 6.98625e-05
1922400 60.1715 255.81 55.8389 0.96115 -0.00567672
1922600 60.1715 255.823 55.8389 0.96125 -0.0118599
1922800 60.1715 255.836 55.8389 0.96135 -0.019504
1923000 60.1715 255.849 55.8389 0.96145 -0.00663426
1923200 60.1715 255.862 55.8389 0.96155 -0.0190676
1923400 60.1715 255.875 55.8389 0.96165 -0.00976692
1923600 60.1715 255.888 55.8389 0.96175 -0.000781561
1923800 60.1715 255.901 55.8389 0.96185 0.00776302
1924000 60.1715 255.914 55.8389 0.96195 0.011014
1924200 60.1715 255.927 55.8389 0.96205 0.023102
1924400 60.1715 255.94 55.8389 0.96215 0.0175603
1924600 60.1715 255.953 55.8389 0.96225 0.0176751
1924800 60.1715 255.966 55.8389 0.96235 0.00139177
1925000 60.1715 255.979 55.8389 0.96245 0.0196213
1925200 60.1715 255.992 55.8389 0.96255 0.03251
1925400 60.1715 256.005 55.8389 0.96265 0.0251113
1925600 60.1715 256.018 55.8389 0.96275 -0.00567135
1925800 60.1715 256.031 55.8389 0.96285 -0.000471248
1926000 60.1715 256.044 55.8389 0.96295 -0.0125128
1926200 60.1715 256.058 55.8389 0.96305 -0.00747688
1926400 60.1715 256.071 55.8389 0.96315 -0.0152318
1926600 60.1715 256.084 55.8389 0.96325 -0.0124162
1926800 60.1715 256.097 55.8389 0.96335 -0.00103741
1927000 60.1715 256.11 55.8389 0.96345 -0.00230304
1927200 60.1715 256.123 55.8389 0.96355 -0.0312745
1927400 60.1715 256.136 55.8389 0.96365 -0.01379
1927600 60.1715 256.149 55.8389 0.96375 -0.00223839
1927800 60.1715 256.162 55.8389 0.96385 0.0201701
1928000 60.1715 256.175 55.8389 0.96395 0.0185906
1928200 60.1715 256.188 55.8389 0.96405 0.034855
1928400 60.1715 256.201 55.8389 0.96415 0.0125889
1928600 60.1715 256.214 55.8389 0.96425 0.0206652
1928800 60.1715 256.227 55.8389 0.96435 0.0143465
1929000 60.1715 256.24 55.8389 0.96445 0.00698365
1929200 60.1715 256.253 55.8389 0.96455 0.0205238
1929400 60.1715 256.266 55.8389 0.96465 0.0175973
1929600 60.1715 256.279 55.8389 0.96475 0.0194082
1929800 60.1715 256.292 55.8389 0.96485 -0.00630789
1930000 60.1715 256.305 55.8389 0.96495 -0.016258
1930200 60.1715 256.318 55.8389 0.96505 -0.0358588
1930400 60.1715 256.331 55.8389 0.96515 -0.00854756
1930600 60.1715 256.344 55.8389 0.96525 -0.0121961
1930800 60.1715 256.358 55.8389 0.96535 -0.0190858
1931000 60.1715 256.371 55.8389 0.96545 -0.00443877
1931200 60.1715 256.384 55.8389 0.96555 -0.00704173
1931400 60.1715 256.397 55.8389 0.96565 -0.00314784
1931600 60.1715 256.41 55.8389 0.96575 0.0278377
1931800 60.1715 256.423 55.8389 0.96585 -0.0197002
1932000 60.1715 256.436 55.8389 0.96595 0.0199931
1932200 60.1715 256.449 55.8389 0.96605 0.0310972
1932400 60.1715 256.462 55.8389 0.96615 0.0392563
1932600 60.1715 256.475 55.8389 0.96625 0.0243096
1932800 60.1715 256.488 55.8389 0.96635 0.0142865
1933000 60.1715 256.501 55.8389 0.96645 0.00468209
1933200 60.1715 256.514 55.8389 0.96655 0.00833839
1933400 60.1715 256.527 55.8389 0.96665 0.0163333
1933600 60.1715 256.54 55.8389 0.96675 0.00107676
1933800 60.1715 256.553 55.8389 0.96685 -0.00422245
1934000 60.1715 256.566 55.8389 0.96695 -0.00740976
1934200 60.1715 256.579 55.8389 0.96705 -0.0191605
1934400 60.1715 256.592 55.8389 0.96715 -0.0282799
1934600 60.1715 256.605 55.8389 0.96725 -0.0261169
1934800 60.1715 256.618 55.8389 0.96735 -0.0118472
1935000 60.1715 256.631 55.8389 0.96745 -0.00773926
1935200 60.1715 256.644 55.8389 0.96755 0.00500445
1935400 60.1715 256.658 55.8389 0.96765 -0.00185853
1935600 60.1715 256.671 55.8389 0.96775 -0.00270426
1935800 60.1715 256.684 55.8389 0.96785 0.00865653
1936000 60.1715 256.697 55.8389 0.96795 0.0155014
1936200 60.1715 256.71 55.8389 0.96805 0.0305908
1936400 60.1715 256.723 55.8389 0.96815 0.0376794
1936600 60.1715 256.736 55.8389 0.96825 0.0358041
1936800 60.1715 256.749 55.8389 0.96835 0.0269193
1937000 60.1715 256.762 55.8389 0.96845 0.00625931
1937200 60.1715 256.775 55.8389 0.96855 0.00830441
1937400 60.1715 256.788 55.8389 0.96865 0.000595817
1937600 60.1715 256.801 55.8389 0.96875 0.0190238
1937800 60.1715 256.814 55.8389 0.96885 -0.00526844
1938000 60.1715 256.827 55.8389 0.96895 -0.0227294
1938200 60.1715 256.84 55.8389 0.96905 -0.0222632
1938400 60.1715 256.853 55.8389 0.96915 -0.0427834
1938600 60.1715 256.866 55.8389 0.96925 -0.0189851
1938800 60.1715 256.879 55.8389 0.96935 -0.018741
1939000 60.1715 256.892 55.8389 0.96945 0.00569204
1939200 60.1715 256.905 55.8389 0.96955 -0.00231914
1939400 60.1715 256.918 55.8389 0.96965 0.0108937
1939600 60.1715 256.931 55.8389 0.96975 -0.00270396
1939800 60.1715 256.944 55.8389 0.96985 0.0116606
1940000 60.1715 256.958 55.8389 0.96995 0.0224231
1940200 60.1715 256.971 55.8389 0.97005 0.0206018
1940400 60.1715 256.984 55.8389 0.97015 0.0498267
1940600 60.1715 256.997 55.8389 0.97025 0.0369922
1940800 60.1715 257.01 55.8389 0.97035 0.0184903
1941000 60.1715 257.023 55.8389 0.97045 -0.00480466
1941200 60.1715 257.036 55.8389 0.97055 0.00546095
1941400 60.1715 257.049 55.8389 0.97065 -0.000309464
1941600 60.1715 257.062 55.8389 0.97075 0.00147091
1941800 60.1715 257.075 55.8389 0.97085 -0.00272663
1942000 60.1715 257.088 55.8389 0.97095 -0.0161332
1942200 60.1715 257.101 55.8389 0.97105 -0.0301793
1942400 60.1715 257.114 55.8389 0.97115 -0.0183259
1942600 60.1715 257.127 55.8389 0.97125 -0.0344055
1942800 60.1715 257.14 55.8389 0.97135 -0.0249229
1943000 60.1715 257.153 55.8389 0.97145 -0.000616407
1943200 60.1715 257.166 55.8389 0.97155 0.0183975
1943400 60.1715 257.179 55.8389 0.97165 0.011375
1943600 60.1715 257.192 55.8389 0.97175 0.00544223
1943800 60.1715 257.205 55.8389 0.97185 0.0169936
1944000 60.1715 257.218 55.8389 0.97195 0.0375604
1944200 60.1715 257.231 55.8389 0.97205 0.0268861
1944400 60.1715 257.245 55.8389 0.97215 0.0318439
1944600 60.1715 257.258 55.8389 0.97225 0.0309535
1944800 60.1715 257.271 55.8389 0.97235 0.0250476
1945000 60.1715 257.284 55.8389 0.97245 0.00957254
1945200 60.1715 257.297 55.8389 0.97255 -0.0169044
1945400 60.1715 257.31 55.8389 0.97265 0.00103174
1945600 60.1715 257.323 55.8389 0.97275 -0.00288251
1945800 60.1715 257.336 55.8389 0.97285 -0.0266169
1946000 60.1715 257.349 55.8389 0.97295 -0.0279691
1946200 60.1715 257.362 55.8389 0.97305 -0.027117
1946400 60.1715 257.375 55.8389 0.97315 -0.00927848
1946600 60.1715 257.388 55.8389 0.97325 -0.023344
1946800 60.1715 257.401 55.8389 0.97335 -0.0125755
1947000 60.1715 257.414 55.8389 0.97345 0.00214028
1947200 60.1715 257.427 55.8389 0.97355 0.01384
1947400 60.1715 257.44 55.8389 0.97365 0.0133531
1947600 60.1715 257.453 55.8389 0.97375 0.0039084
1947800 60.1715 257.466 55.8389 0.97385 0.024215
1948000 60.1715 257.479 55.8389 0.97395 0.0326149
1948200 60.1715 257.492 55.8389 0.97405 0.0293422
1948400 60.1715 257.505 55.8389 0.97415 0.0464522
1948600 60.1715 257.518 55.8389 0.97425 0.0223503
1948800 60.1715 257.531 55.8389 0.97435 0.00763056
1949000 60.1715 257.545 55.8389 0.97445 0.00527723
1949200 60.1715 257.558 55.8389 0.97455 0.00497692
1949400 60.1715 257.571 55.8389 0.97465 -0.00903438
1949600 60.1715 257.584 55.8389 0.97475 -0.027437
1949800 60.1715 257.597 55.8389 0.97485 -0.0279534
1950000 60.1715 257.61 55.8389 0.97495 -0.021377
1950200 60.1715 257.623 55.8389 0.97505 -0.0124768
1950400 60.1715 257.636 55.8389 0.97515 -0.0303796
1950600 60.1715 257.649 55.8389 0.97525 -0.0218509
1950800 60.1715 257.662 55.8389 0.97535 -0.00285623
1951000 60.1715 257.675 55.8389 0.97545 -0.00826597
1951200 60.1715 257.688 55.8389 0.97555 0.00319283
1951400 60.1715 257.701 55.8389 0.97565 0.0224853
1951600 60.1715 257.714 55.8389 0.97575 0.0333725
1951800 60.1715 257.727 55.8389 0.97585 0.0326007
1952000 60.1715 257.74 55.8389 0.97595 0.0295064
1952200 60.1715 257.753 55.8389 0.97605 0.0410702
1952400 60.1715 257.766 55.8389 0.97615 0.0239423
1952600 60.1715 257.779 55.8389 0.97625 0.0258243
1952800 60.1715 257.792 55.8389 0.97635 0.0187958
1953000 60.1715 257.805 55.8389 0.97645 0.0170307
1953200 60.1715 257.818 55.8389 0.97655 -0.00245361
1953400 60.1715 257.831 55.8389 0.97665 -0.0255918
1953600 60.1715 257.845 55.8389 0.97675 -0.019959
1953800 60.1715 257.858 55.8389 0.97685 -0.0184352
1954000 60.1715 257.871 55.8389 0.97695 -0.0290888
1954200 60.1715 257.884 55.8389 0.97705 -0.0355249
1954400 60.1715 257.897 55.8389 0.97715 -0.0194473
1954600 60.1715 257.91 55.8389 0.97725 -0.0183875
1954800 60.1715 257.923 55.8389 0.97735 -0.0186743
1955000 60.1715 257.936 55.8389 0.97745 -0.00410861
1955200 60.1715 257.949 55.8389 0.97755 0.0178249
1955400 60.1715 257.962 55.8389 0.97765 0.0150751
1955600 60.1715 257.975 55.8389 0.97775 0.0255965
1955800 60.1715 257.988 55.8389 0.97785 0.0395077
1956000 60.1715 258.001 55.8389 0.97795 0.026628
1956200 60.1715 258.014 55.8389 0.97805 0.026752
1956400 60.1715 258.027 55.8389 0.97815 0.0387888
1956600 60.1715 258.04 55.8389 0.97825 0.0197312
1956800 60.1715 258.053 55.8389 0.97835 0.0197755
1957000 60.1715 258.066 55.8389 0.97845 0.0145218
1957200 60.1715 258.079 55.8389 0.97855 -0.0105862
1957400 60.1715 258.092 55.8389 0.97865 -0.0240343
1957600 60.1715 258.105 55.8389 0.97875 -0.0134691
1957800 60.1715 258.118 55.8389 0.97885 -0.0171083
1958000 60.1715 258.131 55.8389 0.97895 -0.0264046
1958200 60.1715 258.145 55.8389 0.97905 -0.0304408
1958400 60.1715 258.158 55.8389 0.97915 -0.0100884
1958600 60.1715 258.171 55.8389 0.97925 -0.00824575
1958800 60.1715 258.184 55.8389 0.97935 -0.0175158
1959000 60.1715 258.197 55.8389 0.97945 -0.0048664
1959200 60.1715 258.21 55.8389 0.97955 0.01706
1959400 60.1715 258.223 55.8389 0.97965 0.0172851
1959600 60.1715 258.236 55.8389 0.97975 0.0165055
1959800 60.1715 258.249 55.8389 0.97985 0.0399744
1960000 60.1715 258.262 55.8389 0.97995 0.0298374
1960200 60.1715 258.275 55.8389 0.98005 0.0314551
1960400 60.1715 258.288 55.8389 0.98015 0.0253716
1960600 60.1715 258.301 55.8389 0.98025 0.0186334
1960800 60.1715 258.314 55.8389 0.98035 0.0127076
1961000 60.1715 258.327 55.8389 0.98045 -0.00769949
1961200 60.1715 258.34 55.8389 0.98055 0.000181661
1961400 60.1715 258.353 55.8389 0.98065 -0.0196696
1961600 60.1715 258.366 55.8389 0.98075 -0.0188178
1961800 60.1715 258.379 55.8389 0.98085 -0.0196023
1962000 60.1715 258.392 55.8389 0.98095 -0.0201916
1962200 60.1715 258.405 55.8389 0.98105 -0.0349472
1962400 60.1715 258.418 55.8389 0.98115 -0.0143192
1962600 60.1715 258.431 55.8389 0.98125 -0.00828435
1962800 60.1715 258.445 55.8389 0.98135 0.00241828
1963000 60.1715 258.458 55.8389 0.98145 0.00357205
1963200 60.1715 258.471 55.8389 0.98155 -7.38285e-05
1963400 60.1715 258.484 55.8389 0.98165 0.0326663
1963600 60.1715 258.497 55.8389 0.98175 0.020521
1963800 60.1715 258.51 55.8389 0.98185 0.0277486
1964000 60.1715 258.523 55.8389 0.98195 0.0331385
1964200 60.1715 258.536 55.8389 0.98205 0.0305211
1964400 60.1715 258.549 55.8389 0.98215 0.0281584
1964600 60.1715 258.562 55.8389 0.98225 0.0147983
1964800 60.1715 258.575 55.8389 0.98235 0.00242818
1965000 60.1715 258.588 55.8389 0.98245 0.00569094
1965200 60.1715 258.601 55.8389 0.98255 -0.00651707
1965400 60.1715 258.614 55.8389 0.98265 -0.00337037
1965600 60.1715 258.627 55.8389 0.98275 -0.0239074
1965800 60.1715 258.64 55.8389 0.98285 -0.0309711
1966000 60.1715 258.653 55.8389 0.98295 -0.0212186
1966200 60.1715 258.666 55.8389 0.98305 -0.0285786
1966400 60.1715 258.679 55.8389 0.98315 -0.00793755
1966600 60.1715 258.692 55.8389 0.98325 -0.00444539
1966800 60.1715 258.705 55.8389 0.98335 -0.0103837
1967000 60.1715 258.718 55.8389 0.98345 0.0204697
1967200 60.1715 258.732 55.8389 0.98355 0.00856679
1967400 60.1715 258.745 55.8389 0.98365 0.0131926
1967600 60.1715 258.758 55.8389 0.98375 0.0163602
1967800 60.1715 258.771 55.8389 0.98385 0.0276707
1968000 60.1715 258.784 55.8389 0.98395 0.0384473
1968200 60.1715 258.797 55.8389 0.98405 0.0218042
1968400 60.1715 258.81 55.8389 0.98415 0.0189927
1968600 60.1715 258.823 55.8389 0.98425 0.0181319
1968800 60.1715 258.836 55.8389 0.98435 0.00471292
1969000 60.1715 258.849 55.8389 0.98445 -0.00154224
1969200 60.1715 258.862 55.8389 0.98455 -0.00766538
1969400 60.1715 258.875 55.8389 0.98465 -0.0155055
1969600 60.1715 258.888 55.8389 0.98475 -0.00773457
1969800 60.1715 258.901 55.8389 0.98485 -0.0193135
1970000 60.1715 258.914 55.8389 0.98495 -0.0233608
1970200 60.1715 258.927 55.8389 0.98505 -0.0343382
1970400 60.1715 258.94 55.8389 0.98515 -0.0130136
1970600 60.1715 258.953 55.8389 0.98525 0.00732421
1970800 60.1715 258.966 55.8389 0.98535 0.0102816
1971000 60.1715 258.979 55.8389 0.98545 0.00378972
1971200 60.1715 258.992 55.8389 0.98555 -0.000532517
1971400 60.1715 259.005 55.8389 0.98565 0.0254647
1971600 60.1715 259.018 55.8389 0.98575 0.0333466
1971800 60.1715 259.032 55.8389 0.98585 0.0124003
1972000 60.1715 259.045 55.8389 0.98595 0.0316136
1972200 60.1715 259.058 55.8389 0.98605 0.02739
1972400 60.1715 259.071 55.8389 0.98615 0.0201951
1972600 60.1715 259.084 55.8389 0.98625 0.00997807
1972800 60.1715 259.097 55.8389 0.98635 0.00527953
1973000 60.1715 259.11 55.8389 0.98645 -0.00879691
1973200 60.1715 259.123 55.8389 0.98655 -0.0197664
1973400 60.1715 259.136 55.8389 0.98665 0.00172685
1973600 60.1715 259.149 55.8389 0.98675 -0.0150815
1973800 60.1715 259.162 55.8389 0.98685 -0.0165303
1974000 60.1715 259.175 55.8389 0.98695 -0.0294175
1974200 60.1715 259.188 55.8389 0.98705 -0.00256412
1974400 60.1715 259.201 55.8389 0.98715 -0.0327509
1974600 60.1715 259.214 55.8389 0.98725 -0.00620407
1974800 60.1715 259.227 55.8389 0.98735 0.00591466
1975000 60.1715 259.24 55.8389 0.98745 0.021907
1975200 60.1715 259.253 55.8389 0.98755 0.0187746
1975400 60.1715 259.266 55.8389 0.98765 0.0116526
1975600 60.1715 259.279 55.8389 0.98775 0.0220295
1975800 60.1715 259.292 55.8389 0.98785 0.01357
1976000 60.1715 259.305 55.8389 0.98795 0.0228542
1976200 60.1715 259.318 55.8389 0.98805 0.0362399
1976400 60.1715 259.332 55.8389 0.98815 0.0287571
1976600 60.1715 259.345 55.8389 0.98825 0.0124368
1976800 60.1715 259.358 55.8389 0.98835 -0.00159195
1977000 60.1715 259.371 55.8389 0.98845 0.00274212
1977200 60.1715 259.384 55.8389 0.98855 -0.026829
1977400 60.1715 259.397 55.8389 0.98865 -0.0158785
1977600 60.1715 259.41 55.8389 0.98875 -0.000189635
1977800 60.1715 259.423 55.8389 0.98885 -0.0188183
1978000 60.1715 259.436 55.8389 0.98895 -0.0298345
1978200 60.1715 259.449 55.8389 0.98905 -0.0182437
1978400 60.1715 259.462 55.8389 0.98915 -0.0171976
1978600 60.1715 259.475 55.8389 0.98925 -0.00748759
1978800 60.1715 259.488 55.8389 0.98935 0.0109607
1979000 60.1715 259.501 55.8389 0.98945 0.0135945
1979200 60.1715 259.514 55.8389 0.98955 0.0193388
1979400 60.1715 259.527 55.8389 0.98965 0.0208491
1979600 60.1715 259.54 55.8389 0.98975 0.0175946
1979800 60.1715 259.553 55.8389 0.98985 0.032268
1980000 60.1715 259.566 55.8389 0.98995 0.0188545
1980200 60.1715 259.579 55.8389 0.99005 0.0253423
1980400 60.1715 259.592 55.8389 0.99015 0.0224636
1980600 60.1715 259.605 55.8389 0.99025 0.0194579
1980800 60.1715 259.618 55.8389 0.99035 -0.0178119
1981000 60.1715 259.632 55.8389 0.99045 0.00682055
1981200 60.1715 259.645 55.8389 0.99055 -0.0182126
1981400 60.1715 259.658 55.8389 0.99065 -0.0167582
1981600 60.1715 259.671 55.8389 0.99075 -0.0248624
1981800 60.1715 259.684 55.8389 0.99085 -0.0140633
1982000 60.1715 259.697 55.8389 0.99095 -0.0246553
1982200 60.1715 259.71 55.8389 0.99105 -0.00435587
1982400 60.1715 259.723 55.8389 0.99115 -0.0116458
1982600 60.1715 259.736 55.8389 0.99125 -0.0172086
1982800 60.1715 259.749 55.8389 0.99135 0.00311768
1983000 60.1715 259.762 55.8389 0.99145 0.0233681
1983200 60.1715 259.775 55.8389 0.99155 0.0350161
1983400 60.1715 259.788 55.8389 0.99165 0.0167183
1983600 60.1715 259.801 55.8389 0.99175 0.0185311
1983800 60.1715 259.814 55.8389 0.99185 0.0328098
1984000 60.1715 259.827 55.8389 0.99195 0.028097
1984200 60.1715 259.84 55.8389 0.99205 0.0145185
1984400 60.1715 259.853 55.8389 0.99215 0.00735891
1984600 60.1715 259.866 55.8389 0.99225 0.0295746
1984800 60.1715 259.879 55.8389 0.99235 -0.00958305
1985000 60.1715 259.892 55.8389 0.99245 0.00266877
1985200 60.1715 259.905 55.8389 0.99255 -0.0232239
1985400 60.1715 259.918 55.8389 0.99265 -0.0322773
1985600 60.1715 259.932 55.8389 0.99275 -0.0252903
1985800 60.1715 259.945 55.8389 0.99285 -0.0245881
1986000 60.1715 259.958 55.8389 0.99295 -0.015277
1986200 60.1715 259.971 55.8389 0.99305 -0.00397557
1986400 60.1715 259.984 55.8389 0.99315 -0.0279165
1986600 60.1715 259.997 55.8389 0.99325 0.0113188
1986800 60.1715 260.01 55.8389 0.99335 -0.0117896
1987000 60.1715 260.023 55.8389 0.99345 0.029173
1987200 60.1715 260.036 55.8389 0.99355 0.0409497
1987400 60.1715 260.049 55.8389 0.99365 0.029003
1987600 60.1715 260.062 55.8389 0.99375 0.0420529
1987800 60.1715 260.075 55.8389 0.99385 0.0221034
1988000 60.1715 260.088 55.8389 0.99395 0.0104515
1988200 60.1715 260.101 55.8389 0.99405 0.0328074
1988400 60.1715 260.114 55.8389 0.99415 0.00978425
1988600 60.1715 260.127 55.8389 0.99425 0.00456727
1988800 60.1715 260.14 55.8389 0.99435 -0.00498119
1989000 60.1715 260.153 55.8389 0.99445 -0.0155839
1989200 60.1715 260.166 55.8389 0.99455 -0.020227
1989400 60.1715 260.179 55.8389 0.99465 -0.0393476
1989600 60.1715 260.192 55.8389 0.99475 -0.0286426
1989800 60.1715 260.205 55.8389 0.99485 -0.0281539
1990000 60.1715 260.219 55.8389 0.99495 -0.0167845
1990200 60.1715 260.232 55.8389 0.99505 -0.0107687
1990400 60.1715 260.245 55.8389 0.99515 0.00231735
1990600 60.1715 260.258 55.8389 0.99525 0.00460664
1990800 60.1715 260.271 55.8389 0.99535 0.0187225
1991000 60.1715 260.284 55.8389 0.99545 0.0271469
1991200 60.1715 260.297 55.8389 0.99555 0.0385754
1991400 60.1715 260.31 55.8389 0.99565 0.0239106
1991600 60.1715 260.323 55.8389 0.99575 0.0420437
1991800 60.1715 260.336 55.8389 0.99585 0.0346794
1992000 60.1715 260.349 55.8389 0.99595 0.0247469
1992200 60.1715 260.362 55.8389 0.99605 0.0270571
1992400 60.1715 260.375 55.8389 0.99615 -0.0122698
1992600 60.1715 260.388 55.8389 0.99625 -0.0121823
1992800 60.1715 260.401 55.8389 0.99635 -0.0188502
1993000 60.1715 260.414 55.8389 0.99645 -0.0129762
1993200 60.1715 260.427 55.8389 0.99655 -0.0344149
1993400 60.1715 260.44 55.8389 0.99665 -0.0176579
1993600 60.1715 260.453 55.8389 0.99675 -0.0334756
1993800 60.1715 260.466 55.8389 0.99685 -0.0225281
1994000 60.1715 260.479 55.8389 0.99695 -0.0197039
1994200 60.1715 260.492 55.8389 0.99705 0.0011555
1994400 60.1715 260.505 55.8389 0.99715 -0.00343289
1994600 60.1715 260.519 55.8389 0.99725 0.0172084
1994800 60.1715 260.532 55.8389 0.99735 0.0262768
1995000 60.1715 260.545 55.8389 0.99745 0.034756
1995200 60.1715 260.558 55.8389 0.99755 0.0199498
1995400 60.1715 260.571 55.8389 0.99765 0.0185309
1995600 60.1715 260.584 55.8389 0.99775 0.0374055
1995800 60.1715 260.597 55.8389 0.99785 0.0480328
1996000 60.1715 260.61 55.8389 0.99795 0.0235738
1996200 60.1715 260.623 55.8389 0.99805 0.013
1996400 60.1715 260.636 55.8389 0.99815 -0.00646834
1996600 60.1715 260.649 55.8389 0.99825 -0.0117457
1996800 60.1715 260.662 55.8389 0.99835 -0.0221346
1997000 60.1715 260.675 55.8389 0.99845 -0.0295776
1997200 60.1715 260.688 55.8389 0.99855 -0.0166733
1997400 60.1715 260.701 55.8389 0.99865 -0.0276123
1997600 60.1715 260.714 55.8389 0.99875 -0.0198603
1997800 60.1715 260.727 55.8389 0.99885 -0.0203934
1998000 60.1715 260.74 55.8389 0.99895 -0.0195359
1998200 60.1715 260.753 55.8389 0.99905 -0.00715279
1998400 60.1715 260.766 55.8389 0.99915 0.0230353
1998600 60.1715 260.779 55.8389 0.99925 0.0141666
1998800 60.1715 260.792 55.8389 0.99935 0.031989
1999000 60.1715 260.805 55.8389 0.99945 0.0374577
1999200 60.1715 260.819 55.8389 0.99955 0.0149001
1999400 60.1715 260.832 55.8389 0.99965 0.026502
1999600 60.1715 260.845 55.8389 0.99975 0.020229
1999800 60.1715 260.858 55.8389 0.99985 0.0332262
2000000 60.1715 260.871 55.8389 0.99995 0.0269281
