# Time-averaged data for fix Re_Primary
Step Lx Ly Lz StrainY StressYY
200 60.2606 130.393 55.9234 5.025e-05 -0.024817
400 60.2606 130.406 55.9234 0.00015025 -0.0125379
600 60.2606 130.419 55.9234 0.00025025 -0.0157392
800 60.2606 130.433 55.9234 0.00035025 0.00227496
1000 60.2606 130.446 55.9234 0.00045025 0.0172987
1200 60.2606 130.459 55.9234 0.00055025 0.008389
1400 60.2606 130.472 55.9234 0.00065025 0.044341
1600 60.2606 130.485 55.9234 0.00075025 0.0439479
1800 60.2606 130.498 55.9234 0.00085025 0.051453
2000 60.2606 130.511 55.9234 0.00095025 0.0597629
2200 60.2606 130.524 55.9234 0.00105025 0.0849965
2400 60.2606 130.537 55.9234 0.00115025 0.075819
2600 60.2606 130.55 55.9234 0.00125025 0.108172
2800 60.2606 130.563 55.9234 0.00135025 0.0950052
3000 60.2606 130.576 55.9234 0.00145025 0.104617
3200 60.2606 130.589 55.9234 0.00155025 0.134485
3400 60.2606 130.602 55.9234 0.00165025 0.137883
3600 60.2606 130.615 55.9234 0.00175025 0.140391
3800 60.2606 130.628 55.9234 0.00185025 0.157227
4000 60.2606 130.641 55.9234 0.00195025 0.16412
4200 60.2606 130.654 55.9234 0.00205025 0.163169
4400 60.2606 130.667 55.9234 0.00215025 0.216091
4600 60.2606 130.68 55.9234 0.00225025 0.181266
4800 60.2606 130.693 55.9234 0.00235025 0.207745
5000 60.2606 130.706 55.9234 0.00245025 0.236083
5200 60.2606 130.719 55.9234 0.00255025 0.223069
5400 60.2606 130.732 55.9234 0.00265025 0.234061
5600 60.2606 130.745 55.9234 0.00275025 0.256137
5800 60.2606 130.758 55.9234 0.00285025 0.244426
6000 60.2606 130.772 55.9234 0.00295025 0.254961
6200 60.2606 130.785 55.9234 0.00305025 0.274015
6400 60.2606 130.798 55.9234 0.00315025 0.290397
6600 60.2606 130.811 55.9234 0.00325025 0.297641
6800 60.2606 130.824 55.9234 0.00335025 0.303588
7000 60.2606 130.837 55.9234 0.00345025 0.3405
7200 60.2606 130.85 55.9234 0.00355025 0.321952
7400 60.2606 130.863 55.9234 0.00365025 0.340986
7600 60.2606 130.876 55.9234 0.00375025 0.367236
7800 60.2606 130.889 55.9234 0.00385025 0.363244
8000 60.2606 130.902 55.9234 0.00395025 0.36611
8200 60.2606 130.915 55.9234 0.00405025 0.375911
8400 60.2606 130.928 55.9234 0.00415025 0.423105
8600 60.2606 130.941 55.9234 0.00425025 0.394292
8800 60.2606 130.954 55.9234 0.00435025 0.419795
9000 60.2606 130.967 55.9234 0.00445025 0.456243
9200 60.2606 130.98 55.9234 0.00455025 0.40955
9400 60.2606 130.993 55.9234 0.00465025 0.445955
9600 60.2606 131.006 55.9234 0.00475025 0.480826
9800 60.2606 131.019 55.9234 0.00485025 0.445512
10000 60.2606 131.032 55.9234 0.00495025 0.484343
10200 60.2606 131.045 55.9234 0.00505025 0.490832
10400 60.2606 131.058 55.9234 0.00515025 0.489349
10600 60.2606 131.071 55.9234 0.00525025 0.531068
10800 60.2606 131.084 55.9234 0.00535025 0.509242
11000 60.2606 131.098 55.9234 0.00545025 0.546355
11200 60.2606 131.111 55.9234 0.00555025 0.541352
11400 60.2606 131.124 55.9234 0.00565025 0.543701
11600 60.2606 131.137 55.9234 0.00575025 0.56742
11800 60.2606 131.15 55.9234 0.00585025 0.565689
12000 60.2606 131.163 55.9234 0.00595025 0.559704
12200 60.2606 131.176 55.9234 0.00605025 0.608644
12400 60.2606 131.189 55.9234 0.00615025 0.605598
12600 60.2606 131.202 55.9234 0.00625025 0.608398
12800 60.2606 131.215 55.9234 0.00635025 0.623576
13000 60.2606 131.228 55.9234 0.00645025 0.644677
13200 60.2606 131.241 55.9234 0.00655025 0.636101
13400 60.2606 131.254 55.9234 0.00665025 0.662048
13600 60.2606 131.267 55.9234 0.00675025 0.66706
13800 60.2606 131.28 55.9234 0.00685025 0.684252
14000 60.2606 131.293 55.9234 0.00695025 0.680112
14200 60.2606 131.306 55.9234 0.00705025 0.685652
14400 60.2606 131.319 55.9234 0.00715025 0.726265
14600 60.2606 131.332 55.9234 0.00725025 0.7267
14800 60.2606 131.345 55.9234 0.00735025 0.731987
15000 60.2606 131.358 55.9234 0.00745025 0.741467
15200 60.2606 131.371 55.9234 0.00755025 0.752117
15400 60.2606 131.384 55.9234 0.00765025 0.755748
15600 60.2606 131.397 55.9234 0.00775025 0.777978
15800 60.2606 131.41 55.9234 0.00785025 0.772708
16000 60.2606 131.423 55.9234 0.00795025 0.79044
16200 60.2606 131.437 55.9234 0.00805025 0.822016
16400 60.2606 131.45 55.9234 0.00815025 0.79615
16600 60.2606 131.463 55.9234 0.00825025 0.807795
16800 60.2606 131.476 55.9234 0.00835025 0.861255
17000 60.2606 131.489 55.9234 0.00845025 0.821762
17200 60.2606 131.502 55.9234 0.00855025 0.859293
17400 60.2606 131.515 55.9234 0.00865025 0.858878
17600 60.2606 131.528 55.9234 0.00875025 0.880675
17800 60.2606 131.541 55.9234 0.00885025 0.904513
18000 60.2606 131.554 55.9234 0.00895025 0.900006
18200 60.2606 131.567 55.9234 0.00905025 0.91934
18400 60.2606 131.58 55.9234 0.00915025 0.902303
18600 60.2606 131.593 55.9234 0.00925025 0.940241
18800 60.2606 131.606 55.9234 0.00935025 0.954211
19000 60.2606 131.619 55.9234 0.00945025 0.965833
19200 60.2606 131.632 55.9234 0.00955025 0.980884
19400 60.2606 131.645 55.9234 0.00965025 0.969449
19600 60.2606 131.658 55.9234 0.00975025 0.999279
19800 60.2606 131.671 55.9234 0.00985025 0.988007
20000 60.2606 131.684 55.9234 0.00995025 1.01562
20200 60.2606 131.697 55.9234 0.0100502 1.02392
20400 60.2606 131.71 55.9234 0.0101502 1.01688
20600 60.2606 131.723 55.9234 0.0102502 1.05935
20800 60.2606 131.736 55.9234 0.0103502 1.05431
21000 60.2606 131.749 55.9234 0.0104502 1.05635
21200 60.2606 131.762 55.9234 0.0105502 1.08318
21400 60.2606 131.776 55.9234 0.0106502 1.08814
21600 60.2606 131.789 55.9234 0.0107502 1.09361
21800 60.2606 131.802 55.9234 0.0108502 1.12038
22000 60.2606 131.815 55.9234 0.0109502 1.10975
22200 60.2606 131.828 55.9234 0.0110502 1.10251
22400 60.2606 131.841 55.9234 0.0111502 1.15847
22600 60.2606 131.854 55.9234 0.0112502 1.18381
22800 60.2606 131.867 55.9234 0.0113502 1.14154
23000 60.2606 131.88 55.9234 0.0114502 1.16051
23200 60.2606 131.893 55.9234 0.0115502 1.19087
23400 60.2606 131.906 55.9234 0.0116502 1.17547
23600 60.2606 131.919 55.9234 0.0117502 1.21628
23800 60.2606 131.932 55.9234 0.0118502 1.22318
24000 60.2606 131.945 55.9234 0.0119502 1.22173
24200 60.2606 131.958 55.9234 0.0120502 1.25883
24400 60.2606 131.971 55.9234 0.0121502 1.24448
24600 60.2606 131.984 55.9234 0.0122502 1.25767
24800 60.2606 131.997 55.9234 0.0123502 1.25301
25000 60.2606 132.01 55.9234 0.0124502 1.29721
25200 60.2606 132.023 55.9234 0.0125502 1.28922
25400 60.2606 132.036 55.9234 0.0126502 1.29265
25600 60.2606 132.049 55.9234 0.0127502 1.33417
25800 60.2606 132.062 55.9234 0.0128502 1.29885
26000 60.2606 132.075 55.9234 0.0129502 1.32923
26200 60.2606 132.088 55.9234 0.0130502 1.35103
26400 60.2606 132.101 55.9234 0.0131502 1.36199
26600 60.2606 132.115 55.9234 0.0132502 1.372
26800 60.2606 132.128 55.9234 0.0133502 1.38433
27000 60.2606 132.141 55.9234 0.0134502 1.37381
27200 60.2606 132.154 55.9234 0.0135502 1.40294
27400 60.2606 132.167 55.9234 0.0136502 1.43366
27600 60.2606 132.18 55.9234 0.0137502 1.416
27800 60.2606 132.193 55.9234 0.0138502 1.41393
28000 60.2606 132.206 55.9234 0.0139502 1.44963
28200 60.2606 132.219 55.9234 0.0140502 1.45845
28400 60.2606 132.232 55.9234 0.0141502 1.45974
28600 60.2606 132.245 55.9234 0.0142502 1.47356
28800 60.2606 132.258 55.9234 0.0143502 1.48566
29000 60.2606 132.271 55.9234 0.0144502 1.49603
29200 60.2606 132.284 55.9234 0.0145502 1.53881
29400 60.2606 132.297 55.9234 0.0146502 1.49724
29600 60.2606 132.31 55.9234 0.0147502 1.52389
29800 60.2606 132.323 55.9234 0.0148502 1.55492
30000 60.2606 132.336 55.9234 0.0149502 1.55266
30200 60.2606 132.349 55.9234 0.0150502 1.55179
30400 60.2606 132.362 55.9234 0.0151502 1.58962
30600 60.2606 132.375 55.9234 0.0152502 1.59518
30800 60.2606 132.388 55.9234 0.0153502 1.57751
31000 60.2606 132.401 55.9234 0.0154502 1.60073
31200 60.2606 132.414 55.9234 0.0155502 1.61988
31400 60.2606 132.427 55.9234 0.0156502 1.63148
31600 60.2606 132.44 55.9234 0.0157502 1.65252
31800 60.2606 132.454 55.9234 0.0158502 1.63404
32000 60.2606 132.467 55.9234 0.0159502 1.67142
32200 60.2606 132.48 55.9234 0.0160502 1.67746
32400 60.2606 132.493 55.9234 0.0161502 1.68215
32600 60.2606 132.506 55.9234 0.0162502 1.68976
32800 60.2606 132.519 55.9234 0.0163502 1.70289
33000 60.2606 132.532 55.9234 0.0164502 1.72882
33200 60.2606 132.545 55.9234 0.0165502 1.73835
33400 60.2606 132.558 55.9234 0.0166502 1.73927
33600 60.2606 132.571 55.9234 0.0167502 1.76119
33800 60.2606 132.584 55.9234 0.0168502 1.75873
34000 60.2606 132.597 55.9234 0.0169502 1.80224
34200 60.2606 132.61 55.9234 0.0170502 1.77641
34400 60.2606 132.623 55.9234 0.0171502 1.78924
34600 60.2606 132.636 55.9234 0.0172502 1.80929
34800 60.2606 132.649 55.9234 0.0173502 1.81626
35000 60.2606 132.662 55.9234 0.0174502 1.84653
35200 60.2606 132.675 55.9234 0.0175502 1.81138
35400 60.2606 132.688 55.9234 0.0176502 1.86165
35600 60.2606 132.701 55.9234 0.0177502 1.87625
35800 60.2606 132.714 55.9234 0.0178502 1.88085
36000 60.2606 132.727 55.9234 0.0179502 1.86643
36200 60.2606 132.74 55.9234 0.0180502 1.89801
36400 60.2606 132.753 55.9234 0.0181502 1.88903
36600 60.2606 132.766 55.9234 0.0182502 1.92095
36800 60.2606 132.779 55.9234 0.0183502 1.93445
37000 60.2606 132.793 55.9234 0.0184502 1.94176
37200 60.2606 132.806 55.9234 0.0185502 1.93963
37400 60.2606 132.819 55.9234 0.0186502 1.98535
37600 60.2606 132.832 55.9234 0.0187502 1.99528
37800 60.2606 132.845 55.9234 0.0188502 1.98003
38000 60.2606 132.858 55.9234 0.0189502 2.00031
38200 60.2606 132.871 55.9234 0.0190502 2.00678
38400 60.2606 132.884 55.9234 0.0191502 2.03615
38600 60.2606 132.897 55.9234 0.0192502 2.00812
38800 60.2606 132.91 55.9234 0.0193502 2.05383
39000 60.2606 132.923 55.9234 0.0194502 2.07809
39200 60.2606 132.936 55.9234 0.0195502 2.06337
39400 60.2606 132.949 55.9234 0.0196502 2.07986
39600 60.2606 132.962 55.9234 0.0197502 2.0812
39800 60.2606 132.975 55.9234 0.0198502 2.10103
40000 60.2606 132.988 55.9234 0.0199502 2.12486
40200 60.2606 133.001 55.9234 0.0200502 2.11183
40400 60.2606 133.014 55.9234 0.0201502 2.14526
40600 60.2606 133.027 55.9234 0.0202502 2.14614
40800 60.2606 133.04 55.9234 0.0203502 2.1573
41000 60.2606 133.053 55.9234 0.0204502 2.18038
41200 60.2606 133.066 55.9234 0.0205502 2.18637
41400 60.2606 133.079 55.9234 0.0206502 2.18791
41600 60.2606 133.092 55.9234 0.0207502 2.19392
41800 60.2606 133.105 55.9234 0.0208502 2.22526
42000 60.2606 133.118 55.9234 0.0209502 2.23765
42200 60.2606 133.132 55.9234 0.0210502 2.23973
42400 60.2606 133.145 55.9234 0.0211502 2.23794
42600 60.2606 133.158 55.9234 0.0212502 2.26552
42800 60.2606 133.171 55.9234 0.0213502 2.27272
43000 60.2606 133.184 55.9234 0.0214502 2.30557
43200 60.2606 133.197 55.9234 0.0215502 2.28259
43400 60.2606 133.21 55.9234 0.0216502 2.31052
43600 60.2606 133.223 55.9234 0.0217502 2.33322
43800 60.2606 133.236 55.9234 0.0218502 2.32492
44000 60.2606 133.249 55.9234 0.0219502 2.34176
44200 60.2606 133.262 55.9234 0.0220502 2.34971
44400 60.2606 133.275 55.9234 0.0221502 2.36948
44600 60.2606 133.288 55.9234 0.0222502 2.38081
44800 60.2606 133.301 55.9234 0.0223502 2.37938
45000 60.2606 133.314 55.9234 0.0224502 2.40209
45200 60.2606 133.327 55.9234 0.0225502 2.42405
45400 60.2606 133.34 55.9234 0.0226502 2.40357
45600 60.2606 133.353 55.9234 0.0227502 2.43795
45800 60.2606 133.366 55.9234 0.0228502 2.44374
46000 60.2606 133.379 55.9234 0.0229502 2.47045
46200 60.2606 133.392 55.9234 0.0230502 2.45606
46400 60.2606 133.405 55.9234 0.0231502 2.46208
46600 60.2606 133.418 55.9234 0.0232502 2.4874
46800 60.2606 133.431 55.9234 0.0233502 2.49596
47000 60.2606 133.444 55.9234 0.0234502 2.5138
47200 60.2606 133.458 55.9234 0.0235502 2.51271
47400 60.2606 133.471 55.9234 0.0236502 2.54148
47600 60.2606 133.484 55.9234 0.0237502 2.55026
47800 60.2606 133.497 55.9234 0.0238502 2.53625
48000 60.2606 133.51 55.9234 0.0239502 2.57056
48200 60.2606 133.523 55.9234 0.0240502 2.60302
48400 60.2606 133.536 55.9234 0.0241502 2.57365
48600 60.2606 133.549 55.9234 0.0242502 2.62128
48800 60.2606 133.562 55.9234 0.0243502 2.60857
49000 60.2606 133.575 55.9234 0.0244502 2.62717
49200 60.2606 133.588 55.9234 0.0245502 2.62573
49400 60.2606 133.601 55.9234 0.0246502 2.6509
49600 60.2606 133.614 55.9234 0.0247502 2.62596
49800 60.2606 133.627 55.9234 0.0248502 2.68764
50000 60.2606 133.64 55.9234 0.0249502 2.68179
50200 60.2606 133.653 55.9234 0.0250502 2.67598
50400 60.2606 133.666 55.9234 0.0251502 2.7143
50600 60.2606 133.679 55.9234 0.0252502 2.71414
50800 60.2606 133.692 55.9234 0.0253502 2.71954
51000 60.2606 133.705 55.9234 0.0254502 2.72764
51200 60.2606 133.718 55.9234 0.0255502 2.74874
51400 60.2606 133.731 55.9234 0.0256502 2.75878
51600 60.2606 133.744 55.9234 0.0257502 2.79076
51800 60.2606 133.757 55.9234 0.0258502 2.78109
52000 60.2606 133.77 55.9234 0.0259502 2.78334
52200 60.2606 133.783 55.9234 0.0260502 2.81269
52400 60.2606 133.797 55.9234 0.0261502 2.81535
52600 60.2606 133.81 55.9234 0.0262502 2.83184
52800 60.2606 133.823 55.9234 0.0263502 2.84358
53000 60.2606 133.836 55.9234 0.0264502 2.85947
53200 60.2606 133.849 55.9234 0.0265502 2.85621
53400 60.2606 133.862 55.9234 0.0266502 2.88035
53600 60.2606 133.875 55.9234 0.0267502 2.88627
53800 60.2606 133.888 55.9234 0.0268502 2.9113
54000 60.2606 133.901 55.9234 0.0269502 2.91451
54200 60.2606 133.914 55.9234 0.0270502 2.92161
54400 60.2606 133.927 55.9234 0.0271502 2.93677
54600 60.2606 133.94 55.9234 0.0272502 2.9343
54800 60.2606 133.953 55.9234 0.0273502 2.98128
55000 60.2606 133.966 55.9234 0.0274502 2.96691
55200 60.2606 133.979 55.9234 0.0275502 2.98378
55400 60.2606 133.992 55.9234 0.0276502 3.00928
55600 60.2606 134.005 55.9234 0.0277502 3.02292
55800 60.2606 134.018 55.9234 0.0278502 3.01215
56000 60.2606 134.031 55.9234 0.0279502 3.04905
56200 60.2606 134.044 55.9234 0.0280502 3.01729
56400 60.2606 134.057 55.9234 0.0281502 3.0556
56600 60.2606 134.07 55.9234 0.0282502 3.0849
56800 60.2606 134.083 55.9234 0.0283502 3.06599
57000 60.2606 134.096 55.9234 0.0284502 3.1117
57200 60.2606 134.109 55.9234 0.0285502 3.08819
57400 60.2606 134.122 55.9234 0.0286502 3.11626
57600 60.2606 134.136 55.9234 0.0287502 3.14347
57800 60.2606 134.149 55.9234 0.0288502 3.14153
58000 60.2606 134.162 55.9234 0.0289502 3.1401
58200 60.2606 134.175 55.9234 0.0290502 3.18501
58400 60.2606 134.188 55.9234 0.0291502 3.18248
58600 60.2606 134.201 55.9234 0.0292502 3.18581
58800 60.2606 134.214 55.9234 0.0293502 3.19823
59000 60.2606 134.227 55.9234 0.0294502 3.21276
59200 60.2606 134.24 55.9234 0.0295502 3.22681
59400 60.2606 134.253 55.9234 0.0296502 3.22593
59600 60.2606 134.266 55.9234 0.0297502 3.25833
59800 60.2606 134.279 55.9234 0.0298502 3.25334
60000 60.2606 134.292 55.9234 0.0299502 3.27396
60200 60.2606 134.305 55.9234 0.0300502 3.28951
60400 60.2606 134.318 55.9234 0.0301502 3.30469
60600 60.2606 134.331 55.9234 0.0302502 3.29665
60800 60.2606 134.344 55.9234 0.0303502 3.32386
61000 60.2606 134.357 55.9234 0.0304502 3.33785
61200 60.2606 134.37 55.9234 0.0305502 3.33448
61400 60.2606 134.383 55.9234 0.0306502 3.35269
61600 60.2606 134.396 55.9234 0.0307502 3.36752
61800 60.2606 134.409 55.9234 0.0308502 3.38524
62000 60.2606 134.422 55.9234 0.0309502 3.40124
62200 60.2606 134.435 55.9234 0.0310502 3.37639
62400 60.2606 134.448 55.9234 0.0311502 3.41345
62600 60.2606 134.461 55.9234 0.0312502 3.42205
62800 60.2606 134.475 55.9234 0.0313502 3.42669
63000 60.2606 134.488 55.9234 0.0314502 3.45474
63200 60.2606 134.501 55.9234 0.0315502 3.45717
63400 60.2606 134.514 55.9234 0.0316502 3.48092
63600 60.2606 134.527 55.9234 0.0317502 3.4798
63800 60.2606 134.54 55.9234 0.0318502 3.49918
64000 60.2606 134.553 55.9234 0.0319502 3.50368
64200 60.2606 134.566 55.9234 0.0320502 3.51866
64400 60.2606 134.579 55.9234 0.0321502 3.53413
64600 60.2606 134.592 55.9234 0.0322502 3.54683
64800 60.2606 134.605 55.9234 0.0323502 3.55049
65000 60.2606 134.618 55.9234 0.0324502 3.56258
65200 60.2606 134.631 55.9234 0.0325502 3.59431
65400 60.2606 134.644 55.9234 0.0326502 3.58063
65600 60.2606 134.657 55.9234 0.0327502 3.5972
65800 60.2606 134.67 55.9234 0.0328502 3.62274
66000 60.2606 134.683 55.9234 0.0329502 3.64739
66200 60.2606 134.696 55.9234 0.0330502 3.62953
66400 60.2606 134.709 55.9234 0.0331502 3.65093
66600 60.2606 134.722 55.9234 0.0332502 3.67521
66800 60.2606 134.735 55.9234 0.0333502 3.66429
67000 60.2606 134.748 55.9234 0.0334502 3.7
67200 60.2606 134.761 55.9234 0.0335502 3.68739
67400 60.2606 134.774 55.9234 0.0336502 3.71519
67600 60.2606 134.787 55.9234 0.0337502 3.69768
67800 60.2606 134.8 55.9234 0.0338502 3.75075
68000 60.2606 134.814 55.9234 0.0339502 3.74541
68200 60.2606 134.827 55.9234 0.0340502 3.7627
68400 60.2606 134.84 55.9234 0.0341502 3.76553
68600 60.2606 134.853 55.9234 0.0342502 3.77946
68800 60.2606 134.866 55.9234 0.0343502 3.78492
69000 60.2606 134.879 55.9234 0.0344502 3.79059
69200 60.2606 134.892 55.9234 0.0345502 3.8361
69400 60.2606 134.905 55.9234 0.0346502 3.83721
69600 60.2606 134.918 55.9234 0.0347502 3.81939
69800 60.2606 134.931 55.9234 0.0348502 3.88534
70000 60.2606 134.944 55.9234 0.0349502 3.855
70200 60.2606 134.957 55.9234 0.0350502 3.87981
70400 60.2606 134.97 55.9234 0.0351502 3.88281
70600 60.2606 134.983 55.9234 0.0352502 3.90262
70800 60.2606 134.996 55.9234 0.0353502 3.91963
71000 60.2606 135.009 55.9234 0.0354502 3.93391
71200 60.2606 135.022 55.9234 0.0355502 3.94016
71400 60.2606 135.035 55.9234 0.0356502 3.93086
71600 60.2606 135.048 55.9234 0.0357502 3.97007
71800 60.2606 135.061 55.9234 0.0358502 3.99121
72000 60.2606 135.074 55.9234 0.0359502 3.97769
72200 60.2606 135.087 55.9234 0.0360502 4.0027
72400 60.2606 135.1 55.9234 0.0361502 3.99627
72600 60.2606 135.113 55.9234 0.0362502 4.04827
72800 60.2606 135.126 55.9234 0.0363502 4.01573
73000 60.2606 135.139 55.9234 0.0364502 4.06843
73200 60.2606 135.153 55.9234 0.0365502 4.0522
73400 60.2606 135.166 55.9234 0.0366502 4.07644
73600 60.2606 135.179 55.9234 0.0367502 4.08551
73800 60.2606 135.192 55.9234 0.0368502 4.08566
74000 60.2606 135.205 55.9234 0.0369502 4.1275
74200 60.2606 135.218 55.9234 0.0370502 4.12059
74400 60.2606 135.231 55.9234 0.0371502 4.12686
74600 60.2606 135.244 55.9234 0.0372502 4.15936
74800 60.2606 135.257 55.9234 0.0373502 4.16217
75000 60.2606 135.27 55.9234 0.0374502 4.18809
75200 60.2606 135.283 55.9234 0.0375502 4.17396
75400 60.2606 135.296 55.9234 0.0376502 4.19015
75600 60.2606 135.309 55.9234 0.0377502 4.19666
75800 60.2606 135.322 55.9234 0.0378502 4.23409
76000 60.2606 135.335 55.9234 0.0379502 4.22969
76200 60.2606 135.348 55.9234 0.0380502 4.24443
76400 60.2606 135.361 55.9234 0.0381502 4.24594
76600 60.2606 135.374 55.9234 0.0382502 4.28717
76800 60.2606 135.387 55.9234 0.0383502 4.27679
77000 60.2606 135.4 55.9234 0.0384502 4.27594
77200 60.2606 135.413 55.9234 0.0385502 4.33059
77400 60.2606 135.426 55.9234 0.0386502 4.31611
77600 60.2606 135.439 55.9234 0.0387502 4.32867
77800 60.2606 135.452 55.9234 0.0388502 4.34493
78000 60.2606 135.465 55.9234 0.0389502 4.34827
78200 60.2606 135.479 55.9234 0.0390502 4.37619
78400 60.2606 135.492 55.9234 0.0391502 4.37834
78600 60.2606 135.505 55.9234 0.0392502 4.39067
78800 60.2606 135.518 55.9234 0.0393502 4.4021
79000 60.2606 135.531 55.9234 0.0394502 4.40565
79200 60.2606 135.544 55.9234 0.0395502 4.43307
79400 60.2606 135.557 55.9234 0.0396502 4.44414
79600 60.2606 135.57 55.9234 0.0397502 4.44721
79800 60.2606 135.583 55.9234 0.0398502 4.4881
80000 60.2606 135.596 55.9234 0.0399502 4.47206
80200 60.2606 135.609 55.9234 0.0400502 4.48809
80400 60.2606 135.622 55.9234 0.0401502 4.49434
80600 60.2606 135.635 55.9234 0.0402502 4.54582
80800 60.2606 135.648 55.9234 0.0403502 4.51443
81000 60.2606 135.661 55.9234 0.0404502 4.54679
81200 60.2606 135.674 55.9234 0.0405502 4.54354
81400 60.2606 135.687 55.9234 0.0406502 4.55439
81600 60.2606 135.7 55.9234 0.0407502 4.60762
81800 60.2606 135.713 55.9234 0.0408502 4.57963
82000 60.2606 135.726 55.9234 0.0409502 4.59874
82200 60.2606 135.739 55.9234 0.0410502 4.62839
82400 60.2606 135.752 55.9234 0.0411502 4.62156
82600 60.2606 135.765 55.9234 0.0412502 4.65483
82800 60.2606 135.778 55.9234 0.0413502 4.64914
83000 60.2606 135.791 55.9234 0.0414502 4.66748
83200 60.2606 135.804 55.9234 0.0415502 4.67621
83400 60.2606 135.818 55.9234 0.0416502 4.68117
83600 60.2606 135.831 55.9234 0.0417502 4.71389
83800 60.2606 135.844 55.9234 0.0418502 4.71777
84000 60.2606 135.857 55.9234 0.0419502 4.74956
84200 60.2606 135.87 55.9234 0.0420502 4.72365
84400 60.2606 135.883 55.9234 0.0421502 4.76235
84600 60.2606 135.896 55.9234 0.0422502 4.77501
84800 60.2606 135.909 55.9234 0.0423502 4.77533
85000 60.2606 135.922 55.9234 0.0424502 4.79598
85200 60.2606 135.935 55.9234 0.0425502 4.8005
85400 60.2606 135.948 55.9234 0.0426502 4.81959
85600 60.2606 135.961 55.9234 0.0427502 4.8266
85800 60.2606 135.974 55.9234 0.0428502 4.85622
86000 60.2606 135.987 55.9234 0.0429502 4.85299
86200 60.2606 136 55.9234 0.0430502 4.87162
86400 60.2606 136.013 55.9234 0.0431502 4.88281
86600 60.2606 136.026 55.9234 0.0432502 4.88997
86800 60.2606 136.039 55.9234 0.0433502 4.90315
87000 60.2606 136.052 55.9234 0.0434502 4.93821
87200 60.2606 136.065 55.9234 0.0435502 4.92392
87400 60.2606 136.078 55.9234 0.0436502 4.93165
87600 60.2606 136.091 55.9234 0.0437502 4.97929
87800 60.2606 136.104 55.9234 0.0438502 4.95251
88000 60.2606 136.117 55.9234 0.0439502 4.99524
88200 60.2606 136.13 55.9234 0.0440502 5.00154
88400 60.2606 136.143 55.9234 0.0441502 4.98281
88600 60.2606 136.157 55.9234 0.0442502 5.03435
88800 60.2606 136.17 55.9234 0.0443502 5.03202
89000 60.2606 136.183 55.9234 0.0444502 5.03993
89200 60.2606 136.196 55.9234 0.0445502 5.04895
89400 60.2606 136.209 55.9234 0.0446502 5.08195
89600 60.2606 136.222 55.9234 0.0447502 5.07179
89800 60.2606 136.235 55.9234 0.0448502 5.09229
90000 60.2606 136.248 55.9234 0.0449502 5.10767
90200 60.2606 136.261 55.9234 0.0450502 5.13154
90400 60.2606 136.274 55.9234 0.0451502 5.13153
90600 60.2606 136.287 55.9234 0.0452502 5.13313
90800 60.2606 136.3 55.9234 0.0453502 5.16978
91000 60.2606 136.313 55.9234 0.0454502 5.16804
91200 60.2606 136.326 55.9234 0.0455502 5.18935
91400 60.2606 136.339 55.9234 0.0456502 5.20402
91600 60.2606 136.352 55.9234 0.0457502 5.21135
91800 60.2606 136.365 55.9234 0.0458502 5.22408
92000 60.2606 136.378 55.9234 0.0459502 5.23217
92200 60.2606 136.391 55.9234 0.0460502 5.26174
92400 60.2606 136.404 55.9234 0.0461502 5.24175
92600 60.2606 136.417 55.9234 0.0462502 5.29168
92800 60.2606 136.43 55.9234 0.0463502 5.28133
93000 60.2606 136.443 55.9234 0.0464502 5.30654
93200 60.2606 136.456 55.9234 0.0465502 5.30896
93400 60.2606 136.469 55.9234 0.0466502 5.33782
93600 60.2606 136.482 55.9234 0.0467502 5.32748
93800 60.2606 136.496 55.9234 0.0468502 5.35262
94000 60.2606 136.509 55.9234 0.0469502 5.37053
94200 60.2606 136.522 55.9234 0.0470502 5.38744
94400 60.2606 136.535 55.9234 0.0471502 5.37684
94600 60.2606 136.548 55.9234 0.0472502 5.40159
94800 60.2606 136.561 55.9234 0.0473502 5.42109
95000 60.2606 136.574 55.9234 0.0474502 5.41273
95200 60.2606 136.587 55.9234 0.0475502 5.42371
95400 60.2606 136.6 55.9234 0.0476502 5.45518
95600 60.2606 136.613 55.9234 0.0477502 5.46352
95800 60.2606 136.626 55.9234 0.0478502 5.44582
96000 60.2606 136.639 55.9234 0.0479502 5.49648
96200 60.2606 136.652 55.9234 0.0480502 5.4873
96400 60.2606 136.665 55.9234 0.0481502 5.49954
96600 60.2606 136.678 55.9234 0.0482502 5.52894
96800 60.2606 136.691 55.9234 0.0483502 5.53866
97000 60.2606 136.704 55.9234 0.0484502 5.53414
97200 60.2606 136.717 55.9234 0.0485502 5.56909
97400 60.2606 136.73 55.9234 0.0486502 5.57134
97600 60.2606 136.743 55.9234 0.0487502 5.57349
97800 60.2606 136.756 55.9234 0.0488502 5.59944
98000 60.2606 136.769 55.9234 0.0489502 5.61116
98200 60.2606 136.782 55.9234 0.0490502 5.61625
98400 60.2606 136.795 55.9234 0.0491502 5.63819
98600 60.2606 136.808 55.9234 0.0492502 5.62859
98800 60.2606 136.821 55.9234 0.0493502 5.67778
99000 60.2606 136.835 55.9234 0.0494502 5.65777
99200 60.2606 136.848 55.9234 0.0495502 5.68928
99400 60.2606 136.861 55.9234 0.0496502 5.69385
99600 60.2606 136.874 55.9234 0.0497502 5.72075
99800 60.2606 136.887 55.9234 0.0498502 5.7206
100000 60.2606 136.9 55.9234 0.0499502 5.74215
100200 60.2606 136.913 55.9234 0.0500502 5.74838
100400 60.2606 136.926 55.9234 0.0501502 5.74644
100600 60.2606 136.939 55.9234 0.0502502 5.78073
100800 60.2606 136.952 55.9234 0.0503502 5.77999
101000 60.2606 136.965 55.9234 0.0504502 5.8128
101200 60.2606 136.978 55.9234 0.0505502 5.80958
101400 60.2606 136.991 55.9234 0.0506502 5.82423
101600 60.2606 137.004 55.9234 0.0507502 5.84515
101800 60.2606 137.017 55.9234 0.0508502 5.85212
102000 60.2606 137.03 55.9234 0.0509502 5.85412
102200 60.2606 137.043 55.9234 0.0510502 5.88262
102400 60.2606 137.056 55.9234 0.0511502 5.89342
102600 60.2606 137.069 55.9234 0.0512502 5.90821
102800 60.2606 137.082 55.9234 0.0513502 5.92053
103000 60.2606 137.095 55.9234 0.0514502 5.90462
103200 60.2606 137.108 55.9234 0.0515502 5.95705
103400 60.2606 137.121 55.9234 0.0516502 5.96721
103600 60.2606 137.134 55.9234 0.0517502 5.95301
103800 60.2606 137.147 55.9234 0.0518502 5.98954
104000 60.2606 137.16 55.9234 0.0519502 5.9852
104200 60.2606 137.174 55.9234 0.0520502 6.02107
104400 60.2606 137.187 55.9234 0.0521502 6.02604
104600 60.2606 137.2 55.9234 0.0522502 6.02656
104800 60.2606 137.213 55.9234 0.0523502 6.05045
105000 60.2606 137.226 55.9234 0.0524502 6.06852
105200 60.2606 137.239 55.9234 0.0525502 6.0721
105400 60.2606 137.252 55.9234 0.0526502 6.08092
105600 60.2606 137.265 55.9234 0.0527502 6.09921
105800 60.2606 137.278 55.9234 0.0528502 6.12072
106000 60.2606 137.291 55.9234 0.0529502 6.1237
106200 60.2606 137.304 55.9234 0.0530502 6.13586
106400 60.2606 137.317 55.9234 0.0531502 6.1638
106600 60.2606 137.33 55.9234 0.0532502 6.16052
106800 60.2606 137.343 55.9234 0.0533502 6.16649
107000 60.2606 137.356 55.9234 0.0534502 6.19481
107200 60.2606 137.369 55.9234 0.0535502 6.20733
107400 60.2606 137.382 55.9234 0.0536502 6.20081
107600 60.2606 137.395 55.9234 0.0537502 6.21583
107800 60.2606 137.408 55.9234 0.0538502 6.25621
108000 60.2606 137.421 55.9234 0.0539502 6.25999
108200 60.2606 137.434 55.9234 0.0540502 6.2702
108400 60.2606 137.447 55.9234 0.0541502 6.26058
108600 60.2606 137.46 55.9234 0.0542502 6.27777
108800 60.2606 137.473 55.9234 0.0543502 6.31018
109000 60.2606 137.486 55.9234 0.0544502 6.29569
109200 60.2606 137.499 55.9234 0.0545502 6.32597
109400 60.2606 137.513 55.9234 0.0546502 6.32795
109600 60.2606 137.526 55.9234 0.0547502 6.35697
109800 60.2606 137.539 55.9234 0.0548502 6.33111
110000 60.2606 137.552 55.9234 0.0549502 6.37814
110200 60.2606 137.565 55.9234 0.0550502 6.38748
110400 60.2606 137.578 55.9234 0.0551502 6.39517
110600 60.2606 137.591 55.9234 0.0552502 6.42113
110800 60.2606 137.604 55.9234 0.0553502 6.40137
111000 60.2606 137.617 55.9234 0.0554502 6.46017
111200 60.2606 137.63 55.9234 0.0555502 6.44107
111400 60.2606 137.643 55.9234 0.0556502 6.4557
111600 60.2606 137.656 55.9234 0.0557502 6.49226
111800 60.2606 137.669 55.9234 0.0558502 6.48235
112000 60.2606 137.682 55.9234 0.0559502 6.51935
112200 60.2606 137.695 55.9234 0.0560502 6.51897
112400 60.2606 137.708 55.9234 0.0561502 6.5178
112600 60.2606 137.721 55.9234 0.0562502 6.54904
112800 60.2606 137.734 55.9234 0.0563502 6.57463
113000 60.2606 137.747 55.9234 0.0564502 6.56188
113200 60.2606 137.76 55.9234 0.0565502 6.57846
113400 60.2606 137.773 55.9234 0.0566502 6.61145
113600 60.2606 137.786 55.9234 0.0567502 6.59632
113800 60.2606 137.799 55.9234 0.0568502 6.6367
114000 60.2606 137.812 55.9234 0.0569502 6.63155
114200 60.2606 137.825 55.9234 0.0570502 6.64902
114400 60.2606 137.839 55.9234 0.0571502 6.66887
114600 60.2606 137.852 55.9234 0.0572502 6.67388
114800 60.2606 137.865 55.9234 0.0573502 6.68016
115000 60.2606 137.878 55.9234 0.0574502 6.70057
115200 60.2606 137.891 55.9234 0.0575502 6.70456
115400 60.2606 137.904 55.9234 0.0576502 6.73856
115600 60.2606 137.917 55.9234 0.0577502 6.73549
115800 60.2606 137.93 55.9234 0.0578502 6.76339
116000 60.2606 137.943 55.9234 0.0579502 6.76673
116200 60.2606 137.956 55.9234 0.0580502 6.75338
116400 60.2606 137.969 55.9234 0.0581502 6.81492
116600 60.2606 137.982 55.9234 0.0582502 6.79649
116800 60.2606 137.995 55.9234 0.0583502 6.80166
117000 60.2606 138.008 55.9234 0.0584502 6.85439
117200 60.2606 138.021 55.9234 0.0585502 6.84622
117400 60.2606 138.034 55.9234 0.0586502 6.84117
117600 60.2606 138.047 55.9234 0.0587502 6.86977
117800 60.2606 138.06 55.9234 0.0588502 6.89757
118000 60.2606 138.073 55.9234 0.0589502 6.88328
118200 60.2606 138.086 55.9234 0.0590502 6.91602
118400 60.2606 138.099 55.9234 0.0591502 6.9206
118600 60.2606 138.112 55.9234 0.0592502 6.95862
118800 60.2606 138.125 55.9234 0.0593502 6.94444
119000 60.2606 138.138 55.9234 0.0594502 6.96164
119200 60.2606 138.151 55.9234 0.0595502 6.97454
119400 60.2606 138.164 55.9234 0.0596502 6.9993
119600 60.2606 138.178 55.9234 0.0597502 7.00205
119800 60.2606 138.191 55.9234 0.0598502 7.02427
120000 60.2606 138.204 55.9234 0.0599502 7.02945
120200 60.2606 138.217 55.9234 0.0600502 7.04427
120400 60.2606 138.23 55.9234 0.0601502 7.05598
120600 60.2606 138.243 55.9234 0.0602502 7.0622
120800 60.2606 138.256 55.9234 0.0603502 7.083
121000 60.2606 138.269 55.9234 0.0604502 7.10121
121200 60.2606 138.282 55.9234 0.0605502 7.10992
121400 60.2606 138.295 55.9234 0.0606502 7.1313
121600 60.2606 138.308 55.9234 0.0607502 7.13556
121800 60.2606 138.321 55.9234 0.0608502 7.14966
122000 60.2606 138.334 55.9234 0.0609502 7.17135
122200 60.2606 138.347 55.9234 0.0610502 7.17545
122400 60.2606 138.36 55.9234 0.0611502 7.18922
122600 60.2606 138.373 55.9234 0.0612502 7.21099
122800 60.2606 138.386 55.9234 0.0613502 7.21812
123000 60.2606 138.399 55.9234 0.0614502 7.22842
123200 60.2606 138.412 55.9234 0.0615502 7.24161
123400 60.2606 138.425 55.9234 0.0616502 7.25376
123600 60.2606 138.438 55.9234 0.0617502 7.276
123800 60.2606 138.451 55.9234 0.0618502 7.28288
124000 60.2606 138.464 55.9234 0.0619502 7.30224
124200 60.2606 138.477 55.9234 0.0620502 7.30996
124400 60.2606 138.49 55.9234 0.0621502 7.31931
124600 60.2606 138.503 55.9234 0.0622502 7.32763
124800 60.2606 138.517 55.9234 0.0623502 7.35954
125000 60.2606 138.53 55.9234 0.0624502 7.36978
125200 60.2606 138.543 55.9234 0.0625502 7.38072
125400 60.2606 138.556 55.9234 0.0626502 7.38456
125600 60.2606 138.569 55.9234 0.0627502 7.40412
125800 60.2606 138.582 55.9234 0.0628502 7.41259
126000 60.2606 138.595 55.9234 0.0629502 7.44146
126200 60.2606 138.608 55.9234 0.0630502 7.4354
126400 60.2606 138.621 55.9234 0.0631502 7.4741
126600 60.2606 138.634 55.9234 0.0632502 7.46048
126800 60.2606 138.647 55.9234 0.0633502 7.49525
127000 60.2606 138.66 55.9234 0.0634502 7.48609
127200 60.2606 138.673 55.9234 0.0635502 7.49949
127400 60.2606 138.686 55.9234 0.0636502 7.54464
127600 60.2606 138.699 55.9234 0.0637502 7.52561
127800 60.2606 138.712 55.9234 0.0638502 7.55509
128000 60.2606 138.725 55.9234 0.0639502 7.56846
128200 60.2606 138.738 55.9234 0.0640502 7.59225
128400 60.2606 138.751 55.9234 0.0641502 7.57655
128600 60.2606 138.764 55.9234 0.0642502 7.62273
128800 60.2606 138.777 55.9234 0.0643502 7.60888
129000 60.2606 138.79 55.9234 0.0644502 7.62148
129200 60.2606 138.803 55.9234 0.0645502 7.66443
129400 60.2606 138.816 55.9234 0.0646502 7.65048
129600 60.2606 138.829 55.9234 0.0647502 7.6884
129800 60.2606 138.842 55.9234 0.0648502 7.68443
130000 60.2606 138.856 55.9234 0.0649502 7.67829
130200 60.2606 138.869 55.9234 0.0650502 7.71946
130400 60.2606 138.882 55.9234 0.0651502 7.72643
130600 60.2606 138.895 55.9234 0.0652502 7.74166
130800 60.2606 138.908 55.9234 0.0653502 7.75122
131000 60.2606 138.921 55.9234 0.0654502 7.76434
131200 60.2606 138.934 55.9234 0.0655502 7.7853
131400 60.2606 138.947 55.9234 0.0656502 7.80189
131600 60.2606 138.96 55.9234 0.0657502 7.80768
131800 60.2606 138.973 55.9234 0.0658502 7.80698
132000 60.2606 138.986 55.9234 0.0659502 7.84417
132200 60.2606 138.999 55.9234 0.0660502 7.8552
132400 60.2606 139.012 55.9234 0.0661502 7.86431
132600 60.2606 139.025 55.9234 0.0662502 7.86594
132800 60.2606 139.038 55.9234 0.0663502 7.90048
133000 60.2606 139.051 55.9234 0.0664502 7.90089
133200 60.2606 139.064 55.9234 0.0665502 7.91544
133400 60.2606 139.077 55.9234 0.0666502 7.93718
133600 60.2606 139.09 55.9234 0.0667502 7.93444
133800 60.2606 139.103 55.9234 0.0668502 7.9595
134000 60.2606 139.116 55.9234 0.0669502 7.96913
134200 60.2606 139.129 55.9234 0.0670502 7.99052
134400 60.2606 139.142 55.9234 0.0671502 7.99837
134600 60.2606 139.155 55.9234 0.0672502 8.00684
134800 60.2606 139.168 55.9234 0.0673502 8.03623
135000 60.2606 139.181 55.9234 0.0674502 8.02974
135200 60.2606 139.195 55.9234 0.0675502 8.05634
135400 60.2606 139.208 55.9234 0.0676502 8.06846
135600 60.2606 139.221 55.9234 0.0677502 8.07561
135800 60.2606 139.234 55.9234 0.0678502 8.10131
136000 60.2606 139.247 55.9234 0.0679502 8.08723
136200 60.2606 139.26 55.9234 0.0680502 8.12979
136400 60.2606 139.273 55.9234 0.0681502 8.13434
136600 60.2606 139.286 55.9234 0.0682502 8.13472
136800 60.2606 139.299 55.9234 0.0683502 8.17822
137000 60.2606 139.312 55.9234 0.0684502 8.16903
137200 60.2606 139.325 55.9234 0.0685502 8.18857
137400 60.2606 139.338 55.9234 0.0686502 8.19377
137600 60.2606 139.351 55.9234 0.0687502 8.2195
137800 60.2606 139.364 55.9234 0.0688502 8.23685
138000 60.2606 139.377 55.9234 0.0689502 8.23042
138200 60.2606 139.39 55.9234 0.0690502 8.25284
138400 60.2606 139.403 55.9234 0.0691502 8.2652
138600 60.2606 139.416 55.9234 0.0692502 8.29242
138800 60.2606 139.429 55.9234 0.0693502 8.28367
139000 60.2606 139.442 55.9234 0.0694502 8.32558
139200 60.2606 139.455 55.9234 0.0695502 8.3177
139400 60.2606 139.468 55.9234 0.0696502 8.32451
139600 60.2606 139.481 55.9234 0.0697502 8.34503
139800 60.2606 139.494 55.9234 0.0698502 8.36106
140000 60.2606 139.507 55.9234 0.0699502 8.36198
140200 60.2606 139.52 55.9234 0.0700502 8.37289
140400 60.2606 139.534 55.9234 0.0701502 8.38929
140600 60.2606 139.547 55.9234 0.0702502 8.41175
140800 60.2606 139.56 55.9234 0.0703502 8.41875
141000 60.2606 139.573 55.9234 0.0704502 8.42916
141200 60.2606 139.586 55.9234 0.0705502 8.44397
141400 60.2606 139.599 55.9234 0.0706502 8.46663
141600 60.2606 139.612 55.9234 0.0707502 8.48496
141800 60.2606 139.625 55.9234 0.0708502 8.47561
142000 60.2606 139.638 55.9234 0.0709502 8.5041
142200 60.2606 139.651 55.9234 0.0710502 8.51974
142400 60.2606 139.664 55.9234 0.0711502 8.52669
142600 60.2606 139.677 55.9234 0.0712502 8.54352
142800 60.2606 139.69 55.9234 0.0713502 8.55474
143000 60.2606 139.703 55.9234 0.0714502 8.56935
143200 60.2606 139.716 55.9234 0.0715502 8.57653
143400 60.2606 139.729 55.9234 0.0716502 8.58314
143600 60.2606 139.742 55.9234 0.0717502 8.62131
143800 60.2606 139.755 55.9234 0.0718502 8.61353
144000 60.2606 139.768 55.9234 0.0719502 8.63035
144200 60.2606 139.781 55.9234 0.0720502 8.6662
144400 60.2606 139.794 55.9234 0.0721502 8.65728
144600 60.2606 139.807 55.9234 0.0722502 8.67609
144800 60.2606 139.82 55.9234 0.0723502 8.69726
145000 60.2606 139.833 55.9234 0.0724502 8.69046
145200 60.2606 139.846 55.9234 0.0725502 8.71895
145400 60.2606 139.859 55.9234 0.0726502 8.72233
145600 60.2606 139.873 55.9234 0.0727502 8.7533
145800 60.2606 139.886 55.9234 0.0728502 8.74813
146000 60.2606 139.899 55.9234 0.0729502 8.7735
146200 60.2606 139.912 55.9234 0.0730502 8.78249
146400 60.2606 139.925 55.9234 0.0731502 8.80118
146600 60.2606 139.938 55.9234 0.0732502 8.80824
146800 60.2606 139.951 55.9234 0.0733502 8.82597
147000 60.2606 139.964 55.9234 0.0734502 8.83841
147200 60.2606 139.977 55.9234 0.0735502 8.85106
147400 60.2606 139.99 55.9234 0.0736502 8.8645
147600 60.2606 140.003 55.9234 0.0737502 8.87946
147800 60.2606 140.016 55.9234 0.0738502 8.8999
148000 60.2606 140.029 55.9234 0.0739502 8.89464
148200 60.2606 140.042 55.9234 0.0740502 8.931
148400 60.2606 140.055 55.9234 0.0741502 8.93185
148600 60.2606 140.068 55.9234 0.0742502 8.94157
148800 60.2606 140.081 55.9234 0.0743502 8.96068
149000 60.2606 140.094 55.9234 0.0744502 8.97811
149200 60.2606 140.107 55.9234 0.0745502 8.98537
149400 60.2606 140.12 55.9234 0.0746502 9.02321
149600 60.2606 140.133 55.9234 0.0747502 8.99016
149800 60.2606 140.146 55.9234 0.0748502 9.04428
150000 60.2606 140.159 55.9234 0.0749502 9.03697
150200 60.2606 140.172 55.9234 0.0750502 9.05954
150400 60.2606 140.185 55.9234 0.0751502 9.06381
150600 60.2606 140.199 55.9234 0.0752502 9.09546
150800 60.2606 140.212 55.9234 0.0753502 9.09693
151000 60.2606 140.225 55.9234 0.0754502 9.11281
151200 60.2606 140.238 55.9234 0.0755502 9.10868
151400 60.2606 140.251 55.9234 0.0756502 9.16243
151600 60.2606 140.264 55.9234 0.0757502 9.13328
151800 60.2606 140.277 55.9234 0.0758502 9.17571
152000 60.2606 140.29 55.9234 0.0759502 9.18726
152200 60.2606 140.303 55.9234 0.0760502 9.18999
152400 60.2606 140.316 55.9234 0.0761502 9.20774
152600 60.2606 140.329 55.9234 0.0762502 9.2243
152800 60.2606 140.342 55.9234 0.0763502 9.23628
153000 60.2606 140.355 55.9234 0.0764502 9.2552
153200 60.2606 140.368 55.9234 0.0765502 9.25332
153400 60.2606 140.381 55.9234 0.0766502 9.28523
153600 60.2606 140.394 55.9234 0.0767502 9.28294
153800 60.2606 140.407 55.9234 0.0768502 9.32534
154000 60.2606 140.42 55.9234 0.0769502 9.30986
154200 60.2606 140.433 55.9234 0.0770502 9.33626
154400 60.2606 140.446 55.9234 0.0771502 9.34643
154600 60.2606 140.459 55.9234 0.0772502 9.37016
154800 60.2606 140.472 55.9234 0.0773502 9.36974
155000 60.2606 140.485 55.9234 0.0774502 9.39146
155200 60.2606 140.498 55.9234 0.0775502 9.38921
155400 60.2606 140.511 55.9234 0.0776502 9.43177
155600 60.2606 140.524 55.9234 0.0777502 9.4171
155800 60.2606 140.538 55.9234 0.0778502 9.44794
156000 60.2606 140.551 55.9234 0.0779502 9.45264
156200 60.2606 140.564 55.9234 0.0780502 9.4611
156400 60.2606 140.577 55.9234 0.0781502 9.46746
156600 60.2606 140.59 55.9234 0.0782502 9.49198
156800 60.2606 140.603 55.9234 0.0783502 9.49433
157000 60.2606 140.616 55.9234 0.0784502 9.53911
157200 60.2606 140.629 55.9234 0.0785502 9.51454
157400 60.2606 140.642 55.9234 0.0786502 9.55197
157600 60.2606 140.655 55.9234 0.0787502 9.57192
157800 60.2606 140.668 55.9234 0.0788502 9.55477
158000 60.2606 140.681 55.9234 0.0789502 9.57673
158200 60.2606 140.694 55.9234 0.0790502 9.61198
158400 60.2606 140.707 55.9234 0.0791502 9.59916
158600 60.2606 140.72 55.9234 0.0792502 9.64142
158800 60.2606 140.733 55.9234 0.0793502 9.6127
159000 60.2606 140.746 55.9234 0.0794502 9.66226
159200 60.2606 140.759 55.9234 0.0795502 9.65677
159400 60.2606 140.772 55.9234 0.0796502 9.69119
159600 60.2606 140.785 55.9234 0.0797502 9.68463
159800 60.2606 140.798 55.9234 0.0798502 9.71638
160000 60.2606 140.811 55.9234 0.0799502 9.70178
160200 60.2606 140.824 55.9234 0.0800502 9.75474
160400 60.2606 140.837 55.9234 0.0801502 9.73625
160600 60.2606 140.85 55.9234 0.0802502 9.77174
160800 60.2606 140.863 55.9234 0.0803502 9.76507
161000 60.2606 140.877 55.9234 0.0804502 9.79
161200 60.2606 140.89 55.9234 0.0805502 9.80065
161400 60.2606 140.903 55.9234 0.0806502 9.80727
161600 60.2606 140.916 55.9234 0.0807502 9.84206
161800 60.2606 140.929 55.9234 0.0808502 9.83185
162000 60.2606 140.942 55.9234 0.0809502 9.86476
162200 60.2606 140.955 55.9234 0.0810502 9.8737
162400 60.2606 140.968 55.9234 0.0811502 9.88383
162600 60.2606 140.981 55.9234 0.0812502 9.90752
162800 60.2606 140.994 55.9234 0.0813502 9.9007
163000 60.2606 141.007 55.9234 0.0814502 9.93549
163200 60.2606 141.02 55.9234 0.0815502 9.93554
163400 60.2606 141.033 55.9234 0.0816502 9.95849
163600 60.2606 141.046 55.9234 0.0817502 9.96502
163800 60.2606 141.059 55.9234 0.0818502 9.98135
164000 60.2606 141.072 55.9234 0.0819502 9.98478
164200 60.2606 141.085 55.9234 0.0820502 10.0273
164400 60.2606 141.098 55.9234 0.0821502 10.0195
164600 60.2606 141.111 55.9234 0.0822502 10.0362
164800 60.2606 141.124 55.9234 0.0823502 10.0569
165000 60.2606 141.137 55.9234 0.0824502 10.071
165200 60.2606 141.15 55.9234 0.0825502 10.0874
165400 60.2606 141.163 55.9234 0.0826502 10.0782
165600 60.2606 141.176 55.9234 0.0827502 10.119
165800 60.2606 141.189 55.9234 0.0828502 10.1196
166000 60.2606 141.202 55.9234 0.0829502 10.1512
166200 60.2606 141.216 55.9234 0.0830502 10.1408
166400 60.2606 141.229 55.9234 0.0831502 10.177
166600 60.2606 141.242 55.9234 0.0832502 10.1733
166800 60.2606 141.255 55.9234 0.0833502 10.1963
167000 60.2606 141.268 55.9234 0.0834502 10.2029
167200 60.2606 141.281 55.9234 0.0835502 10.2204
167400 60.2606 141.294 55.9234 0.0836502 10.2382
167600 60.2606 141.307 55.9234 0.0837502 10.2411
167800 60.2606 141.32 55.9234 0.0838502 10.261
168000 60.2606 141.333 55.9234 0.0839502 10.2729
168200 60.2606 141.346 55.9234 0.0840502 10.2849
168400 60.2606 141.359 55.9234 0.0841502 10.3014
168600 60.2606 141.372 55.9234 0.0842502 10.2967
168800 60.2606 141.385 55.9234 0.0843502 10.347
169000 60.2606 141.398 55.9234 0.0844502 10.3422
169200 60.2606 141.411 55.9234 0.0845502 10.36
169400 60.2606 141.424 55.9234 0.0846502 10.3636
169600 60.2606 141.437 55.9234 0.0847502 10.406
169800 60.2606 141.45 55.9234 0.0848502 10.3772
170000 60.2606 141.463 55.9234 0.0849502 10.4196
170200 60.2606 141.476 55.9234 0.0850502 10.4207
170400 60.2606 141.489 55.9234 0.0851502 10.4417
170600 60.2606 141.502 55.9234 0.0852502 10.4445
170800 60.2606 141.515 55.9234 0.0853502 10.4551
171000 60.2606 141.528 55.9234 0.0854502 10.4737
171200 60.2606 141.541 55.9234 0.0855502 10.4651
171400 60.2606 141.555 55.9234 0.0856502 10.4806
171600 60.2606 141.568 55.9234 0.0857502 10.5064
171800 60.2606 141.581 55.9234 0.0858502 10.5098
172000 60.2606 141.594 55.9234 0.0859502 10.5306
172200 60.2606 141.607 55.9234 0.0860502 10.5345
172400 60.2606 141.62 55.9234 0.0861502 10.5611
172600 60.2606 141.633 55.9234 0.0862502 10.5759
172800 60.2606 141.646 55.9234 0.0863502 10.5673
173000 60.2606 141.659 55.9234 0.0864502 10.5993
173200 60.2606 141.672 55.9234 0.0865502 10.6097
173400 60.2606 141.685 55.9234 0.0866502 10.6217
173600 60.2606 141.698 55.9234 0.0867502 10.6299
173800 60.2606 141.711 55.9234 0.0868502 10.6595
174000 60.2606 141.724 55.9234 0.0869502 10.6594
174200 60.2606 141.737 55.9234 0.0870502 10.6838
174400 60.2606 141.75 55.9234 0.0871502 10.692
174600 60.2606 141.763 55.9234 0.0872502 10.7036
174800 60.2606 141.776 55.9234 0.0873502 10.7253
175000 60.2606 141.789 55.9234 0.0874502 10.7506
175200 60.2606 141.802 55.9234 0.0875502 10.7343
175400 60.2606 141.815 55.9234 0.0876502 10.7727
175600 60.2606 141.828 55.9234 0.0877502 10.7725
175800 60.2606 141.841 55.9234 0.0878502 10.7888
176000 60.2606 141.854 55.9234 0.0879502 10.8028
176200 60.2606 141.867 55.9234 0.0880502 10.8386
176400 60.2606 141.88 55.9234 0.0881502 10.8154
176600 60.2606 141.894 55.9234 0.0882502 10.8636
176800 60.2606 141.907 55.9234 0.0883502 10.8699
177000 60.2606 141.92 55.9234 0.0884502 10.8565
177200 60.2606 141.933 55.9234 0.0885502 10.9147
177400 60.2606 141.946 55.9234 0.0886502 10.9022
177600 60.2606 141.959 55.9234 0.0887502 10.9131
177800 60.2606 141.972 55.9234 0.0888502 10.9417
178000 60.2606 141.985 55.9234 0.0889502 10.936
178200 60.2606 141.998 55.9234 0.0890502 10.9631
178400 60.2606 142.011 55.9234 0.0891502 10.9825
178600 60.2606 142.024 55.9234 0.0892502 10.9848
178800 60.2606 142.037 55.9234 0.0893502 11.0017
179000 60.2606 142.05 55.9234 0.0894502 11.0141
179200 60.2606 142.063 55.9234 0.0895502 11.0325
179400 60.2606 142.076 55.9234 0.0896502 11.0507
179600 60.2606 142.089 55.9234 0.0897502 11.0594
179800 60.2606 142.102 55.9234 0.0898502 11.0699
180000 60.2606 142.115 55.9234 0.0899502 11.092
180200 60.2606 142.128 55.9234 0.0900502 11.0994
180400 60.2606 142.141 55.9234 0.0901502 11.1088
180600 60.2606 142.154 55.9234 0.0902502 11.1234
180800 60.2606 142.167 55.9234 0.0903502 11.1474
181000 60.2606 142.18 55.9234 0.0904502 11.1512
181200 60.2606 142.193 55.9234 0.0905502 11.176
181400 60.2606 142.206 55.9234 0.0906502 11.1879
181600 60.2606 142.22 55.9234 0.0907502 11.1905
181800 60.2606 142.233 55.9234 0.0908502 11.2246
182000 60.2606 142.246 55.9234 0.0909502 11.2123
182200 60.2606 142.259 55.9234 0.0910502 11.2372
182400 60.2606 142.272 55.9234 0.0911502 11.2478
182600 60.2606 142.285 55.9234 0.0912502 11.2462
182800 60.2606 142.298 55.9234 0.0913502 11.2553
183000 60.2606 142.311 55.9234 0.0914502 11.2623
183200 60.2606 142.324 55.9234 0.0915502 11.2758
183400 60.2606 142.337 55.9234 0.0916502 11.308
183600 60.2606 142.35 55.9234 0.0917502 11.3153
183800 60.2606 142.363 55.9234 0.0918502 11.3077
184000 60.2606 142.376 55.9234 0.0919502 11.3543
184200 60.2606 142.389 55.9234 0.0920502 11.3507
184400 60.2606 142.402 55.9234 0.0921502 11.3707
184600 60.2606 142.415 55.9234 0.0922502 11.3872
184800 60.2606 142.428 55.9234 0.0923502 11.3863
185000 60.2606 142.441 55.9234 0.0924502 11.4134
185200 60.2606 142.454 55.9234 0.0925502 11.4232
185400 60.2606 142.467 55.9234 0.0926502 11.4501
185600 60.2606 142.48 55.9234 0.0927502 11.4477
185800 60.2606 142.493 55.9234 0.0928502 11.4559
186000 60.2606 142.506 55.9234 0.0929502 11.4972
186200 60.2606 142.519 55.9234 0.0930502 11.4858
186400 60.2606 142.532 55.9234 0.0931502 11.4862
186600 60.2606 142.545 55.9234 0.0932502 11.5032
186800 60.2606 142.559 55.9234 0.0933502 11.4953
187000 60.2606 142.572 55.9234 0.0934502 11.5397
187200 60.2606 142.585 55.9234 0.0935502 11.5361
187400 60.2606 142.598 55.9234 0.0936502 11.5492
187600 60.2606 142.611 55.9234 0.0937502 11.5734
187800 60.2606 142.624 55.9234 0.0938502 11.5726
188000 60.2606 142.637 55.9234 0.0939502 11.6072
188200 60.2606 142.65 55.9234 0.0940502 11.595
188400 60.2606 142.663 55.9234 0.0941502 11.6343
188600 60.2606 142.676 55.9234 0.0942502 11.6223
188800 60.2606 142.689 55.9234 0.0943502 11.6548
189000 60.2606 142.702 55.9234 0.0944502 11.6639
189200 60.2606 142.715 55.9234 0.0945502 11.6772
189400 60.2606 142.728 55.9234 0.0946502 11.7029
189600 60.2606 142.741 55.9234 0.0947502 11.7009
189800 60.2606 142.754 55.9234 0.0948502 11.7288
190000 60.2606 142.767 55.9234 0.0949502 11.705
190200 60.2606 142.78 55.9234 0.0950502 11.7589
190400 60.2606 142.793 55.9234 0.0951502 11.7736
190600 60.2606 142.806 55.9234 0.0952502 11.7712
190800 60.2606 142.819 55.9234 0.0953502 11.7834
191000 60.2606 142.832 55.9234 0.0954502 11.8109
191200 60.2606 142.845 55.9234 0.0955502 11.8052
191400 60.2606 142.858 55.9234 0.0956502 11.8388
191600 60.2606 142.871 55.9234 0.0957502 11.8386
191800 60.2606 142.884 55.9234 0.0958502 11.8565
192000 60.2606 142.898 55.9234 0.0959502 11.8723
192200 60.2606 142.911 55.9234 0.0960502 11.8945
192400 60.2606 142.924 55.9234 0.0961502 11.8949
192600 60.2606 142.937 55.9234 0.0962502 11.9026
192800 60.2606 142.95 55.9234 0.0963502 11.9299
193000 60.2606 142.963 55.9234 0.0964502 11.9358
193200 60.2606 142.976 55.9234 0.0965502 11.9227
193400 60.2606 142.989 55.9234 0.0966502 11.9688
193600 60.2606 143.002 55.9234 0.0967502 11.9626
193800 60.2606 143.015 55.9234 0.0968502 11.9622
194000 60.2606 143.028 55.9234 0.0969502 11.997
194200 60.2606 143.041 55.9234 0.0970502 11.9963
194400 60.2606 143.054 55.9234 0.0971502 12.0199
194600 60.2606 143.067 55.9234 0.0972502 12.0242
194800 60.2606 143.08 55.9234 0.0973502 12.0369
195000 60.2606 143.093 55.9234 0.0974502 12.062
195200 60.2606 143.106 55.9234 0.0975502 12.0599
195400 60.2606 143.119 55.9234 0.0976502 12.0888
195600 60.2606 143.132 55.9234 0.0977502 12.113
195800 60.2606 143.145 55.9234 0.0978502 12.1026
196000 60.2606 143.158 55.9234 0.0979502 12.1336
196200 60.2606 143.171 55.9234 0.0980502 12.1314
196400 60.2606 143.184 55.9234 0.0981502 12.1489
196600 60.2606 143.197 55.9234 0.0982502 12.1801
196800 60.2606 143.21 55.9234 0.0983502 12.1873
197000 60.2606 143.223 55.9234 0.0984502 12.1917
197200 60.2606 143.237 55.9234 0.0985502 12.2218
197400 60.2606 143.25 55.9234 0.0986502 12.2225
197600 60.2606 143.263 55.9234 0.0987502 12.2434
197800 60.2606 143.276 55.9234 0.0988502 12.2544
198000 60.2606 143.289 55.9234 0.0989502 12.2734
198200 60.2606 143.302 55.9234 0.0990502 12.2876
198400 60.2606 143.315 55.9234 0.0991502 12.2913
198600 60.2606 143.328 55.9234 0.0992502 12.3081
198800 60.2606 143.341 55.9234 0.0993502 12.316
199000 60.2606 143.354 55.9234 0.0994502 12.3476
199200 60.2606 143.367 55.9234 0.0995502 12.3519
199400 60.2606 143.38 55.9234 0.0996502 12.3742
199600 60.2606 143.393 55.9234 0.0997502 12.3745
199800 60.2606 143.406 55.9234 0.0998502 12.3994
200000 60.2606 143.419 55.9234 0.0999502 12.4126
200200 60.2606 143.432 55.9234 0.10005 12.4235
200400 60.2606 143.445 55.9234 0.10015 12.4533
200600 60.2606 143.458 55.9234 0.10025 12.4361
200800 60.2606 143.471 55.9234 0.10035 12.4611
201000 60.2606 143.484 55.9234 0.10045 12.4707
201200 60.2606 143.497 55.9234 0.10055 12.4947
201400 60.2606 143.51 55.9234 0.10065 12.4965
201600 60.2606 143.523 55.9234 0.10075 12.5126
201800 60.2606 143.536 55.9234 0.10085 12.517
202000 60.2606 143.549 55.9234 0.10095 12.5429
202200 60.2606 143.562 55.9234 0.10105 12.5417
202400 60.2606 143.576 55.9234 0.10115 12.563
202600 60.2606 143.589 55.9234 0.10125 12.5759
202800 60.2606 143.602 55.9234 0.10135 12.5768
203000 60.2606 143.615 55.9234 0.10145 12.6139
203200 60.2606 143.628 55.9234 0.10155 12.6103
203400 60.2606 143.641 55.9234 0.10165 12.6384
203600 60.2606 143.654 55.9234 0.10175 12.6357
203800 60.2606 143.667 55.9234 0.10185 12.6485
204000 60.2606 143.68 55.9234 0.10195 12.6443
204200 60.2606 143.693 55.9234 0.10205 12.6684
204400 60.2606 143.706 55.9234 0.10215 12.6686
204600 60.2606 143.719 55.9234 0.10225 12.6789
204800 60.2606 143.732 55.9234 0.10235 12.6752
205000 60.2606 143.745 55.9234 0.10245 12.7035
205200 60.2606 143.758 55.9234 0.10255 12.7055
205400 60.2606 143.771 55.9234 0.10265 12.7102
205600 60.2606 143.784 55.9234 0.10275 12.7353
205800 60.2606 143.797 55.9234 0.10285 12.7482
206000 60.2606 143.81 55.9234 0.10295 12.7419
206200 60.2606 143.823 55.9234 0.10305 12.7845
206400 60.2606 143.836 55.9234 0.10315 12.7856
206600 60.2606 143.849 55.9234 0.10325 12.7842
206800 60.2606 143.862 55.9234 0.10335 12.7989
207000 60.2606 143.875 55.9234 0.10345 12.7914
207200 60.2606 143.888 55.9234 0.10355 12.8329
207400 60.2606 143.901 55.9234 0.10365 12.8235
207600 60.2606 143.915 55.9234 0.10375 12.8248
207800 60.2606 143.928 55.9234 0.10385 12.8413
208000 60.2606 143.941 55.9234 0.10395 12.8591
208200 60.2606 143.954 55.9234 0.10405 12.8231
208400 60.2606 143.967 55.9234 0.10415 12.8783
208600 60.2606 143.98 55.9234 0.10425 12.8688
208800 60.2606 143.993 55.9234 0.10435 12.8957
209000 60.2606 144.006 55.9234 0.10445 12.9118
209200 60.2606 144.019 55.9234 0.10455 12.9169
209400 60.2606 144.032 55.9234 0.10465 12.9286
209600 60.2606 144.045 55.9234 0.10475 12.9409
209800 60.2606 144.058 55.9234 0.10485 12.9587
210000 60.2606 144.071 55.9234 0.10495 12.9734
210200 60.2606 144.084 55.9234 0.10505 12.9989
210400 60.2606 144.097 55.9234 0.10515 12.9971
210600 60.2606 144.11 55.9234 0.10525 13.018
210800 60.2606 144.123 55.9234 0.10535 13.031
211000 60.2606 144.136 55.9234 0.10545 13.0303
211200 60.2606 144.149 55.9234 0.10555 13.0449
211400 60.2606 144.162 55.9234 0.10565 13.0415
211600 60.2606 144.175 55.9234 0.10575 13.0842
211800 60.2606 144.188 55.9234 0.10585 13.0716
212000 60.2606 144.201 55.9234 0.10595 13.1077
212200 60.2606 144.214 55.9234 0.10605 13.1079
212400 60.2606 144.227 55.9234 0.10615 13.1185
212600 60.2606 144.24 55.9234 0.10625 13.1445
212800 60.2606 144.254 55.9234 0.10635 13.1406
213000 60.2606 144.267 55.9234 0.10645 13.1393
213200 60.2606 144.28 55.9234 0.10655 13.1624
213400 60.2606 144.293 55.9234 0.10665 13.1743
213600 60.2606 144.306 55.9234 0.10675 13.1646
213800 60.2606 144.319 55.9234 0.10685 13.1835
214000 60.2606 144.332 55.9234 0.10695 13.2038
214200 60.2606 144.345 55.9234 0.10705 13.2067
214400 60.2606 144.358 55.9234 0.10715 13.226
214600 60.2606 144.371 55.9234 0.10725 13.2277
214800 60.2606 144.384 55.9234 0.10735 13.2747
215000 60.2606 144.397 55.9234 0.10745 13.2477
215200 60.2606 144.41 55.9234 0.10755 13.2837
215400 60.2606 144.423 55.9234 0.10765 13.2925
215600 60.2606 144.436 55.9234 0.10775 13.3067
215800 60.2606 144.449 55.9234 0.10785 13.3207
216000 60.2606 144.462 55.9234 0.10795 13.3324
216200 60.2606 144.475 55.9234 0.10805 13.3465
216400 60.2606 144.488 55.9234 0.10815 13.3556
216600 60.2606 144.501 55.9234 0.10825 13.368
216800 60.2606 144.514 55.9234 0.10835 13.3904
217000 60.2606 144.527 55.9234 0.10845 13.3992
217200 60.2606 144.54 55.9234 0.10855 13.417
217400 60.2606 144.553 55.9234 0.10865 13.4436
217600 60.2606 144.566 55.9234 0.10875 13.4327
217800 60.2606 144.58 55.9234 0.10885 13.4693
218000 60.2606 144.593 55.9234 0.10895 13.486
218200 60.2606 144.606 55.9234 0.10905 13.4698
218400 60.2606 144.619 55.9234 0.10915 13.5032
218600 60.2606 144.632 55.9234 0.10925 13.4943
218800 60.2606 144.645 55.9234 0.10935 13.5344
219000 60.2606 144.658 55.9234 0.10945 13.5385
219200 60.2606 144.671 55.9234 0.10955 13.5567
219400 60.2606 144.684 55.9234 0.10965 13.557
219600 60.2606 144.697 55.9234 0.10975 13.5824
219800 60.2606 144.71 55.9234 0.10985 13.5835
220000 60.2606 144.723 55.9234 0.10995 13.6149
220200 60.2606 144.736 55.9234 0.11005 13.628
220400 60.2606 144.749 55.9234 0.11015 13.6339
220600 60.2606 144.762 55.9234 0.11025 13.6588
220800 60.2606 144.775 55.9234 0.11035 13.6543
221000 60.2606 144.788 55.9234 0.11045 13.6915
221200 60.2606 144.801 55.9234 0.11055 13.6941
221400 60.2606 144.814 55.9234 0.11065 13.7009
221600 60.2606 144.827 55.9234 0.11075 13.7207
221800 60.2606 144.84 55.9234 0.11085 13.7196
222000 60.2606 144.853 55.9234 0.11095 13.7624
222200 60.2606 144.866 55.9234 0.11105 13.7641
222400 60.2606 144.879 55.9234 0.11115 13.7618
222600 60.2606 144.892 55.9234 0.11125 13.7812
222800 60.2606 144.905 55.9234 0.11135 13.7807
223000 60.2606 144.919 55.9234 0.11145 13.8155
223200 60.2606 144.932 55.9234 0.11155 13.815
223400 60.2606 144.945 55.9234 0.11165 13.8288
223600 60.2606 144.958 55.9234 0.11175 13.8537
223800 60.2606 144.971 55.9234 0.11185 13.8349
224000 60.2606 144.984 55.9234 0.11195 13.8439
224200 60.2606 144.997 55.9234 0.11205 13.8623
224400 60.2606 145.01 55.9234 0.11215 13.8381
224600 60.2606 145.023 55.9234 0.11225 13.8959
224800 60.2606 145.036 55.9234 0.11235 13.8624
225000 60.2606 145.049 55.9234 0.11245 13.9004
225200 60.2606 145.062 55.9234 0.11255 13.8769
225400 60.2606 145.075 55.9234 0.11265 13.8853
225600 60.2606 145.088 55.9234 0.11275 13.8892
225800 60.2606 145.101 55.9234 0.11285 13.9042
226000 60.2606 145.114 55.9234 0.11295 13.9165
226200 60.2606 145.127 55.9234 0.11305 13.9163
226400 60.2606 145.14 55.9234 0.11315 13.9424
226600 60.2606 145.153 55.9234 0.11325 13.9524
226800 60.2606 145.166 55.9234 0.11335 13.9432
227000 60.2606 145.179 55.9234 0.11345 13.9619
227200 60.2606 145.192 55.9234 0.11355 13.9643
227400 60.2606 145.205 55.9234 0.11365 13.9894
227600 60.2606 145.218 55.9234 0.11375 13.9931
227800 60.2606 145.231 55.9234 0.11385 14.0096
228000 60.2606 145.244 55.9234 0.11395 14.0259
228200 60.2606 145.258 55.9234 0.11405 14.0412
228400 60.2606 145.271 55.9234 0.11415 14.0473
228600 60.2606 145.284 55.9234 0.11425 14.0663
228800 60.2606 145.297 55.9234 0.11435 14.0791
229000 60.2606 145.31 55.9234 0.11445 14.0868
229200 60.2606 145.323 55.9234 0.11455 14.1043
229400 60.2606 145.336 55.9234 0.11465 14.1167
229600 60.2606 145.349 55.9234 0.11475 14.1196
229800 60.2606 145.362 55.9234 0.11485 14.11
230000 60.2606 145.375 55.9234 0.11495 14.1533
230200 60.2606 145.388 55.9234 0.11505 14.1491
230400 60.2606 145.401 55.9234 0.11515 14.1604
230600 60.2606 145.414 55.9234 0.11525 14.1714
230800 60.2606 145.427 55.9234 0.11535 14.1902
231000 60.2606 145.44 55.9234 0.11545 14.2068
231200 60.2606 145.453 55.9234 0.11555 14.2075
231400 60.2606 145.466 55.9234 0.11565 14.2571
231600 60.2606 145.479 55.9234 0.11575 14.2327
231800 60.2606 145.492 55.9234 0.11585 14.272
232000 60.2606 145.505 55.9234 0.11595 14.2801
232200 60.2606 145.518 55.9234 0.11605 14.2589
232400 60.2606 145.531 55.9234 0.11615 14.2861
232600 60.2606 145.544 55.9234 0.11625 14.2984
232800 60.2606 145.557 55.9234 0.11635 14.3221
233000 60.2606 145.57 55.9234 0.11645 14.3128
233200 60.2606 145.583 55.9234 0.11655 14.335
233400 60.2606 145.597 55.9234 0.11665 14.3618
233600 60.2606 145.61 55.9234 0.11675 14.3598
233800 60.2606 145.623 55.9234 0.11685 14.3763
234000 60.2606 145.636 55.9234 0.11695 14.3999
234200 60.2606 145.649 55.9234 0.11705 14.4075
234400 60.2606 145.662 55.9234 0.11715 14.4053
234600 60.2606 145.675 55.9234 0.11725 14.4241
234800 60.2606 145.688 55.9234 0.11735 14.438
235000 60.2606 145.701 55.9234 0.11745 14.4603
235200 60.2606 145.714 55.9234 0.11755 14.4606
235400 60.2606 145.727 55.9234 0.11765 14.4603
235600 60.2606 145.74 55.9234 0.11775 14.4776
235800 60.2606 145.753 55.9234 0.11785 14.4752
236000 60.2606 145.766 55.9234 0.11795 14.4769
236200 60.2606 145.779 55.9234 0.11805 14.4866
236400 60.2606 145.792 55.9234 0.11815 14.4757
236600 60.2606 145.805 55.9234 0.11825 14.4839
236800 60.2606 145.818 55.9234 0.11835 14.4652
237000 60.2606 145.831 55.9234 0.11845 14.4694
237200 60.2606 145.844 55.9234 0.11855 14.4994
237400 60.2606 145.857 55.9234 0.11865 14.5047
237600 60.2606 145.87 55.9234 0.11875 14.5152
237800 60.2606 145.883 55.9234 0.11885 14.5337
238000 60.2606 145.896 55.9234 0.11895 14.5519
238200 60.2606 145.909 55.9234 0.11905 14.5602
238400 60.2606 145.922 55.9234 0.11915 14.5769
238600 60.2606 145.936 55.9234 0.11925 14.5895
238800 60.2606 145.949 55.9234 0.11935 14.5981
239000 60.2606 145.962 55.9234 0.11945 14.6227
239200 60.2606 145.975 55.9234 0.11955 14.634
239400 60.2606 145.988 55.9234 0.11965 14.6577
239600 60.2606 146.001 55.9234 0.11975 14.6615
239800 60.2606 146.014 55.9234 0.11985 14.6811
240000 60.2606 146.027 55.9234 0.11995 14.692
240200 60.2606 146.04 55.9234 0.12005 14.7
240400 60.2606 146.053 55.9234 0.12015 14.7134
240600 60.2606 146.066 55.9234 0.12025 14.7338
240800 60.2606 146.079 55.9234 0.12035 14.7292
241000 60.2606 146.092 55.9234 0.12045 14.7225
241200 60.2606 146.105 55.9234 0.12055 14.7356
241400 60.2606 146.118 55.9234 0.12065 14.7624
241600 60.2606 146.131 55.9234 0.12075 14.7535
241800 60.2606 146.144 55.9234 0.12085 14.7462
242000 60.2606 146.157 55.9234 0.12095 14.7829
242200 60.2606 146.17 55.9234 0.12105 14.7718
242400 60.2606 146.183 55.9234 0.12115 14.7913
242600 60.2606 146.196 55.9234 0.12125 14.8118
242800 60.2606 146.209 55.9234 0.12135 14.817
243000 60.2606 146.222 55.9234 0.12145 14.8398
243200 60.2606 146.235 55.9234 0.12155 14.8535
243400 60.2606 146.248 55.9234 0.12165 14.8583
243600 60.2606 146.261 55.9234 0.12175 14.883
243800 60.2606 146.275 55.9234 0.12185 14.8951
244000 60.2606 146.288 55.9234 0.12195 14.903
244200 60.2606 146.301 55.9234 0.12205 14.9173
244400 60.2606 146.314 55.9234 0.12215 14.9212
244600 60.2606 146.327 55.9234 0.12225 14.929
244800 60.2606 146.34 55.9234 0.12235 14.9483
245000 60.2606 146.353 55.9234 0.12245 14.938
245200 60.2606 146.366 55.9234 0.12255 14.9769
245400 60.2606 146.379 55.9234 0.12265 14.958
245600 60.2606 146.392 55.9234 0.12275 14.9994
245800 60.2606 146.405 55.9234 0.12285 14.9894
246000 60.2606 146.418 55.9234 0.12295 15.0158
246200 60.2606 146.431 55.9234 0.12305 15.0374
246400 60.2606 146.444 55.9234 0.12315 15.0397
246600 60.2606 146.457 55.9234 0.12325 15.0545
246800 60.2606 146.47 55.9234 0.12335 15.074
247000 60.2606 146.483 55.9234 0.12345 15.0842
247200 60.2606 146.496 55.9234 0.12355 15.0756
247400 60.2606 146.509 55.9234 0.12365 15.0433
247600 60.2606 146.522 55.9234 0.12375 15.0673
247800 60.2606 146.535 55.9234 0.12385 15.0626
248000 60.2606 146.548 55.9234 0.12395 15.0844
248200 60.2606 146.561 55.9234 0.12405 15.0953
248400 60.2606 146.574 55.9234 0.12415 15.0967
248600 60.2606 146.587 55.9234 0.12425 15.1107
248800 60.2606 146.601 55.9234 0.12435 15.1176
249000 60.2606 146.614 55.9234 0.12445 15.1389
249200 60.2606 146.627 55.9234 0.12455 15.1166
249400 60.2606 146.64 55.9234 0.12465 15.1431
249600 60.2606 146.653 55.9234 0.12475 15.1468
249800 60.2606 146.666 55.9234 0.12485 15.1599
250000 60.2606 146.679 55.9234 0.12495 15.1653
250200 60.2606 146.692 55.9234 0.12505 15.1867
250400 60.2606 146.705 55.9234 0.12515 15.184
250600 60.2606 146.718 55.9234 0.12525 15.202
250800 60.2606 146.731 55.9234 0.12535 15.2074
251000 60.2606 146.744 55.9234 0.12545 15.2047
251200 60.2606 146.757 55.9234 0.12555 15.2163
251400 60.2606 146.77 55.9234 0.12565 15.2398
251600 60.2606 146.783 55.9234 0.12575 15.2388
251800 60.2606 146.796 55.9234 0.12585 15.2647
252000 60.2606 146.809 55.9234 0.12595 15.2641
252200 60.2606 146.822 55.9234 0.12605 15.2742
252400 60.2606 146.835 55.9234 0.12615 15.2802
252600 60.2606 146.848 55.9234 0.12625 15.3014
252800 60.2606 146.861 55.9234 0.12635 15.2943
253000 60.2606 146.874 55.9234 0.12645 15.3078
253200 60.2606 146.887 55.9234 0.12655 15.3052
253400 60.2606 146.9 55.9234 0.12665 15.3242
253600 60.2606 146.913 55.9234 0.12675 15.3314
253800 60.2606 146.926 55.9234 0.12685 15.3419
254000 60.2606 146.94 55.9234 0.12695 15.3659
254200 60.2606 146.953 55.9234 0.12705 15.3799
254400 60.2606 146.966 55.9234 0.12715 15.389
254600 60.2606 146.979 55.9234 0.12725 15.3727
254800 60.2606 146.992 55.9234 0.12735 15.3791
255000 60.2606 147.005 55.9234 0.12745 15.3839
255200 60.2606 147.018 55.9234 0.12755 15.4042
255400 60.2606 147.031 55.9234 0.12765 15.4277
255600 60.2606 147.044 55.9234 0.12775 15.4143
255800 60.2606 147.057 55.9234 0.12785 15.4438
256000 60.2606 147.07 55.9234 0.12795 15.4661
256200 60.2606 147.083 55.9234 0.12805 15.4632
256400 60.2606 147.096 55.9234 0.12815 15.4775
256600 60.2606 147.109 55.9234 0.12825 15.5096
256800 60.2606 147.122 55.9234 0.12835 15.4987
257000 60.2606 147.135 55.9234 0.12845 15.5271
257200 60.2606 147.148 55.9234 0.12855 15.5352
257400 60.2606 147.161 55.9234 0.12865 15.545
257600 60.2606 147.174 55.9234 0.12875 15.5706
257800 60.2606 147.187 55.9234 0.12885 15.5755
258000 60.2606 147.2 55.9234 0.12895 15.5933
258200 60.2606 147.213 55.9234 0.12905 15.618
258400 60.2606 147.226 55.9234 0.12915 15.6137
258600 60.2606 147.239 55.9234 0.12925 15.6368
258800 60.2606 147.252 55.9234 0.12935 15.6289
259000 60.2606 147.265 55.9234 0.12945 15.6538
259200 60.2606 147.279 55.9234 0.12955 15.6584
259400 60.2606 147.292 55.9234 0.12965 15.634
259600 60.2606 147.305 55.9234 0.12975 15.6787
259800 60.2606 147.318 55.9234 0.12985 15.6753
260000 60.2606 147.331 55.9234 0.12995 15.6762
260200 60.2606 147.344 55.9234 0.13005 15.6868
260400 60.2606 147.357 55.9234 0.13015 15.6966
260600 60.2606 147.37 55.9234 0.13025 15.7002
260800 60.2606 147.383 55.9234 0.13035 15.6871
261000 60.2606 147.396 55.9234 0.13045 15.7128
261200 60.2606 147.409 55.9234 0.13055 15.6984
261400 60.2606 147.422 55.9234 0.13065 15.7068
261600 60.2606 147.435 55.9234 0.13075 15.718
261800 60.2606 147.448 55.9234 0.13085 15.7021
262000 60.2606 147.461 55.9234 0.13095 15.712
262200 60.2606 147.474 55.9234 0.13105 15.7128
262400 60.2606 147.487 55.9234 0.13115 15.7487
262600 60.2606 147.5 55.9234 0.13125 15.7333
262800 60.2606 147.513 55.9234 0.13135 15.7489
263000 60.2606 147.526 55.9234 0.13145 15.7475
263200 60.2606 147.539 55.9234 0.13155 15.7505
263400 60.2606 147.552 55.9234 0.13165 15.7365
263600 60.2606 147.565 55.9234 0.13175 15.7609
263800 60.2606 147.578 55.9234 0.13185 15.7391
264000 60.2606 147.591 55.9234 0.13195 15.7366
264200 60.2606 147.604 55.9234 0.13205 15.7619
264400 60.2606 147.618 55.9234 0.13215 15.7809
264600 60.2606 147.631 55.9234 0.13225 15.7815
264800 60.2606 147.644 55.9234 0.13235 15.8026
265000 60.2606 147.657 55.9234 0.13245 15.8005
265200 60.2606 147.67 55.9234 0.13255 15.797
265400 60.2606 147.683 55.9234 0.13265 15.7562
265600 60.2606 147.696 55.9234 0.13275 15.7347
265800 60.2606 147.709 55.9234 0.13285 15.7566
266000 60.2606 147.722 55.9234 0.13295 15.7637
266200 60.2606 147.735 55.9234 0.13305 15.7763
266400 60.2606 147.748 55.9234 0.13315 15.7404
266600 60.2606 147.761 55.9234 0.13325 15.7729
266800 60.2606 147.774 55.9234 0.13335 15.7701
267000 60.2606 147.787 55.9234 0.13345 15.7653
267200 60.2606 147.8 55.9234 0.13355 15.7626
267400 60.2606 147.813 55.9234 0.13365 15.7593
267600 60.2606 147.826 55.9234 0.13375 15.764
267800 60.2606 147.839 55.9234 0.13385 15.7699
268000 60.2606 147.852 55.9234 0.13395 15.7617
268200 60.2606 147.865 55.9234 0.13405 15.7833
268400 60.2606 147.878 55.9234 0.13415 15.783
268600 60.2606 147.891 55.9234 0.13425 15.7919
268800 60.2606 147.904 55.9234 0.13435 15.8073
269000 60.2606 147.917 55.9234 0.13445 15.813
269200 60.2606 147.93 55.9234 0.13455 15.8222
269400 60.2606 147.943 55.9234 0.13465 15.8567
269600 60.2606 147.957 55.9234 0.13475 15.8452
269800 60.2606 147.97 55.9234 0.13485 15.868
270000 60.2606 147.983 55.9234 0.13495 15.8531
270200 60.2606 147.996 55.9234 0.13505 15.8578
270400 60.2606 148.009 55.9234 0.13515 15.8558
270600 60.2606 148.022 55.9234 0.13525 15.8401
270800 60.2606 148.035 55.9234 0.13535 15.8652
271000 60.2606 148.048 55.9234 0.13545 15.8623
271200 60.2606 148.061 55.9234 0.13555 15.8731
271400 60.2606 148.074 55.9234 0.13565 15.8878
271600 60.2606 148.087 55.9234 0.13575 15.8819
271800 60.2606 148.1 55.9234 0.13585 15.8934
272000 60.2606 148.113 55.9234 0.13595 15.9059
272200 60.2606 148.126 55.9234 0.13605 15.9129
272400 60.2606 148.139 55.9234 0.13615 15.9273
272600 60.2606 148.152 55.9234 0.13625 15.9321
272800 60.2606 148.165 55.9234 0.13635 15.9254
273000 60.2606 148.178 55.9234 0.13645 15.9328
273200 60.2606 148.191 55.9234 0.13655 15.9399
273400 60.2606 148.204 55.9234 0.13665 15.9642
273600 60.2606 148.217 55.9234 0.13675 15.9734
273800 60.2606 148.23 55.9234 0.13685 15.979
274000 60.2606 148.243 55.9234 0.13695 15.9956
274200 60.2606 148.256 55.9234 0.13705 16.0201
274400 60.2606 148.269 55.9234 0.13715 16.0122
274600 60.2606 148.282 55.9234 0.13725 16.0164
274800 60.2606 148.296 55.9234 0.13735 16.032
275000 60.2606 148.309 55.9234 0.13745 16.0419
275200 60.2606 148.322 55.9234 0.13755 16.0683
275400 60.2606 148.335 55.9234 0.13765 16.0634
275600 60.2606 148.348 55.9234 0.13775 16.078
275800 60.2606 148.361 55.9234 0.13785 16.1062
276000 60.2606 148.374 55.9234 0.13795 16.1024
276200 60.2606 148.387 55.9234 0.13805 16.1132
276400 60.2606 148.4 55.9234 0.13815 16.1339
276600 60.2606 148.413 55.9234 0.13825 16.1434
276800 60.2606 148.426 55.9234 0.13835 16.1285
277000 60.2606 148.439 55.9234 0.13845 16.1672
277200 60.2606 148.452 55.9234 0.13855 16.1424
277400 60.2606 148.465 55.9234 0.13865 16.1595
277600 60.2606 148.478 55.9234 0.13875 16.1756
277800 60.2606 148.491 55.9234 0.13885 16.162
278000 60.2606 148.504 55.9234 0.13895 16.1961
278200 60.2606 148.517 55.9234 0.13905 16.1984
278400 60.2606 148.53 55.9234 0.13915 16.2109
278600 60.2606 148.543 55.9234 0.13925 16.2342
278800 60.2606 148.556 55.9234 0.13935 16.2202
279000 60.2606 148.569 55.9234 0.13945 16.2026
279200 60.2606 148.582 55.9234 0.13955 16.2149
279400 60.2606 148.595 55.9234 0.13965 16.2075
279600 60.2606 148.608 55.9234 0.13975 16.2373
279800 60.2606 148.621 55.9234 0.13985 16.2208
280000 60.2606 148.635 55.9234 0.13995 16.2147
280200 60.2606 148.648 55.9234 0.14005 16.2565
280400 60.2606 148.661 55.9234 0.14015 16.2439
280600 60.2606 148.674 55.9234 0.14025 16.2675
280800 60.2606 148.687 55.9234 0.14035 16.2732
281000 60.2606 148.7 55.9234 0.14045 16.294
281200 60.2606 148.713 55.9234 0.14055 16.312
281400 60.2606 148.726 55.9234 0.14065 16.3012
281600 60.2606 148.739 55.9234 0.14075 16.3274
281800 60.2606 148.752 55.9234 0.14085 16.3203
282000 60.2606 148.765 55.9234 0.14095 16.3296
282200 60.2606 148.778 55.9234 0.14105 16.3687
282400 60.2606 148.791 55.9234 0.14115 16.3494
282600 60.2606 148.804 55.9234 0.14125 16.3944
282800 60.2606 148.817 55.9234 0.14135 16.3975
283000 60.2606 148.83 55.9234 0.14145 16.3847
283200 60.2606 148.843 55.9234 0.14155 16.408
283400 60.2606 148.856 55.9234 0.14165 16.4164
283600 60.2606 148.869 55.9234 0.14175 16.4378
283800 60.2606 148.882 55.9234 0.14185 16.4343
284000 60.2606 148.895 55.9234 0.14195 16.4645
284200 60.2606 148.908 55.9234 0.14205 16.468
284400 60.2606 148.921 55.9234 0.14215 16.4816
284600 60.2606 148.934 55.9234 0.14225 16.5058
284800 60.2606 148.947 55.9234 0.14235 16.4996
285000 60.2606 148.961 55.9234 0.14245 16.5209
285200 60.2606 148.974 55.9234 0.14255 16.5181
285400 60.2606 148.987 55.9234 0.14265 16.5304
285600 60.2606 149 55.9234 0.14275 16.5544
285800 60.2606 149.013 55.9234 0.14285 16.5748
286000 60.2606 149.026 55.9234 0.14295 16.5445
286200 60.2606 149.039 55.9234 0.14305 16.5793
286400 60.2606 149.052 55.9234 0.14315 16.5772
286600 60.2606 149.065 55.9234 0.14325 16.6019
286800 60.2606 149.078 55.9234 0.14335 16.6187
287000 60.2606 149.091 55.9234 0.14345 16.6128
287200 60.2606 149.104 55.9234 0.14355 16.6488
287400 60.2606 149.117 55.9234 0.14365 16.6549
287600 60.2606 149.13 55.9234 0.14375 16.6587
287800 60.2606 149.143 55.9234 0.14385 16.6653
288000 60.2606 149.156 55.9234 0.14395 16.6546
288200 60.2606 149.169 55.9234 0.14405 16.6532
288400 60.2606 149.182 55.9234 0.14415 16.666
288600 60.2606 149.195 55.9234 0.14425 16.6829
288800 60.2606 149.208 55.9234 0.14435 16.6926
289000 60.2606 149.221 55.9234 0.14445 16.7084
289200 60.2606 149.234 55.9234 0.14455 16.7248
289400 60.2606 149.247 55.9234 0.14465 16.6784
289600 60.2606 149.26 55.9234 0.14475 16.6712
289800 60.2606 149.273 55.9234 0.14485 16.6909
290000 60.2606 149.286 55.9234 0.14495 16.6912
290200 60.2606 149.3 55.9234 0.14505 16.7149
290400 60.2606 149.313 55.9234 0.14515 16.6914
290600 60.2606 149.326 55.9234 0.14525 16.7159
290800 60.2606 149.339 55.9234 0.14535 16.7282
291000 60.2606 149.352 55.9234 0.14545 16.7438
291200 60.2606 149.365 55.9234 0.14555 16.7444
291400 60.2606 149.378 55.9234 0.14565 16.7702
291600 60.2606 149.391 55.9234 0.14575 16.7767
291800 60.2606 149.404 55.9234 0.14585 16.7904
292000 60.2606 149.417 55.9234 0.14595 16.813
292200 60.2606 149.43 55.9234 0.14605 16.8059
292400 60.2606 149.443 55.9234 0.14615 16.8346
292600 60.2606 149.456 55.9234 0.14625 16.8317
292800 60.2606 149.469 55.9234 0.14635 16.8412
293000 60.2606 149.482 55.9234 0.14645 16.8398
293200 60.2606 149.495 55.9234 0.14655 16.8527
293400 60.2606 149.508 55.9234 0.14665 16.8559
293600 60.2606 149.521 55.9234 0.14675 16.837
293800 60.2606 149.534 55.9234 0.14685 16.818
294000 60.2606 149.547 55.9234 0.14695 16.8434
294200 60.2606 149.56 55.9234 0.14705 16.8507
294400 60.2606 149.573 55.9234 0.14715 16.8416
294600 60.2606 149.586 55.9234 0.14725 16.8387
294800 60.2606 149.599 55.9234 0.14735 16.8348
295000 60.2606 149.612 55.9234 0.14745 16.8265
295200 60.2606 149.625 55.9234 0.14755 16.8162
295400 60.2606 149.639 55.9234 0.14765 16.8261
295600 60.2606 149.652 55.9234 0.14775 16.8279
295800 60.2606 149.665 55.9234 0.14785 16.8254
296000 60.2606 149.678 55.9234 0.14795 16.8647
296200 60.2606 149.691 55.9234 0.14805 16.8704
296400 60.2606 149.704 55.9234 0.14815 16.8603
296600 60.2606 149.717 55.9234 0.14825 16.8782
296800 60.2606 149.73 55.9234 0.14835 16.8428
297000 60.2606 149.743 55.9234 0.14845 16.8056
297200 60.2606 149.756 55.9234 0.14855 16.7665
297400 60.2606 149.769 55.9234 0.14865 16.7808
297600 60.2606 149.782 55.9234 0.14875 16.7391
297800 60.2606 149.795 55.9234 0.14885 16.7096
298000 60.2606 149.808 55.9234 0.14895 16.645
298200 60.2606 149.821 55.9234 0.14905 16.6037
298400 60.2606 149.834 55.9234 0.14915 16.6233
298600 60.2606 149.847 55.9234 0.14925 16.5861
298800 60.2606 149.86 55.9234 0.14935 16.6118
299000 60.2606 149.873 55.9234 0.14945 16.6071
299200 60.2606 149.886 55.9234 0.14955 16.6259
299400 60.2606 149.899 55.9234 0.14965 16.645
299600 60.2606 149.912 55.9234 0.14975 16.6164
299800 60.2606 149.925 55.9234 0.14985 16.607
300000 60.2606 149.938 55.9234 0.14995 16.6237
300200 60.2606 149.951 55.9234 0.15005 16.6202
300400 60.2606 149.964 55.9234 0.15015 16.6032
300600 60.2606 149.978 55.9234 0.15025 16.6236
300800 60.2606 149.991 55.9234 0.15035 16.6173
301000 60.2606 150.004 55.9234 0.15045 16.5978
301200 60.2606 150.017 55.9234 0.15055 16.5596
301400 60.2606 150.03 55.9234 0.15065 16.5556
301600 60.2606 150.043 55.9234 0.15075 16.5578
301800 60.2606 150.056 55.9234 0.15085 16.5454
302000 60.2606 150.069 55.9234 0.15095 16.562
302200 60.2606 150.082 55.9234 0.15105 16.4828
302400 60.2606 150.095 55.9234 0.15115 16.4757
302600 60.2606 150.108 55.9234 0.15125 16.4414
302800 60.2606 150.121 55.9234 0.15135 16.4321
303000 60.2606 150.134 55.9234 0.15145 16.4415
303200 60.2606 150.147 55.9234 0.15155 16.4223
303400 60.2606 150.16 55.9234 0.15165 16.433
303600 60.2606 150.173 55.9234 0.15175 16.3928
303800 60.2606 150.186 55.9234 0.15185 16.3786
304000 60.2606 150.199 55.9234 0.15195 16.2873
304200 60.2606 150.212 55.9234 0.15205 16.2925
304400 60.2606 150.225 55.9234 0.15215 16.2543
304600 60.2606 150.238 55.9234 0.15225 16.1861
304800 60.2606 150.251 55.9234 0.15235 16.1855
305000 60.2606 150.264 55.9234 0.15245 16.15
305200 60.2606 150.277 55.9234 0.15255 16.1153
305400 60.2606 150.29 55.9234 0.15265 16.0819
305600 60.2606 150.303 55.9234 0.15275 16.0352
305800 60.2606 150.317 55.9234 0.15285 15.9853
306000 60.2606 150.33 55.9234 0.15295 15.9268
306200 60.2606 150.343 55.9234 0.15305 15.8707
306400 60.2606 150.356 55.9234 0.15315 15.8295
306600 60.2606 150.369 55.9234 0.15325 15.8027
306800 60.2606 150.382 55.9234 0.15335 15.7728
307000 60.2606 150.395 55.9234 0.15345 15.7221
307200 60.2606 150.408 55.9234 0.15355 15.6928
307400 60.2606 150.421 55.9234 0.15365 15.6583
307600 60.2606 150.434 55.9234 0.15375 15.6343
307800 60.2606 150.447 55.9234 0.15385 15.6472
308000 60.2606 150.46 55.9234 0.15395 15.6136
308200 60.2606 150.473 55.9234 0.15405 15.5874
308400 60.2606 150.486 55.9234 0.15415 15.5359
308600 60.2606 150.499 55.9234 0.15425 15.4433
308800 60.2606 150.512 55.9234 0.15435 15.4227
309000 60.2606 150.525 55.9234 0.15445 15.3699
309200 60.2606 150.538 55.9234 0.15455 15.304
309400 60.2606 150.551 55.9234 0.15465 15.1746
309600 60.2606 150.564 55.9234 0.15475 15.119
309800 60.2606 150.577 55.9234 0.15485 14.9726
310000 60.2606 150.59 55.9234 0.15495 14.8673
310200 60.2606 150.603 55.9234 0.15505 14.6499
310400 60.2606 150.616 55.9234 0.15515 14.4779
310600 60.2606 150.629 55.9234 0.15525 14.2469
310800 60.2606 150.642 55.9234 0.15535 13.9486
311000 60.2606 150.656 55.9234 0.15545 13.4669
311200 60.2606 150.669 55.9234 0.15555 12.9277
311400 60.2606 150.682 55.9234 0.15565 12.1713
311600 60.2606 150.695 55.9234 0.15575 11.1679
311800 60.2606 150.708 55.9234 0.15585 9.72134
312000 60.2606 150.721 55.9234 0.15595 8.00985
312200 60.2606 150.734 55.9234 0.15605 6.2321
312400 60.2606 150.747 55.9234 0.15615 4.53959
312600 60.2606 150.76 55.9234 0.15625 3.04932
312800 60.2606 150.773 55.9234 0.15635 1.72572
313000 60.2606 150.786 55.9234 0.15645 0.588949
313200 60.2606 150.799 55.9234 0.15655 -0.398335
313400 60.2606 150.812 55.9234 0.15665 -1.14226
313600 60.2606 150.825 55.9234 0.15675 -1.74285
313800 60.2606 150.838 55.9234 0.15685 -2.12233
314000 60.2606 150.851 55.9234 0.15695 -2.28814
314200 60.2606 150.864 55.9234 0.15705 -2.25105
314400 60.2606 150.877 55.9234 0.15715 -2.06396
314600 60.2606 150.89 55.9234 0.15725 -1.73627
314800 60.2606 150.903 55.9234 0.15735 -1.33188
315000 60.2606 150.916 55.9234 0.15745 -0.766753
315200 60.2606 150.929 55.9234 0.15755 -0.0936973
315400 60.2606 150.942 55.9234 0.15765 0.608687
315600 60.2606 150.955 55.9234 0.15775 1.39738
315800 60.2606 150.968 55.9234 0.15785 2.02473
316000 60.2606 150.981 55.9234 0.15795 2.52219
316200 60.2606 150.995 55.9234 0.15805 2.70964
316400 60.2606 151.008 55.9234 0.15815 2.43448
316600 60.2606 151.021 55.9234 0.15825 2.00223
316800 60.2606 151.034 55.9234 0.15835 1.32438
317000 60.2606 151.047 55.9234 0.15845 0.598004
317200 60.2606 151.06 55.9234 0.15855 -0.0795518
317400 60.2606 151.073 55.9234 0.15865 -0.708777
317600 60.2606 151.086 55.9234 0.15875 -1.24526
317800 60.2606 151.099 55.9234 0.15885 -1.57023
318000 60.2606 151.112 55.9234 0.15895 -1.80537
318200 60.2606 151.125 55.9234 0.15905 -1.89044
318400 60.2606 151.138 55.9234 0.15915 -1.84022
318600 60.2606 151.151 55.9234 0.15925 -1.60868
318800 60.2606 151.164 55.9234 0.15935 -1.27192
319000 60.2606 151.177 55.9234 0.15945 -0.841934
319200 60.2606 151.19 55.9234 0.15955 -0.258942
319400 60.2606 151.203 55.9234 0.15965 0.399912
319600 60.2606 151.216 55.9234 0.15975 1.01485
319800 60.2606 151.229 55.9234 0.15985 1.6375
320000 60.2606 151.242 55.9234 0.15995 2.09238
320200 60.2606 151.255 55.9234 0.16005 2.26314
320400 60.2606 151.268 55.9234 0.16015 2.16252
320600 60.2606 151.281 55.9234 0.16025 1.82633
320800 60.2606 151.294 55.9234 0.16035 1.26038
321000 60.2606 151.307 55.9234 0.16045 0.637522
321200 60.2606 151.321 55.9234 0.16055 0.00314737
321400 60.2606 151.334 55.9234 0.16065 -0.549966
321600 60.2606 151.347 55.9234 0.16075 -1.0326
321800 60.2606 151.36 55.9234 0.16085 -1.38104
322000 60.2606 151.373 55.9234 0.16095 -1.60296
322200 60.2606 151.386 55.9234 0.16105 -1.67101
322400 60.2606 151.399 55.9234 0.16115 -1.62158
322600 60.2606 151.412 55.9234 0.16125 -1.36807
322800 60.2606 151.425 55.9234 0.16135 -1.06276
323000 60.2606 151.438 55.9234 0.16145 -0.593661
323200 60.2606 151.451 55.9234 0.16155 -0.0712837
323400 60.2606 151.464 55.9234 0.16165 0.525383
323600 60.2606 151.477 55.9234 0.16175 1.09702
323800 60.2606 151.49 55.9234 0.16185 1.63318
324000 60.2606 151.503 55.9234 0.16195 2.01942
324200 60.2606 151.516 55.9234 0.16205 2.14479
324400 60.2606 151.529 55.9234 0.16215 1.99539
324600 60.2606 151.542 55.9234 0.16225 1.61294
324800 60.2606 151.555 55.9234 0.16235 1.05351
325000 60.2606 151.568 55.9234 0.16245 0.427598
325200 60.2606 151.581 55.9234 0.16255 -0.10693
325400 60.2606 151.594 55.9234 0.16265 -0.640017
325600 60.2606 151.607 55.9234 0.16275 -1.03283
325800 60.2606 151.62 55.9234 0.16285 -1.30684
326000 60.2606 151.633 55.9234 0.16295 -1.48654
326200 60.2606 151.646 55.9234 0.16305 -1.55029
326400 60.2606 151.66 55.9234 0.16315 -1.50741
326600 60.2606 151.673 55.9234 0.16325 -1.33415
326800 60.2606 151.686 55.9234 0.16335 -0.994564
327000 60.2606 151.699 55.9234 0.16345 -0.546281
327200 60.2606 151.712 55.9234 0.16355 -0.0482575
327400 60.2606 151.725 55.9234 0.16365 0.516625
327600 60.2606 151.738 55.9234 0.16375 1.06016
327800 60.2606 151.751 55.9234 0.16385 1.5133
328000 60.2606 151.764 55.9234 0.16395 1.75813
328200 60.2606 151.777 55.9234 0.16405 1.8313
328400 60.2606 151.79 55.9234 0.16415 1.67505
328600 60.2606 151.803 55.9234 0.16425 1.35631
328800 60.2606 151.816 55.9234 0.16435 0.887799
329000 60.2606 151.829 55.9234 0.16445 0.368564
329200 60.2606 151.842 55.9234 0.16455 -0.144475
329400 60.2606 151.855 55.9234 0.16465 -0.598203
329600 60.2606 151.868 55.9234 0.16475 -0.967348
329800 60.2606 151.881 55.9234 0.16485 -1.21679
330000 60.2606 151.894 55.9234 0.16495 -1.35224
330200 60.2606 151.907 55.9234 0.16505 -1.37968
330400 60.2606 151.92 55.9234 0.16515 -1.28519
330600 60.2606 151.933 55.9234 0.16525 -1.05743
330800 60.2606 151.946 55.9234 0.16535 -0.727977
331000 60.2606 151.959 55.9234 0.16545 -0.338466
331200 60.2606 151.972 55.9234 0.16555 0.130143
331400 60.2606 151.985 55.9234 0.16565 0.597568
331600 60.2606 151.999 55.9234 0.16575 1.06844
331800 60.2606 152.012 55.9234 0.16585 1.44049
332000 60.2606 152.025 55.9234 0.16595 1.66606
332200 60.2606 152.038 55.9234 0.16605 1.71339
332400 60.2606 152.051 55.9234 0.16615 1.50515
332600 60.2606 152.064 55.9234 0.16625 1.17189
332800 60.2606 152.077 55.9234 0.16635 0.653974
333000 60.2606 152.09 55.9234 0.16645 0.186607
333200 60.2606 152.103 55.9234 0.16655 -0.258209
333400 60.2606 152.116 55.9234 0.16665 -0.630433
333600 60.2606 152.129 55.9234 0.16675 -0.944099
333800 60.2606 152.142 55.9234 0.16685 -1.1346
334000 60.2606 152.155 55.9234 0.16695 -1.29089
334200 60.2606 152.168 55.9234 0.16705 -1.23845
334400 60.2606 152.181 55.9234 0.16715 -1.13889
334600 60.2606 152.194 55.9234 0.16725 -0.900161
334800 60.2606 152.207 55.9234 0.16735 -0.575894
335000 60.2606 152.22 55.9234 0.16745 -0.128717
335200 60.2606 152.233 55.9234 0.16755 0.313513
335400 60.2606 152.246 55.9234 0.16765 0.768648
335600 60.2606 152.259 55.9234 0.16775 1.15882
335800 60.2606 152.272 55.9234 0.16785 1.46483
336000 60.2606 152.285 55.9234 0.16795 1.57074
336200 60.2606 152.298 55.9234 0.16805 1.5496
336400 60.2606 152.311 55.9234 0.16815 1.31839
336600 60.2606 152.324 55.9234 0.16825 0.937878
336800 60.2606 152.338 55.9234 0.16835 0.47756
337000 60.2606 152.351 55.9234 0.16845 0.0218452
337200 60.2606 152.364 55.9234 0.16855 -0.4119
337400 60.2606 152.377 55.9234 0.16865 -0.733908
337600 60.2606 152.39 55.9234 0.16875 -1.0206
337800 60.2606 152.403 55.9234 0.16885 -1.1509
338000 60.2606 152.416 55.9234 0.16895 -1.2062
338200 60.2606 152.429 55.9234 0.16905 -1.13003
338400 60.2606 152.442 55.9234 0.16915 -0.962062
338600 60.2606 152.455 55.9234 0.16925 -0.725487
338800 60.2606 152.468 55.9234 0.16935 -0.354572
339000 60.2606 152.481 55.9234 0.16945 0.039901
339200 60.2606 152.494 55.9234 0.16955 0.500178
339400 60.2606 152.507 55.9234 0.16965 0.913423
339600 60.2606 152.52 55.9234 0.16975 1.25438
339800 60.2606 152.533 55.9234 0.16985 1.47189
340000 60.2606 152.546 55.9234 0.16995 1.53243
340200 60.2606 152.559 55.9234 0.17005 1.39707
340400 60.2606 152.572 55.9234 0.17015 1.12843
340600 60.2606 152.585 55.9234 0.17025 0.709117
340800 60.2606 152.598 55.9234 0.17035 0.282906
341000 60.2606 152.611 55.9234 0.17045 -0.133451
341200 60.2606 152.624 55.9234 0.17055 -0.510576
341400 60.2606 152.637 55.9234 0.17065 -0.832178
341600 60.2606 152.65 55.9234 0.17075 -1.03766
341800 60.2606 152.663 55.9234 0.17085 -1.12578
342000 60.2606 152.677 55.9234 0.17095 -1.09067
342200 60.2606 152.69 55.9234 0.17105 -0.985712
342400 60.2606 152.703 55.9234 0.17115 -0.802842
342600 60.2606 152.716 55.9234 0.17125 -0.476704
342800 60.2606 152.729 55.9234 0.17135 -0.147304
343000 60.2606 152.742 55.9234 0.17145 0.243154
343200 60.2606 152.755 55.9234 0.17155 0.697542
343400 60.2606 152.768 55.9234 0.17165 1.08227
343600 60.2606 152.781 55.9234 0.17175 1.31794
343800 60.2606 152.794 55.9234 0.17185 1.46826
344000 60.2606 152.807 55.9234 0.17195 1.38126
344200 60.2606 152.82 55.9234 0.17205 1.18318
344400 60.2606 152.833 55.9234 0.17215 0.872907
344600 60.2606 152.846 55.9234 0.17225 0.431081
344800 60.2606 152.859 55.9234 0.17235 0.0551979
345000 60.2606 152.872 55.9234 0.17245 -0.316674
345200 60.2606 152.885 55.9234 0.17255 -0.649636
345400 60.2606 152.898 55.9234 0.17265 -0.877602
345600 60.2606 152.911 55.9234 0.17275 -1.05959
345800 60.2606 152.924 55.9234 0.17285 -1.05551
346000 60.2606 152.937 55.9234 0.17295 -0.995832
346200 60.2606 152.95 55.9234 0.17305 -0.816583
346400 60.2606 152.963 55.9234 0.17315 -0.57035
346600 60.2606 152.976 55.9234 0.17325 -0.245759
346800 60.2606 152.989 55.9234 0.17335 0.103229
347000 60.2606 153.002 55.9234 0.17345 0.518575
347200 60.2606 153.016 55.9234 0.17355 0.91819
347400 60.2606 153.029 55.9234 0.17365 1.21296
347600 60.2606 153.042 55.9234 0.17375 1.37453
347800 60.2606 153.055 55.9234 0.17385 1.37233
348000 60.2606 153.068 55.9234 0.17395 1.24473
348200 60.2606 153.081 55.9234 0.17405 0.948019
348400 60.2606 153.094 55.9234 0.17415 0.610957
348600 60.2606 153.107 55.9234 0.17425 0.236936
348800 60.2606 153.12 55.9234 0.17435 -0.1656
349000 60.2606 153.133 55.9234 0.17445 -0.478944
349200 60.2606 153.146 55.9234 0.17455 -0.774781
349400 60.2606 153.159 55.9234 0.17465 -0.925441
349600 60.2606 153.172 55.9234 0.17475 -1.01253
349800 60.2606 153.185 55.9234 0.17485 -0.969219
350000 60.2606 153.198 55.9234 0.17495 -0.863371
350200 60.2606 153.211 55.9234 0.17505 -0.652332
350400 60.2606 153.224 55.9234 0.17515 -0.373699
350600 60.2606 153.237 55.9234 0.17525 -0.0142347
350800 60.2606 153.25 55.9234 0.17535 0.381394
351000 60.2606 153.263 55.9234 0.17545 0.720853
351200 60.2606 153.276 55.9234 0.17555 1.03283
351400 60.2606 153.289 55.9234 0.17565 1.24161
351600 60.2606 153.302 55.9234 0.17575 1.3458
351800 60.2606 153.315 55.9234 0.17585 1.25952
352000 60.2606 153.328 55.9234 0.17595 1.04989
352200 60.2606 153.342 55.9234 0.17605 0.744225
352400 60.2606 153.355 55.9234 0.17615 0.356696
352600 60.2606 153.368 55.9234 0.17625 0.00275044
352800 60.2606 153.381 55.9234 0.17635 -0.36514
353000 60.2606 153.394 55.9234 0.17645 -0.6021
353200 60.2606 153.407 55.9234 0.17655 -0.794381
353400 60.2606 153.42 55.9234 0.17665 -0.916017
353600 60.2606 153.433 55.9234 0.17675 -0.926436
353800 60.2606 153.446 55.9234 0.17685 -0.84399
354000 60.2606 153.459 55.9234 0.17695 -0.69398
354200 60.2606 153.472 55.9234 0.17705 -0.467841
354400 60.2606 153.485 55.9234 0.17715 -0.128286
354600 60.2606 153.498 55.9234 0.17725 0.221529
354800 60.2606 153.511 55.9234 0.17735 0.612194
355000 60.2606 153.524 55.9234 0.17745 0.910725
355200 60.2606 153.537 55.9234 0.17755 1.14649
355400 60.2606 153.55 55.9234 0.17765 1.28063
355600 60.2606 153.563 55.9234 0.17775 1.23333
355800 60.2606 153.576 55.9234 0.17785 1.11909
356000 60.2606 153.589 55.9234 0.17795 0.835059
356200 60.2606 153.602 55.9234 0.17805 0.517904
356400 60.2606 153.615 55.9234 0.17815 0.1543
356600 60.2606 153.628 55.9234 0.17825 -0.206726
356800 60.2606 153.641 55.9234 0.17835 -0.473676
357000 60.2606 153.654 55.9234 0.17845 -0.713395
357200 60.2606 153.667 55.9234 0.17855 -0.882558
357400 60.2606 153.681 55.9234 0.17865 -0.895929
357600 60.2606 153.694 55.9234 0.17875 -0.86982
357800 60.2606 153.707 55.9234 0.17885 -0.725875
358000 60.2606 153.72 55.9234 0.17895 -0.503797
358200 60.2606 153.733 55.9234 0.17905 -0.212884
358400 60.2606 153.746 55.9234 0.17915 0.107281
358600 60.2606 153.759 55.9234 0.17925 0.439903
358800 60.2606 153.772 55.9234 0.17935 0.782487
359000 60.2606 153.785 55.9234 0.17945 1.07704
359200 60.2606 153.798 55.9234 0.17955 1.21471
359400 60.2606 153.811 55.9234 0.17965 1.25214
359600 60.2606 153.824 55.9234 0.17975 1.17523
359800 60.2606 153.837 55.9234 0.17985 0.958396
360000 60.2606 153.85 55.9234 0.17995 0.639864
360200 60.2606 153.863 55.9234 0.18005 0.303836
360400 60.2606 153.876 55.9234 0.18015 -0.0546144
360600 60.2606 153.889 55.9234 0.18025 -0.347625
360800 60.2606 153.902 55.9234 0.18035 -0.600148
361000 60.2606 153.915 55.9234 0.18045 -0.782101
361200 60.2606 153.928 55.9234 0.18055 -0.864694
361400 60.2606 153.941 55.9234 0.18065 -0.91575
361600 60.2606 153.954 55.9234 0.18075 -0.804909
361800 60.2606 153.967 55.9234 0.18085 -0.7039
362000 60.2606 153.98 55.9234 0.18095 -0.488271
362200 60.2606 153.993 55.9234 0.18105 -0.205604
362400 60.2606 154.006 55.9234 0.18115 0.117315
362600 60.2606 154.02 55.9234 0.18125 0.426969
362800 60.2606 154.033 55.9234 0.18135 0.742207
363000 60.2606 154.046 55.9234 0.18145 0.910933
363200 60.2606 154.059 55.9234 0.18155 0.978456
363400 60.2606 154.072 55.9234 0.18165 0.973106
363600 60.2606 154.085 55.9234 0.18175 0.891194
363800 60.2606 154.098 55.9234 0.18185 0.665161
364000 60.2606 154.111 55.9234 0.18195 0.407774
364200 60.2606 154.124 55.9234 0.18205 0.134204
364400 60.2606 154.137 55.9234 0.18215 -0.179692
364600 60.2606 154.15 55.9234 0.18225 -0.464451
364800 60.2606 154.163 55.9234 0.18235 -0.702895
365000 60.2606 154.176 55.9234 0.18245 -0.840328
365200 60.2606 154.189 55.9234 0.18255 -0.920523
365400 60.2606 154.202 55.9234 0.18265 -0.903913
365600 60.2606 154.215 55.9234 0.18275 -0.775323
365800 60.2606 154.228 55.9234 0.18285 -0.634316
366000 60.2606 154.241 55.9234 0.18295 -0.419251
366200 60.2606 154.254 55.9234 0.18305 -0.14381
366400 60.2606 154.267 55.9234 0.18315 0.146677
366600 60.2606 154.28 55.9234 0.18325 0.418094
366800 60.2606 154.293 55.9234 0.18335 0.669865
367000 60.2606 154.306 55.9234 0.18345 0.889266
367200 60.2606 154.319 55.9234 0.18355 0.965532
367400 60.2606 154.332 55.9234 0.18365 0.991088
367600 60.2606 154.345 55.9234 0.18375 0.838914
367800 60.2606 154.359 55.9234 0.18385 0.651379
368000 60.2606 154.372 55.9234 0.18395 0.338602
368200 60.2606 154.385 55.9234 0.18405 0.0618054
368400 60.2606 154.398 55.9234 0.18415 -0.196088
368600 60.2606 154.411 55.9234 0.18425 -0.476204
368800 60.2606 154.424 55.9234 0.18435 -0.646207
369000 60.2606 154.437 55.9234 0.18445 -0.78239
369200 60.2606 154.45 55.9234 0.18455 -0.866212
369400 60.2606 154.463 55.9234 0.18465 -0.870949
369600 60.2606 154.476 55.9234 0.18475 -0.784155
369800 60.2606 154.489 55.9234 0.18485 -0.601222
370000 60.2606 154.502 55.9234 0.18495 -0.37569
370200 60.2606 154.515 55.9234 0.18505 -0.104719
370400 60.2606 154.528 55.9234 0.18515 0.179906
370600 60.2606 154.541 55.9234 0.18525 0.451695
370800 60.2606 154.554 55.9234 0.18535 0.674736
371000 60.2606 154.567 55.9234 0.18545 0.826934
371200 60.2606 154.58 55.9234 0.18555 0.936503
371400 60.2606 154.593 55.9234 0.18565 0.908218
371600 60.2606 154.606 55.9234 0.18575 0.795666
371800 60.2606 154.619 55.9234 0.18585 0.589854
372000 60.2606 154.632 55.9234 0.18595 0.321472
372200 60.2606 154.645 55.9234 0.18605 0.0202957
372400 60.2606 154.658 55.9234 0.18615 -0.232766
372600 60.2606 154.671 55.9234 0.18625 -0.479181
372800 60.2606 154.684 55.9234 0.18635 -0.67884
373000 60.2606 154.698 55.9234 0.18645 -0.757127
373200 60.2606 154.711 55.9234 0.18655 -0.835441
373400 60.2606 154.724 55.9234 0.18665 -0.788282
373600 60.2606 154.737 55.9234 0.18675 -0.7431
373800 60.2606 154.75 55.9234 0.18685 -0.563247
374000 60.2606 154.763 55.9234 0.18695 -0.337919
374200 60.2606 154.776 55.9234 0.18705 -0.0959191
374400 60.2606 154.789 55.9234 0.18715 0.171395
374600 60.2606 154.802 55.9234 0.18725 0.468553
374800 60.2606 154.815 55.9234 0.18735 0.696105
375000 60.2606 154.828 55.9234 0.18745 0.831624
375200 60.2606 154.841 55.9234 0.18755 0.881711
375400 60.2606 154.854 55.9234 0.18765 0.86905
375600 60.2606 154.867 55.9234 0.18775 0.714587
375800 60.2606 154.88 55.9234 0.18785 0.547043
376000 60.2606 154.893 55.9234 0.18795 0.312369
376200 60.2606 154.906 55.9234 0.18805 0.0156851
376400 60.2606 154.919 55.9234 0.18815 -0.235742
376600 60.2606 154.932 55.9234 0.18825 -0.487926
376800 60.2606 154.945 55.9234 0.18835 -0.645116
377000 60.2606 154.958 55.9234 0.18845 -0.771585
377200 60.2606 154.971 55.9234 0.18855 -0.785951
377400 60.2606 154.984 55.9234 0.18865 -0.788831
377600 60.2606 154.997 55.9234 0.18875 -0.703094
377800 60.2606 155.01 55.9234 0.18885 -0.521657
378000 60.2606 155.023 55.9234 0.18895 -0.326475
378200 60.2606 155.037 55.9234 0.18905 -0.0631038
378400 60.2606 155.05 55.9234 0.18915 0.171899
378600 60.2606 155.063 55.9234 0.18925 0.46918
378800 60.2606 155.076 55.9234 0.18935 0.685119
379000 60.2606 155.089 55.9234 0.18945 0.816823
379200 60.2606 155.102 55.9234 0.18955 0.874987
379400 60.2606 155.115 55.9234 0.18965 0.81133
379600 60.2606 155.128 55.9234 0.18975 0.715445
379800 60.2606 155.141 55.9234 0.18985 0.480449
380000 60.2606 155.154 55.9234 0.18995 0.284584
380200 60.2606 155.167 55.9234 0.19005 0.00643764
380400 60.2606 155.18 55.9234 0.19015 -0.211427
380600 60.2606 155.193 55.9234 0.19025 -0.471355
380800 60.2606 155.206 55.9234 0.19035 -0.672764
381000 60.2606 155.219 55.9234 0.19045 -0.763373
381200 60.2606 155.232 55.9234 0.19055 -0.800764
381400 60.2606 155.245 55.9234 0.19065 -0.755431
381600 60.2606 155.258 55.9234 0.19075 -0.649946
381800 60.2606 155.271 55.9234 0.19085 -0.511587
382000 60.2606 155.284 55.9234 0.19095 -0.294691
382200 60.2606 155.297 55.9234 0.19105 -0.0427289
382400 60.2606 155.31 55.9234 0.19115 0.215189
382600 60.2606 155.323 55.9234 0.19125 0.469052
382800 60.2606 155.336 55.9234 0.19135 0.675793
383000 60.2606 155.349 55.9234 0.19145 0.830487
383200 60.2606 155.362 55.9234 0.19155 0.85914
383400 60.2606 155.376 55.9234 0.19165 0.817552
383600 60.2606 155.389 55.9234 0.19175 0.684544
383800 60.2606 155.402 55.9234 0.19185 0.468288
384000 60.2606 155.415 55.9234 0.19195 0.242705
384200 60.2606 155.428 55.9234 0.19205 -0.0271453
384400 60.2606 155.441 55.9234 0.19215 -0.271282
384600 60.2606 155.454 55.9234 0.19225 -0.503846
384800 60.2606 155.467 55.9234 0.19235 -0.617288
385000 60.2606 155.48 55.9234 0.19245 -0.760138
385200 60.2606 155.493 55.9234 0.19255 -0.777687
385400 60.2606 155.506 55.9234 0.19265 -0.755321
385600 60.2606 155.519 55.9234 0.19275 -0.656054
385800 60.2606 155.532 55.9234 0.19285 -0.466971
386000 60.2606 155.545 55.9234 0.19295 -0.261217
386200 60.2606 155.558 55.9234 0.19305 -0.0152808
386400 60.2606 155.571 55.9234 0.19315 0.26987
386600 60.2606 155.584 55.9234 0.19325 0.48432
386800 60.2606 155.597 55.9234 0.19335 0.688583
387000 60.2606 155.61 55.9234 0.19345 0.817215
387200 60.2606 155.623 55.9234 0.19355 0.858826
387400 60.2606 155.636 55.9234 0.19365 0.790626
387600 60.2606 155.649 55.9234 0.19375 0.653634
387800 60.2606 155.662 55.9234 0.19385 0.446901
388000 60.2606 155.675 55.9234 0.19395 0.191725
388200 60.2606 155.688 55.9234 0.19405 -0.0534432
388400 60.2606 155.702 55.9234 0.19415 -0.30555
388600 60.2606 155.715 55.9234 0.19425 -0.498112
388800 60.2606 155.728 55.9234 0.19435 -0.658126
389000 60.2606 155.741 55.9234 0.19445 -0.761137
389200 60.2606 155.754 55.9234 0.19455 -0.765052
389400 60.2606 155.767 55.9234 0.19465 -0.729881
389600 60.2606 155.78 55.9234 0.19475 -0.619899
389800 60.2606 155.793 55.9234 0.19485 -0.440747
390000 60.2606 155.806 55.9234 0.19495 -0.215987
390200 60.2606 155.819 55.9234 0.19505 0.022021
390400 60.2606 155.832 55.9234 0.19515 0.271915
390600 60.2606 155.845 55.9234 0.19525 0.503959
390800 60.2606 155.858 55.9234 0.19535 0.718012
391000 60.2606 155.871 55.9234 0.19545 0.823142
391200 60.2606 155.884 55.9234 0.19555 0.827941
391400 60.2606 155.897 55.9234 0.19565 0.750943
391600 60.2606 155.91 55.9234 0.19575 0.617487
391800 60.2606 155.923 55.9234 0.19585 0.39761
392000 60.2606 155.936 55.9234 0.19595 0.166468
392200 60.2606 155.949 55.9234 0.19605 -0.07778
392400 60.2606 155.962 55.9234 0.19615 -0.354281
392600 60.2606 155.975 55.9234 0.19625 -0.476755
392800 60.2606 155.988 55.9234 0.19635 -0.645248
393000 60.2606 156.001 55.9234 0.19645 -0.740145
393200 60.2606 156.014 55.9234 0.19655 -0.787132
393400 60.2606 156.027 55.9234 0.19665 -0.685913
393600 60.2606 156.041 55.9234 0.19675 -0.592281
393800 60.2606 156.054 55.9234 0.19685 -0.399291
394000 60.2606 156.067 55.9234 0.19695 -0.169039
394200 60.2606 156.08 55.9234 0.19705 0.0489883
394400 60.2606 156.093 55.9234 0.19715 0.297264
394600 60.2606 156.106 55.9234 0.19725 0.513973
394800 60.2606 156.119 55.9234 0.19735 0.66025
395000 60.2606 156.132 55.9234 0.19745 0.808484
395200 60.2606 156.145 55.9234 0.19755 0.808803
395400 60.2606 156.158 55.9234 0.19765 0.735403
395600 60.2606 156.171 55.9234 0.19775 0.591954
395800 60.2606 156.184 55.9234 0.19785 0.377403
396000 60.2606 156.197 55.9234 0.19795 0.12581
396200 60.2606 156.21 55.9234 0.19805 -0.121442
396400 60.2606 156.223 55.9234 0.19815 -0.324267
396600 60.2606 156.236 55.9234 0.19825 -0.530961
396800 60.2606 156.249 55.9234 0.19835 -0.640178
397000 60.2606 156.262 55.9234 0.19845 -0.740513
397200 60.2606 156.275 55.9234 0.19855 -0.71944
397400 60.2606 156.288 55.9234 0.19865 -0.662069
397600 60.2606 156.301 55.9234 0.19875 -0.578902
397800 60.2606 156.314 55.9234 0.19885 -0.373949
398000 60.2606 156.327 55.9234 0.19895 -0.167281
398200 60.2606 156.34 55.9234 0.19905 0.0835447
398400 60.2606 156.353 55.9234 0.19915 0.319314
398600 60.2606 156.366 55.9234 0.19925 0.528517
398800 60.2606 156.38 55.9234 0.19935 0.685439
399000 60.2606 156.393 55.9234 0.19945 0.767806
399200 60.2606 156.406 55.9234 0.19955 0.779774
399400 60.2606 156.419 55.9234 0.19965 0.695433
399600 60.2606 156.432 55.9234 0.19975 0.55397
399800 60.2606 156.445 55.9234 0.19985 0.305828
400000 60.2606 156.458 55.9234 0.19995 0.130213
400200 60.2606 156.471 55.9234 0.20005 -0.117181
400400 60.2606 156.484 55.9234 0.20015 -0.352349
400600 60.2606 156.497 55.9234 0.20025 -0.528455
400800 60.2606 156.51 55.9234 0.20035 -0.630101
401000 60.2606 156.523 55.9234 0.20045 -0.726143
401200 60.2606 156.536 55.9234 0.20055 -0.714629
401400 60.2606 156.549 55.9234 0.20065 -0.646826
401600 60.2606 156.562 55.9234 0.20075 -0.514582
401800 60.2606 156.575 55.9234 0.20085 -0.342039
402000 60.2606 156.588 55.9234 0.20095 -0.119984
402200 60.2606 156.601 55.9234 0.20105 0.0817753
402400 60.2606 156.614 55.9234 0.20115 0.348162
402600 60.2606 156.627 55.9234 0.20125 0.531379
402800 60.2606 156.64 55.9234 0.20135 0.68462
403000 60.2606 156.653 55.9234 0.20145 0.761928
403200 60.2606 156.666 55.9234 0.20155 0.780736
403400 60.2606 156.679 55.9234 0.20165 0.638679
403600 60.2606 156.692 55.9234 0.20175 0.509529
403800 60.2606 156.705 55.9234 0.20185 0.283147
404000 60.2606 156.719 55.9234 0.20195 0.0707455
404200 60.2606 156.732 55.9234 0.20205 -0.145108
404400 60.2606 156.745 55.9234 0.20215 -0.351199
404600 60.2606 156.758 55.9234 0.20225 -0.519553
404800 60.2606 156.771 55.9234 0.20235 -0.641235
405000 60.2606 156.784 55.9234 0.20245 -0.72149
405200 60.2606 156.797 55.9234 0.20255 -0.682988
405400 60.2606 156.81 55.9234 0.20265 -0.623084
405600 60.2606 156.823 55.9234 0.20275 -0.480862
405800 60.2606 156.836 55.9234 0.20285 -0.285353
406000 60.2606 156.849 55.9234 0.20295 -0.110606
406200 60.2606 156.862 55.9234 0.20305 0.116035
406400 60.2606 156.875 55.9234 0.20315 0.346133
406600 60.2606 156.888 55.9234 0.20325 0.560433
406800 60.2606 156.901 55.9234 0.20335 0.6911
407000 60.2606 156.914 55.9234 0.20345 0.751378
407200 60.2606 156.927 55.9234 0.20355 0.73933
407400 60.2606 156.94 55.9234 0.20365 0.640113
407600 60.2606 156.953 55.9234 0.20375 0.450872
407800 60.2606 156.966 55.9234 0.20385 0.27424
408000 60.2606 156.979 55.9234 0.20395 0.037145
408200 60.2606 156.992 55.9234 0.20405 -0.162119
408400 60.2606 157.005 55.9234 0.20415 -0.374281
408600 60.2606 157.018 55.9234 0.20425 -0.552382
408800 60.2606 157.031 55.9234 0.20435 -0.643992
409000 60.2606 157.044 55.9234 0.20445 -0.669383
409200 60.2606 157.058 55.9234 0.20455 -0.685731
409400 60.2606 157.071 55.9234 0.20465 -0.591318
409600 60.2606 157.084 55.9234 0.20475 -0.448695
409800 60.2606 157.097 55.9234 0.20485 -0.26753
410000 60.2606 157.11 55.9234 0.20495 -0.0748168
410200 60.2606 157.123 55.9234 0.20505 0.158193
410400 60.2606 157.136 55.9234 0.20515 0.398766
410600 60.2606 157.149 55.9234 0.20525 0.559235
410800 60.2606 157.162 55.9234 0.20535 0.682172
411000 60.2606 157.175 55.9234 0.20545 0.729252
411200 60.2606 157.188 55.9234 0.20555 0.698081
411400 60.2606 157.201 55.9234 0.20565 0.606448
411600 60.2606 157.214 55.9234 0.20575 0.402876
411800 60.2606 157.227 55.9234 0.20585 0.227272
412000 60.2606 157.24 55.9234 0.20595 -0.00237826
412200 60.2606 157.253 55.9234 0.20605 -0.200918
412400 60.2606 157.266 55.9234 0.20615 -0.412588
412600 60.2606 157.279 55.9234 0.20625 -0.534874
412800 60.2606 157.292 55.9234 0.20635 -0.627416
413000 60.2606 157.305 55.9234 0.20645 -0.653534
413200 60.2606 157.318 55.9234 0.20655 -0.63378
413400 60.2606 157.331 55.9234 0.20665 -0.556331
413600 60.2606 157.344 55.9234 0.20675 -0.414313
413800 60.2606 157.357 55.9234 0.20685 -0.241321
414000 60.2606 157.37 55.9234 0.20695 0.00513364
414200 60.2606 157.383 55.9234 0.20705 0.19802
414400 60.2606 157.397 55.9234 0.20715 0.426784
414600 60.2606 157.41 55.9234 0.20725 0.536981
414800 60.2606 157.423 55.9234 0.20735 0.659179
415000 60.2606 157.436 55.9234 0.20745 0.721416
415200 60.2606 157.449 55.9234 0.20755 0.62259
415400 60.2606 157.462 55.9234 0.20765 0.549382
415600 60.2606 157.475 55.9234 0.20775 0.383702
415800 60.2606 157.488 55.9234 0.20785 0.197571
416000 60.2606 157.501 55.9234 0.20795 -0.0269924
416200 60.2606 157.514 55.9234 0.20805 -0.270267
416400 60.2606 157.527 55.9234 0.20815 -0.412921
416600 60.2606 157.54 55.9234 0.20825 -0.536191
416800 60.2606 157.553 55.9234 0.20835 -0.610092
417000 60.2606 157.566 55.9234 0.20845 -0.612984
417200 60.2606 157.579 55.9234 0.20855 -0.598217
417400 60.2606 157.592 55.9234 0.20865 -0.494988
417600 60.2606 157.605 55.9234 0.20875 -0.375481
417800 60.2606 157.618 55.9234 0.20885 -0.200052
418000 60.2606 157.631 55.9234 0.20895 0.0056976
418200 60.2606 157.644 55.9234 0.20905 0.216498
418400 60.2606 157.657 55.9234 0.20915 0.404445
418600 60.2606 157.67 55.9234 0.20925 0.570918
418800 60.2606 157.683 55.9234 0.20935 0.644404
419000 60.2606 157.696 55.9234 0.20945 0.674369
419200 60.2606 157.709 55.9234 0.20955 0.629453
419400 60.2606 157.722 55.9234 0.20965 0.503279
419600 60.2606 157.736 55.9234 0.20975 0.348889
419800 60.2606 157.749 55.9234 0.20985 0.142321
420000 60.2606 157.762 55.9234 0.20995 -0.0583168
420200 60.2606 157.775 55.9234 0.21005 -0.252043
420400 60.2606 157.788 55.9234 0.21015 -0.390552
420600 60.2606 157.801 55.9234 0.21025 -0.540827
420800 60.2606 157.814 55.9234 0.21035 -0.604185
421000 60.2606 157.827 55.9234 0.21045 -0.643724
421200 60.2606 157.84 55.9234 0.21055 -0.574771
421400 60.2606 157.853 55.9234 0.21065 -0.477264
421600 60.2606 157.866 55.9234 0.21075 -0.365511
421800 60.2606 157.879 55.9234 0.21085 -0.177359
422000 60.2606 157.892 55.9234 0.21095 0.055123
422200 60.2606 157.905 55.9234 0.21105 0.245302
422400 60.2606 157.918 55.9234 0.21115 0.439683
422600 60.2606 157.931 55.9234 0.21125 0.569934
422800 60.2606 157.944 55.9234 0.21135 0.613205
423000 60.2606 157.957 55.9234 0.21145 0.662582
423200 60.2606 157.97 55.9234 0.21155 0.635567
423400 60.2606 157.983 55.9234 0.21165 0.477212
423600 60.2606 157.996 55.9234 0.21175 0.30386
423800 60.2606 158.009 55.9234 0.21185 0.123832
424000 60.2606 158.022 55.9234 0.21195 -0.0899488
424200 60.2606 158.035 55.9234 0.21205 -0.273443
424400 60.2606 158.048 55.9234 0.21215 -0.445931
424600 60.2606 158.062 55.9234 0.21225 -0.51676
424800 60.2606 158.075 55.9234 0.21235 -0.617354
425000 60.2606 158.088 55.9234 0.21245 -0.586503
425200 60.2606 158.101 55.9234 0.21255 -0.561233
425400 60.2606 158.114 55.9234 0.21265 -0.459588
425600 60.2606 158.127 55.9234 0.21275 -0.29966
425800 60.2606 158.14 55.9234 0.21285 -0.11747
426000 60.2606 158.153 55.9234 0.21295 0.0525382
426200 60.2606 158.166 55.9234 0.21305 0.232353
426400 60.2606 158.179 55.9234 0.21315 0.455886
426600 60.2606 158.192 55.9234 0.21325 0.563367
426800 60.2606 158.205 55.9234 0.21335 0.635404
427000 60.2606 158.218 55.9234 0.21345 0.634416
427200 60.2606 158.231 55.9234 0.21355 0.566148
427400 60.2606 158.244 55.9234 0.21365 0.459806
427600 60.2606 158.257 55.9234 0.21375 0.266859
427800 60.2606 158.27 55.9234 0.21385 0.109489
428000 60.2606 158.283 55.9234 0.21395 -0.101122
428200 60.2606 158.296 55.9234 0.21405 -0.288371
428400 60.2606 158.309 55.9234 0.21415 -0.440211
428600 60.2606 158.322 55.9234 0.21425 -0.51778
428800 60.2606 158.335 55.9234 0.21435 -0.580639
429000 60.2606 158.348 55.9234 0.21445 -0.631463
429200 60.2606 158.361 55.9234 0.21455 -0.539271
429400 60.2606 158.374 55.9234 0.21465 -0.43009
429600 60.2606 158.387 55.9234 0.21475 -0.273507
429800 60.2606 158.401 55.9234 0.21485 -0.0937492
430000 60.2606 158.414 55.9234 0.21495 0.0938876
430200 60.2606 158.427 55.9234 0.21505 0.275324
430400 60.2606 158.44 55.9234 0.21515 0.443956
430600 60.2606 158.453 55.9234 0.21525 0.570232
430800 60.2606 158.466 55.9234 0.21535 0.639976
431000 60.2606 158.479 55.9234 0.21545 0.617474
431200 60.2606 158.492 55.9234 0.21555 0.592304
431400 60.2606 158.505 55.9234 0.21565 0.418535
431600 60.2606 158.518 55.9234 0.21575 0.238248
431800 60.2606 158.531 55.9234 0.21585 0.0420919
432000 60.2606 158.544 55.9234 0.21595 -0.131716
432200 60.2606 158.557 55.9234 0.21605 -0.290874
432400 60.2606 158.57 55.9234 0.21615 -0.46197
432600 60.2606 158.583 55.9234 0.21625 -0.543992
432800 60.2606 158.596 55.9234 0.21635 -0.580618
433000 60.2606 158.609 55.9234 0.21645 -0.571849
433200 60.2606 158.622 55.9234 0.21655 -0.516399
433400 60.2606 158.635 55.9234 0.21665 -0.426481
433600 60.2606 158.648 55.9234 0.21675 -0.248867
433800 60.2606 158.661 55.9234 0.21685 -0.0633697
434000 60.2606 158.674 55.9234 0.21695 0.141025
434200 60.2606 158.687 55.9234 0.21705 0.316401
434400 60.2606 158.7 55.9234 0.21715 0.467352
434600 60.2606 158.713 55.9234 0.21725 0.573479
434800 60.2606 158.726 55.9234 0.21735 0.61076
435000 60.2606 158.74 55.9234 0.21745 0.59762
435200 60.2606 158.753 55.9234 0.21755 0.500567
435400 60.2606 158.766 55.9234 0.21765 0.410125
435600 60.2606 158.779 55.9234 0.21775 0.245814
435800 60.2606 158.792 55.9234 0.21785 0.0448916
436000 60.2606 158.805 55.9234 0.21795 -0.169038
436200 60.2606 158.818 55.9234 0.21805 -0.333202
436400 60.2606 158.831 55.9234 0.21815 -0.482636
436600 60.2606 158.844 55.9234 0.21825 -0.54646
436800 60.2606 158.857 55.9234 0.21835 -0.571404
437000 60.2606 158.87 55.9234 0.21845 -0.528044
437200 60.2606 158.883 55.9234 0.21855 -0.476868
437400 60.2606 158.896 55.9234 0.21865 -0.370034
437600 60.2606 158.909 55.9234 0.21875 -0.236609
437800 60.2606 158.922 55.9234 0.21885 -0.0358594
438000 60.2606 158.935 55.9234 0.21895 0.147559
438200 60.2606 158.948 55.9234 0.21905 0.328276
438400 60.2606 158.961 55.9234 0.21915 0.469153
438600 60.2606 158.974 55.9234 0.21925 0.595534
438800 60.2606 158.987 55.9234 0.21935 0.597652
439000 60.2606 159 55.9234 0.21945 0.577096
439200 60.2606 159.013 55.9234 0.21955 0.470307
439400 60.2606 159.026 55.9234 0.21965 0.347268
439600 60.2606 159.039 55.9234 0.21975 0.186592
439800 60.2606 159.052 55.9234 0.21985 -0.00473019
440000 60.2606 159.065 55.9234 0.21995 -0.180999
440200 60.2606 159.079 55.9234 0.22005 -0.319828
440400 60.2606 159.092 55.9234 0.22015 -0.45958
440600 60.2606 159.105 55.9234 0.22025 -0.525827
440800 60.2606 159.118 55.9234 0.22035 -0.579751
441000 60.2606 159.131 55.9234 0.22045 -0.505547
441200 60.2606 159.144 55.9234 0.22055 -0.467902
441400 60.2606 159.157 55.9234 0.22065 -0.330792
441600 60.2606 159.17 55.9234 0.22075 -0.194565
441800 60.2606 159.183 55.9234 0.22085 -0.0297385
442000 60.2606 159.196 55.9234 0.22095 0.152195
442200 60.2606 159.209 55.9234 0.22105 0.330411
442400 60.2606 159.222 55.9234 0.22115 0.475091
442600 60.2606 159.235 55.9234 0.22125 0.558448
442800 60.2606 159.248 55.9234 0.22135 0.610213
443000 60.2606 159.261 55.9234 0.22145 0.529993
443200 60.2606 159.274 55.9234 0.22155 0.474433
443400 60.2606 159.287 55.9234 0.22165 0.314466
443600 60.2606 159.3 55.9234 0.22175 0.160152
443800 60.2606 159.313 55.9234 0.22185 -0.0185379
444000 60.2606 159.326 55.9234 0.22195 -0.196517
444200 60.2606 159.339 55.9234 0.22205 -0.319155
444400 60.2606 159.352 55.9234 0.22215 -0.468407
444600 60.2606 159.365 55.9234 0.22225 -0.504006
444800 60.2606 159.378 55.9234 0.22235 -0.569903
445000 60.2606 159.391 55.9234 0.22245 -0.503353
445200 60.2606 159.404 55.9234 0.22255 -0.433007
445400 60.2606 159.418 55.9234 0.22265 -0.312245
445600 60.2606 159.431 55.9234 0.22275 -0.153384
445800 60.2606 159.444 55.9234 0.22285 0.0296549
446000 60.2606 159.457 55.9234 0.22295 0.174189
446200 60.2606 159.47 55.9234 0.22305 0.322879
446400 60.2606 159.483 55.9234 0.22315 0.458426
446600 60.2606 159.496 55.9234 0.22325 0.558068
446800 60.2606 159.509 55.9234 0.22335 0.587101
447000 60.2606 159.522 55.9234 0.22345 0.503603
447200 60.2606 159.535 55.9234 0.22355 0.457708
447400 60.2606 159.548 55.9234 0.22365 0.264549
447600 60.2606 159.561 55.9234 0.22375 0.148314
447800 60.2606 159.574 55.9234 0.22385 -0.0618824
448000 60.2606 159.587 55.9234 0.22395 -0.195504
448200 60.2606 159.6 55.9234 0.22405 -0.332317
448400 60.2606 159.613 55.9234 0.22415 -0.441149
448600 60.2606 159.626 55.9234 0.22425 -0.505149
448800 60.2606 159.639 55.9234 0.22435 -0.550096
449000 60.2606 159.652 55.9234 0.22445 -0.517758
449200 60.2606 159.665 55.9234 0.22455 -0.387151
449400 60.2606 159.678 55.9234 0.22465 -0.294378
449600 60.2606 159.691 55.9234 0.22475 -0.0894715
449800 60.2606 159.704 55.9234 0.22485 0.0399006
450000 60.2606 159.717 55.9234 0.22495 0.191943
450200 60.2606 159.73 55.9234 0.22505 0.314944
450400 60.2606 159.743 55.9234 0.22515 0.469182
450600 60.2606 159.757 55.9234 0.22525 0.548613
450800 60.2606 159.77 55.9234 0.22535 0.555089
451000 60.2606 159.783 55.9234 0.22545 0.516297
451200 60.2606 159.796 55.9234 0.22555 0.399161
451400 60.2606 159.809 55.9234 0.22565 0.25957
451600 60.2606 159.822 55.9234 0.22575 0.106606
451800 60.2606 159.835 55.9234 0.22585 -0.0869296
452000 60.2606 159.848 55.9234 0.22595 -0.207405
452200 60.2606 159.861 55.9234 0.22605 -0.367677
452400 60.2606 159.874 55.9234 0.22615 -0.436448
452600 60.2606 159.887 55.9234 0.22625 -0.507112
452800 60.2606 159.9 55.9234 0.22635 -0.527277
453000 60.2606 159.913 55.9234 0.22645 -0.456686
453200 60.2606 159.926 55.9234 0.22655 -0.380426
453400 60.2606 159.939 55.9234 0.22665 -0.265254
453600 60.2606 159.952 55.9234 0.22675 -0.0818647
453800 60.2606 159.965 55.9234 0.22685 0.0515381
454000 60.2606 159.978 55.9234 0.22695 0.218997
454200 60.2606 159.991 55.9234 0.22705 0.370295
454400 60.2606 160.004 55.9234 0.22715 0.481065
454600 60.2606 160.017 55.9234 0.22725 0.542465
454800 60.2606 160.03 55.9234 0.22735 0.523704
455000 60.2606 160.043 55.9234 0.22745 0.493849
455200 60.2606 160.056 55.9234 0.22755 0.372108
455400 60.2606 160.069 55.9234 0.22765 0.244254
455600 60.2606 160.083 55.9234 0.22775 0.0852243
455800 60.2606 160.096 55.9234 0.22785 -0.132024
456000 60.2606 160.109 55.9234 0.22795 -0.260635
456200 60.2606 160.122 55.9234 0.22805 -0.3718
456400 60.2606 160.135 55.9234 0.22815 -0.460233
456600 60.2606 160.148 55.9234 0.22825 -0.494246
456800 60.2606 160.161 55.9234 0.22835 -0.507135
457000 60.2606 160.174 55.9234 0.22845 -0.421751
457200 60.2606 160.187 55.9234 0.22855 -0.354117
457400 60.2606 160.2 55.9234 0.22865 -0.219849
457600 60.2606 160.213 55.9234 0.22875 -0.0969838
457800 60.2606 160.226 55.9234 0.22885 0.0736975
458000 60.2606 160.239 55.9234 0.22895 0.264341
458200 60.2606 160.252 55.9234 0.22905 0.402713
458400 60.2606 160.265 55.9234 0.22915 0.481885
458600 60.2606 160.278 55.9234 0.22925 0.571305
458800 60.2606 160.291 55.9234 0.22935 0.51313
459000 60.2606 160.304 55.9234 0.22945 0.439719
459200 60.2606 160.317 55.9234 0.22955 0.335989
459400 60.2606 160.33 55.9234 0.22965 0.196724
459600 60.2606 160.343 55.9234 0.22975 0.0441845
459800 60.2606 160.356 55.9234 0.22985 -0.118304
460000 60.2606 160.369 55.9234 0.22995 -0.266844
460200 60.2606 160.382 55.9234 0.23005 -0.396297
460400 60.2606 160.395 55.9234 0.23015 -0.465009
460600 60.2606 160.408 55.9234 0.23025 -0.493776
460800 60.2606 160.422 55.9234 0.23035 -0.493601
461000 60.2606 160.435 55.9234 0.23045 -0.406608
461200 60.2606 160.448 55.9234 0.23055 -0.342181
461400 60.2606 160.461 55.9234 0.23065 -0.211863
461600 60.2606 160.474 55.9234 0.23075 -0.0150247
461800 60.2606 160.487 55.9234 0.23085 0.11856
462000 60.2606 160.5 55.9234 0.23095 0.265912
462200 60.2606 160.513 55.9234 0.23105 0.389098
462400 60.2606 160.526 55.9234 0.23115 0.510488
462600 60.2606 160.539 55.9234 0.23125 0.522618
462800 60.2606 160.552 55.9234 0.23135 0.494178
463000 60.2606 160.565 55.9234 0.23145 0.432474
463200 60.2606 160.578 55.9234 0.23155 0.34333
463400 60.2606 160.591 55.9234 0.23165 0.146934
463600 60.2606 160.604 55.9234 0.23175 0.0101083
463800 60.2606 160.617 55.9234 0.23185 -0.154911
464000 60.2606 160.63 55.9234 0.23195 -0.288922
464200 60.2606 160.643 55.9234 0.23205 -0.394939
464400 60.2606 160.656 55.9234 0.23215 -0.469672
464600 60.2606 160.669 55.9234 0.23225 -0.487319
464800 60.2606 160.682 55.9234 0.23235 -0.4681
465000 60.2606 160.695 55.9234 0.23245 -0.41339
465200 60.2606 160.708 55.9234 0.23255 -0.279435
465400 60.2606 160.721 55.9234 0.23265 -0.15851
465600 60.2606 160.734 55.9234 0.23275 -0.0145559
465800 60.2606 160.747 55.9234 0.23285 0.150462
466000 60.2606 160.761 55.9234 0.23295 0.309766
466200 60.2606 160.774 55.9234 0.23305 0.404017
466400 60.2606 160.787 55.9234 0.23315 0.462884
466600 60.2606 160.8 55.9234 0.23325 0.531439
466800 60.2606 160.813 55.9234 0.23335 0.457561
467000 60.2606 160.826 55.9234 0.23345 0.410782
467200 60.2606 160.839 55.9234 0.23355 0.255962
467400 60.2606 160.852 55.9234 0.23365 0.151489
467600 60.2606 160.865 55.9234 0.23375 -0.0213482
467800 60.2606 160.878 55.9234 0.23385 -0.177668
468000 60.2606 160.891 55.9234 0.23395 -0.299577
468200 60.2606 160.904 55.9234 0.23405 -0.403146
468400 60.2606 160.917 55.9234 0.23415 -0.453516
468600 60.2606 160.93 55.9234 0.23425 -0.471565
468800 60.2606 160.943 55.9234 0.23435 -0.451673
469000 60.2606 160.956 55.9234 0.23445 -0.402621
469200 60.2606 160.969 55.9234 0.23455 -0.266608
469400 60.2606 160.982 55.9234 0.23465 -0.12702
469600 60.2606 160.995 55.9234 0.23475 0.0197506
469800 60.2606 161.008 55.9234 0.23485 0.180123
470000 60.2606 161.021 55.9234 0.23495 0.31698
470200 60.2606 161.034 55.9234 0.23505 0.395898
470400 60.2606 161.047 55.9234 0.23515 0.489169
470600 60.2606 161.06 55.9234 0.23525 0.494702
470800 60.2606 161.073 55.9234 0.23535 0.460622
471000 60.2606 161.086 55.9234 0.23545 0.36817
471200 60.2606 161.1 55.9234 0.23555 0.271442
471400 60.2606 161.113 55.9234 0.23565 0.117585
471600 60.2606 161.126 55.9234 0.23575 -0.0472217
471800 60.2606 161.139 55.9234 0.23585 -0.21693
472000 60.2606 161.152 55.9234 0.23595 -0.313643
472200 60.2606 161.165 55.9234 0.23605 -0.363167
472400 60.2606 161.178 55.9234 0.23615 -0.440014
472600 60.2606 161.191 55.9234 0.23625 -0.47248
472800 60.2606 161.204 55.9234 0.23635 -0.421546
473000 60.2606 161.217 55.9234 0.23645 -0.380946
473200 60.2606 161.23 55.9234 0.23655 -0.257866
473400 60.2606 161.243 55.9234 0.23665 -0.0864965
473600 60.2606 161.256 55.9234 0.23675 0.0272677
473800 60.2606 161.269 55.9234 0.23685 0.207831
474000 60.2606 161.282 55.9234 0.23695 0.290708
474200 60.2606 161.295 55.9234 0.23705 0.40266
474400 60.2606 161.308 55.9234 0.23715 0.476399
474600 60.2606 161.321 55.9234 0.23725 0.463803
474800 60.2606 161.334 55.9234 0.23735 0.455724
475000 60.2606 161.347 55.9234 0.23745 0.354534
475200 60.2606 161.36 55.9234 0.23755 0.238131
475400 60.2606 161.373 55.9234 0.23765 0.0950154
475600 60.2606 161.386 55.9234 0.23775 -0.0571011
475800 60.2606 161.399 55.9234 0.23785 -0.203249
476000 60.2606 161.412 55.9234 0.23795 -0.326031
476200 60.2606 161.425 55.9234 0.23805 -0.3972
476400 60.2606 161.439 55.9234 0.23815 -0.468171
476600 60.2606 161.452 55.9234 0.23825 -0.46134
476800 60.2606 161.465 55.9234 0.23835 -0.403995
477000 60.2606 161.478 55.9234 0.23845 -0.318176
477200 60.2606 161.491 55.9234 0.23855 -0.220027
477400 60.2606 161.504 55.9234 0.23865 -0.0997021
477600 60.2606 161.517 55.9234 0.23875 0.0795391
477800 60.2606 161.53 55.9234 0.23885 0.193073
478000 60.2606 161.543 55.9234 0.23895 0.310443
478200 60.2606 161.556 55.9234 0.23905 0.449621
478400 60.2606 161.569 55.9234 0.23915 0.472253
478600 60.2606 161.582 55.9234 0.23925 0.470357
478800 60.2606 161.595 55.9234 0.23935 0.421533
479000 60.2606 161.608 55.9234 0.23945 0.311316
479200 60.2606 161.621 55.9234 0.23955 0.170049
479400 60.2606 161.634 55.9234 0.23965 0.0817189
479600 60.2606 161.647 55.9234 0.23975 -0.0825421
479800 60.2606 161.66 55.9234 0.23985 -0.183516
480000 60.2606 161.673 55.9234 0.23995 -0.332237
480200 60.2606 161.686 55.9234 0.24005 -0.428673
480400 60.2606 161.699 55.9234 0.24015 -0.457508
480600 60.2606 161.712 55.9234 0.24025 -0.430899
480800 60.2606 161.725 55.9234 0.24035 -0.399687
481000 60.2606 161.738 55.9234 0.24045 -0.29561
481200 60.2606 161.751 55.9234 0.24055 -0.18457
481400 60.2606 161.764 55.9234 0.24065 -0.0642897
481600 60.2606 161.778 55.9234 0.24075 0.0816564
481800 60.2606 161.791 55.9234 0.24085 0.211474
482000 60.2606 161.804 55.9234 0.24095 0.333935
482200 60.2606 161.817 55.9234 0.24105 0.394744
482400 60.2606 161.83 55.9234 0.24115 0.477682
482600 60.2606 161.843 55.9234 0.24125 0.502163
482800 60.2606 161.856 55.9234 0.24135 0.385169
483000 60.2606 161.869 55.9234 0.24145 0.316227
483200 60.2606 161.882 55.9234 0.24155 0.180461
483400 60.2606 161.895 55.9234 0.24165 0.0155437
483600 60.2606 161.908 55.9234 0.24175 -0.101964
483800 60.2606 161.921 55.9234 0.24185 -0.238213
484000 60.2606 161.934 55.9234 0.24195 -0.330965
484200 60.2606 161.947 55.9234 0.24205 -0.418678
484400 60.2606 161.96 55.9234 0.24215 -0.438419
484600 60.2606 161.973 55.9234 0.24225 -0.443244
484800 60.2606 161.986 55.9234 0.24235 -0.377012
485000 60.2606 161.999 55.9234 0.24245 -0.312043
485200 60.2606 162.012 55.9234 0.24255 -0.174194
485400 60.2606 162.025 55.9234 0.24265 -0.0207763
485600 60.2606 162.038 55.9234 0.24275 0.125512
485800 60.2606 162.051 55.9234 0.24285 0.247726
486000 60.2606 162.064 55.9234 0.24295 0.371161
486200 60.2606 162.077 55.9234 0.24305 0.42681
486400 60.2606 162.09 55.9234 0.24315 0.444408
486600 60.2606 162.103 55.9234 0.24325 0.454685
486800 60.2606 162.117 55.9234 0.24335 0.388507
487000 60.2606 162.13 55.9234 0.24345 0.295386
487200 60.2606 162.143 55.9234 0.24355 0.188043
487400 60.2606 162.156 55.9234 0.24365 -0.0335838
487600 60.2606 162.169 55.9234 0.24375 -0.144919
487800 60.2606 162.182 55.9234 0.24385 -0.28095
488000 60.2606 162.195 55.9234 0.24395 -0.351458
488200 60.2606 162.208 55.9234 0.24405 -0.415788
488400 60.2606 162.221 55.9234 0.24415 -0.410815
488600 60.2606 162.234 55.9234 0.24425 -0.440586
488800 60.2606 162.247 55.9234 0.24435 -0.362371
489000 60.2606 162.26 55.9234 0.24445 -0.277745
489200 60.2606 162.273 55.9234 0.24455 -0.15933
489400 60.2606 162.286 55.9234 0.24465 -0.00863793
489600 60.2606 162.299 55.9234 0.24475 0.148981
489800 60.2606 162.312 55.9234 0.24485 0.296265
490000 60.2606 162.325 55.9234 0.24495 0.362957
490200 60.2606 162.338 55.9234 0.24505 0.440319
490400 60.2606 162.351 55.9234 0.24515 0.468361
490600 60.2606 162.364 55.9234 0.24525 0.40913
490800 60.2606 162.377 55.9234 0.24535 0.339769
491000 60.2606 162.39 55.9234 0.24545 0.278692
491200 60.2606 162.403 55.9234 0.24555 0.13534
491400 60.2606 162.416 55.9234 0.24565 -0.026006
491600 60.2606 162.429 55.9234 0.24575 -0.151024
491800 60.2606 162.443 55.9234 0.24585 -0.302258
492000 60.2606 162.456 55.9234 0.24595 -0.354592
492200 60.2606 162.469 55.9234 0.24605 -0.419284
492400 60.2606 162.482 55.9234 0.24615 -0.430165
492600 60.2606 162.495 55.9234 0.24625 -0.372071
492800 60.2606 162.508 55.9234 0.24635 -0.374396
493000 60.2606 162.521 55.9234 0.24645 -0.234371
493200 60.2606 162.534 55.9234 0.24655 -0.118061
493400 60.2606 162.547 55.9234 0.24665 0.00688207
493600 60.2606 162.56 55.9234 0.24675 0.155999
493800 60.2606 162.573 55.9234 0.24685 0.288706
494000 60.2606 162.586 55.9234 0.24695 0.36209
494200 60.2606 162.599 55.9234 0.24705 0.459451
494400 60.2606 162.612 55.9234 0.24715 0.446679
494600 60.2606 162.625 55.9234 0.24725 0.423112
494800 60.2606 162.638 55.9234 0.24735 0.333822
495000 60.2606 162.651 55.9234 0.24745 0.249662
495200 60.2606 162.664 55.9234 0.24755 0.0895416
495400 60.2606 162.677 55.9234 0.24765 -0.0493019
495600 60.2606 162.69 55.9234 0.24775 -0.186004
495800 60.2606 162.703 55.9234 0.24785 -0.312528
496000 60.2606 162.716 55.9234 0.24795 -0.363177
496200 60.2606 162.729 55.9234 0.24805 -0.416372
496400 60.2606 162.742 55.9234 0.24815 -0.407431
496600 60.2606 162.755 55.9234 0.24825 -0.389206
496800 60.2606 162.768 55.9234 0.24835 -0.321437
497000 60.2606 162.782 55.9234 0.24845 -0.233917
497200 60.2606 162.795 55.9234 0.24855 -0.0948605
497400 60.2606 162.808 55.9234 0.24865 0.0451537
497600 60.2606 162.821 55.9234 0.24875 0.17529
497800 60.2606 162.834 55.9234 0.24885 0.296385
498000 60.2606 162.847 55.9234 0.24895 0.415598
498200 60.2606 162.86 55.9234 0.24905 0.424606
498400 60.2606 162.873 55.9234 0.24915 0.445604
498600 60.2606 162.886 55.9234 0.24925 0.379163
498800 60.2606 162.899 55.9234 0.24935 0.304831
499000 60.2606 162.912 55.9234 0.24945 0.221223
499200 60.2606 162.925 55.9234 0.24955 0.0745775
499400 60.2606 162.938 55.9234 0.24965 -0.0651851
499600 60.2606 162.951 55.9234 0.24975 -0.195027
499800 60.2606 162.964 55.9234 0.24985 -0.305768
500000 60.2606 162.977 55.9234 0.24995 -0.386834
500200 60.2606 162.99 55.9234 0.25005 -0.396793
500400 60.2606 163.003 55.9234 0.25015 -0.414673
500600 60.2606 163.016 55.9234 0.25025 -0.364202
500800 60.2606 163.029 55.9234 0.25035 -0.295663
501000 60.2606 163.042 55.9234 0.25045 -0.198649
501200 60.2606 163.055 55.9234 0.25055 -0.0704459
501400 60.2606 163.068 55.9234 0.25065 0.0713198
501600 60.2606 163.081 55.9234 0.25075 0.19623
501800 60.2606 163.094 55.9234 0.25085 0.314827
502000 60.2606 163.107 55.9234 0.25095 0.376438
502200 60.2606 163.121 55.9234 0.25105 0.435718
502400 60.2606 163.134 55.9234 0.25115 0.415644
502600 60.2606 163.147 55.9234 0.25125 0.373229
502800 60.2606 163.16 55.9234 0.25135 0.298387
503000 60.2606 163.173 55.9234 0.25145 0.18616
503200 60.2606 163.186 55.9234 0.25155 0.0272148
503400 60.2606 163.199 55.9234 0.25165 -0.09677
503600 60.2606 163.212 55.9234 0.25175 -0.198147
503800 60.2606 163.225 55.9234 0.25185 -0.305127
504000 60.2606 163.238 55.9234 0.25195 -0.381865
504200 60.2606 163.251 55.9234 0.25205 -0.388854
504400 60.2606 163.264 55.9234 0.25215 -0.38599
504600 60.2606 163.277 55.9234 0.25225 -0.372619
504800 60.2606 163.29 55.9234 0.25235 -0.283857
505000 60.2606 163.303 55.9234 0.25245 -0.158891
505200 60.2606 163.316 55.9234 0.25255 -0.0389042
505400 60.2606 163.329 55.9234 0.25265 0.0753244
505600 60.2606 163.342 55.9234 0.25275 0.211056
505800 60.2606 163.355 55.9234 0.25285 0.344652
506000 60.2606 163.368 55.9234 0.25295 0.393342
506200 60.2606 163.381 55.9234 0.25305 0.408234
506400 60.2606 163.394 55.9234 0.25315 0.394949
506600 60.2606 163.407 55.9234 0.25325 0.371692
506800 60.2606 163.42 55.9234 0.25335 0.247657
507000 60.2606 163.433 55.9234 0.25345 0.183526
507200 60.2606 163.446 55.9234 0.25355 0.00422928
507400 60.2606 163.46 55.9234 0.25365 -0.117844
507600 60.2606 163.473 55.9234 0.25375 -0.244844
507800 60.2606 163.486 55.9234 0.25385 -0.293273
508000 60.2606 163.499 55.9234 0.25395 -0.375819
508200 60.2606 163.512 55.9234 0.25405 -0.39517
508400 60.2606 163.525 55.9234 0.25415 -0.368608
508600 60.2606 163.538 55.9234 0.25425 -0.355512
508800 60.2606 163.551 55.9234 0.25435 -0.242565
509000 60.2606 163.564 55.9234 0.25445 -0.152729
509200 60.2606 163.577 55.9234 0.25455 -0.0292507
509400 60.2606 163.59 55.9234 0.25465 0.10862
509600 60.2606 163.603 55.9234 0.25475 0.217274
509800 60.2606 163.616 55.9234 0.25485 0.342587
510000 60.2606 163.629 55.9234 0.25495 0.419095
510200 60.2606 163.642 55.9234 0.25505 0.395763
510400 60.2606 163.655 55.9234 0.25515 0.39662
510600 60.2606 163.668 55.9234 0.25525 0.337189
510800 60.2606 163.681 55.9234 0.25535 0.233936
511000 60.2606 163.694 55.9234 0.25545 0.119107
511200 60.2606 163.707 55.9234 0.25555 0.00557844
511400 60.2606 163.72 55.9234 0.25565 -0.148756
511600 60.2606 163.733 55.9234 0.25575 -0.22653
511800 60.2606 163.746 55.9234 0.25585 -0.324796
512000 60.2606 163.759 55.9234 0.25595 -0.366038
512200 60.2606 163.772 55.9234 0.25605 -0.396201
512400 60.2606 163.785 55.9234 0.25615 -0.370733
512600 60.2606 163.799 55.9234 0.25625 -0.315065
512800 60.2606 163.812 55.9234 0.25635 -0.215231
513000 60.2606 163.825 55.9234 0.25645 -0.132072
513200 60.2606 163.838 55.9234 0.25655 0.00372613
513400 60.2606 163.851 55.9234 0.25665 0.142637
513600 60.2606 163.864 55.9234 0.25675 0.248381
513800 60.2606 163.877 55.9234 0.25685 0.337093
514000 60.2606 163.89 55.9234 0.25695 0.394848
514200 60.2606 163.903 55.9234 0.25705 0.417677
514400 60.2606 163.916 55.9234 0.25715 0.370322
514600 60.2606 163.929 55.9234 0.25725 0.299108
514800 60.2606 163.942 55.9234 0.25735 0.204702
515000 60.2606 163.955 55.9234 0.25745 0.0787363
515200 60.2606 163.968 55.9234 0.25755 -0.0156032
515400 60.2606 163.981 55.9234 0.25765 -0.145228
515600 60.2606 163.994 55.9234 0.25775 -0.257047
515800 60.2606 164.007 55.9234 0.25785 -0.31514
516000 60.2606 164.02 55.9234 0.25795 -0.380287
516200 60.2606 164.033 55.9234 0.25805 -0.382729
516400 60.2606 164.046 55.9234 0.25815 -0.375202
516600 60.2606 164.059 55.9234 0.25825 -0.278272
516800 60.2606 164.072 55.9234 0.25835 -0.218678
517000 60.2606 164.085 55.9234 0.25845 -0.0697089
517200 60.2606 164.098 55.9234 0.25855 0.023454
517400 60.2606 164.111 55.9234 0.25865 0.145555
517600 60.2606 164.124 55.9234 0.25875 0.251867
517800 60.2606 164.138 55.9234 0.25885 0.356665
518000 60.2606 164.151 55.9234 0.25895 0.400757
518200 60.2606 164.164 55.9234 0.25905 0.390191
518400 60.2606 164.177 55.9234 0.25915 0.36191
518600 60.2606 164.19 55.9234 0.25925 0.285783
518800 60.2606 164.203 55.9234 0.25935 0.174667
519000 60.2606 164.216 55.9234 0.25945 0.0639854
519200 60.2606 164.229 55.9234 0.25955 -0.0386131
519400 60.2606 164.242 55.9234 0.25965 -0.160469
519600 60.2606 164.255 55.9234 0.25975 -0.256399
519800 60.2606 164.268 55.9234 0.25985 -0.352816
520000 60.2606 164.281 55.9234 0.25995 -0.36751
520200 60.2606 164.294 55.9234 0.26005 -0.388246
520400 60.2606 164.307 55.9234 0.26015 -0.334898
520600 60.2606 164.32 55.9234 0.26025 -0.265637
520800 60.2606 164.333 55.9234 0.26035 -0.155177
521000 60.2606 164.346 55.9234 0.26045 -0.0563834
521200 60.2606 164.359 55.9234 0.26055 0.0386459
521400 60.2606 164.372 55.9234 0.26065 0.169582
521600 60.2606 164.385 55.9234 0.26075 0.248229
521800 60.2606 164.398 55.9234 0.26085 0.34508
522000 60.2606 164.411 55.9234 0.26095 0.389548
522200 60.2606 164.424 55.9234 0.26105 0.383521
522400 60.2606 164.437 55.9234 0.26115 0.358894
522600 60.2606 164.45 55.9234 0.26125 0.265697
522800 60.2606 164.464 55.9234 0.26135 0.140951
523000 60.2606 164.477 55.9234 0.26145 0.0633295
523200 60.2606 164.49 55.9234 0.26155 -0.0831154
523400 60.2606 164.503 55.9234 0.26165 -0.178378
523600 60.2606 164.516 55.9234 0.26175 -0.274684
523800 60.2606 164.529 55.9234 0.26185 -0.329591
524000 60.2606 164.542 55.9234 0.26195 -0.355429
524200 60.2606 164.555 55.9234 0.26205 -0.346318
524400 60.2606 164.568 55.9234 0.26215 -0.325144
524600 60.2606 164.581 55.9234 0.26225 -0.271851
524800 60.2606 164.594 55.9234 0.26235 -0.144896
525000 60.2606 164.607 55.9234 0.26245 -0.0369835
525200 60.2606 164.62 55.9234 0.26255 0.0907635
525400 60.2606 164.633 55.9234 0.26265 0.167089
525600 60.2606 164.646 55.9234 0.26275 0.274174
525800 60.2606 164.659 55.9234 0.26285 0.334287
526000 60.2606 164.672 55.9234 0.26295 0.364588
526200 60.2606 164.685 55.9234 0.26305 0.382212
526400 60.2606 164.698 55.9234 0.26315 0.333303
526600 60.2606 164.711 55.9234 0.26325 0.235885
526800 60.2606 164.724 55.9234 0.26335 0.140178
527000 60.2606 164.737 55.9234 0.26345 0.00981623
527200 60.2606 164.75 55.9234 0.26355 -0.0937392
527400 60.2606 164.763 55.9234 0.26365 -0.192529
527600 60.2606 164.776 55.9234 0.26375 -0.268064
527800 60.2606 164.789 55.9234 0.26385 -0.332988
528000 60.2606 164.803 55.9234 0.26395 -0.342801
528200 60.2606 164.816 55.9234 0.26405 -0.331082
528400 60.2606 164.829 55.9234 0.26415 -0.317574
528600 60.2606 164.842 55.9234 0.26425 -0.251475
528800 60.2606 164.855 55.9234 0.26435 -0.132169
529000 60.2606 164.868 55.9234 0.26445 -0.0276536
529200 60.2606 164.881 55.9234 0.26455 0.10558
529400 60.2606 164.894 55.9234 0.26465 0.220761
529600 60.2606 164.907 55.9234 0.26475 0.300273
529800 60.2606 164.92 55.9234 0.26485 0.333929
530000 60.2606 164.933 55.9234 0.26495 0.367809
530200 60.2606 164.946 55.9234 0.26505 0.359297
530400 60.2606 164.959 55.9234 0.26515 0.28723
530600 60.2606 164.972 55.9234 0.26525 0.233396
530800 60.2606 164.985 55.9234 0.26535 0.135469
531000 60.2606 164.998 55.9234 0.26545 -0.0137796
531200 60.2606 165.011 55.9234 0.26555 -0.103466
531400 60.2606 165.024 55.9234 0.26565 -0.214316
531600 60.2606 165.037 55.9234 0.26575 -0.310628
531800 60.2606 165.05 55.9234 0.26585 -0.357996
532000 60.2606 165.063 55.9234 0.26595 -0.350376
532200 60.2606 165.076 55.9234 0.26605 -0.347183
532400 60.2606 165.089 55.9234 0.26615 -0.265999
532600 60.2606 165.102 55.9234 0.26625 -0.210474
532800 60.2606 165.115 55.9234 0.26635 -0.103202
533000 60.2606 165.128 55.9234 0.26645 -0.018546
533200 60.2606 165.142 55.9234 0.26655 0.111674
533400 60.2606 165.155 55.9234 0.26665 0.224584
533600 60.2606 165.168 55.9234 0.26675 0.333344
533800 60.2606 165.181 55.9234 0.26685 0.371742
534000 60.2606 165.194 55.9234 0.26695 0.366892
534200 60.2606 165.207 55.9234 0.26705 0.353262
534400 60.2606 165.22 55.9234 0.26715 0.273084
534600 60.2606 165.233 55.9234 0.26725 0.200239
534800 60.2606 165.246 55.9234 0.26735 0.0758626
535000 60.2606 165.259 55.9234 0.26745 -0.0215472
535200 60.2606 165.272 55.9234 0.26755 -0.122802
535400 60.2606 165.285 55.9234 0.26765 -0.247756
535600 60.2606 165.298 55.9234 0.26775 -0.293794
535800 60.2606 165.311 55.9234 0.26785 -0.361362
536000 60.2606 165.324 55.9234 0.26795 -0.362592
536200 60.2606 165.337 55.9234 0.26805 -0.328246
536400 60.2606 165.35 55.9234 0.26815 -0.260802
536600 60.2606 165.363 55.9234 0.26825 -0.168946
536800 60.2606 165.376 55.9234 0.26835 -0.0921274
537000 60.2606 165.389 55.9234 0.26845 0.0375068
537200 60.2606 165.402 55.9234 0.26855 0.138148
537400 60.2606 165.415 55.9234 0.26865 0.236263
537600 60.2606 165.428 55.9234 0.26875 0.304159
537800 60.2606 165.441 55.9234 0.26885 0.358979
538000 60.2606 165.454 55.9234 0.26895 0.356372
538200 60.2606 165.467 55.9234 0.26905 0.338457
538400 60.2606 165.481 55.9234 0.26915 0.295715
538600 60.2606 165.494 55.9234 0.26925 0.16383
538800 60.2606 165.507 55.9234 0.26935 0.0752637
539000 60.2606 165.52 55.9234 0.26945 -0.0527376
539200 60.2606 165.533 55.9234 0.26955 -0.153002
539400 60.2606 165.546 55.9234 0.26965 -0.242082
539600 60.2606 165.559 55.9234 0.26975 -0.292371
539800 60.2606 165.572 55.9234 0.26985 -0.355865
540000 60.2606 165.585 55.9234 0.26995 -0.367675
540200 60.2606 165.598 55.9234 0.27005 -0.310592
540400 60.2606 165.611 55.9234 0.27015 -0.246698
540600 60.2606 165.624 55.9234 0.27025 -0.185186
540800 60.2606 165.637 55.9234 0.27035 -0.0455429
541000 60.2606 165.65 55.9234 0.27045 0.0501639
541200 60.2606 165.663 55.9234 0.27055 0.16459
541400 60.2606 165.676 55.9234 0.27065 0.22925
541600 60.2606 165.689 55.9234 0.27075 0.324076
541800 60.2606 165.702 55.9234 0.27085 0.355213
542000 60.2606 165.715 55.9234 0.27095 0.349956
542200 60.2606 165.728 55.9234 0.27105 0.34502
542400 60.2606 165.741 55.9234 0.27115 0.220294
542600 60.2606 165.754 55.9234 0.27125 0.171522
542800 60.2606 165.767 55.9234 0.27135 0.0458711
543000 60.2606 165.78 55.9234 0.27145 -0.0616801
543200 60.2606 165.793 55.9234 0.27155 -0.184254
543400 60.2606 165.806 55.9234 0.27165 -0.261768
543600 60.2606 165.82 55.9234 0.27175 -0.310619
543800 60.2606 165.833 55.9234 0.27185 -0.340973
544000 60.2606 165.846 55.9234 0.27195 -0.317401
544200 60.2606 165.859 55.9234 0.27205 -0.28714
544400 60.2606 165.872 55.9234 0.27215 -0.242409
544600 60.2606 165.885 55.9234 0.27225 -0.141348
544800 60.2606 165.898 55.9234 0.27235 -0.0409641
545000 60.2606 165.911 55.9234 0.27245 0.0727297
545200 60.2606 165.924 55.9234 0.27255 0.187378
545400 60.2606 165.937 55.9234 0.27265 0.255106
545600 60.2606 165.95 55.9234 0.27275 0.311107
545800 60.2606 165.963 55.9234 0.27285 0.379871
546000 60.2606 165.976 55.9234 0.27295 0.333899
546200 60.2606 165.989 55.9234 0.27305 0.294945
546400 60.2606 166.002 55.9234 0.27315 0.207093
546600 60.2606 166.015 55.9234 0.27325 0.117164
546800 60.2606 166.028 55.9234 0.27335 0.022067
547000 60.2606 166.041 55.9234 0.27345 -0.0730387
547200 60.2606 166.054 55.9234 0.27355 -0.178692
547400 60.2606 166.067 55.9234 0.27365 -0.252738
547600 60.2606 166.08 55.9234 0.27375 -0.335869
547800 60.2606 166.093 55.9234 0.27385 -0.327908
548000 60.2606 166.106 55.9234 0.27395 -0.314643
548200 60.2606 166.119 55.9234 0.27405 -0.299532
548400 60.2606 166.132 55.9234 0.27415 -0.184793
548600 60.2606 166.145 55.9234 0.27425 -0.140993
548800 60.2606 166.159 55.9234 0.27435 -0.0098007
549000 60.2606 166.172 55.9234 0.27445 0.0997244
549200 60.2606 166.185 55.9234 0.27455 0.191062
549400 60.2606 166.198 55.9234 0.27465 0.263169
549600 60.2606 166.211 55.9234 0.27475 0.320866
549800 60.2606 166.224 55.9234 0.27485 0.345301
550000 60.2606 166.237 55.9234 0.27495 0.344559
550200 60.2606 166.25 55.9234 0.27505 0.270893
550400 60.2606 166.263 55.9234 0.27515 0.210543
550600 60.2606 166.276 55.9234 0.27525 0.103823
550800 60.2606 166.289 55.9234 0.27535 -0.0402649
551000 60.2606 166.302 55.9234 0.27545 -0.0993225
551200 60.2606 166.315 55.9234 0.27555 -0.181646
551400 60.2606 166.328 55.9234 0.27565 -0.246181
551600 60.2606 166.341 55.9234 0.27575 -0.308011
551800 60.2606 166.354 55.9234 0.27585 -0.339873
552000 60.2606 166.367 55.9234 0.27595 -0.312592
552200 60.2606 166.38 55.9234 0.27605 -0.266005
552400 60.2606 166.393 55.9234 0.27615 -0.194243
552600 60.2606 166.406 55.9234 0.27625 -0.0756608
552800 60.2606 166.419 55.9234 0.27635 -0.000821302
553000 60.2606 166.432 55.9234 0.27645 0.13118
553200 60.2606 166.445 55.9234 0.27655 0.189589
553400 60.2606 166.458 55.9234 0.27665 0.262034
553600 60.2606 166.471 55.9234 0.27675 0.309073
553800 60.2606 166.484 55.9234 0.27685 0.320431
554000 60.2606 166.498 55.9234 0.27695 0.304016
554200 60.2606 166.511 55.9234 0.27705 0.26472
554400 60.2606 166.524 55.9234 0.27715 0.181695
554600 60.2606 166.537 55.9234 0.27725 0.0961726
554800 60.2606 166.55 55.9234 0.27735 -0.0188383
555000 60.2606 166.563 55.9234 0.27745 -0.11411
555200 60.2606 166.576 55.9234 0.27755 -0.206372
555400 60.2606 166.589 55.9234 0.27765 -0.268492
555600 60.2606 166.602 55.9234 0.27775 -0.289689
555800 60.2606 166.615 55.9234 0.27785 -0.304256
556000 60.2606 166.628 55.9234 0.27795 -0.292596
556200 60.2606 166.641 55.9234 0.27805 -0.259525
556400 60.2606 166.654 55.9234 0.27815 -0.183939
556600 60.2606 166.667 55.9234 0.27825 -0.0845073
556800 60.2606 166.68 55.9234 0.27835 0.0379104
557000 60.2606 166.693 55.9234 0.27845 0.117765
557200 60.2606 166.706 55.9234 0.27855 0.209434
557400 60.2606 166.719 55.9234 0.27865 0.266244
557600 60.2606 166.732 55.9234 0.27875 0.311452
557800 60.2606 166.745 55.9234 0.27885 0.316693
558000 60.2606 166.758 55.9234 0.27895 0.283133
558200 60.2606 166.771 55.9234 0.27905 0.24721
558400 60.2606 166.784 55.9234 0.27915 0.194255
558600 60.2606 166.797 55.9234 0.27925 0.0837645
558800 60.2606 166.81 55.9234 0.27935 -0.0512119
559000 60.2606 166.824 55.9234 0.27945 -0.117268
559200 60.2606 166.837 55.9234 0.27955 -0.22425
559400 60.2606 166.85 55.9234 0.27965 -0.285079
559600 60.2606 166.863 55.9234 0.27975 -0.30133
559800 60.2606 166.876 55.9234 0.27985 -0.286234
560000 60.2606 166.889 55.9234 0.27995 -0.293169
560200 60.2606 166.902 55.9234 0.28005 -0.213178
560400 60.2606 166.915 55.9234 0.28015 -0.19551
560600 60.2606 166.928 55.9234 0.28025 -0.0620951
560800 60.2606 166.941 55.9234 0.28035 0.0422783
561000 60.2606 166.954 55.9234 0.28045 0.136612
561200 60.2606 166.967 55.9234 0.28055 0.209969
561400 60.2606 166.98 55.9234 0.28065 0.290326
561600 60.2606 166.993 55.9234 0.28075 0.329035
561800 60.2606 167.006 55.9234 0.28085 0.334478
562000 60.2606 167.019 55.9234 0.28095 0.268164
562200 60.2606 167.032 55.9234 0.28105 0.224174
562400 60.2606 167.045 55.9234 0.28115 0.159811
562600 60.2606 167.058 55.9234 0.28125 0.0274786
562800 60.2606 167.071 55.9234 0.28135 -0.0370005
563000 60.2606 167.084 55.9234 0.28145 -0.151537
563200 60.2606 167.097 55.9234 0.28155 -0.218231
563400 60.2606 167.11 55.9234 0.28165 -0.276566
563600 60.2606 167.123 55.9234 0.28175 -0.307859
563800 60.2606 167.136 55.9234 0.28185 -0.310781
564000 60.2606 167.149 55.9234 0.28195 -0.272634
564200 60.2606 167.163 55.9234 0.28205 -0.197507
564400 60.2606 167.176 55.9234 0.28215 -0.116239
564600 60.2606 167.189 55.9234 0.28225 -0.0422642
564800 60.2606 167.202 55.9234 0.28235 0.0544039
565000 60.2606 167.215 55.9234 0.28245 0.131262
565200 60.2606 167.228 55.9234 0.28255 0.230733
565400 60.2606 167.241 55.9234 0.28265 0.288534
565600 60.2606 167.254 55.9234 0.28275 0.315825
565800 60.2606 167.267 55.9234 0.28285 0.330589
566000 60.2606 167.28 55.9234 0.28295 0.260184
566200 60.2606 167.293 55.9234 0.28305 0.185557
566400 60.2606 167.306 55.9234 0.28315 0.109432
566600 60.2606 167.319 55.9234 0.28325 0.0212658
566800 60.2606 167.332 55.9234 0.28335 -0.0612532
567000 60.2606 167.345 55.9234 0.28345 -0.170201
567200 60.2606 167.358 55.9234 0.28355 -0.200236
567400 60.2606 167.371 55.9234 0.28365 -0.260424
567600 60.2606 167.384 55.9234 0.28375 -0.31715
567800 60.2606 167.397 55.9234 0.28385 -0.29879
568000 60.2606 167.41 55.9234 0.28395 -0.247367
568200 60.2606 167.423 55.9234 0.28405 -0.205466
568400 60.2606 167.436 55.9234 0.28415 -0.0942291
568600 60.2606 167.449 55.9234 0.28425 -0.0281211
568800 60.2606 167.462 55.9234 0.28435 0.0863188
569000 60.2606 167.475 55.9234 0.28445 0.172206
569200 60.2606 167.488 55.9234 0.28455 0.244321
569400 60.2606 167.502 55.9234 0.28465 0.258345
569600 60.2606 167.515 55.9234 0.28475 0.292845
569800 60.2606 167.528 55.9234 0.28485 0.313235
570000 60.2606 167.541 55.9234 0.28495 0.254233
570200 60.2606 167.554 55.9234 0.28505 0.19199
570400 60.2606 167.567 55.9234 0.28515 0.0809687
570600 60.2606 167.58 55.9234 0.28525 -0.00358624
570800 60.2606 167.593 55.9234 0.28535 -0.0839789
571000 60.2606 167.606 55.9234 0.28545 -0.17277
571200 60.2606 167.619 55.9234 0.28555 -0.231694
571400 60.2606 167.632 55.9234 0.28565 -0.276671
571600 60.2606 167.645 55.9234 0.28575 -0.279693
571800 60.2606 167.658 55.9234 0.28585 -0.272167
572000 60.2606 167.671 55.9234 0.28595 -0.242813
572200 60.2606 167.684 55.9234 0.28605 -0.180793
572400 60.2606 167.697 55.9234 0.28615 -0.0835408
572600 60.2606 167.71 55.9234 0.28625 -0.00541872
572800 60.2606 167.723 55.9234 0.28635 0.100041
573000 60.2606 167.736 55.9234 0.28645 0.172366
573200 60.2606 167.749 55.9234 0.28655 0.265507
573400 60.2606 167.762 55.9234 0.28665 0.287991
573600 60.2606 167.775 55.9234 0.28675 0.293766
573800 60.2606 167.788 55.9234 0.28685 0.246802
574000 60.2606 167.801 55.9234 0.28695 0.261424
574200 60.2606 167.814 55.9234 0.28705 0.143615
574400 60.2606 167.827 55.9234 0.28715 0.0815524
574600 60.2606 167.841 55.9234 0.28725 -0.00993955
574800 60.2606 167.854 55.9234 0.28735 -0.096887
575000 60.2606 167.867 55.9234 0.28745 -0.18866
575200 60.2606 167.88 55.9234 0.28755 -0.237906
575400 60.2606 167.893 55.9234 0.28765 -0.264816
575600 60.2606 167.906 55.9234 0.28775 -0.293816
575800 60.2606 167.919 55.9234 0.28785 -0.27063
576000 60.2606 167.932 55.9234 0.28795 -0.198485
576200 60.2606 167.945 55.9234 0.28805 -0.114011
576400 60.2606 167.958 55.9234 0.28815 -0.0936365
576600 60.2606 167.971 55.9234 0.28825 -0.00346432
576800 60.2606 167.984 55.9234 0.28835 0.0826836
577000 60.2606 167.997 55.9234 0.28845 0.167731
577200 60.2606 168.01 55.9234 0.28855 0.255406
577400 60.2606 168.023 55.9234 0.28865 0.304641
577600 60.2606 168.036 55.9234 0.28875 0.287795
577800 60.2606 168.049 55.9234 0.28885 0.258987
578000 60.2606 168.062 55.9234 0.28895 0.216497
578200 60.2606 168.075 55.9234 0.28905 0.149848
578400 60.2606 168.088 55.9234 0.28915 0.0604595
578600 60.2606 168.101 55.9234 0.28925 -0.0344448
578800 60.2606 168.114 55.9234 0.28935 -0.101244
579000 60.2606 168.127 55.9234 0.28945 -0.196812
579200 60.2606 168.14 55.9234 0.28955 -0.228518
579400 60.2606 168.153 55.9234 0.28965 -0.290224
579600 60.2606 168.166 55.9234 0.28975 -0.270789
579800 60.2606 168.18 55.9234 0.28985 -0.245761
580000 60.2606 168.193 55.9234 0.28995 -0.188514
580200 60.2606 168.206 55.9234 0.29005 -0.131765
580400 60.2606 168.219 55.9234 0.29015 -0.0315223
580600 60.2606 168.232 55.9234 0.29025 0.00390393
580800 60.2606 168.245 55.9234 0.29035 0.116493
581000 60.2606 168.258 55.9234 0.29045 0.180888
581200 60.2606 168.271 55.9234 0.29055 0.261817
581400 60.2606 168.284 55.9234 0.29065 0.282849
581600 60.2606 168.297 55.9234 0.29075 0.266734
581800 60.2606 168.31 55.9234 0.29085 0.251492
582000 60.2606 168.323 55.9234 0.29095 0.189824
582200 60.2606 168.336 55.9234 0.29105 0.12316
582400 60.2606 168.349 55.9234 0.29115 0.0538068
582600 60.2606 168.362 55.9234 0.29125 -0.0706428
582800 60.2606 168.375 55.9234 0.29135 -0.125971
583000 60.2606 168.388 55.9234 0.29145 -0.172967
583200 60.2606 168.401 55.9234 0.29155 -0.230315
583400 60.2606 168.414 55.9234 0.29165 -0.267069
583600 60.2606 168.427 55.9234 0.29175 -0.268904
583800 60.2606 168.44 55.9234 0.29185 -0.245279
584000 60.2606 168.453 55.9234 0.29195 -0.18753
584200 60.2606 168.466 55.9234 0.29205 -0.113794
584400 60.2606 168.479 55.9234 0.29215 -0.0299557
584600 60.2606 168.492 55.9234 0.29225 0.0639171
584800 60.2606 168.505 55.9234 0.29235 0.140214
585000 60.2606 168.519 55.9234 0.29245 0.196549
585200 60.2606 168.532 55.9234 0.29255 0.249088
585400 60.2606 168.545 55.9234 0.29265 0.24926
585600 60.2606 168.558 55.9234 0.29275 0.241382
585800 60.2606 168.571 55.9234 0.29285 0.238646
586000 60.2606 168.584 55.9234 0.29295 0.182927
586200 60.2606 168.597 55.9234 0.29305 0.117794
586400 60.2606 168.61 55.9234 0.29315 0.0214391
586600 60.2606 168.623 55.9234 0.29325 -0.0566911
586800 60.2606 168.636 55.9234 0.29335 -0.145217
587000 60.2606 168.649 55.9234 0.29345 -0.196896
587200 60.2606 168.662 55.9234 0.29355 -0.225547
587400 60.2606 168.675 55.9234 0.29365 -0.258055
587600 60.2606 168.688 55.9234 0.29375 -0.21046
587800 60.2606 168.701 55.9234 0.29385 -0.222808
588000 60.2606 168.714 55.9234 0.29395 -0.166807
588200 60.2606 168.727 55.9234 0.29405 -0.110464
588400 60.2606 168.74 55.9234 0.29415 -0.0368195
588600 60.2606 168.753 55.9234 0.29425 0.0774824
588800 60.2606 168.766 55.9234 0.29435 0.142916
589000 60.2606 168.779 55.9234 0.29445 0.191957
589200 60.2606 168.792 55.9234 0.29455 0.242195
589400 60.2606 168.805 55.9234 0.29465 0.246435
589600 60.2606 168.818 55.9234 0.29475 0.249243
589800 60.2606 168.831 55.9234 0.29485 0.195891
590000 60.2606 168.844 55.9234 0.29495 0.14914
590200 60.2606 168.858 55.9234 0.29505 0.0976403
590400 60.2606 168.871 55.9234 0.29515 0.0105039
590600 60.2606 168.884 55.9234 0.29525 -0.0563744
590800 60.2606 168.897 55.9234 0.29535 -0.120903
591000 60.2606 168.91 55.9234 0.29545 -0.208754
591200 60.2606 168.923 55.9234 0.29555 -0.237353
591400 60.2606 168.936 55.9234 0.29565 -0.254299
591600 60.2606 168.949 55.9234 0.29575 -0.229526
591800 60.2606 168.962 55.9234 0.29585 -0.189963
592000 60.2606 168.975 55.9234 0.29595 -0.155551
592200 60.2606 168.988 55.9234 0.29605 -0.0757789
592400 60.2606 169.001 55.9234 0.29615 0.0113825
592600 60.2606 169.014 55.9234 0.29625 0.0837876
592800 60.2606 169.027 55.9234 0.29635 0.110912
593000 60.2606 169.04 55.9234 0.29645 0.192476
593200 60.2606 169.053 55.9234 0.29655 0.253678
593400 60.2606 169.066 55.9234 0.29665 0.274448
593600 60.2606 169.079 55.9234 0.29675 0.210971
593800 60.2606 169.092 55.9234 0.29685 0.204343
594000 60.2606 169.105 55.9234 0.29695 0.141651
594200 60.2606 169.118 55.9234 0.29705 0.0556942
594400 60.2606 169.131 55.9234 0.29715 -0.00375571
594600 60.2606 169.144 55.9234 0.29725 -0.0808903
594800 60.2606 169.157 55.9234 0.29735 -0.131353
595000 60.2606 169.17 55.9234 0.29745 -0.197507
595200 60.2606 169.184 55.9234 0.29755 -0.246927
595400 60.2606 169.197 55.9234 0.29765 -0.218922
595600 60.2606 169.21 55.9234 0.29775 -0.229112
595800 60.2606 169.223 55.9234 0.29785 -0.177807
596000 60.2606 169.236 55.9234 0.29795 -0.141747
596200 60.2606 169.249 55.9234 0.29805 -0.0613546
596400 60.2606 169.262 55.9234 0.29815 0.0226189
596600 60.2606 169.275 55.9234 0.29825 0.0848884
596800 60.2606 169.288 55.9234 0.29835 0.14326
597000 60.2606 169.301 55.9234 0.29845 0.195099
597200 60.2606 169.314 55.9234 0.29855 0.230331
597400 60.2606 169.327 55.9234 0.29865 0.248532
597600 60.2606 169.34 55.9234 0.29875 0.218855
597800 60.2606 169.353 55.9234 0.29885 0.189814
598000 60.2606 169.366 55.9234 0.29895 0.101882
598200 60.2606 169.379 55.9234 0.29905 0.0577593
598400 60.2606 169.392 55.9234 0.29915 -0.0159269
598600 60.2606 169.405 55.9234 0.29925 -0.0801801
598800 60.2606 169.418 55.9234 0.29935 -0.141014
599000 60.2606 169.431 55.9234 0.29945 -0.194729
599200 60.2606 169.444 55.9234 0.29955 -0.225737
599400 60.2606 169.457 55.9234 0.29965 -0.234327
599600 60.2606 169.47 55.9234 0.29975 -0.214286
599800 60.2606 169.483 55.9234 0.29985 -0.176134
600000 60.2606 169.496 55.9234 0.29995 -0.106706
600200 60.2606 169.509 55.9234 0.30005 -0.0320174
600400 60.2606 169.523 55.9234 0.30015 0.0105191
600600 60.2606 169.536 55.9234 0.30025 0.0816082
600800 60.2606 169.549 55.9234 0.30035 0.15262
601000 60.2606 169.562 55.9234 0.30045 0.185833
601200 60.2606 169.575 55.9234 0.30055 0.237921
601400 60.2606 169.588 55.9234 0.30065 0.242938
601600 60.2606 169.601 55.9234 0.30075 0.211992
601800 60.2606 169.614 55.9234 0.30085 0.160372
602000 60.2606 169.627 55.9234 0.30095 0.0911425
602200 60.2606 169.64 55.9234 0.30105 0.0514385
602400 60.2606 169.653 55.9234 0.30115 -0.0139886
602600 60.2606 169.666 55.9234 0.30125 -0.0722077
602800 60.2606 169.679 55.9234 0.30135 -0.150716
603000 60.2606 169.692 55.9234 0.30145 -0.19518
603200 60.2606 169.705 55.9234 0.30155 -0.224576
603400 60.2606 169.718 55.9234 0.30165 -0.225886
603600 60.2606 169.731 55.9234 0.30175 -0.212776
603800 60.2606 169.744 55.9234 0.30185 -0.155978
604000 60.2606 169.757 55.9234 0.30195 -0.129999
604200 60.2606 169.77 55.9234 0.30205 -0.0330464
604400 60.2606 169.783 55.9234 0.30215 0.0275997
604600 60.2606 169.796 55.9234 0.30225 0.0969641
604800 60.2606 169.809 55.9234 0.30235 0.17525
605000 60.2606 169.822 55.9234 0.30245 0.185873
605200 60.2606 169.835 55.9234 0.30255 0.24053
605400 60.2606 169.848 55.9234 0.30265 0.227948
605600 60.2606 169.862 55.9234 0.30275 0.22113
605800 60.2606 169.875 55.9234 0.30285 0.154996
606000 60.2606 169.888 55.9234 0.30295 0.116678
606200 60.2606 169.901 55.9234 0.30305 0.0226779
606400 60.2606 169.914 55.9234 0.30315 -0.0538187
606600 60.2606 169.927 55.9234 0.30325 -0.0996952
606800 60.2606 169.94 55.9234 0.30335 -0.17125
607000 60.2606 169.953 55.9234 0.30345 -0.198127
607200 60.2606 169.966 55.9234 0.30355 -0.209973
607400 60.2606 169.979 55.9234 0.30365 -0.214889
607600 60.2606 169.992 55.9234 0.30375 -0.193824
607800 60.2606 170.005 55.9234 0.30385 -0.184965
608000 60.2606 170.018 55.9234 0.30395 -0.102741
608200 60.2606 170.031 55.9234 0.30405 -0.0340068
608400 60.2606 170.044 55.9234 0.30415 0.0512059
608600 60.2606 170.057 55.9234 0.30425 0.146393
608800 60.2606 170.07 55.9234 0.30435 0.179224
609000 60.2606 170.083 55.9234 0.30445 0.200711
609200 60.2606 170.096 55.9234 0.30455 0.228674
609400 60.2606 170.109 55.9234 0.30465 0.221303
609600 60.2606 170.122 55.9234 0.30475 0.203413
609800 60.2606 170.135 55.9234 0.30485 0.149406
610000 60.2606 170.148 55.9234 0.30495 0.104416
610200 60.2606 170.161 55.9234 0.30505 0.0202716
610400 60.2606 170.174 55.9234 0.30515 -0.0665052
610600 60.2606 170.187 55.9234 0.30525 -0.12219
610800 60.2606 170.201 55.9234 0.30535 -0.194641
611000 60.2606 170.214 55.9234 0.30545 -0.204147
611200 60.2606 170.227 55.9234 0.30555 -0.212878
611400 60.2606 170.24 55.9234 0.30565 -0.214758
611600 60.2606 170.253 55.9234 0.30575 -0.185329
611800 60.2606 170.266 55.9234 0.30585 -0.151444
612000 60.2606 170.279 55.9234 0.30595 -0.0648258
612200 60.2606 170.292 55.9234 0.30605 -0.0143828
612400 60.2606 170.305 55.9234 0.30615 0.0551733
612600 60.2606 170.318 55.9234 0.30625 0.131072
612800 60.2606 170.331 55.9234 0.30635 0.19989
613000 60.2606 170.344 55.9234 0.30645 0.219185
613200 60.2606 170.357 55.9234 0.30655 0.215895
613400 60.2606 170.37 55.9234 0.30665 0.209569
613600 60.2606 170.383 55.9234 0.30675 0.175671
613800 60.2606 170.396 55.9234 0.30685 0.129439
614000 60.2606 170.409 55.9234 0.30695 0.052464
614200 60.2606 170.422 55.9234 0.30705 -0.00768916
614400 60.2606 170.435 55.9234 0.30715 -0.0832234
614600 60.2606 170.448 55.9234 0.30725 -0.120925
614800 60.2606 170.461 55.9234 0.30735 -0.181051
615000 60.2606 170.474 55.9234 0.30745 -0.203006
615200 60.2606 170.487 55.9234 0.30755 -0.189807
615400 60.2606 170.5 55.9234 0.30765 -0.195568
615600 60.2606 170.513 55.9234 0.30775 -0.173009
615800 60.2606 170.526 55.9234 0.30785 -0.132319
616000 60.2606 170.54 55.9234 0.30795 -0.0501047
616200 60.2606 170.553 55.9234 0.30805 0.0269648
616400 60.2606 170.566 55.9234 0.30815 0.0872336
616600 60.2606 170.579 55.9234 0.30825 0.154052
616800 60.2606 170.592 55.9234 0.30835 0.177178
617000 60.2606 170.605 55.9234 0.30845 0.200035
617200 60.2606 170.618 55.9234 0.30855 0.214793
617400 60.2606 170.631 55.9234 0.30865 0.174146
617600 60.2606 170.644 55.9234 0.30875 0.152332
617800 60.2606 170.657 55.9234 0.30885 0.109773
618000 60.2606 170.67 55.9234 0.30895 0.0504751
618200 60.2606 170.683 55.9234 0.30905 -0.0177435
618400 60.2606 170.696 55.9234 0.30915 -0.0677872
618600 60.2606 170.709 55.9234 0.30925 -0.159281
618800 60.2606 170.722 55.9234 0.30935 -0.19004
619000 60.2606 170.735 55.9234 0.30945 -0.208589
619200 60.2606 170.748 55.9234 0.30955 -0.184072
619400 60.2606 170.761 55.9234 0.30965 -0.160337
619600 60.2606 170.774 55.9234 0.30975 -0.131437
619800 60.2606 170.787 55.9234 0.30985 -0.128195
620000 60.2606 170.8 55.9234 0.30995 -0.0476927
620200 60.2606 170.813 55.9234 0.31005 0.012988
620400 60.2606 170.826 55.9234 0.31015 0.0926441
620600 60.2606 170.839 55.9234 0.31025 0.15417
620800 60.2606 170.852 55.9234 0.31035 0.194435
621000 60.2606 170.865 55.9234 0.31045 0.178966
621200 60.2606 170.879 55.9234 0.31055 0.217765
621400 60.2606 170.892 55.9234 0.31065 0.206006
621600 60.2606 170.905 55.9234 0.31075 0.114905
621800 60.2606 170.918 55.9234 0.31085 0.0979585
622000 60.2606 170.931 55.9234 0.31095 0.0394968
622200 60.2606 170.944 55.9234 0.31105 -0.0133414
622400 60.2606 170.957 55.9234 0.31115 -0.0970197
622600 60.2606 170.97 55.9234 0.31125 -0.134232
622800 60.2606 170.983 55.9234 0.31135 -0.177016
623000 60.2606 170.996 55.9234 0.31145 -0.212271
623200 60.2606 171.009 55.9234 0.31155 -0.202184
623400 60.2606 171.022 55.9234 0.31165 -0.195294
623600 60.2606 171.035 55.9234 0.31175 -0.12214
623800 60.2606 171.048 55.9234 0.31185 -0.0923473
624000 60.2606 171.061 55.9234 0.31195 -0.00883116
624200 60.2606 171.074 55.9234 0.31205 0.0293976
624400 60.2606 171.087 55.9234 0.31215 0.0735097
624600 60.2606 171.1 55.9234 0.31225 0.134091
624800 60.2606 171.113 55.9234 0.31235 0.174388
625000 60.2606 171.126 55.9234 0.31245 0.228018
625200 60.2606 171.139 55.9234 0.31255 0.209485
625400 60.2606 171.152 55.9234 0.31265 0.200751
625600 60.2606 171.165 55.9234 0.31275 0.136742
625800 60.2606 171.178 55.9234 0.31285 0.0896384
626000 60.2606 171.191 55.9234 0.31295 0.0234366
626200 60.2606 171.205 55.9234 0.31305 -0.052741
626400 60.2606 171.218 55.9234 0.31315 -0.0921249
626600 60.2606 171.231 55.9234 0.31325 -0.13372
626800 60.2606 171.244 55.9234 0.31335 -0.177989
627000 60.2606 171.257 55.9234 0.31345 -0.237165
627200 60.2606 171.27 55.9234 0.31355 -0.198585
627400 60.2606 171.283 55.9234 0.31365 -0.181325
627600 60.2606 171.296 55.9234 0.31375 -0.121931
627800 60.2606 171.309 55.9234 0.31385 -0.0686664
628000 60.2606 171.322 55.9234 0.31395 -0.0400267
628200 60.2606 171.335 55.9234 0.31405 0.0304004
628400 60.2606 171.348 55.9234 0.31415 0.116376
628600 60.2606 171.361 55.9234 0.31425 0.144573
628800 60.2606 171.374 55.9234 0.31435 0.217162
629000 60.2606 171.387 55.9234 0.31445 0.197438
629200 60.2606 171.4 55.9234 0.31455 0.189392
629400 60.2606 171.413 55.9234 0.31465 0.199197
629600 60.2606 171.426 55.9234 0.31475 0.150418
629800 60.2606 171.439 55.9234 0.31485 0.0621
630000 60.2606 171.452 55.9234 0.31495 0.0329128
630200 60.2606 171.465 55.9234 0.31505 -0.0569385
630400 60.2606 171.478 55.9234 0.31515 -0.113684
630600 60.2606 171.491 55.9234 0.31525 -0.150982
630800 60.2606 171.504 55.9234 0.31535 -0.201198
631000 60.2606 171.517 55.9234 0.31545 -0.217217
631200 60.2606 171.53 55.9234 0.31555 -0.184239
631400 60.2606 171.544 55.9234 0.31565 -0.203298
631600 60.2606 171.557 55.9234 0.31575 -0.102586
631800 60.2606 171.57 55.9234 0.31585 -0.0845579
632000 60.2606 171.583 55.9234 0.31595 -0.0273409
632200 60.2606 171.596 55.9234 0.31605 0.0686657
632400 60.2606 171.609 55.9234 0.31615 0.109936
632600 60.2606 171.622 55.9234 0.31625 0.196699
632800 60.2606 171.635 55.9234 0.31635 0.22653
633000 60.2606 171.648 55.9234 0.31645 0.20872
633200 60.2606 171.661 55.9234 0.31655 0.199148
633400 60.2606 171.674 55.9234 0.31665 0.16459
633600 60.2606 171.687 55.9234 0.31675 0.114056
633800 60.2606 171.7 55.9234 0.31685 0.0810214
634000 60.2606 171.713 55.9234 0.31695 0.00072995
634200 60.2606 171.726 55.9234 0.31705 -0.0802522
634400 60.2606 171.739 55.9234 0.31715 -0.11383
634600 60.2606 171.752 55.9234 0.31725 -0.180022
634800 60.2606 171.765 55.9234 0.31735 -0.227465
635000 60.2606 171.778 55.9234 0.31745 -0.191782
635200 60.2606 171.791 55.9234 0.31755 -0.199492
635400 60.2606 171.804 55.9234 0.31765 -0.185517
635600 60.2606 171.817 55.9234 0.31775 -0.079929
635800 60.2606 171.83 55.9234 0.31785 -0.0634847
636000 60.2606 171.843 55.9234 0.31795 0.00277641
636200 60.2606 171.856 55.9234 0.31805 0.078127
636400 60.2606 171.869 55.9234 0.31815 0.122614
636600 60.2606 171.883 55.9234 0.31825 0.197368
636800 60.2606 171.896 55.9234 0.31835 0.212844
637000 60.2606 171.909 55.9234 0.31845 0.231017
637200 60.2606 171.922 55.9234 0.31855 0.205046
637400 60.2606 171.935 55.9234 0.31865 0.141692
637600 60.2606 171.948 55.9234 0.31875 0.106794
637800 60.2606 171.961 55.9234 0.31885 0.0544867
638000 60.2606 171.974 55.9234 0.31895 -0.0297764
638200 60.2606 171.987 55.9234 0.31905 -0.0878995
638400 60.2606 172 55.9234 0.31915 -0.153135
638600 60.2606 172.013 55.9234 0.31925 -0.169962
638800 60.2606 172.026 55.9234 0.31935 -0.197968
639000 60.2606 172.039 55.9234 0.31945 -0.21625
639200 60.2606 172.052 55.9234 0.31955 -0.213211
639400 60.2606 172.065 55.9234 0.31965 -0.127252
639600 60.2606 172.078 55.9234 0.31975 -0.0900182
639800 60.2606 172.091 55.9234 0.31985 -0.0433074
640000 60.2606 172.104 55.9234 0.31995 0.0301757
640200 60.2606 172.117 55.9234 0.32005 0.0887803
640400 60.2606 172.13 55.9234 0.32015 0.149986
640600 60.2606 172.143 55.9234 0.32025 0.178325
640800 60.2606 172.156 55.9234 0.32035 0.209377
641000 60.2606 172.169 55.9234 0.32045 0.218354
641200 60.2606 172.182 55.9234 0.32055 0.194975
641400 60.2606 172.195 55.9234 0.32065 0.145647
641600 60.2606 172.208 55.9234 0.32075 0.0978177
641800 60.2606 172.222 55.9234 0.32085 0.0176761
642000 60.2606 172.235 55.9234 0.32095 -0.0340573
642200 60.2606 172.248 55.9234 0.32105 -0.105028
642400 60.2606 172.261 55.9234 0.32115 -0.150581
642600 60.2606 172.274 55.9234 0.32125 -0.184728
642800 60.2606 172.287 55.9234 0.32135 -0.197824
643000 60.2606 172.3 55.9234 0.32145 -0.160575
643200 60.2606 172.313 55.9234 0.32155 -0.178516
643400 60.2606 172.326 55.9234 0.32165 -0.150479
643600 60.2606 172.339 55.9234 0.32175 -0.104817
643800 60.2606 172.352 55.9234 0.32185 -0.0178767
644000 60.2606 172.365 55.9234 0.32195 0.0530947
644200 60.2606 172.378 55.9234 0.32205 0.0889342
644400 60.2606 172.391 55.9234 0.32215 0.155856
644600 60.2606 172.404 55.9234 0.32225 0.172712
644800 60.2606 172.417 55.9234 0.32235 0.218441
645000 60.2606 172.43 55.9234 0.32245 0.173017
645200 60.2606 172.443 55.9234 0.32255 0.175704
645400 60.2606 172.456 55.9234 0.32265 0.115654
645600 60.2606 172.469 55.9234 0.32275 0.104531
645800 60.2606 172.482 55.9234 0.32285 0.0259677
646000 60.2606 172.495 55.9234 0.32295 -0.0352864
646200 60.2606 172.508 55.9234 0.32305 -0.0889588
646400 60.2606 172.521 55.9234 0.32315 -0.158192
646600 60.2606 172.534 55.9234 0.32325 -0.199598
646800 60.2606 172.547 55.9234 0.32335 -0.191484
647000 60.2606 172.561 55.9234 0.32345 -0.202896
647200 60.2606 172.574 55.9234 0.32355 -0.149494
647400 60.2606 172.587 55.9234 0.32365 -0.0979064
647600 60.2606 172.6 55.9234 0.32375 -0.0814388
647800 60.2606 172.613 55.9234 0.32385 -0.0418403
648000 60.2606 172.626 55.9234 0.32395 0.0251466
648200 60.2606 172.639 55.9234 0.32405 0.115551
648400 60.2606 172.652 55.9234 0.32415 0.166055
648600 60.2606 172.665 55.9234 0.32425 0.200753
648800 60.2606 172.678 55.9234 0.32435 0.214078
649000 60.2606 172.691 55.9234 0.32445 0.174113
649200 60.2606 172.704 55.9234 0.32455 0.177939
649400 60.2606 172.717 55.9234 0.32465 0.0878141
649600 60.2606 172.73 55.9234 0.32475 0.0647746
649800 60.2606 172.743 55.9234 0.32485 0.0127343
650000 60.2606 172.756 55.9234 0.32495 -0.0197202
650200 60.2606 172.769 55.9234 0.32505 -0.0985479
650400 60.2606 172.782 55.9234 0.32515 -0.154413
650600 60.2606 172.795 55.9234 0.32525 -0.216955
650800 60.2606 172.808 55.9234 0.32535 -0.181418
651000 60.2606 172.821 55.9234 0.32545 -0.18077
651200 60.2606 172.834 55.9234 0.32555 -0.1522
651400 60.2606 172.847 55.9234 0.32565 -0.125981
651600 60.2606 172.86 55.9234 0.32575 -0.0557979
651800 60.2606 172.873 55.9234 0.32585 -0.0249019
652000 60.2606 172.886 55.9234 0.32595 0.0519602
652200 60.2606 172.9 55.9234 0.32605 0.108467
652400 60.2606 172.913 55.9234 0.32615 0.131216
652600 60.2606 172.926 55.9234 0.32625 0.22709
652800 60.2606 172.939 55.9234 0.32635 0.185226
653000 60.2606 172.952 55.9234 0.32645 0.1837
653200 60.2606 172.965 55.9234 0.32655 0.185892
653400 60.2606 172.978 55.9234 0.32665 0.130311
653600 60.2606 172.991 55.9234 0.32675 0.069372
653800 60.2606 173.004 55.9234 0.32685 -0.0121356
654000 60.2606 173.017 55.9234 0.32695 -0.0673055
654200 60.2606 173.03 55.9234 0.32705 -0.0988035
654400 60.2606 173.043 55.9234 0.32715 -0.165228
654600 60.2606 173.056 55.9234 0.32725 -0.193618
654800 60.2606 173.069 55.9234 0.32735 -0.176855
655000 60.2606 173.082 55.9234 0.32745 -0.19605
655200 60.2606 173.095 55.9234 0.32755 -0.170154
655400 60.2606 173.108 55.9234 0.32765 -0.122224
655600 60.2606 173.121 55.9234 0.32775 -0.0704686
655800 60.2606 173.134 55.9234 0.32785 0.00960529
656000 60.2606 173.147 55.9234 0.32795 0.0901782
656200 60.2606 173.16 55.9234 0.32805 0.13323
656400 60.2606 173.173 55.9234 0.32815 0.162823
656600 60.2606 173.186 55.9234 0.32825 0.179328
656800 60.2606 173.199 55.9234 0.32835 0.18755
657000 60.2606 173.212 55.9234 0.32845 0.191986
657200 60.2606 173.225 55.9234 0.32855 0.159344
657400 60.2606 173.239 55.9234 0.32865 0.142438
657600 60.2606 173.252 55.9234 0.32875 0.039025
657800 60.2606 173.265 55.9234 0.32885 -0.0206604
658000 60.2606 173.278 55.9234 0.32895 -0.0723941
658200 60.2606 173.291 55.9234 0.32905 -0.134051
658400 60.2606 173.304 55.9234 0.32915 -0.174149
658600 60.2606 173.317 55.9234 0.32925 -0.185819
658800 60.2606 173.33 55.9234 0.32935 -0.195024
659000 60.2606 173.343 55.9234 0.32945 -0.1732
659200 60.2606 173.356 55.9234 0.32955 -0.131005
659400 60.2606 173.369 55.9234 0.32965 -0.120862
659600 60.2606 173.382 55.9234 0.32975 -0.0604027
659800 60.2606 173.395 55.9234 0.32985 0.0412548
660000 60.2606 173.408 55.9234 0.32995 0.0733353
660200 60.2606 173.421 55.9234 0.33005 0.149573
660400 60.2606 173.434 55.9234 0.33015 0.18703
660600 60.2606 173.447 55.9234 0.33025 0.179258
660800 60.2606 173.46 55.9234 0.33035 0.197544
661000 60.2606 173.473 55.9234 0.33045 0.165359
661200 60.2606 173.486 55.9234 0.33055 0.124559
661400 60.2606 173.499 55.9234 0.33065 0.0951299
661600 60.2606 173.512 55.9234 0.33075 0.051798
661800 60.2606 173.525 55.9234 0.33085 -0.0130936
662000 60.2606 173.538 55.9234 0.33095 -0.083426
662200 60.2606 173.551 55.9234 0.33105 -0.145758
662400 60.2606 173.565 55.9234 0.33115 -0.184506
662600 60.2606 173.578 55.9234 0.33125 -0.173802
662800 60.2606 173.591 55.9234 0.33135 -0.19149
663000 60.2606 173.604 55.9234 0.33145 -0.141702
663200 60.2606 173.617 55.9234 0.33155 -0.131571
663400 60.2606 173.63 55.9234 0.33165 -0.0890599
663600 60.2606 173.643 55.9234 0.33175 -0.0202252
663800 60.2606 173.656 55.9234 0.33185 0.0222854
664000 60.2606 173.669 55.9234 0.33195 0.0714864
664200 60.2606 173.682 55.9234 0.33205 0.132878
664400 60.2606 173.695 55.9234 0.33215 0.189695
664600 60.2606 173.708 55.9234 0.33225 0.192044
664800 60.2606 173.721 55.9234 0.33235 0.165598
665000 60.2606 173.734 55.9234 0.33245 0.143259
665200 60.2606 173.747 55.9234 0.33255 0.122378
665400 60.2606 173.76 55.9234 0.33265 0.10433
665600 60.2606 173.773 55.9234 0.33275 0.0197642
665800 60.2606 173.786 55.9234 0.33285 -0.0441979
666000 60.2606 173.799 55.9234 0.33295 -0.0753977
666200 60.2606 173.812 55.9234 0.33305 -0.137452
666400 60.2606 173.825 55.9234 0.33315 -0.166131
666600 60.2606 173.838 55.9234 0.33325 -0.172087
666800 60.2606 173.851 55.9234 0.33335 -0.169971
667000 60.2606 173.864 55.9234 0.33345 -0.166531
667200 60.2606 173.877 55.9234 0.33355 -0.117681
667400 60.2606 173.89 55.9234 0.33365 -0.0553933
667600 60.2606 173.904 55.9234 0.33375 -0.0190711
667800 60.2606 173.917 55.9234 0.33385 0.0419789
668000 60.2606 173.93 55.9234 0.33395 0.0894608
668200 60.2606 173.943 55.9234 0.33405 0.129926
668400 60.2606 173.956 55.9234 0.33415 0.162378
668600 60.2606 173.969 55.9234 0.33425 0.189162
668800 60.2606 173.982 55.9234 0.33435 0.180906
669000 60.2606 173.995 55.9234 0.33445 0.173335
669200 60.2606 174.008 55.9234 0.33455 0.113612
669400 60.2606 174.021 55.9234 0.33465 0.057588
669600 60.2606 174.034 55.9234 0.33475 -0.0190712
669800 60.2606 174.047 55.9234 0.33485 -0.039296
670000 60.2606 174.06 55.9234 0.33495 -0.0856142
670200 60.2606 174.073 55.9234 0.33505 -0.129457
670400 60.2606 174.086 55.9234 0.33515 -0.161807
670600 60.2606 174.099 55.9234 0.33525 -0.193303
670800 60.2606 174.112 55.9234 0.33535 -0.162831
671000 60.2606 174.125 55.9234 0.33545 -0.157087
671200 60.2606 174.138 55.9234 0.33555 -0.12216
671400 60.2606 174.151 55.9234 0.33565 -0.0457845
671600 60.2606 174.164 55.9234 0.33575 0.0072441
671800 60.2606 174.177 55.9234 0.33585 0.070438
672000 60.2606 174.19 55.9234 0.33595 0.102604
672200 60.2606 174.203 55.9234 0.33605 0.13214
672400 60.2606 174.216 55.9234 0.33615 0.159606
672600 60.2606 174.229 55.9234 0.33625 0.182967
672800 60.2606 174.243 55.9234 0.33635 0.183874
673000 60.2606 174.256 55.9234 0.33645 0.143031
673200 60.2606 174.269 55.9234 0.33655 0.104255
673400 60.2606 174.282 55.9234 0.33665 0.0479528
673600 60.2606 174.295 55.9234 0.33675 -0.0206859
673800 60.2606 174.308 55.9234 0.33685 -0.0601282
674000 60.2606 174.321 55.9234 0.33695 -0.121009
674200 60.2606 174.334 55.9234 0.33705 -0.141831
674400 60.2606 174.347 55.9234 0.33715 -0.14784
674600 60.2606 174.36 55.9234 0.33725 -0.165384
674800 60.2606 174.373 55.9234 0.33735 -0.17084
675000 60.2606 174.386 55.9234 0.33745 -0.13095
675200 60.2606 174.399 55.9234 0.33755 -0.114697
675400 60.2606 174.412 55.9234 0.33765 -0.0663987
675600 60.2606 174.425 55.9234 0.33775 0.039951
675800 60.2606 174.438 55.9234 0.33785 0.0809313
676000 60.2606 174.451 55.9234 0.33795 0.112995
676200 60.2606 174.464 55.9234 0.33805 0.161041
676400 60.2606 174.477 55.9234 0.33815 0.171914
676600 60.2606 174.49 55.9234 0.33825 0.166651
676800 60.2606 174.503 55.9234 0.33835 0.148402
677000 60.2606 174.516 55.9234 0.33845 0.133389
677200 60.2606 174.529 55.9234 0.33855 0.118288
677400 60.2606 174.542 55.9234 0.33865 0.0750505
677600 60.2606 174.555 55.9234 0.33875 -0.0472098
677800 60.2606 174.568 55.9234 0.33885 -0.0918778
678000 60.2606 174.582 55.9234 0.33895 -0.138743
678200 60.2606 174.595 55.9234 0.33905 -0.148652
678400 60.2606 174.608 55.9234 0.33915 -0.160859
678600 60.2606 174.621 55.9234 0.33925 -0.179841
678800 60.2606 174.634 55.9234 0.33935 -0.154155
679000 60.2606 174.647 55.9234 0.33945 -0.125105
679200 60.2606 174.66 55.9234 0.33955 -0.0877904
679400 60.2606 174.673 55.9234 0.33965 -0.0396123
679600 60.2606 174.686 55.9234 0.33975 0.0455342
679800 60.2606 174.699 55.9234 0.33985 0.0768472
680000 60.2606 174.712 55.9234 0.33995 0.112673
680200 60.2606 174.725 55.9234 0.34005 0.190347
680400 60.2606 174.738 55.9234 0.34015 0.188419
680600 60.2606 174.751 55.9234 0.34025 0.167114
680800 60.2606 174.764 55.9234 0.34035 0.165798
681000 60.2606 174.777 55.9234 0.34045 0.117233
681200 60.2606 174.79 55.9234 0.34055 0.0655854
681400 60.2606 174.803 55.9234 0.34065 0.0263976
681600 60.2606 174.816 55.9234 0.34075 -0.0344671
681800 60.2606 174.829 55.9234 0.34085 -0.0763463
682000 60.2606 174.842 55.9234 0.34095 -0.12702
682200 60.2606 174.855 55.9234 0.34105 -0.165796
682400 60.2606 174.868 55.9234 0.34115 -0.160259
682600 60.2606 174.881 55.9234 0.34125 -0.192331
682800 60.2606 174.894 55.9234 0.34135 -0.168498
683000 60.2606 174.907 55.9234 0.34145 -0.100127
683200 60.2606 174.921 55.9234 0.34155 -0.0641109
683400 60.2606 174.934 55.9234 0.34165 -0.0130802
683600 60.2606 174.947 55.9234 0.34175 0.0490474
683800 60.2606 174.96 55.9234 0.34185 0.0901618
684000 60.2606 174.973 55.9234 0.34195 0.118622
684200 60.2606 174.986 55.9234 0.34205 0.163256
684400 60.2606 174.999 55.9234 0.34215 0.174723
684600 60.2606 175.012 55.9234 0.34225 0.179744
684800 60.2606 175.025 55.9234 0.34235 0.124957
685000 60.2606 175.038 55.9234 0.34245 0.13525
685200 60.2606 175.051 55.9234 0.34255 0.0649157
685400 60.2606 175.064 55.9234 0.34265 0.00948968
685600 60.2606 175.077 55.9234 0.34275 -0.0674192
685800 60.2606 175.09 55.9234 0.34285 -0.0795539
686000 60.2606 175.103 55.9234 0.34295 -0.12274
686200 60.2606 175.116 55.9234 0.34305 -0.151916
686400 60.2606 175.129 55.9234 0.34315 -0.187357
686600 60.2606 175.142 55.9234 0.34325 -0.159593
686800 60.2606 175.155 55.9234 0.34335 -0.139861
687000 60.2606 175.168 55.9234 0.34345 -0.107488
687200 60.2606 175.181 55.9234 0.34355 -0.0451055
687400 60.2606 175.194 55.9234 0.34365 -0.00282347
687600 60.2606 175.207 55.9234 0.34375 0.0558453
687800 60.2606 175.22 55.9234 0.34385 0.0936354
688000 60.2606 175.233 55.9234 0.34395 0.122897
688200 60.2606 175.246 55.9234 0.34405 0.155546
688400 60.2606 175.26 55.9234 0.34415 0.185753
688600 60.2606 175.273 55.9234 0.34425 0.174322
688800 60.2606 175.286 55.9234 0.34435 0.127101
689000 60.2606 175.299 55.9234 0.34445 0.0944776
689200 60.2606 175.312 55.9234 0.34455 0.0436024
689400 60.2606 175.325 55.9234 0.34465 -0.00205652
689600 60.2606 175.338 55.9234 0.34475 -0.0451528
689800 60.2606 175.351 55.9234 0.34485 -0.0922646
690000 60.2606 175.364 55.9234 0.34495 -0.136942
690200 60.2606 175.377 55.9234 0.34505 -0.16588
690400 60.2606 175.39 55.9234 0.34515 -0.159608
690600 60.2606 175.403 55.9234 0.34525 -0.161334
690800 60.2606 175.416 55.9234 0.34535 -0.100689
691000 60.2606 175.429 55.9234 0.34545 -0.10055
691200 60.2606 175.442 55.9234 0.34555 -0.0490359
691400 60.2606 175.455 55.9234 0.34565 0.00176101
691600 60.2606 175.468 55.9234 0.34575 0.0480459
691800 60.2606 175.481 55.9234 0.34585 0.11459
692000 60.2606 175.494 55.9234 0.34595 0.134421
692200 60.2606 175.507 55.9234 0.34605 0.165172
692400 60.2606 175.52 55.9234 0.34615 0.159296
692600 60.2606 175.533 55.9234 0.34625 0.145705
692800 60.2606 175.546 55.9234 0.34635 0.103429
693000 60.2606 175.559 55.9234 0.34645 0.106203
693200 60.2606 175.572 55.9234 0.34655 0.0536106
693400 60.2606 175.585 55.9234 0.34665 -0.0129016
693600 60.2606 175.599 55.9234 0.34675 -0.0643252
693800 60.2606 175.612 55.9234 0.34685 -0.0992057
694000 60.2606 175.625 55.9234 0.34695 -0.145326
694200 60.2606 175.638 55.9234 0.34705 -0.145392
694400 60.2606 175.651 55.9234 0.34715 -0.147009
694600 60.2606 175.664 55.9234 0.34725 -0.142846
694800 60.2606 175.677 55.9234 0.34735 -0.109694
695000 60.2606 175.69 55.9234 0.34745 -0.0551325
695200 60.2606 175.703 55.9234 0.34755 -0.0568171
695400 60.2606 175.716 55.9234 0.34765 0.00387404
695600 60.2606 175.729 55.9234 0.34775 0.0625319
695800 60.2606 175.742 55.9234 0.34785 0.102789
696000 60.2606 175.755 55.9234 0.34795 0.121144
696200 60.2606 175.768 55.9234 0.34805 0.154664
696400 60.2606 175.781 55.9234 0.34815 0.141736
696600 60.2606 175.794 55.9234 0.34825 0.160001
696800 60.2606 175.807 55.9234 0.34835 0.107594
697000 60.2606 175.82 55.9234 0.34845 0.0832795
697200 60.2606 175.833 55.9234 0.34855 0.0300843
697400 60.2606 175.846 55.9234 0.34865 -0.0257538
697600 60.2606 175.859 55.9234 0.34875 -0.0500629
697800 60.2606 175.872 55.9234 0.34885 -0.0959958
698000 60.2606 175.885 55.9234 0.34895 -0.134241
698200 60.2606 175.898 55.9234 0.34905 -0.156606
698400 60.2606 175.911 55.9234 0.34915 -0.130719
698600 60.2606 175.925 55.9234 0.34925 -0.143467
698800 60.2606 175.938 55.9234 0.34935 -0.106672
699000 60.2606 175.951 55.9234 0.34945 -0.0692204
699200 60.2606 175.964 55.9234 0.34955 -0.0300459
699400 60.2606 175.977 55.9234 0.34965 0.00617829
699600 60.2606 175.99 55.9234 0.34975 0.0674417
699800 60.2606 176.003 55.9234 0.34985 0.110913
700000 60.2606 176.016 55.9234 0.34995 0.144025
700200 60.2606 176.029 55.9234 0.35005 0.163422
700400 60.2606 176.042 55.9234 0.35015 0.139786
700600 60.2606 176.055 55.9234 0.35025 0.150882
700800 60.2606 176.068 55.9234 0.35035 0.0985631
701000 60.2606 176.081 55.9234 0.35045 0.0707664
701200 60.2606 176.094 55.9234 0.35055 0.0149987
701400 60.2606 176.107 55.9234 0.35065 -0.0183063
701600 60.2606 176.12 55.9234 0.35075 -0.0739565
701800 60.2606 176.133 55.9234 0.35085 -0.0984212
702000 60.2606 176.146 55.9234 0.35095 -0.134028
702200 60.2606 176.159 55.9234 0.35105 -0.168869
702400 60.2606 176.172 55.9234 0.35115 -0.148104
702600 60.2606 176.185 55.9234 0.35125 -0.14563
702800 60.2606 176.198 55.9234 0.35135 -0.0968905
703000 60.2606 176.211 55.9234 0.35145 -0.079771
703200 60.2606 176.224 55.9234 0.35155 -0.00219761
703400 60.2606 176.237 55.9234 0.35165 0.0308796
703600 60.2606 176.25 55.9234 0.35175 0.0872491
703800 60.2606 176.264 55.9234 0.35185 0.103675
704000 60.2606 176.277 55.9234 0.35195 0.162791
704200 60.2606 176.29 55.9234 0.35205 0.141267
704400 60.2606 176.303 55.9234 0.35215 0.158566
704600 60.2606 176.316 55.9234 0.35225 0.176046
704800 60.2606 176.329 55.9234 0.35235 0.107624
705000 60.2606 176.342 55.9234 0.35245 0.0628584
705200 60.2606 176.355 55.9234 0.35255 -0.0217145
705400 60.2606 176.368 55.9234 0.35265 -0.0473789
705600 60.2606 176.381 55.9234 0.35275 -0.0894857
705800 60.2606 176.394 55.9234 0.35285 -0.122151
706000 60.2606 176.407 55.9234 0.35295 -0.153543
706200 60.2606 176.42 55.9234 0.35305 -0.135636
706400 60.2606 176.433 55.9234 0.35315 -0.138314
706600 60.2606 176.446 55.9234 0.35325 -0.141074
706800 60.2606 176.459 55.9234 0.35335 -0.122391
707000 60.2606 176.472 55.9234 0.35345 -0.0524694
707200 60.2606 176.485 55.9234 0.35355 0.0111913
707400 60.2606 176.498 55.9234 0.35365 0.0586084
707600 60.2606 176.511 55.9234 0.35375 0.110284
707800 60.2606 176.524 55.9234 0.35385 0.129513
708000 60.2606 176.537 55.9234 0.35395 0.144211
708200 60.2606 176.55 55.9234 0.35405 0.143547
708400 60.2606 176.563 55.9234 0.35415 0.132266
708600 60.2606 176.576 55.9234 0.35425 0.129699
708800 60.2606 176.589 55.9234 0.35435 0.0926753
709000 60.2606 176.603 55.9234 0.35445 0.0591328
709200 60.2606 176.616 55.9234 0.35455 0.000300547
709400 60.2606 176.629 55.9234 0.35465 -0.0597039
709600 60.2606 176.642 55.9234 0.35475 -0.0965671
709800 60.2606 176.655 55.9234 0.35485 -0.129414
710000 60.2606 176.668 55.9234 0.35495 -0.145843
710200 60.2606 176.681 55.9234 0.35505 -0.160136
710400 60.2606 176.694 55.9234 0.35515 -0.13771
710600 60.2606 176.707 55.9234 0.35525 -0.107633
710800 60.2606 176.72 55.9234 0.35535 -0.0847607
711000 60.2606 176.733 55.9234 0.35545 -0.0269794
711200 60.2606 176.746 55.9234 0.35555 -0.00481529
711400 60.2606 176.759 55.9234 0.35565 0.0668822
711600 60.2606 176.772 55.9234 0.35575 0.0910856
711800 60.2606 176.785 55.9234 0.35585 0.145419
712000 60.2606 176.798 55.9234 0.35595 0.149034
712200 60.2606 176.811 55.9234 0.35605 0.15657
712400 60.2606 176.824 55.9234 0.35615 0.13796
712600 60.2606 176.837 55.9234 0.35625 0.120717
712800 60.2606 176.85 55.9234 0.35635 0.0509235
713000 60.2606 176.863 55.9234 0.35645 0.0355797
713200 60.2606 176.876 55.9234 0.35655 0.000853579
713400 60.2606 176.889 55.9234 0.35665 -0.0658638
713600 60.2606 176.902 55.9234 0.35675 -0.123796
713800 60.2606 176.915 55.9234 0.35685 -0.128828
714000 60.2606 176.928 55.9234 0.35695 -0.142518
714200 60.2606 176.942 55.9234 0.35705 -0.124258
714400 60.2606 176.955 55.9234 0.35715 -0.138123
714600 60.2606 176.968 55.9234 0.35725 -0.111831
714800 60.2606 176.981 55.9234 0.35735 -0.0583983
715000 60.2606 176.994 55.9234 0.35745 -0.0293535
715200 60.2606 177.007 55.9234 0.35755 0.0215777
715400 60.2606 177.02 55.9234 0.35765 0.0882478
715600 60.2606 177.033 55.9234 0.35775 0.105799
715800 60.2606 177.046 55.9234 0.35785 0.133178
716000 60.2606 177.059 55.9234 0.35795 0.136776
716200 60.2606 177.072 55.9234 0.35805 0.142781
716400 60.2606 177.085 55.9234 0.35815 0.115673
716600 60.2606 177.098 55.9234 0.35825 0.107808
716800 60.2606 177.111 55.9234 0.35835 0.056324
717000 60.2606 177.124 55.9234 0.35845 0.0296703
717200 60.2606 177.137 55.9234 0.35855 -0.0220002
717400 60.2606 177.15 55.9234 0.35865 -0.065678
717600 60.2606 177.163 55.9234 0.35875 -0.114436
717800 60.2606 177.176 55.9234 0.35885 -0.134778
718000 60.2606 177.189 55.9234 0.35895 -0.14066
718200 60.2606 177.202 55.9234 0.35905 -0.133866
718400 60.2606 177.215 55.9234 0.35915 -0.105459
718600 60.2606 177.228 55.9234 0.35925 -0.0949136
718800 60.2606 177.241 55.9234 0.35935 -0.0641062
719000 60.2606 177.254 55.9234 0.35945 -0.0293213
719200 60.2606 177.267 55.9234 0.35955 0.0393269
719400 60.2606 177.281 55.9234 0.35965 0.0672048
719600 60.2606 177.294 55.9234 0.35975 0.10255
719800 60.2606 177.307 55.9234 0.35985 0.140525
720000 60.2606 177.32 55.9234 0.35995 0.129377
720200 60.2606 177.333 55.9234 0.36005 0.139058
720400 60.2606 177.346 55.9234 0.36015 0.120674
720600 60.2606 177.359 55.9234 0.36025 0.109154
720800 60.2606 177.372 55.9234 0.36035 0.0584866
721000 60.2606 177.385 55.9234 0.36045 -0.000429619
721200 60.2606 177.398 55.9234 0.36055 -0.02315
721400 60.2606 177.411 55.9234 0.36065 -0.0765731
721600 60.2606 177.424 55.9234 0.36075 -0.102314
721800 60.2606 177.437 55.9234 0.36085 -0.120479
722000 60.2606 177.45 55.9234 0.36095 -0.122051
722200 60.2606 177.463 55.9234 0.36105 -0.136947
722400 60.2606 177.476 55.9234 0.36115 -0.120264
722600 60.2606 177.489 55.9234 0.36125 -0.111262
722800 60.2606 177.502 55.9234 0.36135 -0.0573317
723000 60.2606 177.515 55.9234 0.36145 0.00208857
723200 60.2606 177.528 55.9234 0.36155 0.0362538
723400 60.2606 177.541 55.9234 0.36165 0.0830957
723600 60.2606 177.554 55.9234 0.36175 0.0943531
723800 60.2606 177.567 55.9234 0.36185 0.135912
724000 60.2606 177.58 55.9234 0.36195 0.138926
724200 60.2606 177.593 55.9234 0.36205 0.1183
724400 60.2606 177.606 55.9234 0.36215 0.137173
724600 60.2606 177.62 55.9234 0.36225 0.0986798
724800 60.2606 177.633 55.9234 0.36235 0.0528217
725000 60.2606 177.646 55.9234 0.36245 -0.00445519
725200 60.2606 177.659 55.9234 0.36255 -0.0116385
725400 60.2606 177.672 55.9234 0.36265 -0.0910669
725600 60.2606 177.685 55.9234 0.36275 -0.102578
725800 60.2606 177.698 55.9234 0.36285 -0.132293
726000 60.2606 177.711 55.9234 0.36295 -0.158091
726200 60.2606 177.724 55.9234 0.36305 -0.135745
726400 60.2606 177.737 55.9234 0.36315 -0.110339
726600 60.2606 177.75 55.9234 0.36325 -0.0939961
726800 60.2606 177.763 55.9234 0.36335 -0.0313116
727000 60.2606 177.776 55.9234 0.36345 -0.0035236
727200 60.2606 177.789 55.9234 0.36355 0.044839
727400 60.2606 177.802 55.9234 0.36365 0.0823463
727600 60.2606 177.815 55.9234 0.36375 0.108573
727800 60.2606 177.828 55.9234 0.36385 0.149476
728000 60.2606 177.841 55.9234 0.36395 0.161899
728200 60.2606 177.854 55.9234 0.36405 0.129564
728400 60.2606 177.867 55.9234 0.36415 0.125674
728600 60.2606 177.88 55.9234 0.36425 0.0663576
728800 60.2606 177.893 55.9234 0.36435 0.0409994
729000 60.2606 177.906 55.9234 0.36445 -0.0144515
729200 60.2606 177.919 55.9234 0.36455 -0.0539259
729400 60.2606 177.932 55.9234 0.36465 -0.0834756
729600 60.2606 177.946 55.9234 0.36475 -0.113988
729800 60.2606 177.959 55.9234 0.36485 -0.139863
730000 60.2606 177.972 55.9234 0.36495 -0.152414
730200 60.2606 177.985 55.9234 0.36505 -0.125881
730400 60.2606 177.998 55.9234 0.36515 -0.100669
730600 60.2606 178.011 55.9234 0.36525 -0.0686691
730800 60.2606 178.024 55.9234 0.36535 -0.0185236
731000 60.2606 178.037 55.9234 0.36545 0.0170361
731200 60.2606 178.05 55.9234 0.36555 0.0480157
731400 60.2606 178.063 55.9234 0.36565 0.0810249
731600 60.2606 178.076 55.9234 0.36575 0.143395
731800 60.2606 178.089 55.9234 0.36585 0.140062
732000 60.2606 178.102 55.9234 0.36595 0.134423
732200 60.2606 178.115 55.9234 0.36605 0.116731
732400 60.2606 178.128 55.9234 0.36615 0.0934243
732600 60.2606 178.141 55.9234 0.36625 0.0763922
732800 60.2606 178.154 55.9234 0.36635 0.019382
733000 60.2606 178.167 55.9234 0.36645 -0.0096807
733200 60.2606 178.18 55.9234 0.36655 -0.0497569
733400 60.2606 178.193 55.9234 0.36665 -0.107324
733600 60.2606 178.206 55.9234 0.36675 -0.117393
733800 60.2606 178.219 55.9234 0.36685 -0.116755
734000 60.2606 178.232 55.9234 0.36695 -0.15506
734200 60.2606 178.245 55.9234 0.36705 -0.118218
734400 60.2606 178.258 55.9234 0.36715 -0.0866768
734600 60.2606 178.271 55.9234 0.36725 -0.0587661
734800 60.2606 178.285 55.9234 0.36735 -0.0362331
735000 60.2606 178.298 55.9234 0.36745 0.041885
735200 60.2606 178.311 55.9234 0.36755 0.0573322
735400 60.2606 178.324 55.9234 0.36765 0.076942
735600 60.2606 178.337 55.9234 0.36775 0.134686
735800 60.2606 178.35 55.9234 0.36785 0.152071
736000 60.2606 178.363 55.9234 0.36795 0.124584
736200 60.2606 178.376 55.9234 0.36805 0.113905
736400 60.2606 178.389 55.9234 0.36815 0.0956083
736600 60.2606 178.402 55.9234 0.36825 0.0530646
736800 60.2606 178.415 55.9234 0.36835 0.0133729
737000 60.2606 178.428 55.9234 0.36845 -0.021438
737200 60.2606 178.441 55.9234 0.36855 -0.0593021
737400 60.2606 178.454 55.9234 0.36865 -0.0815681
737600 60.2606 178.467 55.9234 0.36875 -0.135234
737800 60.2606 178.48 55.9234 0.36885 -0.125993
738000 60.2606 178.493 55.9234 0.36895 -0.130303
738200 60.2606 178.506 55.9234 0.36905 -0.0986064
738400 60.2606 178.519 55.9234 0.36915 -0.094276
738600 60.2606 178.532 55.9234 0.36925 -0.0694898
738800 60.2606 178.545 55.9234 0.36935 -0.00563421
739000 60.2606 178.558 55.9234 0.36945 0.0429139
739200 60.2606 178.571 55.9234 0.36955 0.0595985
739400 60.2606 178.584 55.9234 0.36965 0.0731205
739600 60.2606 178.597 55.9234 0.36975 0.133595
739800 60.2606 178.61 55.9234 0.36985 0.133941
740000 60.2606 178.624 55.9234 0.36995 0.121834
740200 60.2606 178.637 55.9234 0.37005 0.11946
740400 60.2606 178.65 55.9234 0.37015 0.0951261
740600 60.2606 178.663 55.9234 0.37025 0.0460817
740800 60.2606 178.676 55.9234 0.37035 0.0217752
741000 60.2606 178.689 55.9234 0.37045 -0.0282539
741200 60.2606 178.702 55.9234 0.37055 -0.101794
741400 60.2606 178.715 55.9234 0.37065 -0.0745374
741600 60.2606 178.728 55.9234 0.37075 -0.0986399
741800 60.2606 178.741 55.9234 0.37085 -0.129811
742000 60.2606 178.754 55.9234 0.37095 -0.134016
742200 60.2606 178.767 55.9234 0.37105 -0.115482
742400 60.2606 178.78 55.9234 0.37115 -0.0906009
742600 60.2606 178.793 55.9234 0.37125 -0.0248423
742800 60.2606 178.806 55.9234 0.37135 -0.0104089
743000 60.2606 178.819 55.9234 0.37145 0.0238137
743200 60.2606 178.832 55.9234 0.37155 0.0795265
743400 60.2606 178.845 55.9234 0.37165 0.097704
743600 60.2606 178.858 55.9234 0.37175 0.0981755
743800 60.2606 178.871 55.9234 0.37185 0.140525
744000 60.2606 178.884 55.9234 0.37195 0.140428
744200 60.2606 178.897 55.9234 0.37205 0.10688
744400 60.2606 178.91 55.9234 0.37215 0.094388
744600 60.2606 178.923 55.9234 0.37225 0.0383991
744800 60.2606 178.936 55.9234 0.37235 0.00236878
745000 60.2606 178.949 55.9234 0.37245 -0.0415116
745200 60.2606 178.963 55.9234 0.37255 -0.0732712
745400 60.2606 178.976 55.9234 0.37265 -0.0890647
745600 60.2606 178.989 55.9234 0.37275 -0.126852
745800 60.2606 179.002 55.9234 0.37285 -0.133843
746000 60.2606 179.015 55.9234 0.37295 -0.133903
746200 60.2606 179.028 55.9234 0.37305 -0.0849398
746400 60.2606 179.041 55.9234 0.37315 -0.0801876
746600 60.2606 179.054 55.9234 0.37325 -0.0506361
746800 60.2606 179.067 55.9234 0.37335 0.00171263
747000 60.2606 179.08 55.9234 0.37345 0.0498757
747200 60.2606 179.093 55.9234 0.37355 0.0862208
747400 60.2606 179.106 55.9234 0.37365 0.0969739
747600 60.2606 179.119 55.9234 0.37375 0.139561
747800 60.2606 179.132 55.9234 0.37385 0.131841
748000 60.2606 179.145 55.9234 0.37395 0.0897368
748200 60.2606 179.158 55.9234 0.37405 0.106519
748400 60.2606 179.171 55.9234 0.37415 0.079325
748600 60.2606 179.184 55.9234 0.37425 0.0621142
748800 60.2606 179.197 55.9234 0.37435 0.00588263
749000 60.2606 179.21 55.9234 0.37445 -0.0343168
749200 60.2606 179.223 55.9234 0.37455 -0.10017
749400 60.2606 179.236 55.9234 0.37465 -0.112007
749600 60.2606 179.249 55.9234 0.37475 -0.129362
749800 60.2606 179.262 55.9234 0.37485 -0.108233
750000 60.2606 179.275 55.9234 0.37495 -0.116456
750200 60.2606 179.288 55.9234 0.37505 -0.0985539
750400 60.2606 179.302 55.9234 0.37515 -0.0809872
750600 60.2606 179.315 55.9234 0.37525 -0.0550558
750800 60.2606 179.328 55.9234 0.37535 0.0110999
751000 60.2606 179.341 55.9234 0.37545 0.0464355
751200 60.2606 179.354 55.9234 0.37555 0.0964532
751400 60.2606 179.367 55.9234 0.37565 0.116292
751600 60.2606 179.38 55.9234 0.37575 0.132602
751800 60.2606 179.393 55.9234 0.37585 0.119411
752000 60.2606 179.406 55.9234 0.37595 0.120744
752200 60.2606 179.419 55.9234 0.37605 0.0982039
752400 60.2606 179.432 55.9234 0.37615 0.0775116
752600 60.2606 179.445 55.9234 0.37625 0.0462501
752800 60.2606 179.458 55.9234 0.37635 -0.0246669
753000 60.2606 179.471 55.9234 0.37645 -0.0705627
753200 60.2606 179.484 55.9234 0.37655 -0.0895064
753400 60.2606 179.497 55.9234 0.37665 -0.104228
753600 60.2606 179.51 55.9234 0.37675 -0.0917863
753800 60.2606 179.523 55.9234 0.37685 -0.134724
754000 60.2606 179.536 55.9234 0.37695 -0.128592
754200 60.2606 179.549 55.9234 0.37705 -0.10361
754400 60.2606 179.562 55.9234 0.37715 -0.0667658
754600 60.2606 179.575 55.9234 0.37725 -0.0350331
754800 60.2606 179.588 55.9234 0.37735 0.0363745
755000 60.2606 179.601 55.9234 0.37745 0.06479
755200 60.2606 179.614 55.9234 0.37755 0.0997465
755400 60.2606 179.627 55.9234 0.37765 0.107377
755600 60.2606 179.641 55.9234 0.37775 0.133869
755800 60.2606 179.654 55.9234 0.37785 0.120132
756000 60.2606 179.667 55.9234 0.37795 0.125552
756200 60.2606 179.68 55.9234 0.37805 0.0942993
756400 60.2606 179.693 55.9234 0.37815 0.0664549
756600 60.2606 179.706 55.9234 0.37825 -0.00157296
756800 60.2606 179.719 55.9234 0.37835 -0.030149
757000 60.2606 179.732 55.9234 0.37845 -0.02999
757200 60.2606 179.745 55.9234 0.37855 -0.104126
757400 60.2606 179.758 55.9234 0.37865 -0.129694
757600 60.2606 179.771 55.9234 0.37875 -0.105141
757800 60.2606 179.784 55.9234 0.37885 -0.129461
758000 60.2606 179.797 55.9234 0.37895 -0.127302
758200 60.2606 179.81 55.9234 0.37905 -0.0954201
758400 60.2606 179.823 55.9234 0.37915 -0.0387285
758600 60.2606 179.836 55.9234 0.37925 -0.0156145
758800 60.2606 179.849 55.9234 0.37935 0.0336042
759000 60.2606 179.862 55.9234 0.37945 0.0693222
759200 60.2606 179.875 55.9234 0.37955 0.0770257
759400 60.2606 179.888 55.9234 0.37965 0.127216
759600 60.2606 179.901 55.9234 0.37975 0.148373
759800 60.2606 179.914 55.9234 0.37985 0.116416
760000 60.2606 179.927 55.9234 0.37995 0.102271
760200 60.2606 179.94 55.9234 0.38005 0.100039
760400 60.2606 179.953 55.9234 0.38015 0.031947
760600 60.2606 179.966 55.9234 0.38025 0.0294211
760800 60.2606 179.98 55.9234 0.38035 -0.0310292
761000 60.2606 179.993 55.9234 0.38045 -0.0680733
761200 60.2606 180.006 55.9234 0.38055 -0.092606
761400 60.2606 180.019 55.9234 0.38065 -0.12378
761600 60.2606 180.032 55.9234 0.38075 -0.122502
761800 60.2606 180.045 55.9234 0.38085 -0.130469
762000 60.2606 180.058 55.9234 0.38095 -0.0900061
762200 60.2606 180.071 55.9234 0.38105 -0.0812954
762400 60.2606 180.084 55.9234 0.38115 -0.0727725
762600 60.2606 180.097 55.9234 0.38125 0.01448
762800 60.2606 180.11 55.9234 0.38135 0.0256844
763000 60.2606 180.123 55.9234 0.38145 0.0695059
763200 60.2606 180.136 55.9234 0.38155 0.105494
763400 60.2606 180.149 55.9234 0.38165 0.112616
763600 60.2606 180.162 55.9234 0.38175 0.115827
763800 60.2606 180.175 55.9234 0.38185 0.133354
764000 60.2606 180.188 55.9234 0.38195 0.0973012
764200 60.2606 180.201 55.9234 0.38205 0.0867002
764400 60.2606 180.214 55.9234 0.38215 0.0517573
764600 60.2606 180.227 55.9234 0.38225 0.00697643
764800 60.2606 180.24 55.9234 0.38235 -0.055489
765000 60.2606 180.253 55.9234 0.38245 -0.0830362
765200 60.2606 180.266 55.9234 0.38255 -0.0875519
765400 60.2606 180.279 55.9234 0.38265 -0.10089
765600 60.2606 180.292 55.9234 0.38275 -0.119143
765800 60.2606 180.306 55.9234 0.38285 -0.101934
766000 60.2606 180.319 55.9234 0.38295 -0.0964361
766200 60.2606 180.332 55.9234 0.38305 -0.0864693
766400 60.2606 180.345 55.9234 0.38315 -0.0459008
766600 60.2606 180.358 55.9234 0.38325 0.00978049
766800 60.2606 180.371 55.9234 0.38335 0.0354465
767000 60.2606 180.384 55.9234 0.38345 0.079168
767200 60.2606 180.397 55.9234 0.38355 0.107619
767400 60.2606 180.41 55.9234 0.38365 0.122691
767600 60.2606 180.423 55.9234 0.38375 0.117871
767800 60.2606 180.436 55.9234 0.38385 0.0996082
768000 60.2606 180.449 55.9234 0.38395 0.091456
768200 60.2606 180.462 55.9234 0.38405 0.0667386
768400 60.2606 180.475 55.9234 0.38415 0.0437541
768600 60.2606 180.488 55.9234 0.38425 -0.00658946
768800 60.2606 180.501 55.9234 0.38435 -0.0313877
769000 60.2606 180.514 55.9234 0.38445 -0.0777082
769200 60.2606 180.527 55.9234 0.38455 -0.0857773
769400 60.2606 180.54 55.9234 0.38465 -0.127218
769600 60.2606 180.553 55.9234 0.38475 -0.137189
769800 60.2606 180.566 55.9234 0.38485 -0.109692
770000 60.2606 180.579 55.9234 0.38495 -0.079506
770200 60.2606 180.592 55.9234 0.38505 -0.0467681
770400 60.2606 180.605 55.9234 0.38515 -0.03003
770600 60.2606 180.618 55.9234 0.38525 0.0197086
770800 60.2606 180.631 55.9234 0.38535 0.0372739
771000 60.2606 180.645 55.9234 0.38545 0.0651825
771200 60.2606 180.658 55.9234 0.38555 0.0993143
771400 60.2606 180.671 55.9234 0.38565 0.131313
771600 60.2606 180.684 55.9234 0.38575 0.1303
771800 60.2606 180.697 55.9234 0.38585 0.107343
772000 60.2606 180.71 55.9234 0.38595 0.0876827
772200 60.2606 180.723 55.9234 0.38605 0.0535517
772400 60.2606 180.736 55.9234 0.38615 0.00095982
772600 60.2606 180.749 55.9234 0.38625 -0.0232338
772800 60.2606 180.762 55.9234 0.38635 -0.0471424
773000 60.2606 180.775 55.9234 0.38645 -0.0656981
773200 60.2606 180.788 55.9234 0.38655 -0.0971064
773400 60.2606 180.801 55.9234 0.38665 -0.126623
773600 60.2606 180.814 55.9234 0.38675 -0.0979645
773800 60.2606 180.827 55.9234 0.38685 -0.0960742
774000 60.2606 180.84 55.9234 0.38695 -0.0705609
774200 60.2606 180.853 55.9234 0.38705 -0.0498454
774400 60.2606 180.866 55.9234 0.38715 -0.0169357
774600 60.2606 180.879 55.9234 0.38725 0.0327368
774800 60.2606 180.892 55.9234 0.38735 0.0523043
775000 60.2606 180.905 55.9234 0.38745 0.0852857
775200 60.2606 180.918 55.9234 0.38755 0.11897
775400 60.2606 180.931 55.9234 0.38765 0.101698
775600 60.2606 180.944 55.9234 0.38775 0.0979415
775800 60.2606 180.957 55.9234 0.38785 0.0971419
776000 60.2606 180.97 55.9234 0.38795 0.0708179
776200 60.2606 180.984 55.9234 0.38805 0.0379599
776400 60.2606 180.997 55.9234 0.38815 -0.00672822
776600 60.2606 181.01 55.9234 0.38825 -0.017501
776800 60.2606 181.023 55.9234 0.38835 -0.055496
777000 60.2606 181.036 55.9234 0.38845 -0.0804363
777200 60.2606 181.049 55.9234 0.38855 -0.0922409
777400 60.2606 181.062 55.9234 0.38865 -0.107501
777600 60.2606 181.075 55.9234 0.38875 -0.0936201
777800 60.2606 181.088 55.9234 0.38885 -0.0943157
778000 60.2606 181.101 55.9234 0.38895 -0.0750472
778200 60.2606 181.114 55.9234 0.38905 -0.0395847
778400 60.2606 181.127 55.9234 0.38915 -0.00733886
778600 60.2606 181.14 55.9234 0.38925 0.0380627
778800 60.2606 181.153 55.9234 0.38935 0.0649282
779000 60.2606 181.166 55.9234 0.38945 0.0718878
779200 60.2606 181.179 55.9234 0.38955 0.108587
779400 60.2606 181.192 55.9234 0.38965 0.122804
779600 60.2606 181.205 55.9234 0.38975 0.104178
779800 60.2606 181.218 55.9234 0.38985 0.0818145
780000 60.2606 181.231 55.9234 0.38995 0.0706572
780200 60.2606 181.244 55.9234 0.39005 0.0320306
780400 60.2606 181.257 55.9234 0.39015 0.0108335
780600 60.2606 181.27 55.9234 0.39025 -0.0570591
780800 60.2606 181.283 55.9234 0.39035 -0.0457802
781000 60.2606 181.296 55.9234 0.39045 -0.0853606
781200 60.2606 181.309 55.9234 0.39055 -0.100341
781400 60.2606 181.323 55.9234 0.39065 -0.108847
781600 60.2606 181.336 55.9234 0.39075 -0.116543
781800 60.2606 181.349 55.9234 0.39085 -0.0662409
782000 60.2606 181.362 55.9234 0.39095 -0.0567979
782200 60.2606 181.375 55.9234 0.39105 -0.0337371
782400 60.2606 181.388 55.9234 0.39115 0.00430675
782600 60.2606 181.401 55.9234 0.39125 0.0499049
782800 60.2606 181.414 55.9234 0.39135 0.0592786
783000 60.2606 181.427 55.9234 0.39145 0.0880202
783200 60.2606 181.44 55.9234 0.39155 0.111555
783400 60.2606 181.453 55.9234 0.39165 0.10767
783600 60.2606 181.466 55.9234 0.39175 0.0897651
783800 60.2606 181.479 55.9234 0.39185 0.101472
784000 60.2606 181.492 55.9234 0.39195 0.0575651
784200 60.2606 181.505 55.9234 0.39205 0.0223416
784400 60.2606 181.518 55.9234 0.39215 -0.00635193
784600 60.2606 181.531 55.9234 0.39225 -0.0561453
784800 60.2606 181.544 55.9234 0.39235 -0.0845049
785000 60.2606 181.557 55.9234 0.39245 -0.0804339
785200 60.2606 181.57 55.9234 0.39255 -0.0942075
785400 60.2606 181.583 55.9234 0.39265 -0.0977331
785600 60.2606 181.596 55.9234 0.39275 -0.0864224
785800 60.2606 181.609 55.9234 0.39285 -0.0837009
786000 60.2606 181.622 55.9234 0.39295 -0.0385026
786200 60.2606 181.635 55.9234 0.39305 -0.0189619
786400 60.2606 181.648 55.9234 0.39315 -0.00485087
786600 60.2606 181.662 55.9234 0.39325 0.0524956
786800 60.2606 181.675 55.9234 0.39335 0.0770821
787000 60.2606 181.688 55.9234 0.39345 0.0828302
787200 60.2606 181.701 55.9234 0.39355 0.0964615
787400 60.2606 181.714 55.9234 0.39365 0.102919
787600 60.2606 181.727 55.9234 0.39375 0.0843334
787800 60.2606 181.74 55.9234 0.39385 0.0738458
788000 60.2606 181.753 55.9234 0.39395 0.0474916
788200 60.2606 181.766 55.9234 0.39405 0.0361793
788400 60.2606 181.779 55.9234 0.39415 -0.0130552
788600 60.2606 181.792 55.9234 0.39425 -0.0315888
788800 60.2606 181.805 55.9234 0.39435 -0.0739712
789000 60.2606 181.818 55.9234 0.39445 -0.109405
789200 60.2606 181.831 55.9234 0.39455 -0.0702678
789400 60.2606 181.844 55.9234 0.39465 -0.0817337
789600 60.2606 181.857 55.9234 0.39475 -0.0999064
789800 60.2606 181.87 55.9234 0.39485 -0.0916704
790000 60.2606 181.883 55.9234 0.39495 -0.0419084
790200 60.2606 181.896 55.9234 0.39505 -0.0166158
790400 60.2606 181.909 55.9234 0.39515 0.0132875
790600 60.2606 181.922 55.9234 0.39525 0.0456071
790800 60.2606 181.935 55.9234 0.39535 0.0617173
791000 60.2606 181.948 55.9234 0.39545 0.111204
791200 60.2606 181.961 55.9234 0.39555 0.0909401
791400 60.2606 181.974 55.9234 0.39565 0.109153
791600 60.2606 181.987 55.9234 0.39575 0.0957584
791800 60.2606 182.001 55.9234 0.39585 0.0535645
792000 60.2606 182.014 55.9234 0.39595 0.0705311
792200 60.2606 182.027 55.9234 0.39605 0.007199
792400 60.2606 182.04 55.9234 0.39615 -0.0292526
792600 60.2606 182.053 55.9234 0.39625 -0.0481656
792800 60.2606 182.066 55.9234 0.39635 -0.0756713
793000 60.2606 182.079 55.9234 0.39645 -0.0817231
793200 60.2606 182.092 55.9234 0.39655 -0.123063
793400 60.2606 182.105 55.9234 0.39665 -0.095636
793600 60.2606 182.118 55.9234 0.39675 -0.0964929
793800 60.2606 182.131 55.9234 0.39685 -0.0480562
794000 60.2606 182.144 55.9234 0.39695 -0.0450979
794200 60.2606 182.157 55.9234 0.39705 0.00914904
794400 60.2606 182.17 55.9234 0.39715 0.0302888
794600 60.2606 182.183 55.9234 0.39725 0.0463841
794800 60.2606 182.196 55.9234 0.39735 0.0761016
795000 60.2606 182.209 55.9234 0.39745 0.102988
795200 60.2606 182.222 55.9234 0.39755 0.110501
795400 60.2606 182.235 55.9234 0.39765 0.0981018
795600 60.2606 182.248 55.9234 0.39775 0.0972526
795800 60.2606 182.261 55.9234 0.39785 0.0590037
796000 60.2606 182.274 55.9234 0.39795 0.0391042
796200 60.2606 182.287 55.9234 0.39805 -0.00673737
796400 60.2606 182.3 55.9234 0.39815 -0.0543722
796600 60.2606 182.313 55.9234 0.39825 -0.0334823
796800 60.2606 182.327 55.9234 0.39835 -0.0834876
797000 60.2606 182.34 55.9234 0.39845 -0.100603
797200 60.2606 182.353 55.9234 0.39855 -0.105601
797400 60.2606 182.366 55.9234 0.39865 -0.0993719
797600 60.2606 182.379 55.9234 0.39875 -0.0712366
797800 60.2606 182.392 55.9234 0.39885 -0.058951
798000 60.2606 182.405 55.9234 0.39895 -0.0379623
798200 60.2606 182.418 55.9234 0.39905 -0.0101891
798400 60.2606 182.431 55.9234 0.39915 0.0425245
798600 60.2606 182.444 55.9234 0.39925 0.0738667
798800 60.2606 182.457 55.9234 0.39935 0.0914142
799000 60.2606 182.47 55.9234 0.39945 0.100964
799200 60.2606 182.483 55.9234 0.39955 0.118258
799400 60.2606 182.496 55.9234 0.39965 0.0953783
799600 60.2606 182.509 55.9234 0.39975 0.0696495
799800 60.2606 182.522 55.9234 0.39985 0.0414239
800000 60.2606 182.535 55.9234 0.39995 0.0384473
800200 60.2606 182.548 55.9234 0.40005 -0.0101523
800400 60.2606 182.561 55.9234 0.40015 -0.0349647
800600 60.2606 182.574 55.9234 0.40025 -0.0730688
800800 60.2606 182.587 55.9234 0.40035 -0.0690644
801000 60.2606 182.6 55.9234 0.40045 -0.126525
801200 60.2606 182.613 55.9234 0.40055 -0.103836
801400 60.2606 182.626 55.9234 0.40065 -0.0908178
801600 60.2606 182.639 55.9234 0.40075 -0.0666671
801800 60.2606 182.652 55.9234 0.40085 -0.0332096
802000 60.2606 182.666 55.9234 0.40095 -0.00219002
802200 60.2606 182.679 55.9234 0.40105 0.0160364
802400 60.2606 182.692 55.9234 0.40115 0.0353146
802600 60.2606 182.705 55.9234 0.40125 0.0602704
802800 60.2606 182.718 55.9234 0.40135 0.0978225
803000 60.2606 182.731 55.9234 0.40145 0.0975569
803200 60.2606 182.744 55.9234 0.40155 0.112596
803400 60.2606 182.757 55.9234 0.40165 0.0969676
803600 60.2606 182.77 55.9234 0.40175 0.050981
803800 60.2606 182.783 55.9234 0.40185 0.0230807
804000 60.2606 182.796 55.9234 0.40195 0.0182123
804200 60.2606 182.809 55.9234 0.40205 -0.00540811
804400 60.2606 182.822 55.9234 0.40215 -0.0563077
804600 60.2606 182.835 55.9234 0.40225 -0.0685522
804800 60.2606 182.848 55.9234 0.40235 -0.0855
805000 60.2606 182.861 55.9234 0.40245 -0.0899948
805200 60.2606 182.874 55.9234 0.40255 -0.0967649
805400 60.2606 182.887 55.9234 0.40265 -0.0868356
805600 60.2606 182.9 55.9234 0.40275 -0.0653224
805800 60.2606 182.913 55.9234 0.40285 -0.0307011
806000 60.2606 182.926 55.9234 0.40295 -0.00515176
806200 60.2606 182.939 55.9234 0.40305 0.0254764
806400 60.2606 182.952 55.9234 0.40315 0.0516909
806600 60.2606 182.965 55.9234 0.40325 0.0774071
806800 60.2606 182.978 55.9234 0.40335 0.0723022
807000 60.2606 182.991 55.9234 0.40345 0.086801
807200 60.2606 183.005 55.9234 0.40355 0.100951
807400 60.2606 183.018 55.9234 0.40365 0.103708
807600 60.2606 183.031 55.9234 0.40375 0.0518916
807800 60.2606 183.044 55.9234 0.40385 0.0358113
808000 60.2606 183.057 55.9234 0.40395 0.0164404
808200 60.2606 183.07 55.9234 0.40405 -0.0397054
808400 60.2606 183.083 55.9234 0.40415 -0.0338208
808600 60.2606 183.096 55.9234 0.40425 -0.0508074
808800 60.2606 183.109 55.9234 0.40435 -0.0969647
809000 60.2606 183.122 55.9234 0.40445 -0.111946
809200 60.2606 183.135 55.9234 0.40455 -0.0949359
809400 60.2606 183.148 55.9234 0.40465 -0.0822478
809600 60.2606 183.161 55.9234 0.40475 -0.0639305
809800 60.2606 183.174 55.9234 0.40485 -0.0221953
810000 60.2606 183.187 55.9234 0.40495 -0.00954282
810200 60.2606 183.2 55.9234 0.40505 0.0138254
810400 60.2606 183.213 55.9234 0.40515 0.0577287
810600 60.2606 183.226 55.9234 0.40525 0.0608471
810800 60.2606 183.239 55.9234 0.40535 0.093791
811000 60.2606 183.252 55.9234 0.40545 0.0969825
811200 60.2606 183.265 55.9234 0.40555 0.114903
811400 60.2606 183.278 55.9234 0.40565 0.0945125
811600 60.2606 183.291 55.9234 0.40575 0.084024
811800 60.2606 183.304 55.9234 0.40585 0.0258943
812000 60.2606 183.317 55.9234 0.40595 0.00543462
812200 60.2606 183.33 55.9234 0.40605 -0.0249574
812400 60.2606 183.344 55.9234 0.40615 -0.0680058
812600 60.2606 183.357 55.9234 0.40625 -0.0873513
812800 60.2606 183.37 55.9234 0.40635 -0.0872248
813000 60.2606 183.383 55.9234 0.40645 -0.0961275
813200 60.2606 183.396 55.9234 0.40655 -0.0938687
813400 60.2606 183.409 55.9234 0.40665 -0.090094
813600 60.2606 183.422 55.9234 0.40675 -0.0601343
813800 60.2606 183.435 55.9234 0.40685 -0.0405259
814000 60.2606 183.448 55.9234 0.40695 -0.00463861
814200 60.2606 183.461 55.9234 0.40705 0.0437109
814400 60.2606 183.474 55.9234 0.40715 0.0754288
814600 60.2606 183.487 55.9234 0.40725 0.0633725
814800 60.2606 183.5 55.9234 0.40735 0.102895
815000 60.2606 183.513 55.9234 0.40745 0.124589
815200 60.2606 183.526 55.9234 0.40755 0.104074
815400 60.2606 183.539 55.9234 0.40765 0.06229
815600 60.2606 183.552 55.9234 0.40775 0.0610651
815800 60.2606 183.565 55.9234 0.40785 0.0137976
816000 60.2606 183.578 55.9234 0.40795 0.0155668
816200 60.2606 183.591 55.9234 0.40805 -0.0250317
816400 60.2606 183.604 55.9234 0.40815 -0.0706511
816600 60.2606 183.617 55.9234 0.40825 -0.0799408
816800 60.2606 183.63 55.9234 0.40835 -0.0987162
817000 60.2606 183.643 55.9234 0.40845 -0.100153
817200 60.2606 183.656 55.9234 0.40855 -0.116198
817400 60.2606 183.669 55.9234 0.40865 -0.0606745
817600 60.2606 183.683 55.9234 0.40875 -0.0566693
817800 60.2606 183.696 55.9234 0.40885 -0.0163788
818000 60.2606 183.709 55.9234 0.40895 0.000211989
818200 60.2606 183.722 55.9234 0.40905 0.0383538
818400 60.2606 183.735 55.9234 0.40915 0.0788254
818600 60.2606 183.748 55.9234 0.40925 0.0804975
818800 60.2606 183.761 55.9234 0.40935 0.0859718
819000 60.2606 183.774 55.9234 0.40945 0.11043
819200 60.2606 183.787 55.9234 0.40955 0.104387
819400 60.2606 183.8 55.9234 0.40965 0.0790082
819600 60.2606 183.813 55.9234 0.40975 0.0487376
819800 60.2606 183.826 55.9234 0.40985 0.0133186
820000 60.2606 183.839 55.9234 0.40995 -0.012952
820200 60.2606 183.852 55.9234 0.41005 -0.0420089
820400 60.2606 183.865 55.9234 0.41015 -0.0745217
820600 60.2606 183.878 55.9234 0.41025 -0.077918
820800 60.2606 183.891 55.9234 0.41035 -0.0883556
821000 60.2606 183.904 55.9234 0.41045 -0.1018
821200 60.2606 183.917 55.9234 0.41055 -0.0805963
821400 60.2606 183.93 55.9234 0.41065 -0.066945
821600 60.2606 183.943 55.9234 0.41075 -0.0538617
821800 60.2606 183.956 55.9234 0.41085 -0.0114542
822000 60.2606 183.969 55.9234 0.41095 0.0113314
822200 60.2606 183.982 55.9234 0.41105 0.0377694
822400 60.2606 183.995 55.9234 0.41115 0.0875331
822600 60.2606 184.008 55.9234 0.41125 0.0879322
822800 60.2606 184.022 55.9234 0.41135 0.0754939
823000 60.2606 184.035 55.9234 0.41145 0.0945539
823200 60.2606 184.048 55.9234 0.41155 0.0902874
823400 60.2606 184.061 55.9234 0.41165 0.0766108
823600 60.2606 184.074 55.9234 0.41175 0.0377001
823800 60.2606 184.087 55.9234 0.41185 0.0200223
824000 60.2606 184.1 55.9234 0.41195 0.00682602
824200 60.2606 184.113 55.9234 0.41205 -0.0575646
824400 60.2606 184.126 55.9234 0.41215 -0.0723354
824600 60.2606 184.139 55.9234 0.41225 -0.0856683
824800 60.2606 184.152 55.9234 0.41235 -0.101873
825000 60.2606 184.165 55.9234 0.41245 -0.071104
825200 60.2606 184.178 55.9234 0.41255 -0.0785254
825400 60.2606 184.191 55.9234 0.41265 -0.0555305
825600 60.2606 184.204 55.9234 0.41275 -0.0459412
825800 60.2606 184.217 55.9234 0.41285 -0.0169385
826000 60.2606 184.23 55.9234 0.41295 -0.00101577
826200 60.2606 184.243 55.9234 0.41305 0.0539583
826400 60.2606 184.256 55.9234 0.41315 0.0622445
826600 60.2606 184.269 55.9234 0.41325 0.10269
826800 60.2606 184.282 55.9234 0.41335 0.0973724
827000 60.2606 184.295 55.9234 0.41345 0.0755238
827200 60.2606 184.308 55.9234 0.41355 0.0766752
827400 60.2606 184.321 55.9234 0.41365 0.0516079
827600 60.2606 184.334 55.9234 0.41375 0.0393484
827800 60.2606 184.347 55.9234 0.41385 0.0263214
828000 60.2606 184.361 55.9234 0.41395 -0.0302454
828200 60.2606 184.374 55.9234 0.41405 -0.0327929
828400 60.2606 184.387 55.9234 0.41415 -0.0377588
828600 60.2606 184.4 55.9234 0.41425 -0.0996748
828800 60.2606 184.413 55.9234 0.41435 -0.099883
829000 60.2606 184.426 55.9234 0.41445 -0.0796041
829200 60.2606 184.439 55.9234 0.41455 -0.0852648
829400 60.2606 184.452 55.9234 0.41465 -0.059491
829600 60.2606 184.465 55.9234 0.41475 -0.0352142
829800 60.2606 184.478 55.9234 0.41485 0.00609645
830000 60.2606 184.491 55.9234 0.41495 0.0179533
830200 60.2606 184.504 55.9234 0.41505 0.0334784
830400 60.2606 184.517 55.9234 0.41515 0.0765648
830600 60.2606 184.53 55.9234 0.41525 0.0692557
830800 60.2606 184.543 55.9234 0.41535 0.0994338
831000 60.2606 184.556 55.9234 0.41545 0.0994703
831200 60.2606 184.569 55.9234 0.41555 0.0789457
831400 60.2606 184.582 55.9234 0.41565 0.0716408
831600 60.2606 184.595 55.9234 0.41575 0.0319709
831800 60.2606 184.608 55.9234 0.41585 -0.00748016
832000 60.2606 184.621 55.9234 0.41595 -0.0128131
832200 60.2606 184.634 55.9234 0.41605 -0.0466296
832400 60.2606 184.647 55.9234 0.41615 -0.0541986
832600 60.2606 184.66 55.9234 0.41625 -0.0682037
832800 60.2606 184.673 55.9234 0.41635 -0.100753
833000 60.2606 184.687 55.9234 0.41645 -0.105059
833200 60.2606 184.7 55.9234 0.41655 -0.0761551
833400 60.2606 184.713 55.9234 0.41665 -0.0795824
833600 60.2606 184.726 55.9234 0.41675 -0.025087
833800 60.2606 184.739 55.9234 0.41685 0.00703207
834000 60.2606 184.752 55.9234 0.41695 0.0216619
834200 60.2606 184.765 55.9234 0.41705 0.0448188
834400 60.2606 184.778 55.9234 0.41715 0.0609165
834600 60.2606 184.791 55.9234 0.41725 0.0981109
834800 60.2606 184.804 55.9234 0.41735 0.109857
835000 60.2606 184.817 55.9234 0.41745 0.0964612
835200 60.2606 184.83 55.9234 0.41755 0.0885423
835400 60.2606 184.843 55.9234 0.41765 0.0452904
835600 60.2606 184.856 55.9234 0.41775 0.0353701
835800 60.2606 184.869 55.9234 0.41785 -0.00242597
836000 60.2606 184.882 55.9234 0.41795 -0.0178893
836200 60.2606 184.895 55.9234 0.41805 -0.0611952
836400 60.2606 184.908 55.9234 0.41815 -0.0713766
836600 60.2606 184.921 55.9234 0.41825 -0.0749923
836800 60.2606 184.934 55.9234 0.41835 -0.103301
837000 60.2606 184.947 55.9234 0.41845 -0.105664
837200 60.2606 184.96 55.9234 0.41855 -0.0929473
837400 60.2606 184.973 55.9234 0.41865 -0.0458615
837600 60.2606 184.986 55.9234 0.41875 -0.0174143
837800 60.2606 184.999 55.9234 0.41885 0.0126923
838000 60.2606 185.012 55.9234 0.41895 0.0300039
838200 60.2606 185.026 55.9234 0.41905 0.0622669
838400 60.2606 185.039 55.9234 0.41915 0.0592725
838600 60.2606 185.052 55.9234 0.41925 0.0926718
838800 60.2606 185.065 55.9234 0.41935 0.0998146
839000 60.2606 185.078 55.9234 0.41945 0.103421
839200 60.2606 185.091 55.9234 0.41955 0.0948651
839400 60.2606 185.104 55.9234 0.41965 0.0717694
839600 60.2606 185.117 55.9234 0.41975 0.0111632
839800 60.2606 185.13 55.9234 0.41985 -0.0154804
840000 60.2606 185.143 55.9234 0.41995 -0.0372208
840200 60.2606 185.156 55.9234 0.42005 -0.0809869
840400 60.2606 185.169 55.9234 0.42015 -0.0790722
840600 60.2606 185.182 55.9234 0.42025 -0.0722862
840800 60.2606 185.195 55.9234 0.42035 -0.101701
841000 60.2606 185.208 55.9234 0.42045 -0.0958348
841200 60.2606 185.221 55.9234 0.42055 -0.0742084
841400 60.2606 185.234 55.9234 0.42065 -0.0551598
841600 60.2606 185.247 55.9234 0.42075 -0.0130849
841800 60.2606 185.26 55.9234 0.42085 0.0149035
842000 60.2606 185.273 55.9234 0.42095 0.0636967
842200 60.2606 185.286 55.9234 0.42105 0.0682489
842400 60.2606 185.299 55.9234 0.42115 0.0798706
842600 60.2606 185.312 55.9234 0.42125 0.0852261
842800 60.2606 185.325 55.9234 0.42135 0.0914148
843000 60.2606 185.338 55.9234 0.42145 0.0797119
843200 60.2606 185.351 55.9234 0.42155 0.0904593
843400 60.2606 185.365 55.9234 0.42165 0.0335873
843600 60.2606 185.378 55.9234 0.42175 0.024949
843800 60.2606 185.391 55.9234 0.42185 -0.0286023
844000 60.2606 185.404 55.9234 0.42195 -0.0320188
844200 60.2606 185.417 55.9234 0.42205 -0.0631549
844400 60.2606 185.43 55.9234 0.42215 -0.073953
844600 60.2606 185.443 55.9234 0.42225 -0.118612
844800 60.2606 185.456 55.9234 0.42235 -0.078847
845000 60.2606 185.469 55.9234 0.42245 -0.0915921
845200 60.2606 185.482 55.9234 0.42255 -0.0658665
845400 60.2606 185.495 55.9234 0.42265 -0.0303236
845600 60.2606 185.508 55.9234 0.42275 -0.0153958
845800 60.2606 185.521 55.9234 0.42285 0.0292941
846000 60.2606 185.534 55.9234 0.42295 0.049258
846200 60.2606 185.547 55.9234 0.42305 0.0706178
846400 60.2606 185.56 55.9234 0.42315 0.0821396
846600 60.2606 185.573 55.9234 0.42325 0.0864548
846800 60.2606 185.586 55.9234 0.42335 0.0867515
847000 60.2606 185.599 55.9234 0.42345 0.0955429
847200 60.2606 185.612 55.9234 0.42355 0.0577854
847400 60.2606 185.625 55.9234 0.42365 0.0383672
847600 60.2606 185.638 55.9234 0.42375 0.0134593
847800 60.2606 185.651 55.9234 0.42385 -0.0236944
848000 60.2606 185.664 55.9234 0.42395 -0.0419447
848200 60.2606 185.677 55.9234 0.42405 -0.0683928
848400 60.2606 185.69 55.9234 0.42415 -0.096027
848600 60.2606 185.704 55.9234 0.42425 -0.0818001
848800 60.2606 185.717 55.9234 0.42435 -0.0859377
849000 60.2606 185.73 55.9234 0.42445 -0.0801319
849200 60.2606 185.743 55.9234 0.42455 -0.0505948
849400 60.2606 185.756 55.9234 0.42465 -0.0351855
849600 60.2606 185.769 55.9234 0.42475 -0.0150261
849800 60.2606 185.782 55.9234 0.42485 0.0304058
850000 60.2606 185.795 55.9234 0.42495 0.049232
850200 60.2606 185.808 55.9234 0.42505 0.0919515
850400 60.2606 185.821 55.9234 0.42515 0.0808926
850600 60.2606 185.834 55.9234 0.42525 0.0778523
850800 60.2606 185.847 55.9234 0.42535 0.0788681
851000 60.2606 185.86 55.9234 0.42545 0.0789214
851200 60.2606 185.873 55.9234 0.42555 0.0594033
851400 60.2606 185.886 55.9234 0.42565 0.030351
851600 60.2606 185.899 55.9234 0.42575 0.00805327
851800 60.2606 185.912 55.9234 0.42585 0.00736298
852000 60.2606 185.925 55.9234 0.42595 -0.0678734
852200 60.2606 185.938 55.9234 0.42605 -0.0790239
852400 60.2606 185.951 55.9234 0.42615 -0.0800799
852600 60.2606 185.964 55.9234 0.42625 -0.0669826
852800 60.2606 185.977 55.9234 0.42635 -0.0920553
853000 60.2606 185.99 55.9234 0.42645 -0.0703885
853200 60.2606 186.003 55.9234 0.42655 -0.0608463
853400 60.2606 186.016 55.9234 0.42665 -0.0364483
853600 60.2606 186.029 55.9234 0.42675 -0.0144283
853800 60.2606 186.043 55.9234 0.42685 0.0307358
854000 60.2606 186.056 55.9234 0.42695 0.0580556
854200 60.2606 186.069 55.9234 0.42705 0.0620564
854400 60.2606 186.082 55.9234 0.42715 0.0886973
854600 60.2606 186.095 55.9234 0.42725 0.089923
854800 60.2606 186.108 55.9234 0.42735 0.0822376
855000 60.2606 186.121 55.9234 0.42745 0.0828962
855200 60.2606 186.134 55.9234 0.42755 0.0528341
855400 60.2606 186.147 55.9234 0.42765 0.0400672
855600 60.2606 186.16 55.9234 0.42775 0.0204125
855800 60.2606 186.173 55.9234 0.42785 -0.0337562
856000 60.2606 186.186 55.9234 0.42795 -0.0536339
856200 60.2606 186.199 55.9234 0.42805 -0.0701977
856400 60.2606 186.212 55.9234 0.42815 -0.0884889
856600 60.2606 186.225 55.9234 0.42825 -0.0965721
856800 60.2606 186.238 55.9234 0.42835 -0.0685449
857000 60.2606 186.251 55.9234 0.42845 -0.0751824
857200 60.2606 186.264 55.9234 0.42855 -0.0458749
857400 60.2606 186.277 55.9234 0.42865 -0.0331085
857600 60.2606 186.29 55.9234 0.42875 -0.00237135
857800 60.2606 186.303 55.9234 0.42885 0.0135388
858000 60.2606 186.316 55.9234 0.42895 0.05935
858200 60.2606 186.329 55.9234 0.42905 0.0802847
858400 60.2606 186.342 55.9234 0.42915 0.101522
858600 60.2606 186.355 55.9234 0.42925 0.0828315
858800 60.2606 186.368 55.9234 0.42935 0.079859
859000 60.2606 186.382 55.9234 0.42945 0.0771618
859200 60.2606 186.395 55.9234 0.42955 0.0342522
859400 60.2606 186.408 55.9234 0.42965 0.0317656
859600 60.2606 186.421 55.9234 0.42975 -0.00098648
859800 60.2606 186.434 55.9234 0.42985 -0.0384318
860000 60.2606 186.447 55.9234 0.42995 -0.0452389
860200 60.2606 186.46 55.9234 0.43005 -0.0871533
860400 60.2606 186.473 55.9234 0.43015 -0.0868612
860600 60.2606 186.486 55.9234 0.43025 -0.0724265
860800 60.2606 186.499 55.9234 0.43035 -0.059712
861000 60.2606 186.512 55.9234 0.43045 -0.0675493
861200 60.2606 186.525 55.9234 0.43055 -0.0427603
861400 60.2606 186.538 55.9234 0.43065 -0.0191447
861600 60.2606 186.551 55.9234 0.43075 0.0246705
861800 60.2606 186.564 55.9234 0.43085 0.0363873
862000 60.2606 186.577 55.9234 0.43095 0.0644914
862200 60.2606 186.59 55.9234 0.43105 0.0609592
862400 60.2606 186.603 55.9234 0.43115 0.0663833
862600 60.2606 186.616 55.9234 0.43125 0.0861027
862800 60.2606 186.629 55.9234 0.43135 0.0711049
863000 60.2606 186.642 55.9234 0.43145 0.0557786
863200 60.2606 186.655 55.9234 0.43155 0.0372498
863400 60.2606 186.668 55.9234 0.43165 0.00397915
863600 60.2606 186.681 55.9234 0.43175 -0.0240505
863800 60.2606 186.694 55.9234 0.43185 -0.0316957
864000 60.2606 186.707 55.9234 0.43195 -0.0616839
864200 60.2606 186.721 55.9234 0.43205 -0.0540903
864400 60.2606 186.734 55.9234 0.43215 -0.0569145
864600 60.2606 186.747 55.9234 0.43225 -0.0756341
864800 60.2606 186.76 55.9234 0.43235 -0.0509499
865000 60.2606 186.773 55.9234 0.43245 -0.0435058
865200 60.2606 186.786 55.9234 0.43255 -0.0353401
865400 60.2606 186.799 55.9234 0.43265 -0.0216591
865600 60.2606 186.812 55.9234 0.43275 0.0145734
865800 60.2606 186.825 55.9234 0.43285 0.0545692
866000 60.2606 186.838 55.9234 0.43295 0.0629847
866200 60.2606 186.851 55.9234 0.43305 0.0615708
866400 60.2606 186.864 55.9234 0.43315 0.0689253
866600 60.2606 186.877 55.9234 0.43325 0.0511556
866800 60.2606 186.89 55.9234 0.43335 0.0544636
867000 60.2606 186.903 55.9234 0.43345 0.0395585
867200 60.2606 186.916 55.9234 0.43355 0.0234929
867400 60.2606 186.929 55.9234 0.43365 0.0251654
867600 60.2606 186.942 55.9234 0.43375 -0.0173211
867800 60.2606 186.955 55.9234 0.43385 -0.0285169
868000 60.2606 186.968 55.9234 0.43395 -0.0562558
868200 60.2606 186.981 55.9234 0.43405 -0.0592949
868400 60.2606 186.994 55.9234 0.43415 -0.0567709
868600 60.2606 187.007 55.9234 0.43425 -0.0607651
868800 60.2606 187.02 55.9234 0.43435 -0.0656012
869000 60.2606 187.033 55.9234 0.43445 -0.022922
869200 60.2606 187.047 55.9234 0.43455 -0.0235405
869400 60.2606 187.06 55.9234 0.43465 -0.000267403
869600 60.2606 187.073 55.9234 0.43475 0.00654641
869800 60.2606 187.086 55.9234 0.43485 0.0344706
870000 60.2606 187.099 55.9234 0.43495 0.0488465
870200 60.2606 187.112 55.9234 0.43505 0.0479228
870400 60.2606 187.125 55.9234 0.43515 0.0838084
870600 60.2606 187.138 55.9234 0.43525 0.0710184
870800 60.2606 187.151 55.9234 0.43535 0.0331437
871000 60.2606 187.164 55.9234 0.43545 0.0247041
871200 60.2606 187.177 55.9234 0.43555 0.0307509
871400 60.2606 187.19 55.9234 0.43565 0.0250668
871600 60.2606 187.203 55.9234 0.43575 -0.024956
871800 60.2606 187.216 55.9234 0.43585 -0.0209154
872000 60.2606 187.229 55.9234 0.43595 -0.0450575
872200 60.2606 187.242 55.9234 0.43605 -0.0762731
872400 60.2606 187.255 55.9234 0.43615 -0.0666564
872600 60.2606 187.268 55.9234 0.43625 -0.0572418
872800 60.2606 187.281 55.9234 0.43635 -0.0469468
873000 60.2606 187.294 55.9234 0.43645 -0.0362882
873200 60.2606 187.307 55.9234 0.43655 -0.0130438
873400 60.2606 187.32 55.9234 0.43665 0.0161521
873600 60.2606 187.333 55.9234 0.43675 0.0262631
873800 60.2606 187.346 55.9234 0.43685 0.0199726
874000 60.2606 187.359 55.9234 0.43695 0.0484828
874200 60.2606 187.372 55.9234 0.43705 0.0580979
874400 60.2606 187.386 55.9234 0.43715 0.0691275
874600 60.2606 187.399 55.9234 0.43725 0.0712603
874800 60.2606 187.412 55.9234 0.43735 0.04646
875000 60.2606 187.425 55.9234 0.43745 0.0294403
875200 60.2606 187.438 55.9234 0.43755 0.00681174
875400 60.2606 187.451 55.9234 0.43765 -0.0101684
875600 60.2606 187.464 55.9234 0.43775 -0.0163338
875800 60.2606 187.477 55.9234 0.43785 -0.0357071
876000 60.2606 187.49 55.9234 0.43795 -0.0427335
876200 60.2606 187.503 55.9234 0.43805 -0.0606675
876400 60.2606 187.516 55.9234 0.43815 -0.0550023
876600 60.2606 187.529 55.9234 0.43825 -0.0709577
876800 60.2606 187.542 55.9234 0.43835 -0.0386271
877000 60.2606 187.555 55.9234 0.43845 -0.0361079
877200 60.2606 187.568 55.9234 0.43855 0.00876851
877400 60.2606 187.581 55.9234 0.43865 0.0196594
877600 60.2606 187.594 55.9234 0.43875 0.0234515
877800 60.2606 187.607 55.9234 0.43885 0.0136913
878000 60.2606 187.62 55.9234 0.43895 0.0404103
878200 60.2606 187.633 55.9234 0.43905 0.0742718
878400 60.2606 187.646 55.9234 0.43915 0.0743148
878600 60.2606 187.659 55.9234 0.43925 0.0472341
878800 60.2606 187.672 55.9234 0.43935 0.0582563
879000 60.2606 187.685 55.9234 0.43945 0.0259714
879200 60.2606 187.698 55.9234 0.43955 0.0169159
879400 60.2606 187.711 55.9234 0.43965 -0.0166939
879600 60.2606 187.725 55.9234 0.43975 -0.0181937
879800 60.2606 187.738 55.9234 0.43985 -0.0364683
880000 60.2606 187.751 55.9234 0.43995 -0.0405936
880200 60.2606 187.764 55.9234 0.44005 -0.0636813
880400 60.2606 187.777 55.9234 0.44015 -0.0578552
880600 60.2606 187.79 55.9234 0.44025 -0.071476
880800 60.2606 187.803 55.9234 0.44035 -0.0586971
881000 60.2606 187.816 55.9234 0.44045 -0.0350635
881200 60.2606 187.829 55.9234 0.44055 -0.00982594
881400 60.2606 187.842 55.9234 0.44065 0.0146468
881600 60.2606 187.855 55.9234 0.44075 0.0347035
881800 60.2606 187.868 55.9234 0.44085 0.0451474
882000 60.2606 187.881 55.9234 0.44095 0.057383
882200 60.2606 187.894 55.9234 0.44105 0.0728815
882400 60.2606 187.907 55.9234 0.44115 0.0574901
882600 60.2606 187.92 55.9234 0.44125 0.0661177
882800 60.2606 187.933 55.9234 0.44135 0.0610081
883000 60.2606 187.946 55.9234 0.44145 0.051087
883200 60.2606 187.959 55.9234 0.44155 -0.0154377
883400 60.2606 187.972 55.9234 0.44165 0.00366335
883600 60.2606 187.985 55.9234 0.44175 -0.0389632
883800 60.2606 187.998 55.9234 0.44185 -0.0659347
884000 60.2606 188.011 55.9234 0.44195 -0.0334885
884200 60.2606 188.024 55.9234 0.44205 -0.0822031
884400 60.2606 188.037 55.9234 0.44215 -0.0687765
884600 60.2606 188.05 55.9234 0.44225 -0.0439219
884800 60.2606 188.064 55.9234 0.44235 -0.0261014
885000 60.2606 188.077 55.9234 0.44245 -0.0508197
885200 60.2606 188.09 55.9234 0.44255 0.00433873
885400 60.2606 188.103 55.9234 0.44265 -0.000186461
885600 60.2606 188.116 55.9234 0.44275 0.0273434
885800 60.2606 188.129 55.9234 0.44285 0.0509825
886000 60.2606 188.142 55.9234 0.44295 0.0673573
886200 60.2606 188.155 55.9234 0.44305 0.0806866
886400 60.2606 188.168 55.9234 0.44315 0.0592242
886600 60.2606 188.181 55.9234 0.44325 0.0534968
886800 60.2606 188.194 55.9234 0.44335 0.0535576
887000 60.2606 188.207 55.9234 0.44345 0.0134553
887200 60.2606 188.22 55.9234 0.44355 0.0136332
887400 60.2606 188.233 55.9234 0.44365 -0.0147897
887600 60.2606 188.246 55.9234 0.44375 -0.0420192
887800 60.2606 188.259 55.9234 0.44385 -0.0388405
888000 60.2606 188.272 55.9234 0.44395 -0.0577154
888200 60.2606 188.285 55.9234 0.44405 -0.0612345
888400 60.2606 188.298 55.9234 0.44415 -0.0619826
888600 60.2606 188.311 55.9234 0.44425 -0.0509996
888800 60.2606 188.324 55.9234 0.44435 -0.0451151
889000 60.2606 188.337 55.9234 0.44445 -0.0135237
889200 60.2606 188.35 55.9234 0.44455 -0.00286647
889400 60.2606 188.363 55.9234 0.44465 0.0135691
889600 60.2606 188.376 55.9234 0.44475 0.033838
889800 60.2606 188.389 55.9234 0.44485 0.0609757
890000 60.2606 188.403 55.9234 0.44495 0.0438951
890200 60.2606 188.416 55.9234 0.44505 0.0675057
890400 60.2606 188.429 55.9234 0.44515 0.0706636
890600 60.2606 188.442 55.9234 0.44525 0.046731
890800 60.2606 188.455 55.9234 0.44535 0.0405753
891000 60.2606 188.468 55.9234 0.44545 0.00597366
891200 60.2606 188.481 55.9234 0.44555 0.0287429
891400 60.2606 188.494 55.9234 0.44565 -0.0193752
891600 60.2606 188.507 55.9234 0.44575 -0.0294059
891800 60.2606 188.52 55.9234 0.44585 -0.0501058
892000 60.2606 188.533 55.9234 0.44595 -0.0686057
892200 60.2606 188.546 55.9234 0.44605 -0.0593913
892400 60.2606 188.559 55.9234 0.44615 -0.0435859
892600 60.2606 188.572 55.9234 0.44625 -0.0549573
892800 60.2606 188.585 55.9234 0.44635 -0.0279503
893000 60.2606 188.598 55.9234 0.44645 -0.0297829
893200 60.2606 188.611 55.9234 0.44655 -0.0211103
893400 60.2606 188.624 55.9234 0.44665 0.0177414
893600 60.2606 188.637 55.9234 0.44675 0.02608
893800 60.2606 188.65 55.9234 0.44685 0.063265
894000 60.2606 188.663 55.9234 0.44695 0.0668397
894200 60.2606 188.676 55.9234 0.44705 0.0658328
894400 60.2606 188.689 55.9234 0.44715 0.0598853
894600 60.2606 188.702 55.9234 0.44725 0.0596734
894800 60.2606 188.715 55.9234 0.44735 0.0440798
895000 60.2606 188.728 55.9234 0.44745 0.0263152
895200 60.2606 188.742 55.9234 0.44755 0.00707707
895400 60.2606 188.755 55.9234 0.44765 -0.00134628
895600 60.2606 188.768 55.9234 0.44775 -0.0561686
895800 60.2606 188.781 55.9234 0.44785 -0.0436498
896000 60.2606 188.794 55.9234 0.44795 -0.0659321
896200 60.2606 188.807 55.9234 0.44805 -0.0725337
896400 60.2606 188.82 55.9234 0.44815 -0.0612944
896600 60.2606 188.833 55.9234 0.44825 -0.0492833
896800 60.2606 188.846 55.9234 0.44835 -0.0423636
897000 60.2606 188.859 55.9234 0.44845 -0.0235894
897200 60.2606 188.872 55.9234 0.44855 0.0123496
897400 60.2606 188.885 55.9234 0.44865 0.0157914
897600 60.2606 188.898 55.9234 0.44875 0.0498516
897800 60.2606 188.911 55.9234 0.44885 0.0369062
898000 60.2606 188.924 55.9234 0.44895 0.0591089
898200 60.2606 188.937 55.9234 0.44905 0.0769163
898400 60.2606 188.95 55.9234 0.44915 0.0663582
898600 60.2606 188.963 55.9234 0.44925 0.0731077
898800 60.2606 188.976 55.9234 0.44935 0.0495135
899000 60.2606 188.989 55.9234 0.44945 0.0239281
899200 60.2606 189.002 55.9234 0.44955 -0.000680478
899400 60.2606 189.015 55.9234 0.44965 -0.0469327
899600 60.2606 189.028 55.9234 0.44975 -0.0404403
899800 60.2606 189.041 55.9234 0.44985 -0.055254
900000 60.2606 189.054 55.9234 0.44995 -0.0620304
900200 60.2606 189.068 55.9234 0.45005 -0.0725198
900400 60.2606 189.081 55.9234 0.45015 -0.0568086
900600 60.2606 189.094 55.9234 0.45025 -0.0465509
900800 60.2606 189.107 55.9234 0.45035 -0.0654642
901000 60.2606 189.12 55.9234 0.45045 -0.017393
901200 60.2606 189.133 55.9234 0.45055 0.00291001
901400 60.2606 189.146 55.9234 0.45065 0.0455122
901600 60.2606 189.159 55.9234 0.45075 0.0471058
901800 60.2606 189.172 55.9234 0.45085 0.082234
902000 60.2606 189.185 55.9234 0.45095 0.0560666
902200 60.2606 189.198 55.9234 0.45105 0.0720022
902400 60.2606 189.211 55.9234 0.45115 0.0682895
902600 60.2606 189.224 55.9234 0.45125 0.046211
902800 60.2606 189.237 55.9234 0.45135 0.0436616
903000 60.2606 189.25 55.9234 0.45145 0.0244104
903200 60.2606 189.263 55.9234 0.45155 0.000497223
903400 60.2606 189.276 55.9234 0.45165 -0.0407036
903600 60.2606 189.289 55.9234 0.45175 -0.037955
903800 60.2606 189.302 55.9234 0.45185 -0.0580952
904000 60.2606 189.315 55.9234 0.45195 -0.0872288
904200 60.2606 189.328 55.9234 0.45205 -0.0695131
904400 60.2606 189.341 55.9234 0.45215 -0.0620223
904600 60.2606 189.354 55.9234 0.45225 -0.0487736
904800 60.2606 189.367 55.9234 0.45235 -0.0337272
905000 60.2606 189.38 55.9234 0.45245 -0.00684666
905200 60.2606 189.393 55.9234 0.45255 -4.10107e-05
905400 60.2606 189.407 55.9234 0.45265 0.0240189
905600 60.2606 189.42 55.9234 0.45275 0.0559168
905800 60.2606 189.433 55.9234 0.45285 0.0722553
906000 60.2606 189.446 55.9234 0.45295 0.0789515
906200 60.2606 189.459 55.9234 0.45305 0.0704834
906400 60.2606 189.472 55.9234 0.45315 0.0758341
906600 60.2606 189.485 55.9234 0.45325 0.063302
906800 60.2606 189.498 55.9234 0.45335 0.0234457
907000 60.2606 189.511 55.9234 0.45345 0.00559296
907200 60.2606 189.524 55.9234 0.45355 -0.00593121
907400 60.2606 189.537 55.9234 0.45365 -0.0475028
907600 60.2606 189.55 55.9234 0.45375 -0.0650501
907800 60.2606 189.563 55.9234 0.45385 -0.0680088
908000 60.2606 189.576 55.9234 0.45395 -0.0730883
908200 60.2606 189.589 55.9234 0.45405 -0.0656619
908400 60.2606 189.602 55.9234 0.45415 -0.0399288
908600 60.2606 189.615 55.9234 0.45425 -0.0674448
908800 60.2606 189.628 55.9234 0.45435 -0.0195464
909000 60.2606 189.641 55.9234 0.45445 0.00637064
909200 60.2606 189.654 55.9234 0.45455 0.0170475
909400 60.2606 189.667 55.9234 0.45465 0.0528472
909600 60.2606 189.68 55.9234 0.45475 0.047612
909800 60.2606 189.693 55.9234 0.45485 0.084014
910000 60.2606 189.706 55.9234 0.45495 0.0740051
910200 60.2606 189.719 55.9234 0.45505 0.0758227
910400 60.2606 189.732 55.9234 0.45515 0.035036
910600 60.2606 189.746 55.9234 0.45525 0.0416239
910800 60.2606 189.759 55.9234 0.45535 0.0189636
911000 60.2606 189.772 55.9234 0.45545 0.000336604
911200 60.2606 189.785 55.9234 0.45555 -0.000570249
911400 60.2606 189.798 55.9234 0.45565 -0.0181515
911600 60.2606 189.811 55.9234 0.45575 -0.0666167
911800 60.2606 189.824 55.9234 0.45585 -0.0828967
912000 60.2606 189.837 55.9234 0.45595 -0.0902355
912200 60.2606 189.85 55.9234 0.45605 -0.0547653
912400 60.2606 189.863 55.9234 0.45615 -0.0344001
912600 60.2606 189.876 55.9234 0.45625 -0.0392236
912800 60.2606 189.889 55.9234 0.45635 -0.0288999
913000 60.2606 189.902 55.9234 0.45645 -0.0040354
913200 60.2606 189.915 55.9234 0.45655 0.0181984
913400 60.2606 189.928 55.9234 0.45665 0.0423364
913600 60.2606 189.941 55.9234 0.45675 0.0652894
913800 60.2606 189.954 55.9234 0.45685 0.0749513
914000 60.2606 189.967 55.9234 0.45695 0.0933613
914200 60.2606 189.98 55.9234 0.45705 0.0794668
914400 60.2606 189.993 55.9234 0.45715 0.0325456
914600 60.2606 190.006 55.9234 0.45725 0.0334255
914800 60.2606 190.019 55.9234 0.45735 0.00321938
915000 60.2606 190.032 55.9234 0.45745 -0.00597048
915200 60.2606 190.045 55.9234 0.45755 -0.0255924
915400 60.2606 190.058 55.9234 0.45765 -0.027137
915600 60.2606 190.071 55.9234 0.45775 -0.0458425
915800 60.2606 190.085 55.9234 0.45785 -0.0784553
916000 60.2606 190.098 55.9234 0.45795 -0.0692288
916200 60.2606 190.111 55.9234 0.45805 -0.0709252
916400 60.2606 190.124 55.9234 0.45815 -0.049391
916600 60.2606 190.137 55.9234 0.45825 -0.022174
916800 60.2606 190.15 55.9234 0.45835 0.00636241
917000 60.2606 190.163 55.9234 0.45845 0.0128628
917200 60.2606 190.176 55.9234 0.45855 0.0327615
917400 60.2606 190.189 55.9234 0.45865 0.0408414
917600 60.2606 190.202 55.9234 0.45875 0.0584807
917800 60.2606 190.215 55.9234 0.45885 0.0484384
918000 60.2606 190.228 55.9234 0.45895 0.0534066
918200 60.2606 190.241 55.9234 0.45905 0.0688258
918400 60.2606 190.254 55.9234 0.45915 0.06095
918600 60.2606 190.267 55.9234 0.45925 0.0474881
918800 60.2606 190.28 55.9234 0.45935 -0.00136797
919000 60.2606 190.293 55.9234 0.45945 -0.0188777
919200 60.2606 190.306 55.9234 0.45955 -0.0306808
919400 60.2606 190.319 55.9234 0.45965 -0.0402367
919600 60.2606 190.332 55.9234 0.45975 -0.0710906
919800 60.2606 190.345 55.9234 0.45985 -0.0484947
920000 60.2606 190.358 55.9234 0.45995 -0.038288
920200 60.2606 190.371 55.9234 0.46005 -0.0555941
920400 60.2606 190.384 55.9234 0.46015 -0.0452917
920600 60.2606 190.397 55.9234 0.46025 -0.0595858
920800 60.2606 190.41 55.9234 0.46035 -0.0143197
921000 60.2606 190.424 55.9234 0.46045 0.0132392
921200 60.2606 190.437 55.9234 0.46055 0.0358369
921400 60.2606 190.45 55.9234 0.46065 0.0494908
921600 60.2606 190.463 55.9234 0.46075 0.066391
921800 60.2606 190.476 55.9234 0.46085 0.0785426
922000 60.2606 190.489 55.9234 0.46095 0.0502677
922200 60.2606 190.502 55.9234 0.46105 0.0549046
922400 60.2606 190.515 55.9234 0.46115 0.0513854
922600 60.2606 190.528 55.9234 0.46125 0.040267
922800 60.2606 190.541 55.9234 0.46135 0.0161753
923000 60.2606 190.554 55.9234 0.46145 -0.0125785
923200 60.2606 190.567 55.9234 0.46155 -0.0270197
923400 60.2606 190.58 55.9234 0.46165 -0.0538732
923600 60.2606 190.593 55.9234 0.46175 -0.0427772
923800 60.2606 190.606 55.9234 0.46185 -0.0929508
924000 60.2606 190.619 55.9234 0.46195 -0.0543057
924200 60.2606 190.632 55.9234 0.46205 -0.0709086
924400 60.2606 190.645 55.9234 0.46215 -0.0318924
924600 60.2606 190.658 55.9234 0.46225 -0.0224557
924800 60.2606 190.671 55.9234 0.46235 -0.0139029
925000 60.2606 190.684 55.9234 0.46245 0.02267
925200 60.2606 190.697 55.9234 0.46255 0.0283996
925400 60.2606 190.71 55.9234 0.46265 0.0399553
925600 60.2606 190.723 55.9234 0.46275 0.0721874
925800 60.2606 190.736 55.9234 0.46285 0.0661219
926000 60.2606 190.749 55.9234 0.46295 0.0871808
926200 60.2606 190.763 55.9234 0.46305 0.0488227
926400 60.2606 190.776 55.9234 0.46315 0.0431025
926600 60.2606 190.789 55.9234 0.46325 0.0384438
926800 60.2606 190.802 55.9234 0.46335 -0.0204906
927000 60.2606 190.815 55.9234 0.46345 -0.0216315
927200 60.2606 190.828 55.9234 0.46355 -0.0247303
927400 60.2606 190.841 55.9234 0.46365 -0.0415593
927600 60.2606 190.854 55.9234 0.46375 -0.0450328
927800 60.2606 190.867 55.9234 0.46385 -0.0685537
928000 60.2606 190.88 55.9234 0.46395 -0.0743374
928200 60.2606 190.893 55.9234 0.46405 -0.048193
928400 60.2606 190.906 55.9234 0.46415 -0.0608076
928600 60.2606 190.919 55.9234 0.46425 -0.0313878
928800 60.2606 190.932 55.9234 0.46435 0.0208989
929000 60.2606 190.945 55.9234 0.46445 0.0291485
929200 60.2606 190.958 55.9234 0.46455 0.0414905
929400 60.2606 190.971 55.9234 0.46465 0.036855
929600 60.2606 190.984 55.9234 0.46475 0.0695261
929800 60.2606 190.997 55.9234 0.46485 0.0819492
930000 60.2606 191.01 55.9234 0.46495 0.0551143
930200 60.2606 191.023 55.9234 0.46505 0.0705781
930400 60.2606 191.036 55.9234 0.46515 0.038345
930600 60.2606 191.049 55.9234 0.46525 0.019538
930800 60.2606 191.062 55.9234 0.46535 -0.0170261
931000 60.2606 191.075 55.9234 0.46545 -0.0269788
931200 60.2606 191.088 55.9234 0.46555 -0.0350837
931400 60.2606 191.102 55.9234 0.46565 -0.0454394
931600 60.2606 191.115 55.9234 0.46575 -0.0785978
931800 60.2606 191.128 55.9234 0.46585 -0.0417281
932000 60.2606 191.141 55.9234 0.46595 -0.0681198
932200 60.2606 191.154 55.9234 0.46605 -0.031157
932400 60.2606 191.167 55.9234 0.46615 -0.0390709
932600 60.2606 191.18 55.9234 0.46625 -0.0264633
932800 60.2606 191.193 55.9234 0.46635 -0.00891773
933000 60.2606 191.206 55.9234 0.46645 0.0618998
933200 60.2606 191.219 55.9234 0.46655 0.0177049
933400 60.2606 191.232 55.9234 0.46665 0.0645647
933600 60.2606 191.245 55.9234 0.46675 0.066687
933800 60.2606 191.258 55.9234 0.46685 0.062034
934000 60.2606 191.271 55.9234 0.46695 0.0395087
934200 60.2606 191.284 55.9234 0.46705 0.0574855
934400 60.2606 191.297 55.9234 0.46715 0.0335309
934600 60.2606 191.31 55.9234 0.46725 0.0179606
934800 60.2606 191.323 55.9234 0.46735 -0.00408027
935000 60.2606 191.336 55.9234 0.46745 -0.0183231
935200 60.2606 191.349 55.9234 0.46755 -0.0424207
935400 60.2606 191.362 55.9234 0.46765 -0.0650245
935600 60.2606 191.375 55.9234 0.46775 -0.0506
935800 60.2606 191.388 55.9234 0.46785 -0.0785958
936000 60.2606 191.401 55.9234 0.46795 -0.048943
936200 60.2606 191.414 55.9234 0.46805 -0.0322082
936400 60.2606 191.428 55.9234 0.46815 -0.00987251
936600 60.2606 191.441 55.9234 0.46825 -0.00306425
936800 60.2606 191.454 55.9234 0.46835 -0.0169157
937000 60.2606 191.467 55.9234 0.46845 0.0299278
937200 60.2606 191.48 55.9234 0.46855 0.0224287
937400 60.2606 191.493 55.9234 0.46865 0.0808161
937600 60.2606 191.506 55.9234 0.46875 0.0548624
937800 60.2606 191.519 55.9234 0.46885 0.0721078
938000 60.2606 191.532 55.9234 0.46895 0.0457641
938200 60.2606 191.545 55.9234 0.46905 0.0406415
938400 60.2606 191.558 55.9234 0.46915 0.00387673
938600 60.2606 191.571 55.9234 0.46925 0.0115045
938800 60.2606 191.584 55.9234 0.46935 0.00160191
939000 60.2606 191.597 55.9234 0.46945 -0.0152511
939200 60.2606 191.61 55.9234 0.46955 -0.0166075
939400 60.2606 191.623 55.9234 0.46965 -0.0383604
939600 60.2606 191.636 55.9234 0.46975 -0.0648975
939800 60.2606 191.649 55.9234 0.46985 -0.073145
940000 60.2606 191.662 55.9234 0.46995 -0.0603465
940200 60.2606 191.675 55.9234 0.47005 -0.0332415
940400 60.2606 191.688 55.9234 0.47015 -0.0199124
940600 60.2606 191.701 55.9234 0.47025 0.0123136
940800 60.2606 191.714 55.9234 0.47035 -0.0161656
941000 60.2606 191.727 55.9234 0.47045 0.00995166
941200 60.2606 191.74 55.9234 0.47055 0.0390696
941400 60.2606 191.753 55.9234 0.47065 0.0445701
941600 60.2606 191.767 55.9234 0.47075 0.0709241
941800 60.2606 191.78 55.9234 0.47085 0.0367717
942000 60.2606 191.793 55.9234 0.47095 0.0687601
942200 60.2606 191.806 55.9234 0.47105 0.0564002
942400 60.2606 191.819 55.9234 0.47115 0.0313248
942600 60.2606 191.832 55.9234 0.47125 0.0255689
942800 60.2606 191.845 55.9234 0.47135 -0.00770517
943000 60.2606 191.858 55.9234 0.47145 -0.0279479
943200 60.2606 191.871 55.9234 0.47155 -0.035153
943400 60.2606 191.884 55.9234 0.47165 -0.0458167
943600 60.2606 191.897 55.9234 0.47175 -0.0403866
943800 60.2606 191.91 55.9234 0.47185 -0.0610291
944000 60.2606 191.923 55.9234 0.47195 -0.0621553
944200 60.2606 191.936 55.9234 0.47205 -0.046397
944400 60.2606 191.949 55.9234 0.47215 -0.0417255
944600 60.2606 191.962 55.9234 0.47225 -0.0193147
944800 60.2606 191.975 55.9234 0.47235 0.00427647
945000 60.2606 191.988 55.9234 0.47245 0.0231423
945200 60.2606 192.001 55.9234 0.47255 0.0417547
945400 60.2606 192.014 55.9234 0.47265 0.0763954
945600 60.2606 192.027 55.9234 0.47275 0.0469835
945800 60.2606 192.04 55.9234 0.47285 0.0513544
946000 60.2606 192.053 55.9234 0.47295 0.0515558
946200 60.2606 192.066 55.9234 0.47305 0.056078
946400 60.2606 192.079 55.9234 0.47315 0.0399597
946600 60.2606 192.092 55.9234 0.47325 0.0275853
946800 60.2606 192.106 55.9234 0.47335 -0.000317991
947000 60.2606 192.119 55.9234 0.47345 -0.0335774
947200 60.2606 192.132 55.9234 0.47355 -0.048477
947400 60.2606 192.145 55.9234 0.47365 -0.0586205
947600 60.2606 192.158 55.9234 0.47375 -0.0498067
947800 60.2606 192.171 55.9234 0.47385 -0.0458913
948000 60.2606 192.184 55.9234 0.47395 -0.0476156
948200 60.2606 192.197 55.9234 0.47405 -0.0489001
948400 60.2606 192.21 55.9234 0.47415 -0.026755
948600 60.2606 192.223 55.9234 0.47425 -0.0285455
948800 60.2606 192.236 55.9234 0.47435 -0.0072297
949000 60.2606 192.249 55.9234 0.47445 0.0276431
949200 60.2606 192.262 55.9234 0.47455 0.0660666
949400 60.2606 192.275 55.9234 0.47465 0.0678373
949600 60.2606 192.288 55.9234 0.47475 0.0690429
949800 60.2606 192.301 55.9234 0.47485 0.0462492
950000 60.2606 192.314 55.9234 0.47495 0.0487292
950200 60.2606 192.327 55.9234 0.47505 0.0246776
950400 60.2606 192.34 55.9234 0.47515 0.0378314
950600 60.2606 192.353 55.9234 0.47525 0.00673514
950800 60.2606 192.366 55.9234 0.47535 0.0122637
951000 60.2606 192.379 55.9234 0.47545 -0.012048
951200 60.2606 192.392 55.9234 0.47555 -0.0613435
951400 60.2606 192.405 55.9234 0.47565 -0.0621647
951600 60.2606 192.418 55.9234 0.47575 -0.0586695
951800 60.2606 192.431 55.9234 0.47585 -0.0581451
952000 60.2606 192.445 55.9234 0.47595 -0.0580445
952200 60.2606 192.458 55.9234 0.47605 -0.0222563
952400 60.2606 192.471 55.9234 0.47615 -0.0114594
952600 60.2606 192.484 55.9234 0.47625 0.00353143
952800 60.2606 192.497 55.9234 0.47635 0.00135801
953000 60.2606 192.51 55.9234 0.47645 0.0157867
953200 60.2606 192.523 55.9234 0.47655 0.0312735
953400 60.2606 192.536 55.9234 0.47665 0.071086
953600 60.2606 192.549 55.9234 0.47675 0.0616965
953800 60.2606 192.562 55.9234 0.47685 0.0690497
954000 60.2606 192.575 55.9234 0.47695 0.0559358
954200 60.2606 192.588 55.9234 0.47705 0.0278976
954400 60.2606 192.601 55.9234 0.47715 0.0223048
954600 60.2606 192.614 55.9234 0.47725 0.00887914
954800 60.2606 192.627 55.9234 0.47735 -0.016837
955000 60.2606 192.64 55.9234 0.47745 -0.0218314
955200 60.2606 192.653 55.9234 0.47755 -0.0567305
955400 60.2606 192.666 55.9234 0.47765 -0.0387733
955600 60.2606 192.679 55.9234 0.47775 -0.0570775
955800 60.2606 192.692 55.9234 0.47785 -0.0378401
956000 60.2606 192.705 55.9234 0.47795 -0.0730852
956200 60.2606 192.718 55.9234 0.47805 -0.0432533
956400 60.2606 192.731 55.9234 0.47815 -0.0170889
956600 60.2606 192.744 55.9234 0.47825 -0.000679043
956800 60.2606 192.757 55.9234 0.47835 0.00363684
957000 60.2606 192.77 55.9234 0.47845 0.0458356
957200 60.2606 192.784 55.9234 0.47855 0.0435354
957400 60.2606 192.797 55.9234 0.47865 0.0777884
957600 60.2606 192.81 55.9234 0.47875 0.0429241
957800 60.2606 192.823 55.9234 0.47885 0.05631
958000 60.2606 192.836 55.9234 0.47895 0.0506393
958200 60.2606 192.849 55.9234 0.47905 0.0281013
958400 60.2606 192.862 55.9234 0.47915 0.0355826
958600 60.2606 192.875 55.9234 0.47925 0.0134845
958800 60.2606 192.888 55.9234 0.47935 -0.015062
959000 60.2606 192.901 55.9234 0.47945 -0.0347796
959200 60.2606 192.914 55.9234 0.47955 -0.0348752
959400 60.2606 192.927 55.9234 0.47965 -0.0542644
959600 60.2606 192.94 55.9234 0.47975 -0.0584729
959800 60.2606 192.953 55.9234 0.47985 -0.0608866
960000 60.2606 192.966 55.9234 0.47995 -0.0458391
960200 60.2606 192.979 55.9234 0.48005 -0.030692
960400 60.2606 192.992 55.9234 0.48015 -0.0169173
960600 60.2606 193.005 55.9234 0.48025 0.00170429
960800 60.2606 193.018 55.9234 0.48035 0.020827
961000 60.2606 193.031 55.9234 0.48045 0.0196643
961200 60.2606 193.044 55.9234 0.48055 0.0401335
961400 60.2606 193.057 55.9234 0.48065 0.0598709
961600 60.2606 193.07 55.9234 0.48075 0.0512459
961800 60.2606 193.083 55.9234 0.48085 0.0623932
962000 60.2606 193.096 55.9234 0.48095 0.0423167
962200 60.2606 193.109 55.9234 0.48105 0.0298239
962400 60.2606 193.123 55.9234 0.48115 0.0170975
962600 60.2606 193.136 55.9234 0.48125 0.00825423
962800 60.2606 193.149 55.9234 0.48135 -0.0219654
963000 60.2606 193.162 55.9234 0.48145 -0.0128609
963200 60.2606 193.175 55.9234 0.48155 -0.0426999
963400 60.2606 193.188 55.9234 0.48165 -0.041514
963600 60.2606 193.201 55.9234 0.48175 -0.051141
963800 60.2606 193.214 55.9234 0.48185 -0.0701321
964000 60.2606 193.227 55.9234 0.48195 -0.0293835
964200 60.2606 193.24 55.9234 0.48205 -0.0269298
964400 60.2606 193.253 55.9234 0.48215 0.00206398
964600 60.2606 193.266 55.9234 0.48225 -0.00504141
964800 60.2606 193.279 55.9234 0.48235 0.0135119
965000 60.2606 193.292 55.9234 0.48245 0.0229448
965200 60.2606 193.305 55.9234 0.48255 0.0444706
965400 60.2606 193.318 55.9234 0.48265 0.0563985
965600 60.2606 193.331 55.9234 0.48275 0.0378385
965800 60.2606 193.344 55.9234 0.48285 0.0321234
966000 60.2606 193.357 55.9234 0.48295 0.0553145
966200 60.2606 193.37 55.9234 0.48305 0.0312863
966400 60.2606 193.383 55.9234 0.48315 0.0190232
966600 60.2606 193.396 55.9234 0.48325 0.00483309
966800 60.2606 193.409 55.9234 0.48335 -0.0232334
967000 60.2606 193.422 55.9234 0.48345 -0.0326728
967200 60.2606 193.435 55.9234 0.48355 -0.0362646
967400 60.2606 193.448 55.9234 0.48365 -0.0402021
967600 60.2606 193.462 55.9234 0.48375 -0.0472966
967800 60.2606 193.475 55.9234 0.48385 -0.0170885
968000 60.2606 193.488 55.9234 0.48395 -0.0469064
968200 60.2606 193.501 55.9234 0.48405 -0.0234264
968400 60.2606 193.514 55.9234 0.48415 -0.0141096
968600 60.2606 193.527 55.9234 0.48425 -0.00465892
968800 60.2606 193.54 55.9234 0.48435 0.0205472
969000 60.2606 193.553 55.9234 0.48445 0.0323692
969200 60.2606 193.566 55.9234 0.48455 0.0379448
969400 60.2606 193.579 55.9234 0.48465 0.0428301
969600 60.2606 193.592 55.9234 0.48475 0.0560239
969800 60.2606 193.605 55.9234 0.48485 0.0382739
970000 60.2606 193.618 55.9234 0.48495 0.0388079
970200 60.2606 193.631 55.9234 0.48505 0.0140866
970400 60.2606 193.644 55.9234 0.48515 0.025851
970600 60.2606 193.657 55.9234 0.48525 -0.0249802
970800 60.2606 193.67 55.9234 0.48535 -0.0121155
971000 60.2606 193.683 55.9234 0.48545 -0.025828
971200 60.2606 193.696 55.9234 0.48555 -0.0299643
971400 60.2606 193.709 55.9234 0.48565 -0.0349568
971600 60.2606 193.722 55.9234 0.48575 -0.0558458
971800 60.2606 193.735 55.9234 0.48585 -0.0360465
972000 60.2606 193.748 55.9234 0.48595 -0.034924
972200 60.2606 193.761 55.9234 0.48605 -0.0148646
972400 60.2606 193.774 55.9234 0.48615 -0.00236789
972600 60.2606 193.788 55.9234 0.48625 0.0274712
972800 60.2606 193.801 55.9234 0.48635 0.0335421
973000 60.2606 193.814 55.9234 0.48645 0.0191355
973200 60.2606 193.827 55.9234 0.48655 0.0374903
973400 60.2606 193.84 55.9234 0.48665 0.0378744
973600 60.2606 193.853 55.9234 0.48675 0.0331104
973800 60.2606 193.866 55.9234 0.48685 0.0340555
974000 60.2606 193.879 55.9234 0.48695 0.0352011
974200 60.2606 193.892 55.9234 0.48705 0.0294212
974400 60.2606 193.905 55.9234 0.48715 0.00631478
974600 60.2606 193.918 55.9234 0.48725 -0.0239924
974800 60.2606 193.931 55.9234 0.48735 -0.0140598
975000 60.2606 193.944 55.9234 0.48745 -0.0357834
975200 60.2606 193.957 55.9234 0.48755 -0.0300244
975400 60.2606 193.97 55.9234 0.48765 -0.0323237
975600 60.2606 193.983 55.9234 0.48775 -0.0510149
975800 60.2606 193.996 55.9234 0.48785 -0.0196332
976000 60.2606 194.009 55.9234 0.48795 -0.0209176
976200 60.2606 194.022 55.9234 0.48805 -0.0380944
976400 60.2606 194.035 55.9234 0.48815 0.0043631
976600 60.2606 194.048 55.9234 0.48825 0.0170583
976800 60.2606 194.061 55.9234 0.48835 0.0193718
977000 60.2606 194.074 55.9234 0.48845 0.0509556
977200 60.2606 194.087 55.9234 0.48855 0.032012
977400 60.2606 194.1 55.9234 0.48865 0.045106
977600 60.2606 194.113 55.9234 0.48875 0.0361987
977800 60.2606 194.127 55.9234 0.48885 0.031172
978000 60.2606 194.14 55.9234 0.48895 0.0232142
978200 60.2606 194.153 55.9234 0.48905 0.0208999
978400 60.2606 194.166 55.9234 0.48915 0.0114888
978600 60.2606 194.179 55.9234 0.48925 0.00396137
978800 60.2606 194.192 55.9234 0.48935 -0.0457584
979000 60.2606 194.205 55.9234 0.48945 -0.0285208
979200 60.2606 194.218 55.9234 0.48955 -0.0347388
979400 60.2606 194.231 55.9234 0.48965 -0.0339245
979600 60.2606 194.244 55.9234 0.48975 -0.03485
979800 60.2606 194.257 55.9234 0.48985 -0.0335824
980000 60.2606 194.27 55.9234 0.48995 -0.00995265
980200 60.2606 194.283 55.9234 0.49005 -0.0128835
980400 60.2606 194.296 55.9234 0.49015 -0.0157364
980600 60.2606 194.309 55.9234 0.49025 0.0263525
980800 60.2606 194.322 55.9234 0.49035 0.0121128
981000 60.2606 194.335 55.9234 0.49045 0.0300461
981200 60.2606 194.348 55.9234 0.49055 0.0393423
981400 60.2606 194.361 55.9234 0.49065 0.0475475
981600 60.2606 194.374 55.9234 0.49075 0.0291362
981800 60.2606 194.387 55.9234 0.49085 0.022976
982000 60.2606 194.4 55.9234 0.49095 0.0344979
982200 60.2606 194.413 55.9234 0.49105 0.00500629
982400 60.2606 194.426 55.9234 0.49115 0.013084
982600 60.2606 194.439 55.9234 0.49125 -0.0429676
982800 60.2606 194.452 55.9234 0.49135 -0.00816655
983000 60.2606 194.466 55.9234 0.49145 -0.0132433
983200 60.2606 194.479 55.9234 0.49155 -0.0275221
983400 60.2606 194.492 55.9234 0.49165 -0.0189926
983600 60.2606 194.505 55.9234 0.49175 -0.0304494
983800 60.2606 194.518 55.9234 0.49185 -0.0433921
984000 60.2606 194.531 55.9234 0.49195 -0.00228636
984200 60.2606 194.544 55.9234 0.49205 -0.0162302
984400 60.2606 194.557 55.9234 0.49215 0.00218304
984600 60.2606 194.57 55.9234 0.49225 0.0045773
984800 60.2606 194.583 55.9234 0.49235 0.0399756
985000 60.2606 194.596 55.9234 0.49245 0.0173658
985200 60.2606 194.609 55.9234 0.49255 0.0537817
985400 60.2606 194.622 55.9234 0.49265 0.0143748
985600 60.2606 194.635 55.9234 0.49275 0.0226455
985800 60.2606 194.648 55.9234 0.49285 0.0112116
986000 60.2606 194.661 55.9234 0.49295 0.0176676
986200 60.2606 194.674 55.9234 0.49305 0.0159175
986400 60.2606 194.687 55.9234 0.49315 0.00764489
986600 60.2606 194.7 55.9234 0.49325 -0.00292214
986800 60.2606 194.713 55.9234 0.49335 -0.0156464
987000 60.2606 194.726 55.9234 0.49345 -0.0343956
987200 60.2606 194.739 55.9234 0.49355 -0.0263126
987400 60.2606 194.752 55.9234 0.49365 -0.0263977
987600 60.2606 194.765 55.9234 0.49375 -0.0280763
987800 60.2606 194.778 55.9234 0.49385 -0.00930669
988000 60.2606 194.791 55.9234 0.49395 0.00194303
988200 60.2606 194.805 55.9234 0.49405 -0.0278445
988400 60.2606 194.818 55.9234 0.49415 -0.00402939
988600 60.2606 194.831 55.9234 0.49425 0.0115203
988800 60.2606 194.844 55.9234 0.49435 0.0216994
989000 60.2606 194.857 55.9234 0.49445 0.0395421
989200 60.2606 194.87 55.9234 0.49455 0.0194377
989400 60.2606 194.883 55.9234 0.49465 0.0359868
989600 60.2606 194.896 55.9234 0.49475 0.0288768
989800 60.2606 194.909 55.9234 0.49485 0.0286642
990000 60.2606 194.922 55.9234 0.49495 0.00804356
990200 60.2606 194.935 55.9234 0.49505 -0.00580211
990400 60.2606 194.948 55.9234 0.49515 -0.00194822
990600 60.2606 194.961 55.9234 0.49525 -0.00828908
990800 60.2606 194.974 55.9234 0.49535 -0.00459416
991000 60.2606 194.987 55.9234 0.49545 0.00531299
991200 60.2606 195 55.9234 0.49555 -0.0306704
991400 60.2606 195.013 55.9234 0.49565 -0.0495551
991600 60.2606 195.026 55.9234 0.49575 -0.0234124
991800 60.2606 195.039 55.9234 0.49585 -0.0359142
992000 60.2606 195.052 55.9234 0.49595 -0.0186192
992200 60.2606 195.065 55.9234 0.49605 0.0158617
992400 60.2606 195.078 55.9234 0.49615 0.00447359
992600 60.2606 195.091 55.9234 0.49625 0.0282895
992800 60.2606 195.104 55.9234 0.49635 0.0117939
993000 60.2606 195.117 55.9234 0.49645 -0.00372058
993200 60.2606 195.13 55.9234 0.49655 0.0206084
993400 60.2606 195.144 55.9234 0.49665 0.0428695
993600 60.2606 195.157 55.9234 0.49675 0.0513048
993800 60.2606 195.17 55.9234 0.49685 0.0400575
994000 60.2606 195.183 55.9234 0.49695 0.00960755
994200 60.2606 195.196 55.9234 0.49705 -0.0190585
994400 60.2606 195.209 55.9234 0.49715 0.00510629
994600 60.2606 195.222 55.9234 0.49725 -0.00589682
994800 60.2606 195.235 55.9234 0.49735 -0.0263824
995000 60.2606 195.248 55.9234 0.49745 -0.00951118
995200 60.2606 195.261 55.9234 0.49755 -0.00497211
995400 60.2606 195.274 55.9234 0.49765 -0.0412295
995600 60.2606 195.287 55.9234 0.49775 -0.0416355
995800 60.2606 195.3 55.9234 0.49785 -0.0359196
996000 60.2606 195.313 55.9234 0.49795 -0.0140017
996200 60.2606 195.326 55.9234 0.49805 0.00195233
996400 60.2606 195.339 55.9234 0.49815 0.0139803
996600 60.2606 195.352 55.9234 0.49825 0.026741
996800 60.2606 195.365 55.9234 0.49835 0.0122177
997000 60.2606 195.378 55.9234 0.49845 0.0285221
997200 60.2606 195.391 55.9234 0.49855 0.0289202
997400 60.2606 195.404 55.9234 0.49865 0.0281492
997600 60.2606 195.417 55.9234 0.49875 0.0283984
997800 60.2606 195.43 55.9234 0.49885 0.0202475
998000 60.2606 195.443 55.9234 0.49895 0.0244364
998200 60.2606 195.456 55.9234 0.49905 0.0132747
998400 60.2606 195.469 55.9234 0.49915 -0.00784388
998600 60.2606 195.483 55.9234 0.49925 -0.0072208
998800 60.2606 195.496 55.9234 0.49935 -0.0379693
999000 60.2606 195.509 55.9234 0.49945 -0.0252883
999200 60.2606 195.522 55.9234 0.49955 -0.0333954
999400 60.2606 195.535 55.9234 0.49965 -0.0236795
999600 60.2606 195.548 55.9234 0.49975 -0.0214632
999800 60.2606 195.561 55.9234 0.49985 -0.0121076
1000000 60.2606 195.574 55.9234 0.49995 -0.00130065
1000200 60.2606 195.587 55.9234 0.50005 -0.0193075
1000400 60.2606 195.6 55.9234 0.50015 0.00154207
1000600 60.2606 195.613 55.9234 0.50025 0.0215516
1000800 60.2606 195.626 55.9234 0.50035 0.0168887
1001000 60.2606 195.639 55.9234 0.50045 0.0354354
1001200 60.2606 195.652 55.9234 0.50055 0.0484142
1001400 60.2606 195.665 55.9234 0.50065 0.02961
1001600 60.2606 195.678 55.9234 0.50075 0.0432679
1001800 60.2606 195.691 55.9234 0.50085 0.00633577
1002000 60.2606 195.704 55.9234 0.50095 -0.00381152
1002200 60.2606 195.717 55.9234 0.50105 0.0121931
1002400 60.2606 195.73 55.9234 0.50115 -0.0258742
1002600 60.2606 195.743 55.9234 0.50125 -0.00706988
1002800 60.2606 195.756 55.9234 0.50135 -0.0222152
1003000 60.2606 195.769 55.9234 0.50145 -0.00291076
1003200 60.2606 195.782 55.9234 0.50155 -0.047505
1003400 60.2606 195.795 55.9234 0.50165 -0.0256147
1003600 60.2606 195.809 55.9234 0.50175 -0.0194055
1003800 60.2606 195.822 55.9234 0.50185 -0.0155645
1004000 60.2606 195.835 55.9234 0.50195 -0.0145924
1004200 60.2606 195.848 55.9234 0.50205 0.00990405
1004400 60.2606 195.861 55.9234 0.50215 0.0147318
1004600 60.2606 195.874 55.9234 0.50225 0.0193679
1004800 60.2606 195.887 55.9234 0.50235 0.0391312
1005000 60.2606 195.9 55.9234 0.50245 0.0131045
1005200 60.2606 195.913 55.9234 0.50255 0.00949554
1005400 60.2606 195.926 55.9234 0.50265 0.026148
1005600 60.2606 195.939 55.9234 0.50275 0.0352333
1005800 60.2606 195.952 55.9234 0.50285 0.0365029
1006000 60.2606 195.965 55.9234 0.50295 0.0161143
1006200 60.2606 195.978 55.9234 0.50305 -0.0150646
1006400 60.2606 195.991 55.9234 0.50315 -0.005364
1006600 60.2606 196.004 55.9234 0.50325 -0.0298127
1006800 60.2606 196.017 55.9234 0.50335 -0.017522
1007000 60.2606 196.03 55.9234 0.50345 -0.0290133
1007200 60.2606 196.043 55.9234 0.50355 -0.0194862
1007400 60.2606 196.056 55.9234 0.50365 -0.0173643
1007600 60.2606 196.069 55.9234 0.50375 -0.0300496
1007800 60.2606 196.082 55.9234 0.50385 -0.00598936
1008000 60.2606 196.095 55.9234 0.50395 -0.00782183
1008200 60.2606 196.108 55.9234 0.50405 0.0101431
1008400 60.2606 196.121 55.9234 0.50415 0.00772812
1008600 60.2606 196.134 55.9234 0.50425 0.0144633
1008800 60.2606 196.148 55.9234 0.50435 0.0261994
1009000 60.2606 196.161 55.9234 0.50445 0.032144
1009200 60.2606 196.174 55.9234 0.50455 0.00896686
1009400 60.2606 196.187 55.9234 0.50465 0.0339425
1009600 60.2606 196.2 55.9234 0.50475 0.030619
1009800 60.2606 196.213 55.9234 0.50485 0.00950686
1010000 60.2606 196.226 55.9234 0.50495 0.00829627
1010200 60.2606 196.239 55.9234 0.50505 0.00782175
1010400 60.2606 196.252 55.9234 0.50515 -0.0078508
1010600 60.2606 196.265 55.9234 0.50525 -0.00361422
1010800 60.2606 196.278 55.9234 0.50535 -0.0251043
1011000 60.2606 196.291 55.9234 0.50545 -0.0341809
1011200 60.2606 196.304 55.9234 0.50555 -0.0246486
1011400 60.2606 196.317 55.9234 0.50565 -0.0241836
1011600 60.2606 196.33 55.9234 0.50575 -0.0165745
1011800 60.2606 196.343 55.9234 0.50585 -0.00942716
1012000 60.2606 196.356 55.9234 0.50595 -0.00999008
1012200 60.2606 196.369 55.9234 0.50605 -0.0139426
1012400 60.2606 196.382 55.9234 0.50615 0.00820015
1012600 60.2606 196.395 55.9234 0.50625 0.0290546
1012800 60.2606 196.408 55.9234 0.50635 0.0182475
1013000 60.2606 196.421 55.9234 0.50645 0.0427881
1013200 60.2606 196.434 55.9234 0.50655 0.0217949
1013400 60.2606 196.447 55.9234 0.50665 0.0331243
1013600 60.2606 196.46 55.9234 0.50675 0.0227393
1013800 60.2606 196.473 55.9234 0.50685 0.0146129
1014000 60.2606 196.487 55.9234 0.50695 0.0258988
1014200 60.2606 196.5 55.9234 0.50705 0.00895053
1014400 60.2606 196.513 55.9234 0.50715 -0.0224986
1014600 60.2606 196.526 55.9234 0.50725 -0.026628
1014800 60.2606 196.539 55.9234 0.50735 -0.0290663
1015000 60.2606 196.552 55.9234 0.50745 -0.0227329
1015200 60.2606 196.565 55.9234 0.50755 -0.0180273
1015400 60.2606 196.578 55.9234 0.50765 -0.0127676
1015600 60.2606 196.591 55.9234 0.50775 -0.0181022
1015800 60.2606 196.604 55.9234 0.50785 -0.0283506
1016000 60.2606 196.617 55.9234 0.50795 -0.00109651
1016200 60.2606 196.63 55.9234 0.50805 -0.00267527
1016400 60.2606 196.643 55.9234 0.50815 0.00826761
1016600 60.2606 196.656 55.9234 0.50825 0.0186691
1016800 60.2606 196.669 55.9234 0.50835 0.0323868
1017000 60.2606 196.682 55.9234 0.50845 0.00557835
1017200 60.2606 196.695 55.9234 0.50855 0.0339824
1017400 60.2606 196.708 55.9234 0.50865 0.036732
1017600 60.2606 196.721 55.9234 0.50875 0.0175311
1017800 60.2606 196.734 55.9234 0.50885 0.0155505
1018000 60.2606 196.747 55.9234 0.50895 0.0176925
1018200 60.2606 196.76 55.9234 0.50905 0.0120891
1018400 60.2606 196.773 55.9234 0.50915 -0.00588638
1018600 60.2606 196.786 55.9234 0.50925 -0.0272075
1018800 60.2606 196.799 55.9234 0.50935 -0.020698
1019000 60.2606 196.812 55.9234 0.50945 -0.0208521
1019200 60.2606 196.826 55.9234 0.50955 -0.0274445
1019400 60.2606 196.839 55.9234 0.50965 -0.0302258
1019600 60.2606 196.852 55.9234 0.50975 -0.0174197
1019800 60.2606 196.865 55.9234 0.50985 0.0129032
1020000 60.2606 196.878 55.9234 0.50995 -0.0191018
1020200 60.2606 196.891 55.9234 0.51005 -0.0114889
1020400 60.2606 196.904 55.9234 0.51015 -0.000436598
1020600 60.2606 196.917 55.9234 0.51025 0.0207101
1020800 60.2606 196.93 55.9234 0.51035 0.0100642
1021000 60.2606 196.943 55.9234 0.51045 0.0434927
1021200 60.2606 196.956 55.9234 0.51055 0.0415474
1021400 60.2606 196.969 55.9234 0.51065 0.0485176
1021600 60.2606 196.982 55.9234 0.51075 0.00460752
1021800 60.2606 196.995 55.9234 0.51085 0.0129558
1022000 60.2606 197.008 55.9234 0.51095 0.00671337
1022200 60.2606 197.021 55.9234 0.51105 -0.0039603
1022400 60.2606 197.034 55.9234 0.51115 0.00223075
1022600 60.2606 197.047 55.9234 0.51125 -0.0227807
1022800 60.2606 197.06 55.9234 0.51135 -0.0113016
1023000 60.2606 197.073 55.9234 0.51145 -0.0173114
1023200 60.2606 197.086 55.9234 0.51155 -0.0404328
1023400 60.2606 197.099 55.9234 0.51165 -0.0201348
1023600 60.2606 197.112 55.9234 0.51175 -0.0263101
1023800 60.2606 197.125 55.9234 0.51185 -0.0170162
1024000 60.2606 197.138 55.9234 0.51195 0.00885242
1024200 60.2606 197.151 55.9234 0.51205 -0.00633051
1024400 60.2606 197.165 55.9234 0.51215 0.0151742
1024600 60.2606 197.178 55.9234 0.51225 0.0194559
1024800 60.2606 197.191 55.9234 0.51235 0.0203713
1025000 60.2606 197.204 55.9234 0.51245 0.0168679
1025200 60.2606 197.217 55.9234 0.51255 0.032976
1025400 60.2606 197.23 55.9234 0.51265 0.0320831
1025600 60.2606 197.243 55.9234 0.51275 0.0250578
1025800 60.2606 197.256 55.9234 0.51285 0.0224867
1026000 60.2606 197.269 55.9234 0.51295 -0.0074584
1026200 60.2606 197.282 55.9234 0.51305 0.00718996
1026400 60.2606 197.295 55.9234 0.51315 -0.0224963
1026600 60.2606 197.308 55.9234 0.51325 -0.0106489
1026800 60.2606 197.321 55.9234 0.51335 -0.0178504
1027000 60.2606 197.334 55.9234 0.51345 -0.0317868
1027200 60.2606 197.347 55.9234 0.51355 -0.00679225
1027400 60.2606 197.36 55.9234 0.51365 -0.0246795
1027600 60.2606 197.373 55.9234 0.51375 -0.0169796
1027800 60.2606 197.386 55.9234 0.51385 -0.0121833
1028000 60.2606 197.399 55.9234 0.51395 0.0161873
1028200 60.2606 197.412 55.9234 0.51405 0.0125936
1028400 60.2606 197.425 55.9234 0.51415 -0.00543147
1028600 60.2606 197.438 55.9234 0.51425 0.021779
1028800 60.2606 197.451 55.9234 0.51435 0.0177248
1029000 60.2606 197.464 55.9234 0.51445 0.0143271
1029200 60.2606 197.477 55.9234 0.51455 0.0191926
1029400 60.2606 197.49 55.9234 0.51465 0.0319482
1029600 60.2606 197.504 55.9234 0.51475 0.0197764
1029800 60.2606 197.517 55.9234 0.51485 0.0237689
1030000 60.2606 197.53 55.9234 0.51495 -0.00358521
1030200 60.2606 197.543 55.9234 0.51505 -0.00439575
1030400 60.2606 197.556 55.9234 0.51515 0.00815734
1030600 60.2606 197.569 55.9234 0.51525 -0.0263839
1030800 60.2606 197.582 55.9234 0.51535 -0.0166191
1031000 60.2606 197.595 55.9234 0.51545 -0.0303647
1031200 60.2606 197.608 55.9234 0.51555 -0.00590923
1031400 60.2606 197.621 55.9234 0.51565 -0.0172446
1031600 60.2606 197.634 55.9234 0.51575 -0.0353658
1031800 60.2606 197.647 55.9234 0.51585 0.00373253
1032000 60.2606 197.66 55.9234 0.51595 -0.0138655
1032200 60.2606 197.673 55.9234 0.51605 0.000756299
1032400 60.2606 197.686 55.9234 0.51615 0.0307038
1032600 60.2606 197.699 55.9234 0.51625 0.0234578
1032800 60.2606 197.712 55.9234 0.51635 0.0180086
1033000 60.2606 197.725 55.9234 0.51645 0.0213546
1033200 60.2606 197.738 55.9234 0.51655 0.0108073
1033400 60.2606 197.751 55.9234 0.51665 0.0242064
1033600 60.2606 197.764 55.9234 0.51675 0.0147802
1033800 60.2606 197.777 55.9234 0.51685 0.024764
1034000 60.2606 197.79 55.9234 0.51695 0.0115171
1034200 60.2606 197.803 55.9234 0.51705 -0.000459902
1034400 60.2606 197.816 55.9234 0.51715 -0.0159052
1034600 60.2606 197.829 55.9234 0.51725 -0.0147036
1034800 60.2606 197.843 55.9234 0.51735 -0.0340875
1035000 60.2606 197.856 55.9234 0.51745 -0.0126171
1035200 60.2606 197.869 55.9234 0.51755 -0.019966
1035400 60.2606 197.882 55.9234 0.51765 0.000341566
1035600 60.2606 197.895 55.9234 0.51775 -0.00573069
1035800 60.2606 197.908 55.9234 0.51785 0.00339242
1036000 60.2606 197.921 55.9234 0.51795 -0.0260053
1036200 60.2606 197.934 55.9234 0.51805 -0.0114658
1036400 60.2606 197.947 55.9234 0.51815 0.00735374
1036600 60.2606 197.96 55.9234 0.51825 0.0224937
1036800 60.2606 197.973 55.9234 0.51835 0.0306861
1037000 60.2606 197.986 55.9234 0.51845 0.0265068
1037200 60.2606 197.999 55.9234 0.51855 0.0285297
1037400 60.2606 198.012 55.9234 0.51865 0.00724944
1037600 60.2606 198.025 55.9234 0.51875 0.00244954
1037800 60.2606 198.038 55.9234 0.51885 -0.00333523
1038000 60.2606 198.051 55.9234 0.51895 0.0162479
1038200 60.2606 198.064 55.9234 0.51905 0.0180394
1038400 60.2606 198.077 55.9234 0.51915 0.0190088
1038600 60.2606 198.09 55.9234 0.51925 -0.0201781
1038800 60.2606 198.103 55.9234 0.51935 -0.015471
1039000 60.2606 198.116 55.9234 0.51945 -0.0239778
1039200 60.2606 198.129 55.9234 0.51955 -0.0438652
1039400 60.2606 198.142 55.9234 0.51965 -0.00762691
1039600 60.2606 198.155 55.9234 0.51975 -0.0121317
1039800 60.2606 198.169 55.9234 0.51985 -0.00364273
1040000 60.2606 198.182 55.9234 0.51995 -0.00341071
1040200 60.2606 198.195 55.9234 0.52005 0.00566306
1040400 60.2606 198.208 55.9234 0.52015 -0.00203219
1040600 60.2606 198.221 55.9234 0.52025 0.00598857
1040800 60.2606 198.234 55.9234 0.52035 0.0231461
1041000 60.2606 198.247 55.9234 0.52045 0.0318887
1041200 60.2606 198.26 55.9234 0.52055 0.0282228
1041400 60.2606 198.273 55.9234 0.52065 0.0382396
1041600 60.2606 198.286 55.9234 0.52075 0.0240143
1041800 60.2606 198.299 55.9234 0.52085 -0.000474842
1042000 60.2606 198.312 55.9234 0.52095 -0.00179291
1042200 60.2606 198.325 55.9234 0.52105 0.00162739
1042400 60.2606 198.338 55.9234 0.52115 -0.00612131
1042600 60.2606 198.351 55.9234 0.52125 -0.0121094
1042800 60.2606 198.364 55.9234 0.52135 -0.0100565
1043000 60.2606 198.377 55.9234 0.52145 -0.0185844
1043200 60.2606 198.39 55.9234 0.52155 -0.0314955
1043400 60.2606 198.403 55.9234 0.52165 -0.0319172
1043600 60.2606 198.416 55.9234 0.52175 -0.0156143
1043800 60.2606 198.429 55.9234 0.52185 -0.0174669
1044000 60.2606 198.442 55.9234 0.52195 -0.00183036
1044200 60.2606 198.455 55.9234 0.52205 0.0159725
1044400 60.2606 198.468 55.9234 0.52215 0.010349
1044600 60.2606 198.481 55.9234 0.52225 0.0337634
1044800 60.2606 198.494 55.9234 0.52235 0.0159191
1045000 60.2606 198.508 55.9234 0.52245 0.00736728
1045200 60.2606 198.521 55.9234 0.52255 0.0500759
1045400 60.2606 198.534 55.9234 0.52265 0.0295134
1045600 60.2606 198.547 55.9234 0.52275 0.0247493
1045800 60.2606 198.56 55.9234 0.52285 0.0169675
1046000 60.2606 198.573 55.9234 0.52295 -0.00337915
1046200 60.2606 198.586 55.9234 0.52305 -0.00320393
1046400 60.2606 198.599 55.9234 0.52315 -0.0187261
1046600 60.2606 198.612 55.9234 0.52325 -0.0113101
1046800 60.2606 198.625 55.9234 0.52335 -0.00921322
1047000 60.2606 198.638 55.9234 0.52345 -0.0283846
1047200 60.2606 198.651 55.9234 0.52355 -0.0395288
1047400 60.2606 198.664 55.9234 0.52365 -0.0302826
1047600 60.2606 198.677 55.9234 0.52375 -0.0267673
1047800 60.2606 198.69 55.9234 0.52385 -0.00664555
1048000 60.2606 198.703 55.9234 0.52395 0.0192692
1048200 60.2606 198.716 55.9234 0.52405 0.00533849
1048400 60.2606 198.729 55.9234 0.52415 0.00460971
1048600 60.2606 198.742 55.9234 0.52425 0.0247247
1048800 60.2606 198.755 55.9234 0.52435 0.0173081
1049000 60.2606 198.768 55.9234 0.52445 0.0213453
1049200 60.2606 198.781 55.9234 0.52455 0.039625
1049400 60.2606 198.794 55.9234 0.52465 0.0488083
1049600 60.2606 198.807 55.9234 0.52475 0.0343736
1049800 60.2606 198.82 55.9234 0.52485 -0.0082719
1050000 60.2606 198.833 55.9234 0.52495 -0.00507696
1050200 60.2606 198.847 55.9234 0.52505 -0.00676611
1050400 60.2606 198.86 55.9234 0.52515 -0.00637792
1050600 60.2606 198.873 55.9234 0.52525 -0.0282302
1050800 60.2606 198.886 55.9234 0.52535 -0.00481655
1051000 60.2606 198.899 55.9234 0.52545 -0.0230357
1051200 60.2606 198.912 55.9234 0.52555 -0.0123695
1051400 60.2606 198.925 55.9234 0.52565 -0.0210163
1051600 60.2606 198.938 55.9234 0.52575 -0.0369528
1051800 60.2606 198.951 55.9234 0.52585 -0.0165784
1052000 60.2606 198.964 55.9234 0.52595 -0.00867976
1052200 60.2606 198.977 55.9234 0.52605 0.0457918
1052400 60.2606 198.99 55.9234 0.52615 0.00516725
1052600 60.2606 199.003 55.9234 0.52625 0.0146955
1052800 60.2606 199.016 55.9234 0.52635 0.030631
1053000 60.2606 199.029 55.9234 0.52645 0.0204446
1053200 60.2606 199.042 55.9234 0.52655 0.0258415
1053400 60.2606 199.055 55.9234 0.52665 0.0113873
1053600 60.2606 199.068 55.9234 0.52675 0.0280265
1053800 60.2606 199.081 55.9234 0.52685 0.00190308
1054000 60.2606 199.094 55.9234 0.52695 0.0223733
1054200 60.2606 199.107 55.9234 0.52705 0.000993684
1054400 60.2606 199.12 55.9234 0.52715 -0.0198251
1054600 60.2606 199.133 55.9234 0.52725 -0.0186656
1054800 60.2606 199.146 55.9234 0.52735 -0.0311828
1055000 60.2606 199.159 55.9234 0.52745 -0.00924273
1055200 60.2606 199.172 55.9234 0.52755 -0.0207101
1055400 60.2606 199.186 55.9234 0.52765 -0.0143789
1055600 60.2606 199.199 55.9234 0.52775 -0.0227052
1055800 60.2606 199.212 55.9234 0.52785 -0.0120684
1056000 60.2606 199.225 55.9234 0.52795 -0.00319324
1056200 60.2606 199.238 55.9234 0.52805 0.00666641
1056400 60.2606 199.251 55.9234 0.52815 0.00803395
1056600 60.2606 199.264 55.9234 0.52825 0.0157662
1056800 60.2606 199.277 55.9234 0.52835 0.0379111
1057000 60.2606 199.29 55.9234 0.52845 0.037657
1057200 60.2606 199.303 55.9234 0.52855 0.0329977
1057400 60.2606 199.316 55.9234 0.52865 -0.000580105
1057600 60.2606 199.329 55.9234 0.52875 0.0111798
1057800 60.2606 199.342 55.9234 0.52885 0.0290191
1058000 60.2606 199.355 55.9234 0.52895 0.0135632
1058200 60.2606 199.368 55.9234 0.52905 -0.00988877
1058400 60.2606 199.381 55.9234 0.52915 -0.00345768
1058600 60.2606 199.394 55.9234 0.52925 -0.00773659
1058800 60.2606 199.407 55.9234 0.52935 -0.0312982
1059000 60.2606 199.42 55.9234 0.52945 -0.0272638
1059200 60.2606 199.433 55.9234 0.52955 -0.0407269
1059400 60.2606 199.446 55.9234 0.52965 -0.00238995
1059600 60.2606 199.459 55.9234 0.52975 -0.0157847
1059800 60.2606 199.472 55.9234 0.52985 -0.0242594
1060000 60.2606 199.485 55.9234 0.52995 0.00619994
1060200 60.2606 199.498 55.9234 0.53005 0.0235831
1060400 60.2606 199.511 55.9234 0.53015 0.00180649
1060600 60.2606 199.525 55.9234 0.53025 0.0258031
1060800 60.2606 199.538 55.9234 0.53035 0.0177508
1061000 60.2606 199.551 55.9234 0.53045 0.0243855
1061200 60.2606 199.564 55.9234 0.53055 0.0596393
1061400 60.2606 199.577 55.9234 0.53065 0.00190054
1061600 60.2606 199.59 55.9234 0.53075 0.0110412
1061800 60.2606 199.603 55.9234 0.53085 0.0228441
1062000 60.2606 199.616 55.9234 0.53095 -0.0109796
1062200 60.2606 199.629 55.9234 0.53105 -0.00232423
1062400 60.2606 199.642 55.9234 0.53115 -0.0084571
1062600 60.2606 199.655 55.9234 0.53125 -0.0232664
1062800 60.2606 199.668 55.9234 0.53135 -0.0301191
1063000 60.2606 199.681 55.9234 0.53145 -0.0190787
1063200 60.2606 199.694 55.9234 0.53155 -0.0247455
1063400 60.2606 199.707 55.9234 0.53165 -0.0131234
1063600 60.2606 199.72 55.9234 0.53175 -0.00216707
1063800 60.2606 199.733 55.9234 0.53185 -0.0169149
1064000 60.2606 199.746 55.9234 0.53195 -0.00698597
1064200 60.2606 199.759 55.9234 0.53205 0.00494547
1064400 60.2606 199.772 55.9234 0.53215 0.0264621
1064600 60.2606 199.785 55.9234 0.53225 0.0479911
1064800 60.2606 199.798 55.9234 0.53235 0.0245
1065000 60.2606 199.811 55.9234 0.53245 0.0240489
1065200 60.2606 199.824 55.9234 0.53255 0.0226873
1065400 60.2606 199.837 55.9234 0.53265 0.020258
1065600 60.2606 199.85 55.9234 0.53275 0.00705166
1065800 60.2606 199.864 55.9234 0.53285 0.00357291
1066000 60.2606 199.877 55.9234 0.53295 0.0141705
1066200 60.2606 199.89 55.9234 0.53305 -0.0167026
1066400 60.2606 199.903 55.9234 0.53315 0.00843836
1066600 60.2606 199.916 55.9234 0.53325 -0.0448947
1066800 60.2606 199.929 55.9234 0.53335 -0.0351003
1067000 60.2606 199.942 55.9234 0.53345 -0.0150596
1067200 60.2606 199.955 55.9234 0.53355 -0.0212391
1067400 60.2606 199.968 55.9234 0.53365 -0.0125595
1067600 60.2606 199.981 55.9234 0.53375 -0.0183197
1067800 60.2606 199.994 55.9234 0.53385 0.0227476
1068000 60.2606 200.007 55.9234 0.53395 0.00658386
1068200 60.2606 200.02 55.9234 0.53405 -0.0169307
1068400 60.2606 200.033 55.9234 0.53415 0.0184136
1068600 60.2606 200.046 55.9234 0.53425 0.0381395
1068800 60.2606 200.059 55.9234 0.53435 0.0318651
1069000 60.2606 200.072 55.9234 0.53445 0.0425209
1069200 60.2606 200.085 55.9234 0.53455 0.0272106
1069400 60.2606 200.098 55.9234 0.53465 0.0136038
1069600 60.2606 200.111 55.9234 0.53475 0.000445694
1069800 60.2606 200.124 55.9234 0.53485 0.00297366
1070000 60.2606 200.137 55.9234 0.53495 -0.00389791
1070200 60.2606 200.15 55.9234 0.53505 -0.0069731
1070400 60.2606 200.163 55.9234 0.53515 -0.0118402
1070600 60.2606 200.176 55.9234 0.53525 -0.0264196
1070800 60.2606 200.19 55.9234 0.53535 -0.0451553
1071000 60.2606 200.203 55.9234 0.53545 -0.021927
1071200 60.2606 200.216 55.9234 0.53555 -0.0240455
1071400 60.2606 200.229 55.9234 0.53565 -0.00753568
1071600 60.2606 200.242 55.9234 0.53575 0.00194878
1071800 60.2606 200.255 55.9234 0.53585 0.00120384
1072000 60.2606 200.268 55.9234 0.53595 0.0205162
1072200 60.2606 200.281 55.9234 0.53605 0.00925855
1072400 60.2606 200.294 55.9234 0.53615 0.0162251
1072600 60.2606 200.307 55.9234 0.53625 0.0378994
1072800 60.2606 200.32 55.9234 0.53635 0.0409009
1073000 60.2606 200.333 55.9234 0.53645 0.035357
1073200 60.2606 200.346 55.9234 0.53655 0.00506565
1073400 60.2606 200.359 55.9234 0.53665 -0.00185627
1073600 60.2606 200.372 55.9234 0.53675 -0.00800205
1073800 60.2606 200.385 55.9234 0.53685 0.0173325
1074000 60.2606 200.398 55.9234 0.53695 0.00491776
1074200 60.2606 200.411 55.9234 0.53705 -0.0124287
1074400 60.2606 200.424 55.9234 0.53715 -0.0372431
1074600 60.2606 200.437 55.9234 0.53725 -0.0182147
1074800 60.2606 200.45 55.9234 0.53735 -0.0250006
1075000 60.2606 200.463 55.9234 0.53745 -0.0166877
1075200 60.2606 200.476 55.9234 0.53755 -0.0235031
1075400 60.2606 200.489 55.9234 0.53765 -0.00355532
1075600 60.2606 200.502 55.9234 0.53775 -0.00925712
1075800 60.2606 200.515 55.9234 0.53785 0.0131137
1076000 60.2606 200.529 55.9234 0.53795 0.0252649
1076200 60.2606 200.542 55.9234 0.53805 0.0398304
1076400 60.2606 200.555 55.9234 0.53815 0.00772314
1076600 60.2606 200.568 55.9234 0.53825 0.0140758
1076800 60.2606 200.581 55.9234 0.53835 0.00961409
1077000 60.2606 200.594 55.9234 0.53845 0.0294942
1077200 60.2606 200.607 55.9234 0.53855 0.0325075
1077400 60.2606 200.62 55.9234 0.53865 0.0156886
1077600 60.2606 200.633 55.9234 0.53875 0.0116407
1077800 60.2606 200.646 55.9234 0.53885 -0.00597771
1078000 60.2606 200.659 55.9234 0.53895 -0.0157012
1078200 60.2606 200.672 55.9234 0.53905 -0.0310546
1078400 60.2606 200.685 55.9234 0.53915 -0.0218618
1078600 60.2606 200.698 55.9234 0.53925 -0.0285487
1078800 60.2606 200.711 55.9234 0.53935 0.00359806
1079000 60.2606 200.724 55.9234 0.53945 -0.0129656
1079200 60.2606 200.737 55.9234 0.53955 -0.0177206
1079400 60.2606 200.75 55.9234 0.53965 -0.0140123
1079600 60.2606 200.763 55.9234 0.53975 0.00793462
1079800 60.2606 200.776 55.9234 0.53985 0.017097
1080000 60.2606 200.789 55.9234 0.53995 -0.00155641
1080200 60.2606 200.802 55.9234 0.54005 0.00578892
1080400 60.2606 200.815 55.9234 0.54015 0.0382676
1080600 60.2606 200.828 55.9234 0.54025 0.0308217
1080800 60.2606 200.841 55.9234 0.54035 0.0212114
1081000 60.2606 200.854 55.9234 0.54045 0.0128277
1081200 60.2606 200.868 55.9234 0.54055 0.0110718
1081400 60.2606 200.881 55.9234 0.54065 0.0253849
1081600 60.2606 200.894 55.9234 0.54075 -0.000114282
1081800 60.2606 200.907 55.9234 0.54085 -0.00233066
1082000 60.2606 200.92 55.9234 0.54095 -0.0209204
1082200 60.2606 200.933 55.9234 0.54105 -0.00746296
1082400 60.2606 200.946 55.9234 0.54115 -0.0061091
1082600 60.2606 200.959 55.9234 0.54125 -0.0375881
1082800 60.2606 200.972 55.9234 0.54135 -0.0277015
1083000 60.2606 200.985 55.9234 0.54145 -0.0151627
1083200 60.2606 200.998 55.9234 0.54155 0.00227666
1083400 60.2606 201.011 55.9234 0.54165 -0.00760411
1083600 60.2606 201.024 55.9234 0.54175 -0.000226272
1083800 60.2606 201.037 55.9234 0.54185 0.00555766
1084000 60.2606 201.05 55.9234 0.54195 0.01258
1084200 60.2606 201.063 55.9234 0.54205 0.0285728
1084400 60.2606 201.076 55.9234 0.54215 0.00983079
1084600 60.2606 201.089 55.9234 0.54225 0.0264003
1084800 60.2606 201.102 55.9234 0.54235 0.0262053
1085000 60.2606 201.115 55.9234 0.54245 0.0354678
1085200 60.2606 201.128 55.9234 0.54255 0.0198415
1085400 60.2606 201.141 55.9234 0.54265 -0.00280544
1085600 60.2606 201.154 55.9234 0.54275 0.0112884
1085800 60.2606 201.167 55.9234 0.54285 -0.0280388
1086000 60.2606 201.18 55.9234 0.54295 -0.0198543
1086200 60.2606 201.193 55.9234 0.54305 -0.00164554
1086400 60.2606 201.207 55.9234 0.54315 -0.010325
1086600 60.2606 201.22 55.9234 0.54325 -0.0263198
1086800 60.2606 201.233 55.9234 0.54335 0.000655494
1087000 60.2606 201.246 55.9234 0.54345 -0.0117755
1087200 60.2606 201.259 55.9234 0.54355 -0.0218423
1087400 60.2606 201.272 55.9234 0.54365 -0.0181147
1087600 60.2606 201.285 55.9234 0.54375 -0.000930176
1087800 60.2606 201.298 55.9234 0.54385 0.0027869
1088000 60.2606 201.311 55.9234 0.54395 0.0373477
1088200 60.2606 201.324 55.9234 0.54405 0.011928
1088400 60.2606 201.337 55.9234 0.54415 0.0185176
1088600 60.2606 201.35 55.9234 0.54425 0.0311063
1088800 60.2606 201.363 55.9234 0.54435 0.00504606
1089000 60.2606 201.376 55.9234 0.54445 0.0200361
1089200 60.2606 201.389 55.9234 0.54455 0.0328371
1089400 60.2606 201.402 55.9234 0.54465 -0.00193683
1089600 60.2606 201.415 55.9234 0.54475 0.0129362
1089800 60.2606 201.428 55.9234 0.54485 -0.00391872
1090000 60.2606 201.441 55.9234 0.54495 -0.00485023
1090200 60.2606 201.454 55.9234 0.54505 -0.0278372
1090400 60.2606 201.467 55.9234 0.54515 -0.0102258
1090600 60.2606 201.48 55.9234 0.54525 -0.00893842
1090800 60.2606 201.493 55.9234 0.54535 -0.0259083
1091000 60.2606 201.506 55.9234 0.54545 -0.0139084
1091200 60.2606 201.519 55.9234 0.54555 -0.015222
1091400 60.2606 201.532 55.9234 0.54565 -0.000161713
1091600 60.2606 201.546 55.9234 0.54575 0.00273637
1091800 60.2606 201.559 55.9234 0.54585 0.00365765
1092000 60.2606 201.572 55.9234 0.54595 0.0154475
1092200 60.2606 201.585 55.9234 0.54605 0.0234224
1092400 60.2606 201.598 55.9234 0.54615 0.0152625
1092600 60.2606 201.611 55.9234 0.54625 0.00993035
1092800 60.2606 201.624 55.9234 0.54635 0.0296298
1093000 60.2606 201.637 55.9234 0.54645 0.0153827
1093200 60.2606 201.65 55.9234 0.54655 0.0144415
1093400 60.2606 201.663 55.9234 0.54665 0.024761
1093600 60.2606 201.676 55.9234 0.54675 -0.00483141
1093800 60.2606 201.689 55.9234 0.54685 0.00325028
1094000 60.2606 201.702 55.9234 0.54695 -0.00693928
1094200 60.2606 201.715 55.9234 0.54705 -0.0168042
1094400 60.2606 201.728 55.9234 0.54715 -0.0236216
1094600 60.2606 201.741 55.9234 0.54725 -0.0241302
1094800 60.2606 201.754 55.9234 0.54735 -0.0210987
1095000 60.2606 201.767 55.9234 0.54745 0.00231025
1095200 60.2606 201.78 55.9234 0.54755 -0.0165941
1095400 60.2606 201.793 55.9234 0.54765 -0.0124149
1095600 60.2606 201.806 55.9234 0.54775 -0.0111898
1095800 60.2606 201.819 55.9234 0.54785 0.0178055
1096000 60.2606 201.832 55.9234 0.54795 0.0220283
1096200 60.2606 201.845 55.9234 0.54805 0.0254345
1096400 60.2606 201.858 55.9234 0.54815 0.0227732
1096600 60.2606 201.871 55.9234 0.54825 0.0415716
1096800 60.2606 201.885 55.9234 0.54835 0.0062222
1097000 60.2606 201.898 55.9234 0.54845 0.0124655
1097200 60.2606 201.911 55.9234 0.54855 -0.0114698
1097400 60.2606 201.924 55.9234 0.54865 0.0289915
1097600 60.2606 201.937 55.9234 0.54875 0.00757385
1097800 60.2606 201.95 55.9234 0.54885 0.0240739
1098000 60.2606 201.963 55.9234 0.54895 -0.0275203
1098200 60.2606 201.976 55.9234 0.54905 -0.0373042
1098400 60.2606 201.989 55.9234 0.54915 -0.0234225
1098600 60.2606 202.002 55.9234 0.54925 -0.0353511
1098800 60.2606 202.015 55.9234 0.54935 0.00365866
1099000 60.2606 202.028 55.9234 0.54945 -0.00370824
1099200 60.2606 202.041 55.9234 0.54955 -0.00825545
1099400 60.2606 202.054 55.9234 0.54965 0.00404579
1099600 60.2606 202.067 55.9234 0.54975 -0.00732122
1099800 60.2606 202.08 55.9234 0.54985 0.00600083
1100000 60.2606 202.093 55.9234 0.54995 0.0229488
1100200 60.2606 202.106 55.9234 0.55005 0.00260305
1100400 60.2606 202.119 55.9234 0.55015 0.0383518
1100600 60.2606 202.132 55.9234 0.55025 0.039192
1100800 60.2606 202.145 55.9234 0.55035 0.0366865
1101000 60.2606 202.158 55.9234 0.55045 0.010383
1101200 60.2606 202.171 55.9234 0.55055 0.00432696
1101400 60.2606 202.184 55.9234 0.55065 -0.00763454
1101600 60.2606 202.197 55.9234 0.55075 -0.00935929
1101800 60.2606 202.21 55.9234 0.55085 -0.0121641
1102000 60.2606 202.224 55.9234 0.55095 0.0185669
1102200 60.2606 202.237 55.9234 0.55105 -0.0235664
1102400 60.2606 202.25 55.9234 0.55115 -0.0216154
1102600 60.2606 202.263 55.9234 0.55125 -0.0197496
1102800 60.2606 202.276 55.9234 0.55135 -0.0318188
1103000 60.2606 202.289 55.9234 0.55145 -0.0306662
1103200 60.2606 202.302 55.9234 0.55155 -0.00183889
1103400 60.2606 202.315 55.9234 0.55165 0.00685164
1103600 60.2606 202.328 55.9234 0.55175 0.00822405
1103800 60.2606 202.341 55.9234 0.55185 0.0185421
1104000 60.2606 202.354 55.9234 0.55195 0.0177187
1104200 60.2606 202.367 55.9234 0.55205 0.0294758
1104400 60.2606 202.38 55.9234 0.55215 0.015379
1104600 60.2606 202.393 55.9234 0.55225 0.0196363
1104800 60.2606 202.406 55.9234 0.55235 0.0396447
1105000 60.2606 202.419 55.9234 0.55245 0.0171523
1105200 60.2606 202.432 55.9234 0.55255 0.0142102
1105400 60.2606 202.445 55.9234 0.55265 0.00795406
1105600 60.2606 202.458 55.9234 0.55275 -0.0188766
1105800 60.2606 202.471 55.9234 0.55285 -0.00680217
1106000 60.2606 202.484 55.9234 0.55295 -0.0118731
1106200 60.2606 202.497 55.9234 0.55305 -0.0150063
1106400 60.2606 202.51 55.9234 0.55315 -0.017883
1106600 60.2606 202.523 55.9234 0.55325 -0.0200728
1106800 60.2606 202.536 55.9234 0.55335 -0.000657645
1107000 60.2606 202.55 55.9234 0.55345 -0.00581264
1107200 60.2606 202.563 55.9234 0.55355 -0.0107905
1107400 60.2606 202.576 55.9234 0.55365 -0.0226723
1107600 60.2606 202.589 55.9234 0.55375 0.00114823
1107800 60.2606 202.602 55.9234 0.55385 0.0181835
1108000 60.2606 202.615 55.9234 0.55395 0.0154103
1108200 60.2606 202.628 55.9234 0.55405 0.016537
1108400 60.2606 202.641 55.9234 0.55415 0.0361578
1108600 60.2606 202.654 55.9234 0.55425 0.0106862
1108800 60.2606 202.667 55.9234 0.55435 0.00729285
1109000 60.2606 202.68 55.9234 0.55445 0.0133801
1109200 60.2606 202.693 55.9234 0.55455 0.035753
1109400 60.2606 202.706 55.9234 0.55465 0.011241
1109600 60.2606 202.719 55.9234 0.55475 0.00334663
1109800 60.2606 202.732 55.9234 0.55485 -0.0123508
1110000 60.2606 202.745 55.9234 0.55495 -0.0161954
1110200 60.2606 202.758 55.9234 0.55505 -0.00856406
1110400 60.2606 202.771 55.9234 0.55515 -0.0194183
1110600 60.2606 202.784 55.9234 0.55525 -0.0192144
1110800 60.2606 202.797 55.9234 0.55535 -0.0270533
1111000 60.2606 202.81 55.9234 0.55545 -0.0147187
1111200 60.2606 202.823 55.9234 0.55555 -0.00206794
1111400 60.2606 202.836 55.9234 0.55565 -0.0144295
1111600 60.2606 202.849 55.9234 0.55575 0.00647367
1111800 60.2606 202.862 55.9234 0.55585 0.00364017
1112000 60.2606 202.875 55.9234 0.55595 0.0127122
1112200 60.2606 202.889 55.9234 0.55605 0.0401786
1112400 60.2606 202.902 55.9234 0.55615 0.0196422
1112600 60.2606 202.915 55.9234 0.55625 0.0110941
1112800 60.2606 202.928 55.9234 0.55635 0.0283069
1113000 60.2606 202.941 55.9234 0.55645 0.0334684
1113200 60.2606 202.954 55.9234 0.55655 0.0252349
1113400 60.2606 202.967 55.9234 0.55665 0.00437228
1113600 60.2606 202.98 55.9234 0.55675 0.0103949
1113800 60.2606 202.993 55.9234 0.55685 -0.0178254
1114000 60.2606 203.006 55.9234 0.55695 -0.00977168
1114200 60.2606 203.019 55.9234 0.55705 -0.0225835
1114400 60.2606 203.032 55.9234 0.55715 -0.0165961
1114600 60.2606 203.045 55.9234 0.55725 -0.0227527
1114800 60.2606 203.058 55.9234 0.55735 -0.0381695
1115000 60.2606 203.071 55.9234 0.55745 -0.00567353
1115200 60.2606 203.084 55.9234 0.55755 -0.00665777
1115400 60.2606 203.097 55.9234 0.55765 -0.00558271
1115600 60.2606 203.11 55.9234 0.55775 -0.0238867
1115800 60.2606 203.123 55.9234 0.55785 0.0190467
1116000 60.2606 203.136 55.9234 0.55795 0.0172673
1116200 60.2606 203.149 55.9234 0.55805 0.0308598
1116400 60.2606 203.162 55.9234 0.55815 0.0321405
1116600 60.2606 203.175 55.9234 0.55825 0.0236393
1116800 60.2606 203.188 55.9234 0.55835 0.0288076
1117000 60.2606 203.201 55.9234 0.55845 0.0285951
1117200 60.2606 203.214 55.9234 0.55855 0.0335756
1117400 60.2606 203.228 55.9234 0.55865 -0.00374571
1117600 60.2606 203.241 55.9234 0.55875 0.000423103
1117800 60.2606 203.254 55.9234 0.55885 -0.0114652
1118000 60.2606 203.267 55.9234 0.55895 -0.0158873
1118200 60.2606 203.28 55.9234 0.55905 -0.0188754
1118400 60.2606 203.293 55.9234 0.55915 -0.0240572
1118600 60.2606 203.306 55.9234 0.55925 -0.0286006
1118800 60.2606 203.319 55.9234 0.55935 -0.0282877
1119000 60.2606 203.332 55.9234 0.55945 -0.0253595
1119200 60.2606 203.345 55.9234 0.55955 -0.000877028
1119400 60.2606 203.358 55.9234 0.55965 -0.0154771
1119600 60.2606 203.371 55.9234 0.55975 0.0181734
1119800 60.2606 203.384 55.9234 0.55985 0.0118335
1120000 60.2606 203.397 55.9234 0.55995 0.0233491
1120200 60.2606 203.41 55.9234 0.56005 0.0202829
1120400 60.2606 203.423 55.9234 0.56015 0.0408992
1120600 60.2606 203.436 55.9234 0.56025 0.0320942
1120800 60.2606 203.449 55.9234 0.56035 0.0132015
1121000 60.2606 203.462 55.9234 0.56045 0.017415
1121200 60.2606 203.475 55.9234 0.56055 0.0154962
1121400 60.2606 203.488 55.9234 0.56065 0.00533844
1121600 60.2606 203.501 55.9234 0.56075 -9.88241e-05
1121800 60.2606 203.514 55.9234 0.56085 -0.00321469
1122000 60.2606 203.527 55.9234 0.56095 -0.025747
1122200 60.2606 203.54 55.9234 0.56105 -0.0178739
1122400 60.2606 203.553 55.9234 0.56115 -0.0227151
1122600 60.2606 203.567 55.9234 0.56125 -0.028503
1122800 60.2606 203.58 55.9234 0.56135 -0.0180798
1123000 60.2606 203.593 55.9234 0.56145 0.0036839
1123200 60.2606 203.606 55.9234 0.56155 -0.00320157
1123400 60.2606 203.619 55.9234 0.56165 0.00293972
1123600 60.2606 203.632 55.9234 0.56175 -0.00845692
1123800 60.2606 203.645 55.9234 0.56185 0.00446825
1124000 60.2606 203.658 55.9234 0.56195 0.0206823
1124200 60.2606 203.671 55.9234 0.56205 0.0129074
1124400 60.2606 203.684 55.9234 0.56215 0.0214519
1124600 60.2606 203.697 55.9234 0.56225 0.0369621
1124800 60.2606 203.71 55.9234 0.56235 0.0260083
1125000 60.2606 203.723 55.9234 0.56245 0.0155094
1125200 60.2606 203.736 55.9234 0.56255 0.0238503
1125400 60.2606 203.749 55.9234 0.56265 0.0182399
1125600 60.2606 203.762 55.9234 0.56275 -0.00426077
1125800 60.2606 203.775 55.9234 0.56285 -0.0184604
1126000 60.2606 203.788 55.9234 0.56295 -0.0261431
1126200 60.2606 203.801 55.9234 0.56305 -0.0034902
1126400 60.2606 203.814 55.9234 0.56315 -0.0283909
1126600 60.2606 203.827 55.9234 0.56325 -0.0166322
1126800 60.2606 203.84 55.9234 0.56335 -0.0203262
1127000 60.2606 203.853 55.9234 0.56345 -0.00941727
1127200 60.2606 203.866 55.9234 0.56355 -0.0269533
1127400 60.2606 203.879 55.9234 0.56365 -0.00627946
1127600 60.2606 203.892 55.9234 0.56375 0.0074735
1127800 60.2606 203.906 55.9234 0.56385 0.0261191
1128000 60.2606 203.919 55.9234 0.56395 0.00130155
1128200 60.2606 203.932 55.9234 0.56405 0.0293964
1128400 60.2606 203.945 55.9234 0.56415 0.028249
1128600 60.2606 203.958 55.9234 0.56425 0.0271131
1128800 60.2606 203.971 55.9234 0.56435 0.0230899
1129000 60.2606 203.984 55.9234 0.56445 0.0112273
1129200 60.2606 203.997 55.9234 0.56455 0.0247457
1129400 60.2606 204.01 55.9234 0.56465 0.0274784
1129600 60.2606 204.023 55.9234 0.56475 -0.00488185
1129800 60.2606 204.036 55.9234 0.56485 -0.00817212
1130000 60.2606 204.049 55.9234 0.56495 -0.0220626
1130200 60.2606 204.062 55.9234 0.56505 -0.0196986
1130400 60.2606 204.075 55.9234 0.56515 -0.0207636
1130600 60.2606 204.088 55.9234 0.56525 -0.0204384
1130800 60.2606 204.101 55.9234 0.56535 -0.0167636
1131000 60.2606 204.114 55.9234 0.56545 -0.0209397
1131200 60.2606 204.127 55.9234 0.56555 -0.0369301
1131400 60.2606 204.14 55.9234 0.56565 0.0031242
1131600 60.2606 204.153 55.9234 0.56575 -0.000553779
1131800 60.2606 204.166 55.9234 0.56585 0.020766
1132000 60.2606 204.179 55.9234 0.56595 0.00655326
1132200 60.2606 204.192 55.9234 0.56605 0.0289458
1132400 60.2606 204.205 55.9234 0.56615 0.0266719
1132600 60.2606 204.218 55.9234 0.56625 0.0326502
1132800 60.2606 204.231 55.9234 0.56635 0.0184872
1133000 60.2606 204.245 55.9234 0.56645 0.03317
1133200 60.2606 204.258 55.9234 0.56655 0.020188
1133400 60.2606 204.271 55.9234 0.56665 0.0104545
1133600 60.2606 204.284 55.9234 0.56675 0.0188984
1133800 60.2606 204.297 55.9234 0.56685 -0.00278038
1134000 60.2606 204.31 55.9234 0.56695 -0.0112681
1134200 60.2606 204.323 55.9234 0.56705 -0.0522201
1134400 60.2606 204.336 55.9234 0.56715 -0.00539523
1134600 60.2606 204.349 55.9234 0.56725 -0.0253566
1134800 60.2606 204.362 55.9234 0.56735 -0.0193352
1135000 60.2606 204.375 55.9234 0.56745 -0.0326479
1135200 60.2606 204.388 55.9234 0.56755 -0.0317943
1135400 60.2606 204.401 55.9234 0.56765 -0.00158971
1135600 60.2606 204.414 55.9234 0.56775 0.00427764
1135800 60.2606 204.427 55.9234 0.56785 0.00494448
1136000 60.2606 204.44 55.9234 0.56795 0.0131993
1136200 60.2606 204.453 55.9234 0.56805 0.0328927
1136400 60.2606 204.466 55.9234 0.56815 0.0363854
1136600 60.2606 204.479 55.9234 0.56825 0.0353614
1136800 60.2606 204.492 55.9234 0.56835 0.0414647
1137000 60.2606 204.505 55.9234 0.56845 0.0139658
1137200 60.2606 204.518 55.9234 0.56855 0.0132585
1137400 60.2606 204.531 55.9234 0.56865 0.013653
1137600 60.2606 204.544 55.9234 0.56875 0.00708524
1137800 60.2606 204.557 55.9234 0.56885 0.0289549
1138000 60.2606 204.57 55.9234 0.56895 -0.0382252
1138200 60.2606 204.584 55.9234 0.56905 -0.0162673
1138400 60.2606 204.597 55.9234 0.56915 -0.0275077
1138600 60.2606 204.61 55.9234 0.56925 -0.0524684
1138800 60.2606 204.623 55.9234 0.56935 -0.0289138
1139000 60.2606 204.636 55.9234 0.56945 -0.034554
1139200 60.2606 204.649 55.9234 0.56955 -0.00223821
1139400 60.2606 204.662 55.9234 0.56965 -0.0218926
1139600 60.2606 204.675 55.9234 0.56975 0.0176695
1139800 60.2606 204.688 55.9234 0.56985 0.0200627
1140000 60.2606 204.701 55.9234 0.56995 0.000126087
1140200 60.2606 204.714 55.9234 0.57005 0.0257331
1140400 60.2606 204.727 55.9234 0.57015 0.0549905
1140600 60.2606 204.74 55.9234 0.57025 0.0487172
1140800 60.2606 204.753 55.9234 0.57035 0.0512283
1141000 60.2606 204.766 55.9234 0.57045 0.0279569
1141200 60.2606 204.779 55.9234 0.57055 -0.00159887
1141400 60.2606 204.792 55.9234 0.57065 -0.0195872
1141600 60.2606 204.805 55.9234 0.57075 0.00459192
1141800 60.2606 204.818 55.9234 0.57085 0.00219279
1142000 60.2606 204.831 55.9234 0.57095 -0.0212595
1142200 60.2606 204.844 55.9234 0.57105 -0.00081077
1142400 60.2606 204.857 55.9234 0.57115 -0.0596612
1142600 60.2606 204.87 55.9234 0.57125 -0.0403533
1142800 60.2606 204.883 55.9234 0.57135 -0.0242905
1143000 60.2606 204.896 55.9234 0.57145 -0.0223269
1143200 60.2606 204.91 55.9234 0.57155 -0.00535012
1143400 60.2606 204.923 55.9234 0.57165 0.0127036
1143600 60.2606 204.936 55.9234 0.57175 0.0114681
1143800 60.2606 204.949 55.9234 0.57185 0.00796329
1144000 60.2606 204.962 55.9234 0.57195 0.0185528
1144200 60.2606 204.975 55.9234 0.57205 0.0229263
1144400 60.2606 204.988 55.9234 0.57215 0.0499107
1144600 60.2606 205.001 55.9234 0.57225 0.0352858
1144800 60.2606 205.014 55.9234 0.57235 0.0294225
1145000 60.2606 205.027 55.9234 0.57245 0.0257131
1145200 60.2606 205.04 55.9234 0.57255 0.00820026
1145400 60.2606 205.053 55.9234 0.57265 0.00112136
1145600 60.2606 205.066 55.9234 0.57275 -0.00155025
1145800 60.2606 205.079 55.9234 0.57285 -0.0117826
1146000 60.2606 205.092 55.9234 0.57295 -0.0261977
1146200 60.2606 205.105 55.9234 0.57305 -0.0323602
1146400 60.2606 205.118 55.9234 0.57315 -0.0233622
1146600 60.2606 205.131 55.9234 0.57325 -0.0379056
1146800 60.2606 205.144 55.9234 0.57335 -0.0189654
1147000 60.2606 205.157 55.9234 0.57345 -0.000751189
1147200 60.2606 205.17 55.9234 0.57355 -0.0271064
1147400 60.2606 205.183 55.9234 0.57365 0.000980341
1147600 60.2606 205.196 55.9234 0.57375 0.0195658
1147800 60.2606 205.209 55.9234 0.57385 0.013443
1148000 60.2606 205.222 55.9234 0.57395 0.0289661
1148200 60.2606 205.235 55.9234 0.57405 0.0438938
1148400 60.2606 205.249 55.9234 0.57415 0.0343851
1148600 60.2606 205.262 55.9234 0.57425 0.0266452
1148800 60.2606 205.275 55.9234 0.57435 0.00613338
1149000 60.2606 205.288 55.9234 0.57445 0.0280223
1149200 60.2606 205.301 55.9234 0.57455 -0.000765195
1149400 60.2606 205.314 55.9234 0.57465 -0.00354664
1149600 60.2606 205.327 55.9234 0.57475 0.0101551
1149800 60.2606 205.34 55.9234 0.57485 -0.0134404
1150000 60.2606 205.353 55.9234 0.57495 -0.00475075
1150200 60.2606 205.366 55.9234 0.57505 -0.0295273
1150400 60.2606 205.379 55.9234 0.57515 -0.0329486
1150600 60.2606 205.392 55.9234 0.57525 -0.0303763
1150800 60.2606 205.405 55.9234 0.57535 -0.0190298
1151000 60.2606 205.418 55.9234 0.57545 -0.00484426
1151200 60.2606 205.431 55.9234 0.57555 -0.0175957
1151400 60.2606 205.444 55.9234 0.57565 0.0148191
1151600 60.2606 205.457 55.9234 0.57575 0.00798678
1151800 60.2606 205.47 55.9234 0.57585 0.0241325
1152000 60.2606 205.483 55.9234 0.57595 0.0194636
1152200 60.2606 205.496 55.9234 0.57605 -0.00269021
1152400 60.2606 205.509 55.9234 0.57615 0.0329785
1152600 60.2606 205.522 55.9234 0.57625 0.0373579
1152800 60.2606 205.535 55.9234 0.57635 0.0324984
1153000 60.2606 205.548 55.9234 0.57645 0.0412923
1153200 60.2606 205.561 55.9234 0.57655 0.00154755
1153400 60.2606 205.574 55.9234 0.57665 -0.00729457
1153600 60.2606 205.588 55.9234 0.57675 -0.013228
1153800 60.2606 205.601 55.9234 0.57685 -0.0158063
1154000 60.2606 205.614 55.9234 0.57695 0.00453986
1154200 60.2606 205.627 55.9234 0.57705 -0.0158583
1154400 60.2606 205.64 55.9234 0.57715 -0.028945
1154600 60.2606 205.653 55.9234 0.57725 -0.0183939
1154800 60.2606 205.666 55.9234 0.57735 -0.0269681
1155000 60.2606 205.679 55.9234 0.57745 -0.0359143
1155200 60.2606 205.692 55.9234 0.57755 -0.00507712
1155400 60.2606 205.705 55.9234 0.57765 0.00127118
1155600 60.2606 205.718 55.9234 0.57775 0.0253859
1155800 60.2606 205.731 55.9234 0.57785 0.0335557
1156000 60.2606 205.744 55.9234 0.57795 0.0160306
1156200 60.2606 205.757 55.9234 0.57805 0.00546423
1156400 60.2606 205.77 55.9234 0.57815 0.0128294
1156600 60.2606 205.783 55.9234 0.57825 0.0388166
1156800 60.2606 205.796 55.9234 0.57835 0.0425999
1157000 60.2606 205.809 55.9234 0.57845 0.0204365
1157200 60.2606 205.822 55.9234 0.57855 0.0182269
1157400 60.2606 205.835 55.9234 0.57865 -0.00177391
1157600 60.2606 205.848 55.9234 0.57875 -0.015815
1157800 60.2606 205.861 55.9234 0.57885 -0.0264995
1158000 60.2606 205.874 55.9234 0.57895 -0.029132
1158200 60.2606 205.887 55.9234 0.57905 -0.014259
1158400 60.2606 205.9 55.9234 0.57915 -0.0174829
1158600 60.2606 205.913 55.9234 0.57925 -0.0248682
1158800 60.2606 205.927 55.9234 0.57935 -0.0224498
1159000 60.2606 205.94 55.9234 0.57945 -0.0107363
1159200 60.2606 205.953 55.9234 0.57955 -0.00233815
1159400 60.2606 205.966 55.9234 0.57965 0.0222269
1159600 60.2606 205.979 55.9234 0.57975 0.0174354
1159800 60.2606 205.992 55.9234 0.57985 0.0226558
1160000 60.2606 206.005 55.9234 0.57995 0.0410309
1160200 60.2606 206.018 55.9234 0.58005 0.0105971
1160400 60.2606 206.031 55.9234 0.58015 0.0334827
1160600 60.2606 206.044 55.9234 0.58025 0.0213458
1160800 60.2606 206.057 55.9234 0.58035 0.0143077
1161000 60.2606 206.07 55.9234 0.58045 0.00791764
1161200 60.2606 206.083 55.9234 0.58055 0.00607991
1161400 60.2606 206.096 55.9234 0.58065 -0.0101018
1161600 60.2606 206.109 55.9234 0.58075 -0.00671327
1161800 60.2606 206.122 55.9234 0.58085 -0.0252404
1162000 60.2606 206.135 55.9234 0.58095 -0.022314
1162200 60.2606 206.148 55.9234 0.58105 -0.018559
1162400 60.2606 206.161 55.9234 0.58115 -0.01623
1162600 60.2606 206.174 55.9234 0.58125 0.0044497
1162800 60.2606 206.187 55.9234 0.58135 -0.0313774
1163000 60.2606 206.2 55.9234 0.58145 -0.00401586
1163200 60.2606 206.213 55.9234 0.58155 -0.00363381
1163400 60.2606 206.226 55.9234 0.58165 0.0104432
1163600 60.2606 206.239 55.9234 0.58175 0.0167722
1163800 60.2606 206.252 55.9234 0.58185 0.0111691
1164000 60.2606 206.266 55.9234 0.58195 0.0306781
1164200 60.2606 206.279 55.9234 0.58205 0.0458165
1164400 60.2606 206.292 55.9234 0.58215 0.031579
1164600 60.2606 206.305 55.9234 0.58225 0.00166993
1164800 60.2606 206.318 55.9234 0.58235 0.012507
1165000 60.2606 206.331 55.9234 0.58245 0.00141249
1165200 60.2606 206.344 55.9234 0.58255 -0.0129412
1165400 60.2606 206.357 55.9234 0.58265 0.00526591
1165600 60.2606 206.37 55.9234 0.58275 1.50642e-05
1165800 60.2606 206.383 55.9234 0.58285 -0.0100487
1166000 60.2606 206.396 55.9234 0.58295 -0.016102
1166200 60.2606 206.409 55.9234 0.58305 -0.0291813
1166400 60.2606 206.422 55.9234 0.58315 -0.0191863
1166600 60.2606 206.435 55.9234 0.58325 -0.0128255
1166800 60.2606 206.448 55.9234 0.58335 0.00189864
1167000 60.2606 206.461 55.9234 0.58345 0.00730819
1167200 60.2606 206.474 55.9234 0.58355 0.0191152
1167400 60.2606 206.487 55.9234 0.58365 0.0161133
1167600 60.2606 206.5 55.9234 0.58375 -0.0120199
1167800 60.2606 206.513 55.9234 0.58385 0.0149509
1168000 60.2606 206.526 55.9234 0.58395 0.0176793
1168200 60.2606 206.539 55.9234 0.58405 0.0133917
1168400 60.2606 206.552 55.9234 0.58415 0.0336093
1168600 60.2606 206.565 55.9234 0.58425 0.0236953
1168800 60.2606 206.578 55.9234 0.58435 0.005646
1169000 60.2606 206.591 55.9234 0.58445 0.0119689
1169200 60.2606 206.605 55.9234 0.58455 -0.00953046
1169400 60.2606 206.618 55.9234 0.58465 -0.0083392
1169600 60.2606 206.631 55.9234 0.58475 -0.0134792
1169800 60.2606 206.644 55.9234 0.58485 -0.026876
1170000 60.2606 206.657 55.9234 0.58495 -0.0202725
1170200 60.2606 206.67 55.9234 0.58505 0.00776943
1170400 60.2606 206.683 55.9234 0.58515 0.00124721
1170600 60.2606 206.696 55.9234 0.58525 -0.0218244
1170800 60.2606 206.709 55.9234 0.58535 -0.00663595
1171000 60.2606 206.722 55.9234 0.58545 -0.00863276
1171200 60.2606 206.735 55.9234 0.58555 -0.00738087
1171400 60.2606 206.748 55.9234 0.58565 0.0277803
1171600 60.2606 206.761 55.9234 0.58575 0.0167082
1171800 60.2606 206.774 55.9234 0.58585 0.0456378
1172000 60.2606 206.787 55.9234 0.58595 0.0304924
1172200 60.2606 206.8 55.9234 0.58605 0.00195958
1172400 60.2606 206.813 55.9234 0.58615 0.0113203
1172600 60.2606 206.826 55.9234 0.58625 0.00330147
1172800 60.2606 206.839 55.9234 0.58635 0.00963255
1173000 60.2606 206.852 55.9234 0.58645 0.0158373
1173200 60.2606 206.865 55.9234 0.58655 -0.00137163
1173400 60.2606 206.878 55.9234 0.58665 0.00769499
1173600 60.2606 206.891 55.9234 0.58675 -0.0205602
1173800 60.2606 206.904 55.9234 0.58685 -0.0298837
1174000 60.2606 206.917 55.9234 0.58695 -0.0184587
1174200 60.2606 206.931 55.9234 0.58705 -0.0335606
1174400 60.2606 206.944 55.9234 0.58715 -0.00675552
1174600 60.2606 206.957 55.9234 0.58725 -9.67442e-05
1174800 60.2606 206.97 55.9234 0.58735 0.0259462
1175000 60.2606 206.983 55.9234 0.58745 -0.0053673
1175200 60.2606 206.996 55.9234 0.58755 -0.00482628
1175400 60.2606 207.009 55.9234 0.58765 0.00370836
1175600 60.2606 207.022 55.9234 0.58775 0.0297981
1175800 60.2606 207.035 55.9234 0.58785 0.0113445
1176000 60.2606 207.048 55.9234 0.58795 0.0311587
1176200 60.2606 207.061 55.9234 0.58805 0.0227933
1176400 60.2606 207.074 55.9234 0.58815 0.0235171
1176600 60.2606 207.087 55.9234 0.58825 0.0165912
1176800 60.2606 207.1 55.9234 0.58835 -0.00144827
1177000 60.2606 207.113 55.9234 0.58845 -0.00301122
1177200 60.2606 207.126 55.9234 0.58855 0.00338446
1177400 60.2606 207.139 55.9234 0.58865 -0.0118405
1177600 60.2606 207.152 55.9234 0.58875 -0.0020143
1177800 60.2606 207.165 55.9234 0.58885 -0.0124302
1178000 60.2606 207.178 55.9234 0.58895 -0.0131
1178200 60.2606 207.191 55.9234 0.58905 -0.0421055
1178400 60.2606 207.204 55.9234 0.58915 -0.0144407
1178600 60.2606 207.217 55.9234 0.58925 -0.0158731
1178800 60.2606 207.23 55.9234 0.58935 -0.0108864
1179000 60.2606 207.243 55.9234 0.58945 0.0140109
1179200 60.2606 207.256 55.9234 0.58955 0.0317255
1179400 60.2606 207.27 55.9234 0.58965 0.0226841
1179600 60.2606 207.283 55.9234 0.58975 0.0224591
1179800 60.2606 207.296 55.9234 0.58985 0.0180514
1180000 60.2606 207.309 55.9234 0.58995 0.0123821
1180200 60.2606 207.322 55.9234 0.59005 0.0216465
1180400 60.2606 207.335 55.9234 0.59015 0.0264063
1180600 60.2606 207.348 55.9234 0.59025 0.00756273
1180800 60.2606 207.361 55.9234 0.59035 0.0188533
1181000 60.2606 207.374 55.9234 0.59045 0.00567131
1181200 60.2606 207.387 55.9234 0.59055 -0.022793
1181400 60.2606 207.4 55.9234 0.59065 -0.0316956
1181600 60.2606 207.413 55.9234 0.59075 -0.0302661
1181800 60.2606 207.426 55.9234 0.59085 -0.00939475
1182000 60.2606 207.439 55.9234 0.59095 0.00149265
1182200 60.2606 207.452 55.9234 0.59105 -0.0207737
1182400 60.2606 207.465 55.9234 0.59115 -0.00982617
1182600 60.2606 207.478 55.9234 0.59125 0.0030371
1182800 60.2606 207.491 55.9234 0.59135 -0.00809663
1183000 60.2606 207.504 55.9234 0.59145 0.0178343
1183200 60.2606 207.517 55.9234 0.59155 -0.00221547
1183400 60.2606 207.53 55.9234 0.59165 0.0138354
1183600 60.2606 207.543 55.9234 0.59175 0.0452339
1183800 60.2606 207.556 55.9234 0.59185 0.0289185
1184000 60.2606 207.569 55.9234 0.59195 0.0215248
1184200 60.2606 207.582 55.9234 0.59205 0.00375685
1184400 60.2606 207.595 55.9234 0.59215 0.0261115
1184600 60.2606 207.609 55.9234 0.59225 -0.000967554
1184800 60.2606 207.622 55.9234 0.59235 0.000533544
1185000 60.2606 207.635 55.9234 0.59245 -0.00639844
1185200 60.2606 207.648 55.9234 0.59255 0.00208311
1185400 60.2606 207.661 55.9234 0.59265 -0.0144128
1185600 60.2606 207.674 55.9234 0.59275 -0.0152238
1185800 60.2606 207.687 55.9234 0.59285 -0.0346883
1186000 60.2606 207.7 55.9234 0.59295 -0.0318192
1186200 60.2606 207.713 55.9234 0.59305 -0.0120417
1186400 60.2606 207.726 55.9234 0.59315 -0.0029104
1186600 60.2606 207.739 55.9234 0.59325 0.00926485
1186800 60.2606 207.752 55.9234 0.59335 0.031479
1187000 60.2606 207.765 55.9234 0.59345 0.00438334
1187200 60.2606 207.778 55.9234 0.59355 0.0234248
1187400 60.2606 207.791 55.9234 0.59365 0.00247331
1187600 60.2606 207.804 55.9234 0.59375 0.023877
1187800 60.2606 207.817 55.9234 0.59385 0.0323011
1188000 60.2606 207.83 55.9234 0.59395 0.0304017
1188200 60.2606 207.843 55.9234 0.59405 0.0177253
1188400 60.2606 207.856 55.9234 0.59415 0.0179334
1188600 60.2606 207.869 55.9234 0.59425 -5.93166e-05
1188800 60.2606 207.882 55.9234 0.59435 -0.031667
1189000 60.2606 207.895 55.9234 0.59445 -0.0288225
1189200 60.2606 207.908 55.9234 0.59455 -0.00723119
1189400 60.2606 207.921 55.9234 0.59465 -0.0222662
1189600 60.2606 207.934 55.9234 0.59475 0.000315115
1189800 60.2606 207.948 55.9234 0.59485 -0.0209354
1190000 60.2606 207.961 55.9234 0.59495 -0.0265292
1190200 60.2606 207.974 55.9234 0.59505 -0.018206
1190400 60.2606 207.987 55.9234 0.59515 0.0158386
1190600 60.2606 208 55.9234 0.59525 0.0199692
1190800 60.2606 208.013 55.9234 0.59535 0.0113059
1191000 60.2606 208.026 55.9234 0.59545 0.03055
1191200 60.2606 208.039 55.9234 0.59555 0.0276584
1191400 60.2606 208.052 55.9234 0.59565 0.0302793
1191600 60.2606 208.065 55.9234 0.59575 0.0351477
1191800 60.2606 208.078 55.9234 0.59585 0.0027698
1192000 60.2606 208.091 55.9234 0.59595 0.0058863
1192200 60.2606 208.104 55.9234 0.59605 -0.000963347
1192400 60.2606 208.117 55.9234 0.59615 0.0188274
1192600 60.2606 208.13 55.9234 0.59625 0.00200385
1192800 60.2606 208.143 55.9234 0.59635 -0.0255875
1193000 60.2606 208.156 55.9234 0.59645 -0.00456243
1193200 60.2606 208.169 55.9234 0.59655 -0.0317279
1193400 60.2606 208.182 55.9234 0.59665 -0.041999
1193600 60.2606 208.195 55.9234 0.59675 -0.00920377
1193800 60.2606 208.208 55.9234 0.59685 -0.0095813
1194000 60.2606 208.221 55.9234 0.59695 0.00266329
1194200 60.2606 208.234 55.9234 0.59705 -0.014576
1194400 60.2606 208.247 55.9234 0.59715 0.00521188
1194600 60.2606 208.26 55.9234 0.59725 0.0277268
1194800 60.2606 208.273 55.9234 0.59735 0.0127364
1195000 60.2606 208.287 55.9234 0.59745 0.0199866
1195200 60.2606 208.3 55.9234 0.59755 0.0129593
1195400 60.2606 208.313 55.9234 0.59765 0.0388842
1195600 60.2606 208.326 55.9234 0.59775 0.0257977
1195800 60.2606 208.339 55.9234 0.59785 0.0270967
1196000 60.2606 208.352 55.9234 0.59795 0.0233514
1196200 60.2606 208.365 55.9234 0.59805 0.00595997
1196400 60.2606 208.378 55.9234 0.59815 0.00372257
1196600 60.2606 208.391 55.9234 0.59825 -0.0227927
1196800 60.2606 208.404 55.9234 0.59835 -0.026103
1197000 60.2606 208.417 55.9234 0.59845 -0.00309817
1197200 60.2606 208.43 55.9234 0.59855 -0.0461661
1197400 60.2606 208.443 55.9234 0.59865 -0.00137225
1197600 60.2606 208.456 55.9234 0.59875 -0.0140712
1197800 60.2606 208.469 55.9234 0.59885 -0.0397579
1198000 60.2606 208.482 55.9234 0.59895 -0.00986477
1198200 60.2606 208.495 55.9234 0.59905 0.000262377
1198400 60.2606 208.508 55.9234 0.59915 -0.0126629
1198600 60.2606 208.521 55.9234 0.59925 0.0247053
1198800 60.2606 208.534 55.9234 0.59935 0.0366964
1199000 60.2606 208.547 55.9234 0.59945 0.0504481
1199200 60.2606 208.56 55.9234 0.59955 0.0155236
1199400 60.2606 208.573 55.9234 0.59965 0.0250285
1199600 60.2606 208.586 55.9234 0.59975 0.0265323
1199800 60.2606 208.599 55.9234 0.59985 0.00405732
1200000 60.2606 208.612 55.9234 0.59995 0.0224148
1200200 60.2606 208.626 55.9234 0.60005 0.0146249
1200400 60.2606 208.639 55.9234 0.60015 0.0262212
1200600 60.2606 208.652 55.9234 0.60025 -0.0127986
1200800 60.2606 208.665 55.9234 0.60035 -0.0462989
1201000 60.2606 208.678 55.9234 0.60045 -0.0288369
1201200 60.2606 208.691 55.9234 0.60055 -0.0337123
1201400 60.2606 208.704 55.9234 0.60065 -0.0158596
1201600 60.2606 208.717 55.9234 0.60075 -0.0239476
1201800 60.2606 208.73 55.9234 0.60085 -0.00501895
1202000 60.2606 208.743 55.9234 0.60095 -0.00450228
1202200 60.2606 208.756 55.9234 0.60105 -0.00252595
1202400 60.2606 208.769 55.9234 0.60115 0.00801882
1202600 60.2606 208.782 55.9234 0.60125 0.00328172
1202800 60.2606 208.795 55.9234 0.60135 0.0183601
1203000 60.2606 208.808 55.9234 0.60145 0.0251789
1203200 60.2606 208.821 55.9234 0.60155 0.0427012
1203400 60.2606 208.834 55.9234 0.60165 0.0486517
1203600 60.2606 208.847 55.9234 0.60175 0.0159697
1203800 60.2606 208.86 55.9234 0.60185 0.0220121
1204000 60.2606 208.873 55.9234 0.60195 0.015746
1204200 60.2606 208.886 55.9234 0.60205 -0.00290418
1204400 60.2606 208.899 55.9234 0.60215 -0.000364957
1204600 60.2606 208.912 55.9234 0.60225 -0.00675906
1204800 60.2606 208.925 55.9234 0.60235 -0.0114666
1205000 60.2606 208.938 55.9234 0.60245 -0.0320078
1205200 60.2606 208.951 55.9234 0.60255 -0.0242432
1205400 60.2606 208.965 55.9234 0.60265 -0.0427375
1205600 60.2606 208.978 55.9234 0.60275 -0.0180465
1205800 60.2606 208.991 55.9234 0.60285 -0.00958289
1206000 60.2606 209.004 55.9234 0.60295 -0.00440436
1206200 60.2606 209.017 55.9234 0.60305 0.0165516
1206400 60.2606 209.03 55.9234 0.60315 0.00251677
1206600 60.2606 209.043 55.9234 0.60325 0.0119271
1206800 60.2606 209.056 55.9234 0.60335 0.0162122
1207000 60.2606 209.069 55.9234 0.60345 0.0338951
1207200 60.2606 209.082 55.9234 0.60355 0.0267423
1207400 60.2606 209.095 55.9234 0.60365 0.0414312
1207600 60.2606 209.108 55.9234 0.60375 0.022556
1207800 60.2606 209.121 55.9234 0.60385 0.020592
1208000 60.2606 209.134 55.9234 0.60395 0.00549855
1208200 60.2606 209.147 55.9234 0.60405 0.00413408
1208400 60.2606 209.16 55.9234 0.60415 -0.0103426
1208600 60.2606 209.173 55.9234 0.60425 -0.000461797
1208800 60.2606 209.186 55.9234 0.60435 -0.0192435
1209000 60.2606 209.199 55.9234 0.60445 -0.0247653
1209200 60.2606 209.212 55.9234 0.60455 -0.0270981
1209400 60.2606 209.225 55.9234 0.60465 -0.0392304
1209600 60.2606 209.238 55.9234 0.60475 -0.00955532
1209800 60.2606 209.251 55.9234 0.60485 -0.0141832
1210000 60.2606 209.264 55.9234 0.60495 0.00539514
1210200 60.2606 209.277 55.9234 0.60505 0.0142428
1210400 60.2606 209.291 55.9234 0.60515 0.0186081
1210600 60.2606 209.304 55.9234 0.60525 0.00470202
1210800 60.2606 209.317 55.9234 0.60535 0.0258166
1211000 60.2606 209.33 55.9234 0.60545 0.0217339
1211200 60.2606 209.343 55.9234 0.60555 0.0298057
1211400 60.2606 209.356 55.9234 0.60565 0.0188753
1211600 60.2606 209.369 55.9234 0.60575 0.012966
1211800 60.2606 209.382 55.9234 0.60585 0.00425089
1212000 60.2606 209.395 55.9234 0.60595 0.0132313
1212200 60.2606 209.408 55.9234 0.60605 -0.00388333
1212400 60.2606 209.421 55.9234 0.60615 0.0125968
1212600 60.2606 209.434 55.9234 0.60625 -0.00261737
1212800 60.2606 209.447 55.9234 0.60635 -0.0345009
1213000 60.2606 209.46 55.9234 0.60645 -0.0315415
1213200 60.2606 209.473 55.9234 0.60655 -0.00566072
1213400 60.2606 209.486 55.9234 0.60665 -0.0251535
1213600 60.2606 209.499 55.9234 0.60675 -0.0114132
1213800 60.2606 209.512 55.9234 0.60685 0.00261604
1214000 60.2606 209.525 55.9234 0.60695 -0.00169396
1214200 60.2606 209.538 55.9234 0.60705 0.00929162
1214400 60.2606 209.551 55.9234 0.60715 0.00719034
1214600 60.2606 209.564 55.9234 0.60725 0.0137206
1214800 60.2606 209.577 55.9234 0.60735 0.0202147
1215000 60.2606 209.59 55.9234 0.60745 0.045066
1215200 60.2606 209.603 55.9234 0.60755 0.0357909
1215400 60.2606 209.616 55.9234 0.60765 0.0183648
1215600 60.2606 209.63 55.9234 0.60775 0.0100048
1215800 60.2606 209.643 55.9234 0.60785 -0.00866082
1216000 60.2606 209.656 55.9234 0.60795 -0.0140543
1216200 60.2606 209.669 55.9234 0.60805 0.00320209
1216400 60.2606 209.682 55.9234 0.60815 -0.000755131
1216600 60.2606 209.695 55.9234 0.60825 -0.000966325
1216800 60.2606 209.708 55.9234 0.60835 -0.02625
1217000 60.2606 209.721 55.9234 0.60845 -0.0222205
1217200 60.2606 209.734 55.9234 0.60855 -0.0222305
1217400 60.2606 209.747 55.9234 0.60865 -0.0231771
1217600 60.2606 209.76 55.9234 0.60875 -0.00307674
1217800 60.2606 209.773 55.9234 0.60885 0.00334777
1218000 60.2606 209.786 55.9234 0.60895 0.0174773
1218200 60.2606 209.799 55.9234 0.60905 0.0215472
1218400 60.2606 209.812 55.9234 0.60915 0.0150746
1218600 60.2606 209.825 55.9234 0.60925 0.00708961
1218800 60.2606 209.838 55.9234 0.60935 0.0362686
1219000 60.2606 209.851 55.9234 0.60945 0.0229863
1219200 60.2606 209.864 55.9234 0.60955 0.0162568
1219400 60.2606 209.877 55.9234 0.60965 0.0218048
1219600 60.2606 209.89 55.9234 0.60975 0.0171311
1219800 60.2606 209.903 55.9234 0.60985 -0.000911073
1220000 60.2606 209.916 55.9234 0.60995 -0.0213733
1220200 60.2606 209.929 55.9234 0.61005 -0.00824554
1220400 60.2606 209.942 55.9234 0.61015 -0.00968963
1220600 60.2606 209.955 55.9234 0.61025 -0.0115816
1220800 60.2606 209.969 55.9234 0.61035 -0.0174896
1221000 60.2606 209.982 55.9234 0.61045 -0.0212258
1221200 60.2606 209.995 55.9234 0.61055 -0.0264573
1221400 60.2606 210.008 55.9234 0.61065 -0.010613
1221600 60.2606 210.021 55.9234 0.61075 -0.00618105
1221800 60.2606 210.034 55.9234 0.61085 0.0105147
1222000 60.2606 210.047 55.9234 0.61095 0.0107532
1222200 60.2606 210.06 55.9234 0.61105 0.0175458
1222400 60.2606 210.073 55.9234 0.61115 0.0314315
1222600 60.2606 210.086 55.9234 0.61125 0.0273078
1222800 60.2606 210.099 55.9234 0.61135 0.0217262
1223000 60.2606 210.112 55.9234 0.61145 0.0224153
1223200 60.2606 210.125 55.9234 0.61155 0.0485844
1223400 60.2606 210.138 55.9234 0.61165 0.0113741
1223600 60.2606 210.151 55.9234 0.61175 -0.00214936
1223800 60.2606 210.164 55.9234 0.61185 -0.00948647
1224000 60.2606 210.177 55.9234 0.61195 -0.0266183
1224200 60.2606 210.19 55.9234 0.61205 -0.00969109
1224400 60.2606 210.203 55.9234 0.61215 -0.0321274
1224600 60.2606 210.216 55.9234 0.61225 -0.0117626
1224800 60.2606 210.229 55.9234 0.61235 -0.0152256
1225000 60.2606 210.242 55.9234 0.61245 -0.0180268
1225200 60.2606 210.255 55.9234 0.61255 -0.0236083
1225400 60.2606 210.268 55.9234 0.61265 9.89626e-05
1225600 60.2606 210.281 55.9234 0.61275 0.0112995
1225800 60.2606 210.294 55.9234 0.61285 0.0187774
1226000 60.2606 210.308 55.9234 0.61295 0.0172742
1226200 60.2606 210.321 55.9234 0.61305 0.00624543
1226400 60.2606 210.334 55.9234 0.61315 0.0347019
1226600 60.2606 210.347 55.9234 0.61325 0.0163597
1226800 60.2606 210.36 55.9234 0.61335 0.0364228
1227000 60.2606 210.373 55.9234 0.61345 0.0181334
1227200 60.2606 210.386 55.9234 0.61355 0.00716923
1227400 60.2606 210.399 55.9234 0.61365 0.0223003
1227600 60.2606 210.412 55.9234 0.61375 0.00192114
1227800 60.2606 210.425 55.9234 0.61385 -0.0104109
1228000 60.2606 210.438 55.9234 0.61395 -0.0090887
1228200 60.2606 210.451 55.9234 0.61405 -0.0166903
1228400 60.2606 210.464 55.9234 0.61415 -0.014475
1228600 60.2606 210.477 55.9234 0.61425 -0.0257842
1228800 60.2606 210.49 55.9234 0.61435 -0.0174604
1229000 60.2606 210.503 55.9234 0.61445 -0.0316444
1229200 60.2606 210.516 55.9234 0.61455 0.00892286
1229400 60.2606 210.529 55.9234 0.61465 -0.0120104
1229600 60.2606 210.542 55.9234 0.61475 0.000102781
1229800 60.2606 210.555 55.9234 0.61485 0.00293827
1230000 60.2606 210.568 55.9234 0.61495 0.0331487
1230200 60.2606 210.581 55.9234 0.61505 0.0324135
1230400 60.2606 210.594 55.9234 0.61515 0.0243797
1230600 60.2606 210.607 55.9234 0.61525 0.0302044
1230800 60.2606 210.62 55.9234 0.61535 0.0258164
1231000 60.2606 210.633 55.9234 0.61545 0.00264451
1231200 60.2606 210.647 55.9234 0.61555 0.0209866
1231400 60.2606 210.66 55.9234 0.61565 0.00790147
1231600 60.2606 210.673 55.9234 0.61575 0.00544492
1231800 60.2606 210.686 55.9234 0.61585 -0.00610125
1232000 60.2606 210.699 55.9234 0.61595 -0.0277151
1232200 60.2606 210.712 55.9234 0.61605 -0.0271274
1232400 60.2606 210.725 55.9234 0.61615 -0.0371006
1232600 60.2606 210.738 55.9234 0.61625 -0.00552
1232800 60.2606 210.751 55.9234 0.61635 0.00157596
1233000 60.2606 210.764 55.9234 0.61645 -0.0281251
1233200 60.2606 210.777 55.9234 0.61655 0.00485069
1233400 60.2606 210.79 55.9234 0.61665 0.0103218
1233600 60.2606 210.803 55.9234 0.61675 -0.00335979
1233800 60.2606 210.816 55.9234 0.61685 0.018569
1234000 60.2606 210.829 55.9234 0.61695 0.0165504
1234200 60.2606 210.842 55.9234 0.61705 0.0355521
1234400 60.2606 210.855 55.9234 0.61715 0.0164456
1234600 60.2606 210.868 55.9234 0.61725 0.029374
1234800 60.2606 210.881 55.9234 0.61735 0.0359165
1235000 60.2606 210.894 55.9234 0.61745 0.0200423
1235200 60.2606 210.907 55.9234 0.61755 0.00430525
1235400 60.2606 210.92 55.9234 0.61765 0.0055837
1235600 60.2606 210.933 55.9234 0.61775 -0.0257207
1235800 60.2606 210.946 55.9234 0.61785 -0.0124582
1236000 60.2606 210.959 55.9234 0.61795 -0.0260293
1236200 60.2606 210.972 55.9234 0.61805 -0.0281917
1236400 60.2606 210.986 55.9234 0.61815 0.00979862
1236600 60.2606 210.999 55.9234 0.61825 -0.0213335
1236800 60.2606 211.012 55.9234 0.61835 -0.00465977
1237000 60.2606 211.025 55.9234 0.61845 -0.0242666
1237200 60.2606 211.038 55.9234 0.61855 -0.0134933
1237400 60.2606 211.051 55.9234 0.61865 0.0167408
1237600 60.2606 211.064 55.9234 0.61875 0.00689945
1237800 60.2606 211.077 55.9234 0.61885 0.0301174
1238000 60.2606 211.09 55.9234 0.61895 0.0249167
1238200 60.2606 211.103 55.9234 0.61905 0.0167016
1238400 60.2606 211.116 55.9234 0.61915 0.0198267
1238600 60.2606 211.129 55.9234 0.61925 0.0244207
1238800 60.2606 211.142 55.9234 0.61935 0.0251526
1239000 60.2606 211.155 55.9234 0.61945 0.00411616
1239200 60.2606 211.168 55.9234 0.61955 0.00168664
1239400 60.2606 211.181 55.9234 0.61965 0.020941
1239600 60.2606 211.194 55.9234 0.61975 -0.00915338
1239800 60.2606 211.207 55.9234 0.61985 -0.016668
1240000 60.2606 211.22 55.9234 0.61995 -0.0216975
1240200 60.2606 211.233 55.9234 0.62005 -0.0228661
1240400 60.2606 211.246 55.9234 0.62015 -0.0141966
1240600 60.2606 211.259 55.9234 0.62025 -0.0145532
1240800 60.2606 211.272 55.9234 0.62035 -0.000206542
1241000 60.2606 211.285 55.9234 0.62045 -0.00536687
1241200 60.2606 211.298 55.9234 0.62055 0.00181428
1241400 60.2606 211.311 55.9234 0.62065 0.00921298
1241600 60.2606 211.325 55.9234 0.62075 -0.00407493
1241800 60.2606 211.338 55.9234 0.62085 0.0158923
1242000 60.2606 211.351 55.9234 0.62095 0.0128915
1242200 60.2606 211.364 55.9234 0.62105 0.0425601
1242400 60.2606 211.377 55.9234 0.62115 0.0227957
1242600 60.2606 211.39 55.9234 0.62125 0.00156243
1242800 60.2606 211.403 55.9234 0.62135 0.0314288
1243000 60.2606 211.416 55.9234 0.62145 0.0127803
1243200 60.2606 211.429 55.9234 0.62155 -0.00226722
1243400 60.2606 211.442 55.9234 0.62165 -0.00575988
1243600 60.2606 211.455 55.9234 0.62175 -0.00704147
1243800 60.2606 211.468 55.9234 0.62185 -0.0146352
1244000 60.2606 211.481 55.9234 0.62195 -0.00173104
1244200 60.2606 211.494 55.9234 0.62205 -0.0119101
1244400 60.2606 211.507 55.9234 0.62215 -0.0135563
1244600 60.2606 211.52 55.9234 0.62225 -0.0193203
1244800 60.2606 211.533 55.9234 0.62235 -0.00208023
1245000 60.2606 211.546 55.9234 0.62245 -0.0114574
1245200 60.2606 211.559 55.9234 0.62255 0.00223265
1245400 60.2606 211.572 55.9234 0.62265 0.0067638
1245600 60.2606 211.585 55.9234 0.62275 0.00865515
1245800 60.2606 211.598 55.9234 0.62285 0.0208997
1246000 60.2606 211.611 55.9234 0.62295 0.0185403
1246200 60.2606 211.624 55.9234 0.62305 -0.000236697
1246400 60.2606 211.637 55.9234 0.62315 0.0264027
1246600 60.2606 211.651 55.9234 0.62325 0.0238517
1246800 60.2606 211.664 55.9234 0.62335 0.0204554
1247000 60.2606 211.677 55.9234 0.62345 0.0127048
1247200 60.2606 211.69 55.9234 0.62355 -0.00173476
1247400 60.2606 211.703 55.9234 0.62365 0.00915744
1247600 60.2606 211.716 55.9234 0.62375 -0.0100353
1247800 60.2606 211.729 55.9234 0.62385 -0.0012438
1248000 60.2606 211.742 55.9234 0.62395 -0.0137308
1248200 60.2606 211.755 55.9234 0.62405 -0.0186451
1248400 60.2606 211.768 55.9234 0.62415 -0.0105516
1248600 60.2606 211.781 55.9234 0.62425 -0.0122801
1248800 60.2606 211.794 55.9234 0.62435 0.000519587
1249000 60.2606 211.807 55.9234 0.62445 -0.00779532
1249200 60.2606 211.82 55.9234 0.62455 -0.018064
1249400 60.2606 211.833 55.9234 0.62465 0.00297336
1249600 60.2606 211.846 55.9234 0.62475 0.0194921
1249800 60.2606 211.859 55.9234 0.62485 0.0139899
1250000 60.2606 211.872 55.9234 0.62495 0.021892
1250200 60.2606 211.885 55.9234 0.62505 0.0131883
1250400 60.2606 211.898 55.9234 0.62515 0.025551
1250600 60.2606 211.911 55.9234 0.62525 0.00770289
1250800 60.2606 211.924 55.9234 0.62535 0.0146392
1251000 60.2606 211.937 55.9234 0.62545 0.0143751
1251200 60.2606 211.95 55.9234 0.62555 0.0219233
1251400 60.2606 211.963 55.9234 0.62565 0.00592613
1251600 60.2606 211.976 55.9234 0.62575 0.000387851
1251800 60.2606 211.99 55.9234 0.62585 -0.00545167
1252000 60.2606 212.003 55.9234 0.62595 -0.0262324
1252200 60.2606 212.016 55.9234 0.62605 -0.0161336
1252400 60.2606 212.029 55.9234 0.62615 -0.0165753
1252600 60.2606 212.042 55.9234 0.62625 -0.0166254
1252800 60.2606 212.055 55.9234 0.62635 -0.0100328
1253000 60.2606 212.068 55.9234 0.62645 -0.000669347
1253200 60.2606 212.081 55.9234 0.62655 -0.000289407
1253400 60.2606 212.094 55.9234 0.62665 -0.00587816
1253600 60.2606 212.107 55.9234 0.62675 0.0285171
1253800 60.2606 212.12 55.9234 0.62685 0.00457527
1254000 60.2606 212.133 55.9234 0.62695 0.010511
1254200 60.2606 212.146 55.9234 0.62705 0.013208
1254400 60.2606 212.159 55.9234 0.62715 0.0192533
1254600 60.2606 212.172 55.9234 0.62725 0.0249611
1254800 60.2606 212.185 55.9234 0.62735 0.0380679
1255000 60.2606 212.198 55.9234 0.62745 0.0140647
1255200 60.2606 212.211 55.9234 0.62755 -0.00614523
1255400 60.2606 212.224 55.9234 0.62765 -0.00496702
1255600 60.2606 212.237 55.9234 0.62775 -0.00247539
1255800 60.2606 212.25 55.9234 0.62785 -0.00330074
1256000 60.2606 212.263 55.9234 0.62795 0.00461251
1256200 60.2606 212.276 55.9234 0.62805 -0.0243032
1256400 60.2606 212.289 55.9234 0.62815 -0.0192677
1256600 60.2606 212.302 55.9234 0.62825 -0.0278889
1256800 60.2606 212.315 55.9234 0.62835 -0.00965702
1257000 60.2606 212.329 55.9234 0.62845 -0.0157024
1257200 60.2606 212.342 55.9234 0.62855 0.0168013
1257400 60.2606 212.355 55.9234 0.62865 0.00586278
1257600 60.2606 212.368 55.9234 0.62875 0.0220747
1257800 60.2606 212.381 55.9234 0.62885 0.0192603
1258000 60.2606 212.394 55.9234 0.62895 0.00869151
1258200 60.2606 212.407 55.9234 0.62905 0.00859572
1258400 60.2606 212.42 55.9234 0.62915 0.0240713
1258600 60.2606 212.433 55.9234 0.62925 0.0208822
1258800 60.2606 212.446 55.9234 0.62935 0.0211315
1259000 60.2606 212.459 55.9234 0.62945 0.0233338
1259200 60.2606 212.472 55.9234 0.62955 -0.010357
1259400 60.2606 212.485 55.9234 0.62965 0.0145076
1259600 60.2606 212.498 55.9234 0.62975 -0.00926037
1259800 60.2606 212.511 55.9234 0.62985 -0.0180621
1260000 60.2606 212.524 55.9234 0.62995 -0.00697096
1260200 60.2606 212.537 55.9234 0.63005 -0.0200037
1260400 60.2606 212.55 55.9234 0.63015 -0.0133315
1260600 60.2606 212.563 55.9234 0.63025 -0.00929849
1260800 60.2606 212.576 55.9234 0.63035 -0.00776202
1261000 60.2606 212.589 55.9234 0.63045 -0.00135876
1261200 60.2606 212.602 55.9234 0.63055 -0.0126742
1261400 60.2606 212.615 55.9234 0.63065 -0.0100888
1261600 60.2606 212.628 55.9234 0.63075 2.7508e-05
1261800 60.2606 212.641 55.9234 0.63085 0.0298396
1262000 60.2606 212.654 55.9234 0.63095 0.0325553
1262200 60.2606 212.668 55.9234 0.63105 0.0254735
1262400 60.2606 212.681 55.9234 0.63115 0.0188198
1262600 60.2606 212.694 55.9234 0.63125 0.015186
1262800 60.2606 212.707 55.9234 0.63135 0.0257554
1263000 60.2606 212.72 55.9234 0.63145 0.0147667
1263200 60.2606 212.733 55.9234 0.63155 0.0284082
1263400 60.2606 212.746 55.9234 0.63165 0.0115275
1263600 60.2606 212.759 55.9234 0.63175 -0.00869801
1263800 60.2606 212.772 55.9234 0.63185 -0.0360577
1264000 60.2606 212.785 55.9234 0.63195 -0.0156622
1264200 60.2606 212.798 55.9234 0.63205 -0.0262283
1264400 60.2606 212.811 55.9234 0.63215 -0.0225073
1264600 60.2606 212.824 55.9234 0.63225 -0.0202956
1264800 60.2606 212.837 55.9234 0.63235 -0.0146838
1265000 60.2606 212.85 55.9234 0.63245 -0.0122631
1265200 60.2606 212.863 55.9234 0.63255 0.0206749
1265400 60.2606 212.876 55.9234 0.63265 -0.00737277
1265600 60.2606 212.889 55.9234 0.63275 0.0045456
1265800 60.2606 212.902 55.9234 0.63285 0.012622
1266000 60.2606 212.915 55.9234 0.63295 0.0274137
1266200 60.2606 212.928 55.9234 0.63305 0.028149
1266400 60.2606 212.941 55.9234 0.63315 0.0238735
1266600 60.2606 212.954 55.9234 0.63325 0.0363981
1266800 60.2606 212.967 55.9234 0.63335 0.0238249
1267000 60.2606 212.98 55.9234 0.63345 0.0103367
1267200 60.2606 212.993 55.9234 0.63355 0.0171888
1267400 60.2606 213.007 55.9234 0.63365 -0.00418133
1267600 60.2606 213.02 55.9234 0.63375 -0.00602489
1267800 60.2606 213.033 55.9234 0.63385 -0.005996
1268000 60.2606 213.046 55.9234 0.63395 -0.021752
1268200 60.2606 213.059 55.9234 0.63405 -0.018235
1268400 60.2606 213.072 55.9234 0.63415 -0.0225261
1268600 60.2606 213.085 55.9234 0.63425 -0.0139048
1268800 60.2606 213.098 55.9234 0.63435 -0.0209923
1269000 60.2606 213.111 55.9234 0.63445 -0.00945239
1269200 60.2606 213.124 55.9234 0.63455 0.00362532
1269400 60.2606 213.137 55.9234 0.63465 0.00116631
1269600 60.2606 213.15 55.9234 0.63475 0.00162086
1269800 60.2606 213.163 55.9234 0.63485 0.0193758
1270000 60.2606 213.176 55.9234 0.63495 0.0322922
1270200 60.2606 213.189 55.9234 0.63505 0.0174938
1270400 60.2606 213.202 55.9234 0.63515 0.0333695
1270600 60.2606 213.215 55.9234 0.63525 0.0214087
1270800 60.2606 213.228 55.9234 0.63535 -0.00459354
1271000 60.2606 213.241 55.9234 0.63545 0.0225918
1271200 60.2606 213.254 55.9234 0.63555 0.0262713
1271400 60.2606 213.267 55.9234 0.63565 0.00579439
1271600 60.2606 213.28 55.9234 0.63575 0.00365374
1271800 60.2606 213.293 55.9234 0.63585 -0.0271376
1272000 60.2606 213.306 55.9234 0.63595 -0.0192597
1272200 60.2606 213.319 55.9234 0.63605 -0.0180344
1272400 60.2606 213.332 55.9234 0.63615 -0.016902
1272600 60.2606 213.346 55.9234 0.63625 -0.00389315
1272800 60.2606 213.359 55.9234 0.63635 -0.00390015
1273000 60.2606 213.372 55.9234 0.63645 -0.0172098
1273200 60.2606 213.385 55.9234 0.63655 -0.0135784
1273400 60.2606 213.398 55.9234 0.63665 0.00353428
1273600 60.2606 213.411 55.9234 0.63675 0.00512439
1273800 60.2606 213.424 55.9234 0.63685 0.0235073
1274000 60.2606 213.437 55.9234 0.63695 0.0262115
1274200 60.2606 213.45 55.9234 0.63705 0.0264804
1274400 60.2606 213.463 55.9234 0.63715 0.0266066
1274600 60.2606 213.476 55.9234 0.63725 0.0065881
1274800 60.2606 213.489 55.9234 0.63735 -0.000751516
1275000 60.2606 213.502 55.9234 0.63745 0.0180556
1275200 60.2606 213.515 55.9234 0.63755 0.0240578
1275400 60.2606 213.528 55.9234 0.63765 -0.00869281
1275600 60.2606 213.541 55.9234 0.63775 -0.00609855
1275800 60.2606 213.554 55.9234 0.63785 0.0178113
1276000 60.2606 213.567 55.9234 0.63795 -0.0140367
1276200 60.2606 213.58 55.9234 0.63805 -0.0241923
1276400 60.2606 213.593 55.9234 0.63815 -0.0301814
1276600 60.2606 213.606 55.9234 0.63825 0.00287649
1276800 60.2606 213.619 55.9234 0.63835 -0.0153141
1277000 60.2606 213.632 55.9234 0.63845 -0.0143614
1277200 60.2606 213.645 55.9234 0.63855 0.0129601
1277400 60.2606 213.658 55.9234 0.63865 -0.0018389
1277600 60.2606 213.672 55.9234 0.63875 -0.00171923
1277800 60.2606 213.685 55.9234 0.63885 -0.00148076
1278000 60.2606 213.698 55.9234 0.63895 0.0122733
1278200 60.2606 213.711 55.9234 0.63905 0.0390907
1278400 60.2606 213.724 55.9234 0.63915 0.0373603
1278600 60.2606 213.737 55.9234 0.63925 0.0288023
1278800 60.2606 213.75 55.9234 0.63935 0.0128054
1279000 60.2606 213.763 55.9234 0.63945 0.012471
1279200 60.2606 213.776 55.9234 0.63955 -0.00415189
1279400 60.2606 213.789 55.9234 0.63965 -0.00422683
1279600 60.2606 213.802 55.9234 0.63975 0.00636229
1279800 60.2606 213.815 55.9234 0.63985 -0.00298356
1280000 60.2606 213.828 55.9234 0.63995 -0.00386616
1280200 60.2606 213.841 55.9234 0.64005 -0.0169339
1280400 60.2606 213.854 55.9234 0.64015 -0.0180847
1280600 60.2606 213.867 55.9234 0.64025 -0.0487469
1280800 60.2606 213.88 55.9234 0.64035 -0.0132791
1281000 60.2606 213.893 55.9234 0.64045 -0.000250637
1281200 60.2606 213.906 55.9234 0.64055 0.0136926
1281400 60.2606 213.919 55.9234 0.64065 0.00364013
1281600 60.2606 213.932 55.9234 0.64075 0.00640052
1281800 60.2606 213.945 55.9234 0.64085 0.0193937
1282000 60.2606 213.958 55.9234 0.64095 0.0390229
1282200 60.2606 213.971 55.9234 0.64105 -3.74684e-05
1282400 60.2606 213.984 55.9234 0.64115 0.0349031
1282600 60.2606 213.997 55.9234 0.64125 0.0171348
1282800 60.2606 214.011 55.9234 0.64135 0.0135614
1283000 60.2606 214.024 55.9234 0.64145 0.028621
1283200 60.2606 214.037 55.9234 0.64155 0.00406068
1283400 60.2606 214.05 55.9234 0.64165 0.00776157
1283600 60.2606 214.063 55.9234 0.64175 -0.0188697
1283800 60.2606 214.076 55.9234 0.64185 -0.0294934
1284000 60.2606 214.089 55.9234 0.64195 -0.00691999
1284200 60.2606 214.102 55.9234 0.64205 -0.00786337
1284400 60.2606 214.115 55.9234 0.64215 -0.00117909
1284600 60.2606 214.128 55.9234 0.64225 -0.0176902
1284800 60.2606 214.141 55.9234 0.64235 -0.0258084
1285000 60.2606 214.154 55.9234 0.64245 -0.0240327
1285200 60.2606 214.167 55.9234 0.64255 0.00543774
1285400 60.2606 214.18 55.9234 0.64265 0.00695596
1285600 60.2606 214.193 55.9234 0.64275 0.0291513
1285800 60.2606 214.206 55.9234 0.64285 0.025338
1286000 60.2606 214.219 55.9234 0.64295 0.0300007
1286200 60.2606 214.232 55.9234 0.64305 0.00453828
1286400 60.2606 214.245 55.9234 0.64315 -0.000249359
1286600 60.2606 214.258 55.9234 0.64325 0.00726212
1286800 60.2606 214.271 55.9234 0.64335 0.0350354
1287000 60.2606 214.284 55.9234 0.64345 0.0256224
1287200 60.2606 214.297 55.9234 0.64355 0.00706561
1287400 60.2606 214.31 55.9234 0.64365 0.00022029
1287600 60.2606 214.323 55.9234 0.64375 -0.018296
1287800 60.2606 214.336 55.9234 0.64385 -0.0159853
1288000 60.2606 214.35 55.9234 0.64395 -0.0122719
1288200 60.2606 214.363 55.9234 0.64405 -0.00876599
1288400 60.2606 214.376 55.9234 0.64415 -0.0111893
1288600 60.2606 214.389 55.9234 0.64425 -0.0248331
1288800 60.2606 214.402 55.9234 0.64435 -0.0111122
1289000 60.2606 214.415 55.9234 0.64445 0.0209036
1289200 60.2606 214.428 55.9234 0.64455 -0.00266734
1289400 60.2606 214.441 55.9234 0.64465 -0.0156753
1289600 60.2606 214.454 55.9234 0.64475 0.00256317
1289800 60.2606 214.467 55.9234 0.64485 0.0242708
1290000 60.2606 214.48 55.9234 0.64495 0.0527409
1290200 60.2606 214.493 55.9234 0.64505 0.00844067
1290400 60.2606 214.506 55.9234 0.64515 0.0180814
1290600 60.2606 214.519 55.9234 0.64525 0.0287903
1290800 60.2606 214.532 55.9234 0.64535 0.00945926
1291000 60.2606 214.545 55.9234 0.64545 0.0125672
1291200 60.2606 214.558 55.9234 0.64555 0.00714118
1291400 60.2606 214.571 55.9234 0.64565 -0.01467
1291600 60.2606 214.584 55.9234 0.64575 0.00722082
1291800 60.2606 214.597 55.9234 0.64585 -0.0146872
1292000 60.2606 214.61 55.9234 0.64595 -0.0207649
1292200 60.2606 214.623 55.9234 0.64605 -0.0200172
1292400 60.2606 214.636 55.9234 0.64615 -0.0213172
1292600 60.2606 214.649 55.9234 0.64625 -0.0224273
1292800 60.2606 214.662 55.9234 0.64635 -0.00479532
1293000 60.2606 214.675 55.9234 0.64645 0.00511372
1293200 60.2606 214.689 55.9234 0.64655 -0.00361653
1293400 60.2606 214.702 55.9234 0.64665 0.0214303
1293600 60.2606 214.715 55.9234 0.64675 0.0182463
1293800 60.2606 214.728 55.9234 0.64685 0.0289645
1294000 60.2606 214.741 55.9234 0.64695 0.0198918
1294200 60.2606 214.754 55.9234 0.64705 0.0336639
1294400 60.2606 214.767 55.9234 0.64715 -0.000597009
1294600 60.2606 214.78 55.9234 0.64725 0.00696243
1294800 60.2606 214.793 55.9234 0.64735 0.0141154
1295000 60.2606 214.806 55.9234 0.64745 0.0332603
1295200 60.2606 214.819 55.9234 0.64755 0.000662345
1295400 60.2606 214.832 55.9234 0.64765 0.00605967
1295600 60.2606 214.845 55.9234 0.64775 -0.0338105
1295800 60.2606 214.858 55.9234 0.64785 -0.036673
1296000 60.2606 214.871 55.9234 0.64795 -0.0208356
1296200 60.2606 214.884 55.9234 0.64805 -0.0127278
1296400 60.2606 214.897 55.9234 0.64815 -0.0112322
1296600 60.2606 214.91 55.9234 0.64825 -0.00386243
1296800 60.2606 214.923 55.9234 0.64835 -0.0132666
1297000 60.2606 214.936 55.9234 0.64845 0.00378032
1297200 60.2606 214.949 55.9234 0.64855 0.00231139
1297400 60.2606 214.962 55.9234 0.64865 0.00691534
1297600 60.2606 214.975 55.9234 0.64875 0.0291901
1297800 60.2606 214.988 55.9234 0.64885 0.0439761
1298000 60.2606 215.001 55.9234 0.64895 0.0473709
1298200 60.2606 215.014 55.9234 0.64905 0.028966
1298400 60.2606 215.028 55.9234 0.64915 0.0216601
1298600 60.2606 215.041 55.9234 0.64925 -0.00765964
1298800 60.2606 215.054 55.9234 0.64935 0.00360869
1299000 60.2606 215.067 55.9234 0.64945 -0.00487479
1299200 60.2606 215.08 55.9234 0.64955 0.00129101
1299400 60.2606 215.093 55.9234 0.64965 0.00380865
1299600 60.2606 215.106 55.9234 0.64975 -0.0190582
1299800 60.2606 215.119 55.9234 0.64985 -0.0159399
1300000 60.2606 215.132 55.9234 0.64995 -0.0229464
1300200 60.2606 215.145 55.9234 0.65005 -0.0364344
1300400 60.2606 215.158 55.9234 0.65015 -0.0249329
1300600 60.2606 215.171 55.9234 0.65025 -0.00974553
1300800 60.2606 215.184 55.9234 0.65035 -0.00216245
1301000 60.2606 215.197 55.9234 0.65045 0.0154961
1301200 60.2606 215.21 55.9234 0.65055 0.026763
1301400 60.2606 215.223 55.9234 0.65065 0.0128127
1301600 60.2606 215.236 55.9234 0.65075 0.0266492
1301800 60.2606 215.249 55.9234 0.65085 0.0112289
1302000 60.2606 215.262 55.9234 0.65095 0.0203113
1302200 60.2606 215.275 55.9234 0.65105 0.0308422
1302400 60.2606 215.288 55.9234 0.65115 0.0256004
1302600 60.2606 215.301 55.9234 0.65125 0.0131801
1302800 60.2606 215.314 55.9234 0.65135 0.013876
1303000 60.2606 215.327 55.9234 0.65145 0.0136662
1303200 60.2606 215.34 55.9234 0.65155 -0.0352891
1303400 60.2606 215.353 55.9234 0.65165 0.00149357
1303600 60.2606 215.367 55.9234 0.65175 -0.0137461
1303800 60.2606 215.38 55.9234 0.65185 -0.00856168
1304000 60.2606 215.393 55.9234 0.65195 -0.0239567
1304200 60.2606 215.406 55.9234 0.65205 -0.0181067
1304400 60.2606 215.419 55.9234 0.65215 -0.0220856
1304600 60.2606 215.432 55.9234 0.65225 -0.0119871
1304800 60.2606 215.445 55.9234 0.65235 -0.00605761
1305000 60.2606 215.458 55.9234 0.65245 -0.00969185
1305200 60.2606 215.471 55.9234 0.65255 0.00976975
1305400 60.2606 215.484 55.9234 0.65265 0.0245958
1305600 60.2606 215.497 55.9234 0.65275 0.0459357
1305800 60.2606 215.51 55.9234 0.65285 0.0170456
1306000 60.2606 215.523 55.9234 0.65295 0.035405
1306200 60.2606 215.536 55.9234 0.65305 0.0179882
1306400 60.2606 215.549 55.9234 0.65315 0.0239552
1306600 60.2606 215.562 55.9234 0.65325 0.0214552
1306800 60.2606 215.575 55.9234 0.65335 0.00433025
1307000 60.2606 215.588 55.9234 0.65345 0.0120362
1307200 60.2606 215.601 55.9234 0.65355 -0.00980249
1307400 60.2606 215.614 55.9234 0.65365 -0.0294394
1307600 60.2606 215.627 55.9234 0.65375 -0.00553381
1307800 60.2606 215.64 55.9234 0.65385 -0.0194072
1308000 60.2606 215.653 55.9234 0.65395 -0.0250856
1308200 60.2606 215.666 55.9234 0.65405 -0.0295973
1308400 60.2606 215.679 55.9234 0.65415 -0.0171548
1308600 60.2606 215.692 55.9234 0.65425 -0.0162122
1308800 60.2606 215.706 55.9234 0.65435 -0.00337299
1309000 60.2606 215.719 55.9234 0.65445 0.01294
1309200 60.2606 215.732 55.9234 0.65455 0.0294085
1309400 60.2606 215.745 55.9234 0.65465 0.0208956
1309600 60.2606 215.758 55.9234 0.65475 0.0166315
1309800 60.2606 215.771 55.9234 0.65485 0.0305916
1310000 60.2606 215.784 55.9234 0.65495 0.0284956
1310200 60.2606 215.797 55.9234 0.65505 0.0201305
1310400 60.2606 215.81 55.9234 0.65515 0.0256885
1310600 60.2606 215.823 55.9234 0.65525 0.00560931
1310800 60.2606 215.836 55.9234 0.65535 0.0177837
1311000 60.2606 215.849 55.9234 0.65545 0.0096738
1311200 60.2606 215.862 55.9234 0.65555 -0.0183277
1311400 60.2606 215.875 55.9234 0.65565 -0.0243946
1311600 60.2606 215.888 55.9234 0.65575 -0.0253295
1311800 60.2606 215.901 55.9234 0.65585 -0.0229474
1312000 60.2606 215.914 55.9234 0.65595 -0.0215502
1312200 60.2606 215.927 55.9234 0.65605 -0.00246219
1312400 60.2606 215.94 55.9234 0.65615 -0.0107196
1312600 60.2606 215.953 55.9234 0.65625 -0.0127891
1312800 60.2606 215.966 55.9234 0.65635 -0.00798443
1313000 60.2606 215.979 55.9234 0.65645 0.0178695
1313200 60.2606 215.992 55.9234 0.65655 0.0163602
1313400 60.2606 216.005 55.9234 0.65665 0.0333898
1313600 60.2606 216.018 55.9234 0.65675 0.0391708
1313800 60.2606 216.032 55.9234 0.65685 0.029691
1314000 60.2606 216.045 55.9234 0.65695 0.0203494
1314200 60.2606 216.058 55.9234 0.65705 0.0121584
1314400 60.2606 216.071 55.9234 0.65715 0.00606678
1314600 60.2606 216.084 55.9234 0.65725 0.00612805
1314800 60.2606 216.097 55.9234 0.65735 0.0155773
1315000 60.2606 216.11 55.9234 0.65745 -0.0142631
1315200 60.2606 216.123 55.9234 0.65755 -0.00530207
1315400 60.2606 216.136 55.9234 0.65765 -0.0192767
1315600 60.2606 216.149 55.9234 0.65775 -0.0284624
1315800 60.2606 216.162 55.9234 0.65785 -0.0152139
1316000 60.2606 216.175 55.9234 0.65795 -0.0185358
1316200 60.2606 216.188 55.9234 0.65805 -0.0304863
1316400 60.2606 216.201 55.9234 0.65815 -0.00794285
1316600 60.2606 216.214 55.9234 0.65825 0.0202647
1316800 60.2606 216.227 55.9234 0.65835 0.00188102
1317000 60.2606 216.24 55.9234 0.65845 0.0161343
1317200 60.2606 216.253 55.9234 0.65855 0.0182752
1317400 60.2606 216.266 55.9234 0.65865 0.0314113
1317600 60.2606 216.279 55.9234 0.65875 0.00561168
1317800 60.2606 216.292 55.9234 0.65885 0.0444676
1318000 60.2606 216.305 55.9234 0.65895 0.0323004
1318200 60.2606 216.318 55.9234 0.65905 0.0189359
1318400 60.2606 216.331 55.9234 0.65915 0.00969939
1318600 60.2606 216.344 55.9234 0.65925 0.0139732
1318800 60.2606 216.357 55.9234 0.65935 -0.0175998
1319000 60.2606 216.371 55.9234 0.65945 -0.00784844
1319200 60.2606 216.384 55.9234 0.65955 -0.0211885
1319400 60.2606 216.397 55.9234 0.65965 -0.0116519
1319600 60.2606 216.41 55.9234 0.65975 -0.014544
1319800 60.2606 216.423 55.9234 0.65985 -0.0292289
1320000 60.2606 216.436 55.9234 0.65995 -0.0194601
1320200 60.2606 216.449 55.9234 0.66005 -0.0178927
1320400 60.2606 216.462 55.9234 0.66015 -0.011822
1320600 60.2606 216.475 55.9234 0.66025 0.0100022
1320800 60.2606 216.488 55.9234 0.66035 0.01213
1321000 60.2606 216.501 55.9234 0.66045 0.010708
1321200 60.2606 216.514 55.9234 0.66055 0.0113263
1321400 60.2606 216.527 55.9234 0.66065 0.0381028
1321600 60.2606 216.54 55.9234 0.66075 0.0413842
1321800 60.2606 216.553 55.9234 0.66085 0.031441
1322000 60.2606 216.566 55.9234 0.66095 0.0160249
1322200 60.2606 216.579 55.9234 0.66105 0.0424514
1322400 60.2606 216.592 55.9234 0.66115 0.00455517
1322600 60.2606 216.605 55.9234 0.66125 -0.0119087
1322800 60.2606 216.618 55.9234 0.66135 -0.00712405
1323000 60.2606 216.631 55.9234 0.66145 -0.016884
1323200 60.2606 216.644 55.9234 0.66155 -0.0136634
1323400 60.2606 216.657 55.9234 0.66165 -0.0148176
1323600 60.2606 216.67 55.9234 0.66175 -0.00953683
1323800 60.2606 216.683 55.9234 0.66185 -0.02586
1324000 60.2606 216.696 55.9234 0.66195 -0.0301425
1324200 60.2606 216.71 55.9234 0.66205 -0.0229758
1324400 60.2606 216.723 55.9234 0.66215 -0.00835217
1324600 60.2606 216.736 55.9234 0.66225 0.0260401
1324800 60.2606 216.749 55.9234 0.66235 -0.00482805
1325000 60.2606 216.762 55.9234 0.66245 0.0276037
1325200 60.2606 216.775 55.9234 0.66255 0.0159145
1325400 60.2606 216.788 55.9234 0.66265 0.0385538
1325600 60.2606 216.801 55.9234 0.66275 0.0273502
1325800 60.2606 216.814 55.9234 0.66285 0.039217
1326000 60.2606 216.827 55.9234 0.66295 0.000706671
1326200 60.2606 216.84 55.9234 0.66305 0.0169465
1326400 60.2606 216.853 55.9234 0.66315 0.00991172
1326600 60.2606 216.866 55.9234 0.66325 0.0183757
1326800 60.2606 216.879 55.9234 0.66335 0.0012037
1327000 60.2606 216.892 55.9234 0.66345 -0.00623238
1327200 60.2606 216.905 55.9234 0.66355 -0.0258336
1327400 60.2606 216.918 55.9234 0.66365 -0.0386862
1327600 60.2606 216.931 55.9234 0.66375 -0.0192507
1327800 60.2606 216.944 55.9234 0.66385 -0.017977
1328000 60.2606 216.957 55.9234 0.66395 -0.0263192
1328200 60.2606 216.97 55.9234 0.66405 -0.00698462
1328400 60.2606 216.983 55.9234 0.66415 0.00716119
1328600 60.2606 216.996 55.9234 0.66425 0.0125953
1328800 60.2606 217.009 55.9234 0.66435 -0.0170253
1329000 60.2606 217.022 55.9234 0.66445 0.0165959
1329200 60.2606 217.035 55.9234 0.66455 0.021355
1329400 60.2606 217.049 55.9234 0.66465 0.0545801
1329600 60.2606 217.062 55.9234 0.66475 0.0246817
1329800 60.2606 217.075 55.9234 0.66485 0.033437
1330000 60.2606 217.088 55.9234 0.66495 0.0324269
1330200 60.2606 217.101 55.9234 0.66505 0.0142542
1330400 60.2606 217.114 55.9234 0.66515 0.00508367
1330600 60.2606 217.127 55.9234 0.66525 -0.00593647
1330800 60.2606 217.14 55.9234 0.66535 -0.0100624
1331000 60.2606 217.153 55.9234 0.66545 -0.0223375
1331200 60.2606 217.166 55.9234 0.66555 -0.00933189
1331400 60.2606 217.179 55.9234 0.66565 -0.0154648
1331600 60.2606 217.192 55.9234 0.66575 -0.0340946
1331800 60.2606 217.205 55.9234 0.66585 -0.025014
1332000 60.2606 217.218 55.9234 0.66595 -0.0140906
1332200 60.2606 217.231 55.9234 0.66605 -0.0209615
1332400 60.2606 217.244 55.9234 0.66615 0.00741764
1332600 60.2606 217.257 55.9234 0.66625 0.0160919
1332800 60.2606 217.27 55.9234 0.66635 0.0247737
1333000 60.2606 217.283 55.9234 0.66645 0.0104075
1333200 60.2606 217.296 55.9234 0.66655 0.0344102
1333400 60.2606 217.309 55.9234 0.66665 0.02016
1333600 60.2606 217.322 55.9234 0.66675 0.0252154
1333800 60.2606 217.335 55.9234 0.66685 0.0361626
1334000 60.2606 217.348 55.9234 0.66695 0.0201688
1334200 60.2606 217.361 55.9234 0.66705 0.0178193
1334400 60.2606 217.374 55.9234 0.66715 0.00147588
1334600 60.2606 217.388 55.9234 0.66725 -0.0100528
1334800 60.2606 217.401 55.9234 0.66735 -0.00442289
1335000 60.2606 217.414 55.9234 0.66745 -0.0175297
1335200 60.2606 217.427 55.9234 0.66755 -0.028132
1335400 60.2606 217.44 55.9234 0.66765 -0.0303972
1335600 60.2606 217.453 55.9234 0.66775 -0.000863159
1335800 60.2606 217.466 55.9234 0.66785 -0.0307632
1336000 60.2606 217.479 55.9234 0.66795 -0.00321095
1336200 60.2606 217.492 55.9234 0.66805 -0.00591715
1336400 60.2606 217.505 55.9234 0.66815 -0.00844543
1336600 60.2606 217.518 55.9234 0.66825 0.0079345
1336800 60.2606 217.531 55.9234 0.66835 0.0404199
1337000 60.2606 217.544 55.9234 0.66845 0.0168823
1337200 60.2606 217.557 55.9234 0.66855 0.0284389
1337400 60.2606 217.57 55.9234 0.66865 0.0268852
1337600 60.2606 217.583 55.9234 0.66875 0.0369353
1337800 60.2606 217.596 55.9234 0.66885 0.00968258
1338000 60.2606 217.609 55.9234 0.66895 0.0158069
1338200 60.2606 217.622 55.9234 0.66905 0.0106435
1338400 60.2606 217.635 55.9234 0.66915 0.000244884
1338600 60.2606 217.648 55.9234 0.66925 -0.0048126
1338800 60.2606 217.661 55.9234 0.66935 -0.00816267
1339000 60.2606 217.674 55.9234 0.66945 -0.0298891
1339200 60.2606 217.687 55.9234 0.66955 -0.0255314
1339400 60.2606 217.7 55.9234 0.66965 -0.0230188
1339600 60.2606 217.713 55.9234 0.66975 -0.0277445
1339800 60.2606 217.727 55.9234 0.66985 0.00264851
1340000 60.2606 217.74 55.9234 0.66995 -0.00626673
1340200 60.2606 217.753 55.9234 0.67005 0.00942418
1340400 60.2606 217.766 55.9234 0.67015 -0.00665036
1340600 60.2606 217.779 55.9234 0.67025 0.0276303
1340800 60.2606 217.792 55.9234 0.67035 0.0105226
1341000 60.2606 217.805 55.9234 0.67045 0.0286347
1341200 60.2606 217.818 55.9234 0.67055 0.0362966
1341400 60.2606 217.831 55.9234 0.67065 0.0116319
1341600 60.2606 217.844 55.9234 0.67075 0.0370378
1341800 60.2606 217.857 55.9234 0.67085 0.000509605
1342000 60.2606 217.87 55.9234 0.67095 0.0253463
1342200 60.2606 217.883 55.9234 0.67105 -0.00373408
1342400 60.2606 217.896 55.9234 0.67115 0.00434238
1342600 60.2606 217.909 55.9234 0.67125 -0.00704598
1342800 60.2606 217.922 55.9234 0.67135 0.00425546
1343000 60.2606 217.935 55.9234 0.67145 -0.0309883
1343200 60.2606 217.948 55.9234 0.67155 -0.0277849
1343400 60.2606 217.961 55.9234 0.67165 -0.0177347
1343600 60.2606 217.974 55.9234 0.67175 -0.0115528
1343800 60.2606 217.987 55.9234 0.67185 -0.0101891
1344000 60.2606 218 55.9234 0.67195 -0.0142156
1344200 60.2606 218.013 55.9234 0.67205 -0.00263641
1344400 60.2606 218.026 55.9234 0.67215 0.00492354
1344600 60.2606 218.039 55.9234 0.67225 0.0108823
1344800 60.2606 218.053 55.9234 0.67235 -0.00279818
1345000 60.2606 218.066 55.9234 0.67245 0.0339206
1345200 60.2606 218.079 55.9234 0.67255 0.0349517
1345400 60.2606 218.092 55.9234 0.67265 0.0309064
1345600 60.2606 218.105 55.9234 0.67275 0.0258542
1345800 60.2606 218.118 55.9234 0.67285 0.0317377
1346000 60.2606 218.131 55.9234 0.67295 0.00984939
1346200 60.2606 218.144 55.9234 0.67305 -0.0121393
1346400 60.2606 218.157 55.9234 0.67315 0.00512127
1346600 60.2606 218.17 55.9234 0.67325 0.00608208
1346800 60.2606 218.183 55.9234 0.67335 -0.000526607
1347000 60.2606 218.196 55.9234 0.67345 -0.0382369
1347200 60.2606 218.209 55.9234 0.67355 -0.00211109
1347400 60.2606 218.222 55.9234 0.67365 -0.0391213
1347600 60.2606 218.235 55.9234 0.67375 -0.00322031
1347800 60.2606 218.248 55.9234 0.67385 -0.0146606
1348000 60.2606 218.261 55.9234 0.67395 -0.00903706
1348200 60.2606 218.274 55.9234 0.67405 -0.0145016
1348400 60.2606 218.287 55.9234 0.67415 0.0101063
1348600 60.2606 218.3 55.9234 0.67425 0.0247536
1348800 60.2606 218.313 55.9234 0.67435 0.00637621
1349000 60.2606 218.326 55.9234 0.67445 0.0043433
1349200 60.2606 218.339 55.9234 0.67455 0.0319202
1349400 60.2606 218.352 55.9234 0.67465 0.0172014
1349600 60.2606 218.365 55.9234 0.67475 0.0495224
1349800 60.2606 218.378 55.9234 0.67485 0.0138866
1350000 60.2606 218.392 55.9234 0.67495 0.0199128
1350200 60.2606 218.405 55.9234 0.67505 0.013792
1350400 60.2606 218.418 55.9234 0.67515 0.0147281
1350600 60.2606 218.431 55.9234 0.67525 -0.0165406
1350800 60.2606 218.444 55.9234 0.67535 -0.0145322
1351000 60.2606 218.457 55.9234 0.67545 -0.0205187
1351200 60.2606 218.47 55.9234 0.67555 -0.00317106
1351400 60.2606 218.483 55.9234 0.67565 -0.0195186
1351600 60.2606 218.496 55.9234 0.67575 -0.0359009
1351800 60.2606 218.509 55.9234 0.67585 -0.0293448
1352000 60.2606 218.522 55.9234 0.67595 -0.0086335
1352200 60.2606 218.535 55.9234 0.67605 0.00334796
1352400 60.2606 218.548 55.9234 0.67615 0.00251508
1352600 60.2606 218.561 55.9234 0.67625 0.0105944
1352800 60.2606 218.574 55.9234 0.67635 0.0064337
1353000 60.2606 218.587 55.9234 0.67645 0.0270173
1353200 60.2606 218.6 55.9234 0.67655 0.0332085
1353400 60.2606 218.613 55.9234 0.67665 0.0290513
1353600 60.2606 218.626 55.9234 0.67675 0.019201
1353800 60.2606 218.639 55.9234 0.67685 0.0599226
1354000 60.2606 218.652 55.9234 0.67695 0.000535093
1354200 60.2606 218.665 55.9234 0.67705 0.0150829
1354400 60.2606 218.678 55.9234 0.67715 0.00850308
1354600 60.2606 218.691 55.9234 0.67725 -0.00616321
1354800 60.2606 218.704 55.9234 0.67735 -0.0175967
1355000 60.2606 218.717 55.9234 0.67745 -0.0211555
1355200 60.2606 218.731 55.9234 0.67755 -0.0286605
1355400 60.2606 218.744 55.9234 0.67765 -0.0260866
1355600 60.2606 218.757 55.9234 0.67775 -0.0259401
1355800 60.2606 218.77 55.9234 0.67785 -0.00178484
1356000 60.2606 218.783 55.9234 0.67795 -0.0112471
1356200 60.2606 218.796 55.9234 0.67805 -0.0240817
1356400 60.2606 218.809 55.9234 0.67815 0.0114657
1356600 60.2606 218.822 55.9234 0.67825 -0.00483736
1356800 60.2606 218.835 55.9234 0.67835 0.0256589
1357000 60.2606 218.848 55.9234 0.67845 0.0402616
1357200 60.2606 218.861 55.9234 0.67855 0.0368341
1357400 60.2606 218.874 55.9234 0.67865 0.0297091
1357600 60.2606 218.887 55.9234 0.67875 0.0239273
1357800 60.2606 218.9 55.9234 0.67885 0.0195943
1358000 60.2606 218.913 55.9234 0.67895 0.0237204
1358200 60.2606 218.926 55.9234 0.67905 0.0103112
1358400 60.2606 218.939 55.9234 0.67915 0.0126184
1358600 60.2606 218.952 55.9234 0.67925 0.00180341
1358800 60.2606 218.965 55.9234 0.67935 -0.0264658
1359000 60.2606 218.978 55.9234 0.67945 -0.0203364
1359200 60.2606 218.991 55.9234 0.67955 -0.0326942
1359400 60.2606 219.004 55.9234 0.67965 -0.0401592
1359600 60.2606 219.017 55.9234 0.67975 -0.0217734
1359800 60.2606 219.03 55.9234 0.67985 -0.0123405
1360000 60.2606 219.043 55.9234 0.67995 -0.00774429
1360200 60.2606 219.056 55.9234 0.68005 -0.00917118
1360400 60.2606 219.07 55.9234 0.68015 0.0035959
1360600 60.2606 219.083 55.9234 0.68025 0.0164817
1360800 60.2606 219.096 55.9234 0.68035 0.0248333
1361000 60.2606 219.109 55.9234 0.68045 0.023658
1361200 60.2606 219.122 55.9234 0.68055 0.0260509
1361400 60.2606 219.135 55.9234 0.68065 0.0490195
1361600 60.2606 219.148 55.9234 0.68075 0.0381642
1361800 60.2606 219.161 55.9234 0.68085 0.0248727
1362000 60.2606 219.174 55.9234 0.68095 0.01238
1362200 60.2606 219.187 55.9234 0.68105 0.00307674
1362400 60.2606 219.2 55.9234 0.68115 0.00238246
1362600 60.2606 219.213 55.9234 0.68125 -0.00627918
1362800 60.2606 219.226 55.9234 0.68135 -0.0135949
1363000 60.2606 219.239 55.9234 0.68145 -0.0310456
1363200 60.2606 219.252 55.9234 0.68155 -0.0127089
1363400 60.2606 219.265 55.9234 0.68165 -0.0360173
1363600 60.2606 219.278 55.9234 0.68175 -0.0366744
1363800 60.2606 219.291 55.9234 0.68185 -0.00738094
1364000 60.2606 219.304 55.9234 0.68195 -0.0185853
1364200 60.2606 219.317 55.9234 0.68205 -0.00273465
1364400 60.2606 219.33 55.9234 0.68215 0.0152574
1364600 60.2606 219.343 55.9234 0.68225 0.0190727
1364800 60.2606 219.356 55.9234 0.68235 0.0204709
1365000 60.2606 219.369 55.9234 0.68245 0.0321833
1365200 60.2606 219.382 55.9234 0.68255 0.0270193
1365400 60.2606 219.395 55.9234 0.68265 0.0440328
1365600 60.2606 219.409 55.9234 0.68275 0.0363319
1365800 60.2606 219.422 55.9234 0.68285 0.0294631
1366000 60.2606 219.435 55.9234 0.68295 0.0145992
1366200 60.2606 219.448 55.9234 0.68305 -0.00334845
1366400 60.2606 219.461 55.9234 0.68315 -0.014346
1366600 60.2606 219.474 55.9234 0.68325 -0.00334779
1366800 60.2606 219.487 55.9234 0.68335 -0.0357544
1367000 60.2606 219.5 55.9234 0.68345 -0.0112228
1367200 60.2606 219.513 55.9234 0.68355 -0.0243615
1367400 60.2606 219.526 55.9234 0.68365 -0.0386885
1367600 60.2606 219.539 55.9234 0.68375 -0.024809
1367800 60.2606 219.552 55.9234 0.68385 -0.0148917
1368000 60.2606 219.565 55.9234 0.68395 -0.00297749
1368200 60.2606 219.578 55.9234 0.68405 -0.00511694
1368400 60.2606 219.591 55.9234 0.68415 0.0208745
1368600 60.2606 219.604 55.9234 0.68425 0.0318582
1368800 60.2606 219.617 55.9234 0.68435 0.0412412
1369000 60.2606 219.63 55.9234 0.68445 0.0353851
1369200 60.2606 219.643 55.9234 0.68455 0.0104335
1369400 60.2606 219.656 55.9234 0.68465 0.0294162
1369600 60.2606 219.669 55.9234 0.68475 0.0251079
1369800 60.2606 219.682 55.9234 0.68485 0.0316911
1370000 60.2606 219.695 55.9234 0.68495 0.0186052
1370200 60.2606 219.708 55.9234 0.68505 -0.00210388
1370400 60.2606 219.721 55.9234 0.68515 -0.0112562
1370600 60.2606 219.734 55.9234 0.68525 -0.0351339
1370800 60.2606 219.748 55.9234 0.68535 -0.0297857
1371000 60.2606 219.761 55.9234 0.68545 -0.0183818
1371200 60.2606 219.774 55.9234 0.68555 -0.00799633
1371400 60.2606 219.787 55.9234 0.68565 -0.0210122
1371600 60.2606 219.8 55.9234 0.68575 -0.0119946
1371800 60.2606 219.813 55.9234 0.68585 -0.0179729
1372000 60.2606 219.826 55.9234 0.68595 -0.0151278
1372200 60.2606 219.839 55.9234 0.68605 -0.000346249
1372400 60.2606 219.852 55.9234 0.68615 0.0219097
1372600 60.2606 219.865 55.9234 0.68625 0.0355321
1372800 60.2606 219.878 55.9234 0.68635 0.0488554
1373000 60.2606 219.891 55.9234 0.68645 0.0171671
1373200 60.2606 219.904 55.9234 0.68655 0.0289841
1373400 60.2606 219.917 55.9234 0.68665 0.0187536
1373600 60.2606 219.93 55.9234 0.68675 0.0249041
1373800 60.2606 219.943 55.9234 0.68685 0.00963862
1374000 60.2606 219.956 55.9234 0.68695 0.0162843
1374200 60.2606 219.969 55.9234 0.68705 0.000823761
1374400 60.2606 219.982 55.9234 0.68715 -0.00317313
1374600 60.2606 219.995 55.9234 0.68725 -0.0250347
1374800 60.2606 220.008 55.9234 0.68735 -0.0386586
1375000 60.2606 220.021 55.9234 0.68745 -0.0348572
1375200 60.2606 220.034 55.9234 0.68755 -0.0278881
1375400 60.2606 220.047 55.9234 0.68765 -0.0133013
1375600 60.2606 220.06 55.9234 0.68775 0.00152376
1375800 60.2606 220.073 55.9234 0.68785 0.0107517
1376000 60.2606 220.087 55.9234 0.68795 -0.00203134
1376200 60.2606 220.1 55.9234 0.68805 0.00428795
1376400 60.2606 220.113 55.9234 0.68815 0.0129026
1376600 60.2606 220.126 55.9234 0.68825 0.019969
1376800 60.2606 220.139 55.9234 0.68835 0.0424493
1377000 60.2606 220.152 55.9234 0.68845 0.0190062
1377200 60.2606 220.165 55.9234 0.68855 0.0541633
1377400 60.2606 220.178 55.9234 0.68865 0.0268463
1377600 60.2606 220.191 55.9234 0.68875 0.00422527
1377800 60.2606 220.204 55.9234 0.68885 0.00341833
1378000 60.2606 220.217 55.9234 0.68895 0.00894667
1378200 60.2606 220.23 55.9234 0.68905 -0.0231993
1378400 60.2606 220.243 55.9234 0.68915 -0.00679201
1378600 60.2606 220.256 55.9234 0.68925 -0.0122591
1378800 60.2606 220.269 55.9234 0.68935 -0.018924
1379000 60.2606 220.282 55.9234 0.68945 -0.0161115
1379200 60.2606 220.295 55.9234 0.68955 -0.0364617
1379400 60.2606 220.308 55.9234 0.68965 -0.0377189
1379600 60.2606 220.321 55.9234 0.68975 -0.0151677
1379800 60.2606 220.334 55.9234 0.68985 0.00108919
1380000 60.2606 220.347 55.9234 0.68995 0.0265399
1380200 60.2606 220.36 55.9234 0.69005 0.0267536
1380400 60.2606 220.373 55.9234 0.69015 0.0158105
1380600 60.2606 220.386 55.9234 0.69025 0.0356464
1380800 60.2606 220.399 55.9234 0.69035 0.0292254
1381000 60.2606 220.413 55.9234 0.69045 0.0333398
1381200 60.2606 220.426 55.9234 0.69055 0.0340792
1381400 60.2606 220.439 55.9234 0.69065 0.0146845
1381600 60.2606 220.452 55.9234 0.69075 0.0198007
1381800 60.2606 220.465 55.9234 0.69085 0.0128915
1382000 60.2606 220.478 55.9234 0.69095 -0.0135343
1382200 60.2606 220.491 55.9234 0.69105 -0.0319125
1382400 60.2606 220.504 55.9234 0.69115 -0.00456038
1382600 60.2606 220.517 55.9234 0.69125 -0.0230084
1382800 60.2606 220.53 55.9234 0.69135 -0.0294517
1383000 60.2606 220.543 55.9234 0.69145 -0.0331426
1383200 60.2606 220.556 55.9234 0.69155 -0.00295554
1383400 60.2606 220.569 55.9234 0.69165 -0.018757
1383600 60.2606 220.582 55.9234 0.69175 -0.00227594
1383800 60.2606 220.595 55.9234 0.69185 -0.0146152
1384000 60.2606 220.608 55.9234 0.69195 0.0215055
1384200 60.2606 220.621 55.9234 0.69205 0.0220204
1384400 60.2606 220.634 55.9234 0.69215 0.0251289
1384600 60.2606 220.647 55.9234 0.69225 0.0416235
1384800 60.2606 220.66 55.9234 0.69235 0.0159726
1385000 60.2606 220.673 55.9234 0.69245 0.0239119
1385200 60.2606 220.686 55.9234 0.69255 0.0324575
1385400 60.2606 220.699 55.9234 0.69265 0.0102064
1385600 60.2606 220.712 55.9234 0.69275 0.0187733
1385800 60.2606 220.725 55.9234 0.69285 0.0198309
1386000 60.2606 220.738 55.9234 0.69295 -0.0268119
1386200 60.2606 220.752 55.9234 0.69305 0.00371962
1386400 60.2606 220.765 55.9234 0.69315 -0.0192757
1386600 60.2606 220.778 55.9234 0.69325 -0.00793825
1386800 60.2606 220.791 55.9234 0.69335 -0.0100457
1387000 60.2606 220.804 55.9234 0.69345 -0.0378305
1387200 60.2606 220.817 55.9234 0.69355 -0.0183437
1387400 60.2606 220.83 55.9234 0.69365 -0.0159546
1387600 60.2606 220.843 55.9234 0.69375 0.00244492
1387800 60.2606 220.856 55.9234 0.69385 -0.00613095
1388000 60.2606 220.869 55.9234 0.69395 0.00191517
1388200 60.2606 220.882 55.9234 0.69405 0.00776621
1388400 60.2606 220.895 55.9234 0.69415 0.0290007
1388600 60.2606 220.908 55.9234 0.69425 0.0232344
1388800 60.2606 220.921 55.9234 0.69435 0.0146448
1389000 60.2606 220.934 55.9234 0.69445 0.0151438
1389200 60.2606 220.947 55.9234 0.69455 0.043171
1389400 60.2606 220.96 55.9234 0.69465 0.0428781
1389600 60.2606 220.973 55.9234 0.69475 0.00565651
1389800 60.2606 220.986 55.9234 0.69485 0.00382112
1390000 60.2606 220.999 55.9234 0.69495 0.00460534
1390200 60.2606 221.012 55.9234 0.69505 -0.010788
1390400 60.2606 221.025 55.9234 0.69515 -0.0174489
1390600 60.2606 221.038 55.9234 0.69525 -0.0162258
1390800 60.2606 221.051 55.9234 0.69535 -0.0144386
1391000 60.2606 221.064 55.9234 0.69545 -0.0116824
1391200 60.2606 221.077 55.9234 0.69555 -0.0289062
1391400 60.2606 221.091 55.9234 0.69565 -0.0112044
1391600 60.2606 221.104 55.9234 0.69575 -0.0210941
1391800 60.2606 221.117 55.9234 0.69585 0.011698
1392000 60.2606 221.13 55.9234 0.69595 -0.00439849
1392200 60.2606 221.143 55.9234 0.69605 0.0301284
1392400 60.2606 221.156 55.9234 0.69615 0.010846
1392600 60.2606 221.169 55.9234 0.69625 0.0397821
1392800 60.2606 221.182 55.9234 0.69635 0.0149636
1393000 60.2606 221.195 55.9234 0.69645 0.033187
1393200 60.2606 221.208 55.9234 0.69655 0.0187575
1393400 60.2606 221.221 55.9234 0.69665 0.00560158
1393600 60.2606 221.234 55.9234 0.69675 0.0154827
1393800 60.2606 221.247 55.9234 0.69685 0.0111938
1394000 60.2606 221.26 55.9234 0.69695 0.00108123
1394200 60.2606 221.273 55.9234 0.69705 -0.00345444
1394400 60.2606 221.286 55.9234 0.69715 -0.0253004
1394600 60.2606 221.299 55.9234 0.69725 -0.0104441
1394800 60.2606 221.312 55.9234 0.69735 -0.0165429
1395000 60.2606 221.325 55.9234 0.69745 -0.0125245
1395200 60.2606 221.338 55.9234 0.69755 -0.016232
1395400 60.2606 221.351 55.9234 0.69765 -0.00917628
1395600 60.2606 221.364 55.9234 0.69775 -0.00343485
1395800 60.2606 221.377 55.9234 0.69785 -0.00683345
1396000 60.2606 221.39 55.9234 0.69795 -0.00480515
1396200 60.2606 221.403 55.9234 0.69805 0.0204675
1396400 60.2606 221.416 55.9234 0.69815 0.00902611
1396600 60.2606 221.43 55.9234 0.69825 0.0338267
1396800 60.2606 221.443 55.9234 0.69835 0.0396366
1397000 60.2606 221.456 55.9234 0.69845 0.031302
1397200 60.2606 221.469 55.9234 0.69855 0.0158229
1397400 60.2606 221.482 55.9234 0.69865 0.00782796
1397600 60.2606 221.495 55.9234 0.69875 0.00959032
1397800 60.2606 221.508 55.9234 0.69885 0.0172826
1398000 60.2606 221.521 55.9234 0.69895 0.00449799
1398200 60.2606 221.534 55.9234 0.69905 -0.0113093
1398400 60.2606 221.547 55.9234 0.69915 -0.00261843
1398600 60.2606 221.56 55.9234 0.69925 -0.0264849
1398800 60.2606 221.573 55.9234 0.69935 -0.018902
1399000 60.2606 221.586 55.9234 0.69945 -0.0327998
1399200 60.2606 221.599 55.9234 0.69955 -0.0293185
1399400 60.2606 221.612 55.9234 0.69965 -0.00985322
1399600 60.2606 221.625 55.9234 0.69975 0.00809129
1399800 60.2606 221.638 55.9234 0.69985 0.0114214
1400000 60.2606 221.651 55.9234 0.69995 0.0125617
1400200 60.2606 221.664 55.9234 0.70005 0.0181088
1400400 60.2606 221.677 55.9234 0.70015 0.000163029
1400600 60.2606 221.69 55.9234 0.70025 0.0370302
1400800 60.2606 221.703 55.9234 0.70035 0.0185377
1401000 60.2606 221.716 55.9234 0.70045 0.0477846
1401200 60.2606 221.729 55.9234 0.70055 0.0188257
1401400 60.2606 221.742 55.9234 0.70065 0.0222467
1401600 60.2606 221.755 55.9234 0.70075 0.00368177
1401800 60.2606 221.769 55.9234 0.70085 -0.00132241
1402000 60.2606 221.782 55.9234 0.70095 0.00160272
1402200 60.2606 221.795 55.9234 0.70105 -0.00881349
1402400 60.2606 221.808 55.9234 0.70115 -0.013085
1402600 60.2606 221.821 55.9234 0.70125 -0.0238906
1402800 60.2606 221.834 55.9234 0.70135 -0.0336455
1403000 60.2606 221.847 55.9234 0.70145 -0.033025
1403200 60.2606 221.86 55.9234 0.70155 -0.00638077
1403400 60.2606 221.873 55.9234 0.70165 -0.0120071
1403600 60.2606 221.886 55.9234 0.70175 -0.00455839
1403800 60.2606 221.899 55.9234 0.70185 0.0169537
1404000 60.2606 221.912 55.9234 0.70195 0.0132276
1404200 60.2606 221.925 55.9234 0.70205 0.0130862
1404400 60.2606 221.938 55.9234 0.70215 0.0292896
1404600 60.2606 221.951 55.9234 0.70225 0.0209012
1404800 60.2606 221.964 55.9234 0.70235 0.0421481
1405000 60.2606 221.977 55.9234 0.70245 0.0281665
1405200 60.2606 221.99 55.9234 0.70255 0.0274963
1405400 60.2606 222.003 55.9234 0.70265 0.017263
1405600 60.2606 222.016 55.9234 0.70275 0.0248022
1405800 60.2606 222.029 55.9234 0.70285 -0.0198706
1406000 60.2606 222.042 55.9234 0.70295 -0.00700123
1406200 60.2606 222.055 55.9234 0.70305 -0.0288357
1406400 60.2606 222.068 55.9234 0.70315 -0.0258628
1406600 60.2606 222.081 55.9234 0.70325 -0.0082574
1406800 60.2606 222.094 55.9234 0.70335 -0.00987697
1407000 60.2606 222.108 55.9234 0.70345 -0.0372486
1407200 60.2606 222.121 55.9234 0.70355 -0.0155247
1407400 60.2606 222.134 55.9234 0.70365 -0.016008
1407600 60.2606 222.147 55.9234 0.70375 -0.00690815
1407800 60.2606 222.16 55.9234 0.70385 0.0180627
1408000 60.2606 222.173 55.9234 0.70395 0.0155695
1408200 60.2606 222.186 55.9234 0.70405 0.0455725
1408400 60.2606 222.199 55.9234 0.70415 0.0400864
1408600 60.2606 222.212 55.9234 0.70425 0.0140028
1408800 60.2606 222.225 55.9234 0.70435 0.028326
1409000 60.2606 222.238 55.9234 0.70445 0.0307293
1409200 60.2606 222.251 55.9234 0.70455 0.00834665
1409400 60.2606 222.264 55.9234 0.70465 0.00156677
1409600 60.2606 222.277 55.9234 0.70475 0.0108968
1409800 60.2606 222.29 55.9234 0.70485 0.00277683
1410000 60.2606 222.303 55.9234 0.70495 -0.00630951
1410200 60.2606 222.316 55.9234 0.70505 -0.0317691
1410400 60.2606 222.329 55.9234 0.70515 -0.000335933
1410600 60.2606 222.342 55.9234 0.70525 -0.038014
1410800 60.2606 222.355 55.9234 0.70535 -0.0124885
1411000 60.2606 222.368 55.9234 0.70545 -0.02841
1411200 60.2606 222.381 55.9234 0.70555 0.00665012
1411400 60.2606 222.394 55.9234 0.70565 -0.0186631
1411600 60.2606 222.407 55.9234 0.70575 0.0142236
1411800 60.2606 222.42 55.9234 0.70585 -0.00213166
1412000 60.2606 222.433 55.9234 0.70595 0.0143224
1412200 60.2606 222.447 55.9234 0.70605 0.0233755
1412400 60.2606 222.46 55.9234 0.70615 0.0123467
1412600 60.2606 222.473 55.9234 0.70625 0.0357077
1412800 60.2606 222.486 55.9234 0.70635 0.0511926
1413000 60.2606 222.499 55.9234 0.70645 0.022163
1413200 60.2606 222.512 55.9234 0.70655 0.0195485
1413400 60.2606 222.525 55.9234 0.70665 0.0125029
1413600 60.2606 222.538 55.9234 0.70675 -0.00115977
1413800 60.2606 222.551 55.9234 0.70685 -0.0109044
1414000 60.2606 222.564 55.9234 0.70695 -0.00208202
1414200 60.2606 222.577 55.9234 0.70705 -0.0177455
1414400 60.2606 222.59 55.9234 0.70715 -0.0216354
1414600 60.2606 222.603 55.9234 0.70725 -0.029746
1414800 60.2606 222.616 55.9234 0.70735 -0.0129579
1415000 60.2606 222.629 55.9234 0.70745 -0.00977152
1415200 60.2606 222.642 55.9234 0.70755 -0.0156134
1415400 60.2606 222.655 55.9234 0.70765 -0.00529931
1415600 60.2606 222.668 55.9234 0.70775 -0.0104475
1415800 60.2606 222.681 55.9234 0.70785 0.0167981
1416000 60.2606 222.694 55.9234 0.70795 0.0190496
1416200 60.2606 222.707 55.9234 0.70805 0.0297331
1416400 60.2606 222.72 55.9234 0.70815 0.0289692
1416600 60.2606 222.733 55.9234 0.70825 0.0254774
1416800 60.2606 222.746 55.9234 0.70835 0.0249218
1417000 60.2606 222.759 55.9234 0.70845 0.0198371
1417200 60.2606 222.773 55.9234 0.70855 0.00943757
1417400 60.2606 222.786 55.9234 0.70865 0.0210228
1417600 60.2606 222.799 55.9234 0.70875 0.00481082
1417800 60.2606 222.812 55.9234 0.70885 0.0040496
1418000 60.2606 222.825 55.9234 0.70895 -0.0142813
1418200 60.2606 222.838 55.9234 0.70905 -0.0191201
1418400 60.2606 222.851 55.9234 0.70915 -0.0214669
1418600 60.2606 222.864 55.9234 0.70925 -0.00930443
1418800 60.2606 222.877 55.9234 0.70935 -0.00778159
1419000 60.2606 222.89 55.9234 0.70945 -0.0309575
1419200 60.2606 222.903 55.9234 0.70955 -0.0107746
1419400 60.2606 222.916 55.9234 0.70965 -0.00562346
1419600 60.2606 222.929 55.9234 0.70975 -0.00790397
1419800 60.2606 222.942 55.9234 0.70985 0.0191927
1420000 60.2606 222.955 55.9234 0.70995 0.00426671
1420200 60.2606 222.968 55.9234 0.71005 0.0369257
1420400 60.2606 222.981 55.9234 0.71015 0.0143174
1420600 60.2606 222.994 55.9234 0.71025 0.0275799
1420800 60.2606 223.007 55.9234 0.71035 0.0274907
1421000 60.2606 223.02 55.9234 0.71045 0.0163604
1421200 60.2606 223.033 55.9234 0.71055 0.0169222
1421400 60.2606 223.046 55.9234 0.71065 0.028367
1421600 60.2606 223.059 55.9234 0.71075 0.00538147
1421800 60.2606 223.072 55.9234 0.71085 -0.0160555
1422000 60.2606 223.085 55.9234 0.71095 -0.00515105
1422200 60.2606 223.098 55.9234 0.71105 -0.00376394
1422400 60.2606 223.112 55.9234 0.71115 -0.0182038
1422600 60.2606 223.125 55.9234 0.71125 -0.0158917
1422800 60.2606 223.138 55.9234 0.71135 -0.0250477
1423000 60.2606 223.151 55.9234 0.71145 -0.0295731
1423200 60.2606 223.164 55.9234 0.71155 -0.0169105
1423400 60.2606 223.177 55.9234 0.71165 0.00967162
1423600 60.2606 223.19 55.9234 0.71175 0.00642943
1423800 60.2606 223.203 55.9234 0.71185 0.0157966
1424000 60.2606 223.216 55.9234 0.71195 0.0123112
1424200 60.2606 223.229 55.9234 0.71205 0.0131353
1424400 60.2606 223.242 55.9234 0.71215 0.0327847
1424600 60.2606 223.255 55.9234 0.71225 0.0289863
1424800 60.2606 223.268 55.9234 0.71235 -0.000324086
1425000 60.2606 223.281 55.9234 0.71245 0.0433679
1425200 60.2606 223.294 55.9234 0.71255 0.0172269
1425400 60.2606 223.307 55.9234 0.71265 0.0233827
1425600 60.2606 223.32 55.9234 0.71275 -0.0122742
1425800 60.2606 223.333 55.9234 0.71285 -0.00758916
1426000 60.2606 223.346 55.9234 0.71295 -0.0113438
1426200 60.2606 223.359 55.9234 0.71305 -0.0192902
1426400 60.2606 223.372 55.9234 0.71315 -0.00912758
1426600 60.2606 223.385 55.9234 0.71325 -0.029696
1426800 60.2606 223.398 55.9234 0.71335 -0.0245706
1427000 60.2606 223.411 55.9234 0.71345 -0.0120123
1427200 60.2606 223.424 55.9234 0.71355 -0.00285219
1427400 60.2606 223.437 55.9234 0.71365 -0.0163832
1427600 60.2606 223.451 55.9234 0.71375 0.0174137
1427800 60.2606 223.464 55.9234 0.71385 0.0396941
1428000 60.2606 223.477 55.9234 0.71395 0.0288837
1428200 60.2606 223.49 55.9234 0.71405 0.0174252
1428400 60.2606 223.503 55.9234 0.71415 0.0308147
1428600 60.2606 223.516 55.9234 0.71425 0.0124169
1428800 60.2606 223.529 55.9234 0.71435 0.0371623
1429000 60.2606 223.542 55.9234 0.71445 0.00920774
1429200 60.2606 223.555 55.9234 0.71455 0.0123965
1429400 60.2606 223.568 55.9234 0.71465 0.0158102
1429600 60.2606 223.581 55.9234 0.71475 -0.00957194
1429800 60.2606 223.594 55.9234 0.71485 -0.0334197
1430000 60.2606 223.607 55.9234 0.71495 -0.0350383
1430200 60.2606 223.62 55.9234 0.71505 -0.018116
1430400 60.2606 223.633 55.9234 0.71515 -0.014292
1430600 60.2606 223.646 55.9234 0.71525 -0.0128002
1430800 60.2606 223.659 55.9234 0.71535 -0.000207033
1431000 60.2606 223.672 55.9234 0.71545 -0.00470325
1431200 60.2606 223.685 55.9234 0.71555 -0.0143246
1431400 60.2606 223.698 55.9234 0.71565 -0.00509495
1431600 60.2606 223.711 55.9234 0.71575 0.0232852
1431800 60.2606 223.724 55.9234 0.71585 0.0226229
1432000 60.2606 223.737 55.9234 0.71595 0.0317783
1432200 60.2606 223.75 55.9234 0.71605 0.0516813
1432400 60.2606 223.763 55.9234 0.71615 0.0315117
1432600 60.2606 223.776 55.9234 0.71625 0.0173065
1432800 60.2606 223.79 55.9234 0.71635 0.00708625
1433000 60.2606 223.803 55.9234 0.71645 0.00886786
1433200 60.2606 223.816 55.9234 0.71655 0.00944135
1433400 60.2606 223.829 55.9234 0.71665 -0.00966369
1433600 60.2606 223.842 55.9234 0.71675 -0.00747233
1433800 60.2606 223.855 55.9234 0.71685 -0.0140974
1434000 60.2606 223.868 55.9234 0.71695 -0.0224446
1434200 60.2606 223.881 55.9234 0.71705 -0.032902
1434400 60.2606 223.894 55.9234 0.71715 -0.0191532
1434600 60.2606 223.907 55.9234 0.71725 -0.0228002
1434800 60.2606 223.92 55.9234 0.71735 -0.0120944
1435000 60.2606 223.933 55.9234 0.71745 0.0125273
1435200 60.2606 223.946 55.9234 0.71755 0.00065735
1435400 60.2606 223.959 55.9234 0.71765 0.0166933
1435600 60.2606 223.972 55.9234 0.71775 0.0107273
1435800 60.2606 223.985 55.9234 0.71785 0.0234827
1436000 60.2606 223.998 55.9234 0.71795 0.0266867
1436200 60.2606 224.011 55.9234 0.71805 0.0308875
1436400 60.2606 224.024 55.9234 0.71815 0.0363532
1436600 60.2606 224.037 55.9234 0.71825 0.0144312
1436800 60.2606 224.05 55.9234 0.71835 0.0189578
1437000 60.2606 224.063 55.9234 0.71845 0.0242335
1437200 60.2606 224.076 55.9234 0.71855 -0.00107639
1437400 60.2606 224.089 55.9234 0.71865 -0.0101316
1437600 60.2606 224.102 55.9234 0.71875 -0.0119611
1437800 60.2606 224.115 55.9234 0.71885 -0.0219735
1438000 60.2606 224.129 55.9234 0.71895 -0.00103554
1438200 60.2606 224.142 55.9234 0.71905 -0.0328515
1438400 60.2606 224.155 55.9234 0.71915 -0.0370922
1438600 60.2606 224.168 55.9234 0.71925 0.00307088
1438800 60.2606 224.181 55.9234 0.71935 -0.0018627
1439000 60.2606 224.194 55.9234 0.71945 0.00163076
1439200 60.2606 224.207 55.9234 0.71955 -0.00880783
1439400 60.2606 224.22 55.9234 0.71965 -0.00753037
1439600 60.2606 224.233 55.9234 0.71975 0.026633
1439800 60.2606 224.246 55.9234 0.71985 0.0235343
1440000 60.2606 224.259 55.9234 0.71995 0.0377338
1440200 60.2606 224.272 55.9234 0.72005 0.0225493
1440400 60.2606 224.285 55.9234 0.72015 0.0123896
1440600 60.2606 224.298 55.9234 0.72025 0.0140581
1440800 60.2606 224.311 55.9234 0.72035 0.021664
1441000 60.2606 224.324 55.9234 0.72045 0.015765
1441200 60.2606 224.337 55.9234 0.72055 0.0177041
1441400 60.2606 224.35 55.9234 0.72065 -0.00516898
1441600 60.2606 224.363 55.9234 0.72075 -0.00718093
1441800 60.2606 224.376 55.9234 0.72085 -0.00830971
1442000 60.2606 224.389 55.9234 0.72095 -0.0082034
1442200 60.2606 224.402 55.9234 0.72105 -0.0327526
1442400 60.2606 224.415 55.9234 0.72115 -0.0267395
1442600 60.2606 224.428 55.9234 0.72125 -0.0173347
1442800 60.2606 224.441 55.9234 0.72135 -0.0211277
1443000 60.2606 224.454 55.9234 0.72145 0.00628311
1443200 60.2606 224.468 55.9234 0.72155 0.000412625
1443400 60.2606 224.481 55.9234 0.72165 0.0108463
1443600 60.2606 224.494 55.9234 0.72175 0.010359
1443800 60.2606 224.507 55.9234 0.72185 0.0278081
1444000 60.2606 224.52 55.9234 0.72195 0.0256201
1444200 60.2606 224.533 55.9234 0.72205 0.0125069
1444400 60.2606 224.546 55.9234 0.72215 0.0413828
1444600 60.2606 224.559 55.9234 0.72225 0.0287791
1444800 60.2606 224.572 55.9234 0.72235 0.021188
1445000 60.2606 224.585 55.9234 0.72245 0.0205821
1445200 60.2606 224.598 55.9234 0.72255 -0.00877446
1445400 60.2606 224.611 55.9234 0.72265 -0.0141568
1445600 60.2606 224.624 55.9234 0.72275 -0.000155266
1445800 60.2606 224.637 55.9234 0.72285 -0.0205509
1446000 60.2606 224.65 55.9234 0.72295 -0.010843
1446200 60.2606 224.663 55.9234 0.72305 -0.0253907
1446400 60.2606 224.676 55.9234 0.72315 -0.0208971
1446600 60.2606 224.689 55.9234 0.72325 -0.0242353
1446800 60.2606 224.702 55.9234 0.72335 -0.00534454
1447000 60.2606 224.715 55.9234 0.72345 -0.0200096
1447200 60.2606 224.728 55.9234 0.72355 0.0206247
1447400 60.2606 224.741 55.9234 0.72365 0.011824
1447600 60.2606 224.754 55.9234 0.72375 0.0196651
1447800 60.2606 224.767 55.9234 0.72385 0.0187017
1448000 60.2606 224.78 55.9234 0.72395 0.0243319
1448200 60.2606 224.794 55.9234 0.72405 0.0387136
1448400 60.2606 224.807 55.9234 0.72415 0.0334883
1448600 60.2606 224.82 55.9234 0.72425 0.0395798
1448800 60.2606 224.833 55.9234 0.72435 0.0158649
1449000 60.2606 224.846 55.9234 0.72445 0.00593151
1449200 60.2606 224.859 55.9234 0.72455 -0.00300361
1449400 60.2606 224.872 55.9234 0.72465 -0.022937
1449600 60.2606 224.885 55.9234 0.72475 -0.0214716
1449800 60.2606 224.898 55.9234 0.72485 -0.0122164
1450000 60.2606 224.911 55.9234 0.72495 -0.0249296
1450200 60.2606 224.924 55.9234 0.72505 -0.0190197
1450400 60.2606 224.937 55.9234 0.72515 -0.0185457
1450600 60.2606 224.95 55.9234 0.72525 -0.0330061
1450800 60.2606 224.963 55.9234 0.72535 -0.00853059
1451000 60.2606 224.976 55.9234 0.72545 -0.0154198
1451200 60.2606 224.989 55.9234 0.72555 0.0308753
1451400 60.2606 225.002 55.9234 0.72565 0.0267306
1451600 60.2606 225.015 55.9234 0.72575 0.0341025
1451800 60.2606 225.028 55.9234 0.72585 0.0433316
1452000 60.2606 225.041 55.9234 0.72595 0.0329748
1452200 60.2606 225.054 55.9234 0.72605 0.021436
1452400 60.2606 225.067 55.9234 0.72615 0.023819
1452600 60.2606 225.08 55.9234 0.72625 0.0167736
1452800 60.2606 225.093 55.9234 0.72635 0.018443
1453000 60.2606 225.106 55.9234 0.72645 -0.00242901
1453200 60.2606 225.119 55.9234 0.72655 7.10203e-05
1453400 60.2606 225.133 55.9234 0.72665 -0.0166371
1453600 60.2606 225.146 55.9234 0.72675 -0.0206264
1453800 60.2606 225.159 55.9234 0.72685 -0.0319865
1454000 60.2606 225.172 55.9234 0.72695 -0.0341456
1454200 60.2606 225.185 55.9234 0.72705 -0.0138968
1454400 60.2606 225.198 55.9234 0.72715 -0.0317424
1454600 60.2606 225.211 55.9234 0.72725 -0.0136031
1454800 60.2606 225.224 55.9234 0.72735 0.00188698
1455000 60.2606 225.237 55.9234 0.72745 0.00648307
1455200 60.2606 225.25 55.9234 0.72755 0.0287684
1455400 60.2606 225.263 55.9234 0.72765 0.0235198
1455600 60.2606 225.276 55.9234 0.72775 0.0396154
1455800 60.2606 225.289 55.9234 0.72785 0.0275713
1456000 60.2606 225.302 55.9234 0.72795 0.037138
1456200 60.2606 225.315 55.9234 0.72805 0.03683
1456400 60.2606 225.328 55.9234 0.72815 0.0230401
1456600 60.2606 225.341 55.9234 0.72825 0.0122229
1456800 60.2606 225.354 55.9234 0.72835 0.0054853
1457000 60.2606 225.367 55.9234 0.72845 0.00810031
1457200 60.2606 225.38 55.9234 0.72855 -0.0238418
1457400 60.2606 225.393 55.9234 0.72865 -0.0313363
1457600 60.2606 225.406 55.9234 0.72875 -0.02431
1457800 60.2606 225.419 55.9234 0.72885 -0.0292241
1458000 60.2606 225.432 55.9234 0.72895 -0.0147041
1458200 60.2606 225.445 55.9234 0.72905 -0.0154634
1458400 60.2606 225.458 55.9234 0.72915 -0.00369023
1458600 60.2606 225.472 55.9234 0.72925 -0.0126603
1458800 60.2606 225.485 55.9234 0.72935 -0.000997831
1459000 60.2606 225.498 55.9234 0.72945 -0.00499793
1459200 60.2606 225.511 55.9234 0.72955 0.0172935
1459400 60.2606 225.524 55.9234 0.72965 0.0259877
1459600 60.2606 225.537 55.9234 0.72975 0.0313448
1459800 60.2606 225.55 55.9234 0.72985 0.0346465
1460000 60.2606 225.563 55.9234 0.72995 0.0500833
1460200 60.2606 225.576 55.9234 0.73005 0.0181205
1460400 60.2606 225.589 55.9234 0.73015 0.00950155
1460600 60.2606 225.602 55.9234 0.73025 0.00685549
1460800 60.2606 225.615 55.9234 0.73035 0.0146435
1461000 60.2606 225.628 55.9234 0.73045 0.00888714
1461200 60.2606 225.641 55.9234 0.73055 -0.0102209
1461400 60.2606 225.654 55.9234 0.73065 -0.00434103
1461600 60.2606 225.667 55.9234 0.73075 -0.0173836
1461800 60.2606 225.68 55.9234 0.73085 -0.0329062
1462000 60.2606 225.693 55.9234 0.73095 -0.0263023
1462200 60.2606 225.706 55.9234 0.73105 -0.0233274
1462400 60.2606 225.719 55.9234 0.73115 -0.0203138
1462600 60.2606 225.732 55.9234 0.73125 0.0133525
1462800 60.2606 225.745 55.9234 0.73135 0.0123268
1463000 60.2606 225.758 55.9234 0.73145 -0.00888703
1463200 60.2606 225.771 55.9234 0.73155 0.0039099
1463400 60.2606 225.784 55.9234 0.73165 0.00305436
1463600 60.2606 225.797 55.9234 0.73175 0.026875
1463800 60.2606 225.811 55.9234 0.73185 0.0372416
1464000 60.2606 225.824 55.9234 0.73195 0.0284753
1464200 60.2606 225.837 55.9234 0.73205 0.0428738
1464400 60.2606 225.85 55.9234 0.73215 0.0164854
1464600 60.2606 225.863 55.9234 0.73225 0.0187606
1464800 60.2606 225.876 55.9234 0.73235 -0.0158359
1465000 60.2606 225.889 55.9234 0.73245 0.0100723
1465200 60.2606 225.902 55.9234 0.73255 0.00728894
1465400 60.2606 225.915 55.9234 0.73265 0.00338796
1465600 60.2606 225.928 55.9234 0.73275 -0.00253531
1465800 60.2606 225.941 55.9234 0.73285 -0.0438586
1466000 60.2606 225.954 55.9234 0.73295 -0.0204154
1466200 60.2606 225.967 55.9234 0.73305 -0.0311779
1466400 60.2606 225.98 55.9234 0.73315 -0.00895137
1466600 60.2606 225.993 55.9234 0.73325 -0.0201808
1466800 60.2606 226.006 55.9234 0.73335 0.00771144
1467000 60.2606 226.019 55.9234 0.73345 0.0154416
1467200 60.2606 226.032 55.9234 0.73355 0.00430272
1467400 60.2606 226.045 55.9234 0.73365 0.028584
1467600 60.2606 226.058 55.9234 0.73375 0.0235232
1467800 60.2606 226.071 55.9234 0.73385 0.0178532
1468000 60.2606 226.084 55.9234 0.73395 0.0359981
1468200 60.2606 226.097 55.9234 0.73405 0.0199135
1468400 60.2606 226.11 55.9234 0.73415 0.0230622
1468600 60.2606 226.123 55.9234 0.73425 0.0256447
1468800 60.2606 226.136 55.9234 0.73435 0.00697652
1469000 60.2606 226.15 55.9234 0.73445 0.000418349
1469200 60.2606 226.163 55.9234 0.73455 0.00450486
1469400 60.2606 226.176 55.9234 0.73465 -0.0296442
1469600 60.2606 226.189 55.9234 0.73475 -0.0110188
1469800 60.2606 226.202 55.9234 0.73485 -0.0199962
1470000 60.2606 226.215 55.9234 0.73495 -0.0334839
1470200 60.2606 226.228 55.9234 0.73505 -0.0250824
1470400 60.2606 226.241 55.9234 0.73515 -0.0141653
1470600 60.2606 226.254 55.9234 0.73525 -0.0114787
1470800 60.2606 226.267 55.9234 0.73535 0.0153502
1471000 60.2606 226.28 55.9234 0.73545 -0.00256992
1471200 60.2606 226.293 55.9234 0.73555 0.0176424
1471400 60.2606 226.306 55.9234 0.73565 0.0226408
1471600 60.2606 226.319 55.9234 0.73575 0.0308313
1471800 60.2606 226.332 55.9234 0.73585 0.0480656
1472000 60.2606 226.345 55.9234 0.73595 0.0237252
1472200 60.2606 226.358 55.9234 0.73605 0.0258057
1472400 60.2606 226.371 55.9234 0.73615 0.00948155
1472600 60.2606 226.384 55.9234 0.73625 0.0146911
1472800 60.2606 226.397 55.9234 0.73635 0.00189358
1473000 60.2606 226.41 55.9234 0.73645 -0.00199041
1473200 60.2606 226.423 55.9234 0.73655 0.0100248
1473400 60.2606 226.436 55.9234 0.73665 -0.0011704
1473600 60.2606 226.449 55.9234 0.73675 -0.0346088
1473800 60.2606 226.462 55.9234 0.73685 -0.0316121
1474000 60.2606 226.475 55.9234 0.73695 -0.0317419
1474200 60.2606 226.489 55.9234 0.73705 -0.0222917
1474400 60.2606 226.502 55.9234 0.73715 -0.0156024
1474600 60.2606 226.515 55.9234 0.73725 0.000173945
1474800 60.2606 226.528 55.9234 0.73735 0.0125667
1475000 60.2606 226.541 55.9234 0.73745 0.0102708
1475200 60.2606 226.554 55.9234 0.73755 0.0117755
1475400 60.2606 226.567 55.9234 0.73765 0.00627115
1475600 60.2606 226.58 55.9234 0.73775 0.03924
1475800 60.2606 226.593 55.9234 0.73785 0.0328137
1476000 60.2606 226.606 55.9234 0.73795 0.0249426
1476200 60.2606 226.619 55.9234 0.73805 0.0417213
1476400 60.2606 226.632 55.9234 0.73815 0.0246623
1476600 60.2606 226.645 55.9234 0.73825 0.0365865
1476800 60.2606 226.658 55.9234 0.73835 -0.00442289
1477000 60.2606 226.671 55.9234 0.73845 -0.032335
1477200 60.2606 226.684 55.9234 0.73855 -0.00315106
1477400 60.2606 226.697 55.9234 0.73865 -0.0263957
1477600 60.2606 226.71 55.9234 0.73875 -0.00301376
1477800 60.2606 226.723 55.9234 0.73885 -0.00907421
1478000 60.2606 226.736 55.9234 0.73895 -0.0251916
1478200 60.2606 226.749 55.9234 0.73905 -0.0254669
1478400 60.2606 226.762 55.9234 0.73915 -0.0246316
1478600 60.2606 226.775 55.9234 0.73925 -0.0208055
1478800 60.2606 226.788 55.9234 0.73935 0.00374553
1479000 60.2606 226.801 55.9234 0.73945 0.0229415
1479200 60.2606 226.814 55.9234 0.73955 0.0224654
1479400 60.2606 226.828 55.9234 0.73965 0.0261618
1479600 60.2606 226.841 55.9234 0.73975 0.0228238
1479800 60.2606 226.854 55.9234 0.73985 0.0225311
1480000 60.2606 226.867 55.9234 0.73995 0.0253585
1480200 60.2606 226.88 55.9234 0.74005 0.0395203
1480400 60.2606 226.893 55.9234 0.74015 0.0220653
1480600 60.2606 226.906 55.9234 0.74025 0.0145289
1480800 60.2606 226.919 55.9234 0.74035 0.00759741
1481000 60.2606 226.932 55.9234 0.74045 -0.00498807
1481200 60.2606 226.945 55.9234 0.74055 -0.00390742
1481400 60.2606 226.958 55.9234 0.74065 -0.0212678
1481600 60.2606 226.971 55.9234 0.74075 -0.0107999
1481800 60.2606 226.984 55.9234 0.74085 -0.0197763
1482000 60.2606 226.997 55.9234 0.74095 -0.0244103
1482200 60.2606 227.01 55.9234 0.74105 -0.0189947
1482400 60.2606 227.023 55.9234 0.74115 -0.0284285
1482600 60.2606 227.036 55.9234 0.74125 -0.00386543
1482800 60.2606 227.049 55.9234 0.74135 0.00716789
1483000 60.2606 227.062 55.9234 0.74145 0.00832097
1483200 60.2606 227.075 55.9234 0.74155 0.0234579
1483400 60.2606 227.088 55.9234 0.74165 0.0120996
1483600 60.2606 227.101 55.9234 0.74175 0.0233658
1483800 60.2606 227.114 55.9234 0.74185 0.0429494
1484000 60.2606 227.127 55.9234 0.74195 0.0218785
1484200 60.2606 227.14 55.9234 0.74205 0.0166667
1484400 60.2606 227.154 55.9234 0.74215 0.0275983
1484600 60.2606 227.167 55.9234 0.74225 0.0105798
1484800 60.2606 227.18 55.9234 0.74235 -0.00281526
1485000 60.2606 227.193 55.9234 0.74245 0.0121808
1485200 60.2606 227.206 55.9234 0.74255 -0.0233335
1485400 60.2606 227.219 55.9234 0.74265 -0.0104455
1485600 60.2606 227.232 55.9234 0.74275 -0.00956446
1485800 60.2606 227.245 55.9234 0.74285 -0.0175393
1486000 60.2606 227.258 55.9234 0.74295 -0.0204681
1486200 60.2606 227.271 55.9234 0.74305 -0.0106039
1486400 60.2606 227.284 55.9234 0.74315 -0.0174832
1486600 60.2606 227.297 55.9234 0.74325 -0.00123709
1486800 60.2606 227.31 55.9234 0.74335 0.0129809
1487000 60.2606 227.323 55.9234 0.74345 0.010922
1487200 60.2606 227.336 55.9234 0.74355 0.0256594
1487400 60.2606 227.349 55.9234 0.74365 0.0194739
1487600 60.2606 227.362 55.9234 0.74375 0.00694157
1487800 60.2606 227.375 55.9234 0.74385 0.00495095
1488000 60.2606 227.388 55.9234 0.74395 0.0305352
1488200 60.2606 227.401 55.9234 0.74405 0.0148963
1488400 60.2606 227.414 55.9234 0.74415 0.0256705
1488600 60.2606 227.427 55.9234 0.74425 0.0189656
1488800 60.2606 227.44 55.9234 0.74435 0.00884905
1489000 60.2606 227.453 55.9234 0.74445 -0.0104449
1489200 60.2606 227.466 55.9234 0.74455 -0.00424854
1489400 60.2606 227.479 55.9234 0.74465 -0.0174194
1489600 60.2606 227.493 55.9234 0.74475 -0.0194358
1489800 60.2606 227.506 55.9234 0.74485 -0.00347266
1490000 60.2606 227.519 55.9234 0.74495 -0.0158539
1490200 60.2606 227.532 55.9234 0.74505 -0.00606559
1490400 60.2606 227.545 55.9234 0.74515 -0.00163732
1490600 60.2606 227.558 55.9234 0.74525 -0.0171201
1490800 60.2606 227.571 55.9234 0.74535 0.00699724
1491000 60.2606 227.584 55.9234 0.74545 0.000786061
1491200 60.2606 227.597 55.9234 0.74555 0.0144454
1491400 60.2606 227.61 55.9234 0.74565 0.0360758
1491600 60.2606 227.623 55.9234 0.74575 0.016377
1491800 60.2606 227.636 55.9234 0.74585 0.017035
1492000 60.2606 227.649 55.9234 0.74595 0.0205332
1492200 60.2606 227.662 55.9234 0.74605 0.0101214
1492400 60.2606 227.675 55.9234 0.74615 0.0140432
1492600 60.2606 227.688 55.9234 0.74625 0.0159303
1492800 60.2606 227.701 55.9234 0.74635 0.0116404
1493000 60.2606 227.714 55.9234 0.74645 -0.00782406
1493200 60.2606 227.727 55.9234 0.74655 -0.00423995
1493400 60.2606 227.74 55.9234 0.74665 -0.0111179
1493600 60.2606 227.753 55.9234 0.74675 -0.00858302
1493800 60.2606 227.766 55.9234 0.74685 -0.016345
1494000 60.2606 227.779 55.9234 0.74695 -0.0243236
1494200 60.2606 227.792 55.9234 0.74705 0.00391102
1494400 60.2606 227.805 55.9234 0.74715 -0.0187547
1494600 60.2606 227.818 55.9234 0.74725 0.000326067
1494800 60.2606 227.832 55.9234 0.74735 0.00142817
1495000 60.2606 227.845 55.9234 0.74745 0.00386293
1495200 60.2606 227.858 55.9234 0.74755 0.0147738
1495400 60.2606 227.871 55.9234 0.74765 0.0253509
1495600 60.2606 227.884 55.9234 0.74775 0.02061
1495800 60.2606 227.897 55.9234 0.74785 0.0266878
1496000 60.2606 227.91 55.9234 0.74795 0.0102145
1496200 60.2606 227.923 55.9234 0.74805 0.025953
1496400 60.2606 227.936 55.9234 0.74815 0.0197113
1496600 60.2606 227.949 55.9234 0.74825 0.02365
1496800 60.2606 227.962 55.9234 0.74835 -0.00290773
1497000 60.2606 227.975 55.9234 0.74845 -0.0120003
1497200 60.2606 227.988 55.9234 0.74855 0.00147758
1497400 60.2606 228.001 55.9234 0.74865 -0.0124067
1497600 60.2606 228.014 55.9234 0.74875 -0.033724
1497800 60.2606 228.027 55.9234 0.74885 -0.0183612
1498000 60.2606 228.04 55.9234 0.74895 -0.0285354
1498200 60.2606 228.053 55.9234 0.74905 -0.0101749
1498400 60.2606 228.066 55.9234 0.74915 0.0040991
1498600 60.2606 228.079 55.9234 0.74925 -0.000357526
1498800 60.2606 228.092 55.9234 0.74935 0.00485155
1499000 60.2606 228.105 55.9234 0.74945 0.00575415
1499200 60.2606 228.118 55.9234 0.74955 0.0183112
1499400 60.2606 228.131 55.9234 0.74965 0.0411503
1499600 60.2606 228.144 55.9234 0.74975 0.0299666
1499800 60.2606 228.157 55.9234 0.74985 0.0177798
1500000 60.2606 228.171 55.9234 0.74995 0.0189173
1500200 60.2606 228.184 55.9234 0.75005 0.0173706
1500400 60.2606 228.197 55.9234 0.75015 0.0285326
1500600 60.2606 228.21 55.9234 0.75025 0.0134956
1500800 60.2606 228.223 55.9234 0.75035 0.00351518
1501000 60.2606 228.236 55.9234 0.75045 -0.00801599
1501200 60.2606 228.249 55.9234 0.75055 -0.0178855
1501400 60.2606 228.262 55.9234 0.75065 -0.0265204
1501600 60.2606 228.275 55.9234 0.75075 -0.0152335
1501800 60.2606 228.288 55.9234 0.75085 -0.0354706
1502000 60.2606 228.301 55.9234 0.75095 -0.00793704
1502200 60.2606 228.314 55.9234 0.75105 -0.0265242
1502400 60.2606 228.327 55.9234 0.75115 0.00477116
1502600 60.2606 228.34 55.9234 0.75125 0.00236375
1502800 60.2606 228.353 55.9234 0.75135 -0.00364652
1503000 60.2606 228.366 55.9234 0.75145 0.012847
1503200 60.2606 228.379 55.9234 0.75155 0.0241343
1503400 60.2606 228.392 55.9234 0.75165 0.0338282
1503600 60.2606 228.405 55.9234 0.75175 0.0319009
1503800 60.2606 228.418 55.9234 0.75185 0.0170043
1504000 60.2606 228.431 55.9234 0.75195 0.0261608
1504200 60.2606 228.444 55.9234 0.75205 0.0171874
1504400 60.2606 228.457 55.9234 0.75215 0.0145596
1504600 60.2606 228.47 55.9234 0.75225 0.0287236
1504800 60.2606 228.483 55.9234 0.75235 -0.01739
1505000 60.2606 228.496 55.9234 0.75245 -0.015418
1505200 60.2606 228.51 55.9234 0.75255 -0.00783789
1505400 60.2606 228.523 55.9234 0.75265 -0.0210018
1505600 60.2606 228.536 55.9234 0.75275 -0.0116853
1505800 60.2606 228.549 55.9234 0.75285 -0.0191536
1506000 60.2606 228.562 55.9234 0.75295 -0.0121529
1506200 60.2606 228.575 55.9234 0.75305 -0.0239285
1506400 60.2606 228.588 55.9234 0.75315 0.0094007
1506600 60.2606 228.601 55.9234 0.75325 -0.00259463
1506800 60.2606 228.614 55.9234 0.75335 0.00615635
1507000 60.2606 228.627 55.9234 0.75345 0.00455641
1507200 60.2606 228.64 55.9234 0.75355 0.0301047
1507400 60.2606 228.653 55.9234 0.75365 0.0277266
1507600 60.2606 228.666 55.9234 0.75375 0.0252853
1507800 60.2606 228.679 55.9234 0.75385 0.0316149
1508000 60.2606 228.692 55.9234 0.75395 0.00909162
1508200 60.2606 228.705 55.9234 0.75405 0.0135951
1508400 60.2606 228.718 55.9234 0.75415 -0.00278471
1508600 60.2606 228.731 55.9234 0.75425 0.00835079
1508800 60.2606 228.744 55.9234 0.75435 0.00345121
1509000 60.2606 228.757 55.9234 0.75445 0.00159899
1509200 60.2606 228.77 55.9234 0.75455 -0.0108769
1509400 60.2606 228.783 55.9234 0.75465 -0.0228679
1509600 60.2606 228.796 55.9234 0.75475 -0.00901547
1509800 60.2606 228.809 55.9234 0.75485 -0.0154137
1510000 60.2606 228.822 55.9234 0.75495 -0.0166986
1510200 60.2606 228.835 55.9234 0.75505 -0.0194783
1510400 60.2606 228.849 55.9234 0.75515 0.00108505
1510600 60.2606 228.862 55.9234 0.75525 0.0146536
1510800 60.2606 228.875 55.9234 0.75535 0.0158183
1511000 60.2606 228.888 55.9234 0.75545 0.0180582
1511200 60.2606 228.901 55.9234 0.75555 0.0177147
1511400 60.2606 228.914 55.9234 0.75565 0.00106042
1511600 60.2606 228.927 55.9234 0.75575 0.0217472
1511800 60.2606 228.94 55.9234 0.75585 0.0367022
1512000 60.2606 228.953 55.9234 0.75595 0.0202869
1512200 60.2606 228.966 55.9234 0.75605 0.00897349
1512400 60.2606 228.979 55.9234 0.75615 0.00342866
1512600 60.2606 228.992 55.9234 0.75625 0.00445702
1512800 60.2606 229.005 55.9234 0.75635 -0.0145983
1513000 60.2606 229.018 55.9234 0.75645 -0.0150738
1513200 60.2606 229.031 55.9234 0.75655 0.00163166
1513400 60.2606 229.044 55.9234 0.75665 0.00574201
1513600 60.2606 229.057 55.9234 0.75675 -0.00928064
1513800 60.2606 229.07 55.9234 0.75685 -0.0112379
1514000 60.2606 229.083 55.9234 0.75695 -0.0192725
1514200 60.2606 229.096 55.9234 0.75705 -0.00455111
1514400 60.2606 229.109 55.9234 0.75715 -0.010218
1514600 60.2606 229.122 55.9234 0.75725 0.00450329
1514800 60.2606 229.135 55.9234 0.75735 0.00677115
1515000 60.2606 229.148 55.9234 0.75745 0.0296058
1515200 60.2606 229.161 55.9234 0.75755 0.00747217
1515400 60.2606 229.174 55.9234 0.75765 0.00985937
1515600 60.2606 229.188 55.9234 0.75775 0.0153704
1515800 60.2606 229.201 55.9234 0.75785 0.0139718
1516000 60.2606 229.214 55.9234 0.75795 0.0205605
1516200 60.2606 229.227 55.9234 0.75805 0.0217613
1516400 60.2606 229.24 55.9234 0.75815 -0.00179354
1516600 60.2606 229.253 55.9234 0.75825 0.00276635
1516800 60.2606 229.266 55.9234 0.75835 0.000368765
1517000 60.2606 229.279 55.9234 0.75845 0.00186061
1517200 60.2606 229.292 55.9234 0.75855 -0.0128434
1517400 60.2606 229.305 55.9234 0.75865 -0.0157808
1517600 60.2606 229.318 55.9234 0.75875 0.00486713
1517800 60.2606 229.331 55.9234 0.75885 -0.00304771
1518000 60.2606 229.344 55.9234 0.75895 -0.0135249
1518200 60.2606 229.357 55.9234 0.75905 -0.0146622
1518400 60.2606 229.37 55.9234 0.75915 -0.0161214
1518600 60.2606 229.383 55.9234 0.75925 0.00767366
1518800 60.2606 229.396 55.9234 0.75935 0.0161481
1519000 60.2606 229.409 55.9234 0.75945 0.0159036
1519200 60.2606 229.422 55.9234 0.75955 0.00393726
1519400 60.2606 229.435 55.9234 0.75965 0.0175042
1519600 60.2606 229.448 55.9234 0.75975 0.00571865
1519800 60.2606 229.461 55.9234 0.75985 0.0247794
1520000 60.2606 229.474 55.9234 0.75995 0.0335222
1520200 60.2606 229.487 55.9234 0.76005 0.0173405
1520400 60.2606 229.5 55.9234 0.76015 -0.00447699
1520600 60.2606 229.514 55.9234 0.76025 0.00824465
1520800 60.2606 229.527 55.9234 0.76035 -0.00196126
1521000 60.2606 229.54 55.9234 0.76045 -0.00898899
1521200 60.2606 229.553 55.9234 0.76055 -0.00167196
1521400 60.2606 229.566 55.9234 0.76065 0.0062552
1521600 60.2606 229.579 55.9234 0.76075 -0.0157076
1521800 60.2606 229.592 55.9234 0.76085 -0.0244381
1522000 60.2606 229.605 55.9234 0.76095 -0.0218844
1522200 60.2606 229.618 55.9234 0.76105 -0.0251323
1522400 60.2606 229.631 55.9234 0.76115 0.00680107
1522600 60.2606 229.644 55.9234 0.76125 0.0148405
1522800 60.2606 229.657 55.9234 0.76135 0.0206949
1523000 60.2606 229.67 55.9234 0.76145 0.0125195
1523200 60.2606 229.683 55.9234 0.76155 0.0250247
1523400 60.2606 229.696 55.9234 0.76165 0.012308
1523600 60.2606 229.709 55.9234 0.76175 0.0122375
1523800 60.2606 229.722 55.9234 0.76185 0.0133243
1524000 60.2606 229.735 55.9234 0.76195 0.0397983
1524200 60.2606 229.748 55.9234 0.76205 0.0121152
1524400 60.2606 229.761 55.9234 0.76215 0.0152639
1524600 60.2606 229.774 55.9234 0.76225 -0.00732396
1524800 60.2606 229.787 55.9234 0.76235 -0.0127263
1525000 60.2606 229.8 55.9234 0.76245 -0.019395
1525200 60.2606 229.813 55.9234 0.76255 -0.0127401
1525400 60.2606 229.826 55.9234 0.76265 -0.0214189
1525600 60.2606 229.839 55.9234 0.76275 -0.00209829
1525800 60.2606 229.853 55.9234 0.76285 -0.0179883
1526000 60.2606 229.866 55.9234 0.76295 -0.0108355
1526200 60.2606 229.879 55.9234 0.76305 0.00553638
1526400 60.2606 229.892 55.9234 0.76315 -0.00945614
1526600 60.2606 229.905 55.9234 0.76325 0.0122206
1526800 60.2606 229.918 55.9234 0.76335 0.0186858
1527000 60.2606 229.931 55.9234 0.76345 0.022922
1527200 60.2606 229.944 55.9234 0.76355 0.0240562
1527400 60.2606 229.957 55.9234 0.76365 0.0221675
1527600 60.2606 229.97 55.9234 0.76375 0.0316469
1527800 60.2606 229.983 55.9234 0.76385 0.0138399
1528000 60.2606 229.996 55.9234 0.76395 0.00817991
1528200 60.2606 230.009 55.9234 0.76405 0.00854049
1528400 60.2606 230.022 55.9234 0.76415 -0.00459728
1528600 60.2606 230.035 55.9234 0.76425 -0.00608442
1528800 60.2606 230.048 55.9234 0.76435 -0.0034485
1529000 60.2606 230.061 55.9234 0.76445 -0.0137318
1529200 60.2606 230.074 55.9234 0.76455 -0.0155405
1529400 60.2606 230.087 55.9234 0.76465 -0.0203038
1529600 60.2606 230.1 55.9234 0.76475 -0.0235024
1529800 60.2606 230.113 55.9234 0.76485 -0.0164376
1530000 60.2606 230.126 55.9234 0.76495 0.000342056
1530200 60.2606 230.139 55.9234 0.76505 0.00590371
1530400 60.2606 230.152 55.9234 0.76515 0.0192038
1530600 60.2606 230.165 55.9234 0.76525 0.0138931
1530800 60.2606 230.178 55.9234 0.76535 0.0181832
1531000 60.2606 230.192 55.9234 0.76545 0.00440578
1531200 60.2606 230.205 55.9234 0.76555 0.0276501
1531400 60.2606 230.218 55.9234 0.76565 0.0164968
1531600 60.2606 230.231 55.9234 0.76575 0.0284179
1531800 60.2606 230.244 55.9234 0.76585 0.0173404
1532000 60.2606 230.257 55.9234 0.76595 0.011255
1532200 60.2606 230.27 55.9234 0.76605 0.0030165
1532400 60.2606 230.283 55.9234 0.76615 0.00465578
1532600 60.2606 230.296 55.9234 0.76625 -0.00742089
1532800 60.2606 230.309 55.9234 0.76635 -0.0226091
1533000 60.2606 230.322 55.9234 0.76645 -1.58688e-06
1533200 60.2606 230.335 55.9234 0.76655 -0.00400001
1533400 60.2606 230.348 55.9234 0.76665 -0.0107611
1533600 60.2606 230.361 55.9234 0.76675 -0.011514
1533800 60.2606 230.374 55.9234 0.76685 -0.0161851
1534000 60.2606 230.387 55.9234 0.76695 -0.0225691
1534200 60.2606 230.4 55.9234 0.76705 -0.00887804
1534400 60.2606 230.413 55.9234 0.76715 0.00676148
1534600 60.2606 230.426 55.9234 0.76725 0.0179485
1534800 60.2606 230.439 55.9234 0.76735 0.0156027
1535000 60.2606 230.452 55.9234 0.76745 0.0229364
1535200 60.2606 230.465 55.9234 0.76755 0.0234772
1535400 60.2606 230.478 55.9234 0.76765 0.020089
1535600 60.2606 230.491 55.9234 0.76775 0.0291308
1535800 60.2606 230.504 55.9234 0.76785 0.0319932
1536000 60.2606 230.517 55.9234 0.76795 0.00498833
1536200 60.2606 230.531 55.9234 0.76805 0.0134371
1536400 60.2606 230.544 55.9234 0.76815 0.00420147
1536600 60.2606 230.557 55.9234 0.76825 0.0023366
1536800 60.2606 230.57 55.9234 0.76835 -0.0319321
1537000 60.2606 230.583 55.9234 0.76845 -0.00535343
1537200 60.2606 230.596 55.9234 0.76855 -0.0284423
1537400 60.2606 230.609 55.9234 0.76865 -0.0123466
1537600 60.2606 230.622 55.9234 0.76875 -0.0170587
1537800 60.2606 230.635 55.9234 0.76885 -0.0335167
1538000 60.2606 230.648 55.9234 0.76895 -0.00191811
1538200 60.2606 230.661 55.9234 0.76905 0.00345953
1538400 60.2606 230.674 55.9234 0.76915 0.0143249
1538600 60.2606 230.687 55.9234 0.76925 0.00382714
1538800 60.2606 230.7 55.9234 0.76935 0.0121803
1539000 60.2606 230.713 55.9234 0.76945 0.0275052
1539200 60.2606 230.726 55.9234 0.76955 0.0450436
1539400 60.2606 230.739 55.9234 0.76965 0.0165207
1539600 60.2606 230.752 55.9234 0.76975 0.0379169
1539800 60.2606 230.765 55.9234 0.76985 0.0245193
1540000 60.2606 230.778 55.9234 0.76995 0.00823453
1540200 60.2606 230.791 55.9234 0.77005 0.0187183
1540400 60.2606 230.804 55.9234 0.77015 -0.00415172
1540600 60.2606 230.817 55.9234 0.77025 -0.0152499
1540800 60.2606 230.83 55.9234 0.77035 -0.0130264
1541000 60.2606 230.843 55.9234 0.77045 -0.0256011
1541200 60.2606 230.856 55.9234 0.77055 -0.0221241
1541400 60.2606 230.87 55.9234 0.77065 -0.013786
1541600 60.2606 230.883 55.9234 0.77075 -0.0197956
1541800 60.2606 230.896 55.9234 0.77085 -0.0249846
1542000 60.2606 230.909 55.9234 0.77095 -0.0174861
1542200 60.2606 230.922 55.9234 0.77105 0.00125079
1542400 60.2606 230.935 55.9234 0.77115 0.0174708
1542600 60.2606 230.948 55.9234 0.77125 0.0127779
1542800 60.2606 230.961 55.9234 0.77135 0.0118899
1543000 60.2606 230.974 55.9234 0.77145 0.0362791
1543200 60.2606 230.987 55.9234 0.77155 0.0433976
1543400 60.2606 231 55.9234 0.77165 0.031478
1543600 60.2606 231.013 55.9234 0.77175 0.0319189
1543800 60.2606 231.026 55.9234 0.77185 0.0196107
1544000 60.2606 231.039 55.9234 0.77195 0.0119679
1544200 60.2606 231.052 55.9234 0.77205 0.00262987
1544400 60.2606 231.065 55.9234 0.77215 0.0112573
1544600 60.2606 231.078 55.9234 0.77225 -0.0107037
1544800 60.2606 231.091 55.9234 0.77235 -0.0272131
1545000 60.2606 231.104 55.9234 0.77245 -0.0251405
1545200 60.2606 231.117 55.9234 0.77255 -0.0268445
1545400 60.2606 231.13 55.9234 0.77265 -0.0387914
1545600 60.2606 231.143 55.9234 0.77275 -0.00467555
1545800 60.2606 231.156 55.9234 0.77285 -0.0296488
1546000 60.2606 231.169 55.9234 0.77295 -0.00106905
1546200 60.2606 231.182 55.9234 0.77305 0.00655826
1546400 60.2606 231.195 55.9234 0.77315 0.00400147
1546600 60.2606 231.209 55.9234 0.77325 0.0197875
1546800 60.2606 231.222 55.9234 0.77335 0.0212686
1547000 60.2606 231.235 55.9234 0.77345 0.04126
1547200 60.2606 231.248 55.9234 0.77355 0.0296709
1547400 60.2606 231.261 55.9234 0.77365 0.0398563
1547600 60.2606 231.274 55.9234 0.77375 0.0329059
1547800 60.2606 231.287 55.9234 0.77385 0.0168682
1548000 60.2606 231.3 55.9234 0.77395 0.0197625
1548200 60.2606 231.313 55.9234 0.77405 -0.00316082
1548400 60.2606 231.326 55.9234 0.77415 -0.00337264
1548600 60.2606 231.339 55.9234 0.77425 -0.00939369
1548800 60.2606 231.352 55.9234 0.77435 -0.0169201
1549000 60.2606 231.365 55.9234 0.77445 -0.028072
1549200 60.2606 231.378 55.9234 0.77455 -0.0201173
1549400 60.2606 231.391 55.9234 0.77465 -0.022415
1549600 60.2606 231.404 55.9234 0.77475 -0.029413
1549800 60.2606 231.417 55.9234 0.77485 -0.0268701
1550000 60.2606 231.43 55.9234 0.77495 -0.0112967
1550200 60.2606 231.443 55.9234 0.77505 0.00780865
1550400 60.2606 231.456 55.9234 0.77515 0.0170269
1550600 60.2606 231.469 55.9234 0.77525 0.0288786
1550800 60.2606 231.482 55.9234 0.77535 0.0294589
1551000 60.2606 231.495 55.9234 0.77545 0.0177629
1551200 60.2606 231.508 55.9234 0.77555 0.0274415
1551400 60.2606 231.521 55.9234 0.77565 0.0433831
1551600 60.2606 231.535 55.9234 0.77575 0.0241388
1551800 60.2606 231.548 55.9234 0.77585 0.0174148
1552000 60.2606 231.561 55.9234 0.77595 0.0144773
1552200 60.2606 231.574 55.9234 0.77605 0.0102916
1552400 60.2606 231.587 55.9234 0.77615 0.0053521
1552600 60.2606 231.6 55.9234 0.77625 -0.0147821
1552800 60.2606 231.613 55.9234 0.77635 -0.0332473
1553000 60.2606 231.626 55.9234 0.77645 -0.0232474
1553200 60.2606 231.639 55.9234 0.77655 -0.00172369
1553400 60.2606 231.652 55.9234 0.77665 -0.0242743
1553600 60.2606 231.665 55.9234 0.77675 -0.0469394
1553800 60.2606 231.678 55.9234 0.77685 -0.0102686
1554000 60.2606 231.691 55.9234 0.77695 -0.0168434
1554200 60.2606 231.704 55.9234 0.77705 0.0106046
1554400 60.2606 231.717 55.9234 0.77715 0.0183842
1554600 60.2606 231.73 55.9234 0.77725 0.011034
1554800 60.2606 231.743 55.9234 0.77735 0.0370217
1555000 60.2606 231.756 55.9234 0.77745 0.0249644
1555200 60.2606 231.769 55.9234 0.77755 0.0340679
1555400 60.2606 231.782 55.9234 0.77765 0.042577
1555600 60.2606 231.795 55.9234 0.77775 0.0279787
1555800 60.2606 231.808 55.9234 0.77785 0.0224025
1556000 60.2606 231.821 55.9234 0.77795 0.00891252
1556200 60.2606 231.834 55.9234 0.77805 0.0174406
1556400 60.2606 231.847 55.9234 0.77815 -0.0168538
1556600 60.2606 231.86 55.9234 0.77825 -0.0183567
1556800 60.2606 231.874 55.9234 0.77835 -0.020606
1557000 60.2606 231.887 55.9234 0.77845 -0.0238646
1557200 60.2606 231.9 55.9234 0.77855 -0.015824
1557400 60.2606 231.913 55.9234 0.77865 -0.0354744
1557600 60.2606 231.926 55.9234 0.77875 -0.0193977
1557800 60.2606 231.939 55.9234 0.77885 -0.0218448
1558000 60.2606 231.952 55.9234 0.77895 -0.00548576
1558200 60.2606 231.965 55.9234 0.77905 0.0021519
1558400 60.2606 231.978 55.9234 0.77915 0.0158655
1558600 60.2606 231.991 55.9234 0.77925 0.0219377
1558800 60.2606 232.004 55.9234 0.77935 0.0372932
1559000 60.2606 232.017 55.9234 0.77945 0.0357162
1559200 60.2606 232.03 55.9234 0.77955 0.0238495
1559400 60.2606 232.043 55.9234 0.77965 0.0349388
1559600 60.2606 232.056 55.9234 0.77975 0.0357426
1559800 60.2606 232.069 55.9234 0.77985 0.0276293
1560000 60.2606 232.082 55.9234 0.77995 0.00603463
1560200 60.2606 232.095 55.9234 0.78005 0.00902148
1560400 60.2606 232.108 55.9234 0.78015 0.000513546
1560600 60.2606 232.121 55.9234 0.78025 -0.0205163
1560800 60.2606 232.134 55.9234 0.78035 -0.0370023
1561000 60.2606 232.147 55.9234 0.78045 -0.0265468
1561200 60.2606 232.16 55.9234 0.78055 -0.0403308
1561400 60.2606 232.173 55.9234 0.78065 -0.0104224
1561600 60.2606 232.186 55.9234 0.78075 -0.0233009
1561800 60.2606 232.199 55.9234 0.78085 -0.0182517
1562000 60.2606 232.213 55.9234 0.78095 -0.00971662
1562200 60.2606 232.226 55.9234 0.78105 0.0052657
1562400 60.2606 232.239 55.9234 0.78115 0.00593892
1562600 60.2606 232.252 55.9234 0.78125 0.00872624
1562800 60.2606 232.265 55.9234 0.78135 0.0571353
1563000 60.2606 232.278 55.9234 0.78145 0.037317
1563200 60.2606 232.291 55.9234 0.78155 0.0482342
1563400 60.2606 232.304 55.9234 0.78165 0.045575
1563600 60.2606 232.317 55.9234 0.78175 0.0055253
1563800 60.2606 232.33 55.9234 0.78185 0.0266439
1564000 60.2606 232.343 55.9234 0.78195 0.00560286
1564200 60.2606 232.356 55.9234 0.78205 0.0209655
1564400 60.2606 232.369 55.9234 0.78215 -0.00292837
1564600 60.2606 232.382 55.9234 0.78225 -0.0225398
1564800 60.2606 232.395 55.9234 0.78235 -0.0260855
1565000 60.2606 232.408 55.9234 0.78245 -0.054535
1565200 60.2606 232.421 55.9234 0.78255 -0.0357166
1565400 60.2606 232.434 55.9234 0.78265 -0.0272594
1565600 60.2606 232.447 55.9234 0.78275 -0.0101255
1565800 60.2606 232.46 55.9234 0.78285 -0.0226574
1566000 60.2606 232.473 55.9234 0.78295 0.0140908
1566200 60.2606 232.486 55.9234 0.78305 0.00173004
1566400 60.2606 232.499 55.9234 0.78315 0.0152953
1566600 60.2606 232.512 55.9234 0.78325 0.0203305
1566800 60.2606 232.525 55.9234 0.78335 0.0334268
1567000 60.2606 232.538 55.9234 0.78345 0.0580835
1567200 60.2606 232.552 55.9234 0.78355 0.0496192
1567400 60.2606 232.565 55.9234 0.78365 0.0383219
1567600 60.2606 232.578 55.9234 0.78375 0.0308957
1567800 60.2606 232.591 55.9234 0.78385 0.00654423
1568000 60.2606 232.604 55.9234 0.78395 0.0138617
1568200 60.2606 232.617 55.9234 0.78405 -0.00766991
1568400 60.2606 232.63 55.9234 0.78415 -0.0117998
1568600 60.2606 232.643 55.9234 0.78425 -0.0243345
1568800 60.2606 232.656 55.9234 0.78435 -0.0361351
1569000 60.2606 232.669 55.9234 0.78445 -0.0273983
1569200 60.2606 232.682 55.9234 0.78455 -0.0365989
1569400 60.2606 232.695 55.9234 0.78465 -0.0412969
1569600 60.2606 232.708 55.9234 0.78475 -0.045492
1569800 60.2606 232.721 55.9234 0.78485 -0.00538144
1570000 60.2606 232.734 55.9234 0.78495 0.0175877
1570200 60.2606 232.747 55.9234 0.78505 0.021858
1570400 60.2606 232.76 55.9234 0.78515 0.0291581
1570600 60.2606 232.773 55.9234 0.78525 0.0449662
1570800 60.2606 232.786 55.9234 0.78535 0.032879
1571000 60.2606 232.799 55.9234 0.78545 0.0457524
1571200 60.2606 232.812 55.9234 0.78555 0.041876
1571400 60.2606 232.825 55.9234 0.78565 0.0424346
1571600 60.2606 232.838 55.9234 0.78575 0.0409753
1571800 60.2606 232.851 55.9234 0.78585 0.0051523
1572000 60.2606 232.864 55.9234 0.78595 0.0243748
1572200 60.2606 232.877 55.9234 0.78605 -0.0377841
1572400 60.2606 232.891 55.9234 0.78615 -0.036363
1572600 60.2606 232.904 55.9234 0.78625 -0.0302217
1572800 60.2606 232.917 55.9234 0.78635 -0.0418777
1573000 60.2606 232.93 55.9234 0.78645 -0.0411694
1573200 60.2606 232.943 55.9234 0.78655 -0.0269438
1573400 60.2606 232.956 55.9234 0.78665 -0.0361068
1573600 60.2606 232.969 55.9234 0.78675 -0.00436329
1573800 60.2606 232.982 55.9234 0.78685 -0.0129495
1574000 60.2606 232.995 55.9234 0.78695 -0.0010383
1574200 60.2606 233.008 55.9234 0.78705 0.0301202
1574400 60.2606 233.021 55.9234 0.78715 0.0285878
1574600 60.2606 233.034 55.9234 0.78725 0.0438944
1574800 60.2606 233.047 55.9234 0.78735 0.0605331
1575000 60.2606 233.06 55.9234 0.78745 0.0510011
1575200 60.2606 233.073 55.9234 0.78755 0.0416081
1575400 60.2606 233.086 55.9234 0.78765 0.0369003
1575600 60.2606 233.099 55.9234 0.78775 0.0167295
1575800 60.2606 233.112 55.9234 0.78785 0.0123396
1576000 60.2606 233.125 55.9234 0.78795 -0.012548
1576200 60.2606 233.138 55.9234 0.78805 -0.00953454
1576400 60.2606 233.151 55.9234 0.78815 -0.0293514
1576600 60.2606 233.164 55.9234 0.78825 -0.0314842
1576800 60.2606 233.177 55.9234 0.78835 -0.0486619
1577000 60.2606 233.19 55.9234 0.78845 -0.0400304
1577200 60.2606 233.203 55.9234 0.78855 -0.0332851
1577400 60.2606 233.216 55.9234 0.78865 -0.0327286
1577600 60.2606 233.23 55.9234 0.78875 -0.00632907
1577800 60.2606 233.243 55.9234 0.78885 0.00576777
1578000 60.2606 233.256 55.9234 0.78895 0.0211668
1578200 60.2606 233.269 55.9234 0.78905 0.0142429
1578400 60.2606 233.282 55.9234 0.78915 0.046171
1578600 60.2606 233.295 55.9234 0.78925 0.0374618
1578800 60.2606 233.308 55.9234 0.78935 0.046522
1579000 60.2606 233.321 55.9234 0.78945 0.0255532
1579200 60.2606 233.334 55.9234 0.78955 0.0575239
1579400 60.2606 233.347 55.9234 0.78965 0.0407374
1579600 60.2606 233.36 55.9234 0.78975 0.019873
1579800 60.2606 233.373 55.9234 0.78985 -0.00486564
1580000 60.2606 233.386 55.9234 0.78995 -0.0121984
1580200 60.2606 233.399 55.9234 0.79005 -0.020068
1580400 60.2606 233.412 55.9234 0.79015 -0.0358851
1580600 60.2606 233.425 55.9234 0.79025 -0.0390443
1580800 60.2606 233.438 55.9234 0.79035 -0.0214573
1581000 60.2606 233.451 55.9234 0.79045 -0.0410397
1581200 60.2606 233.464 55.9234 0.79055 -0.0232548
1581400 60.2606 233.477 55.9234 0.79065 -0.0185223
1581600 60.2606 233.49 55.9234 0.79075 -0.0187925
1581800 60.2606 233.503 55.9234 0.79085 0.00699502
1582000 60.2606 233.516 55.9234 0.79095 0.0236678
1582200 60.2606 233.529 55.9234 0.79105 0.0280022
1582400 60.2606 233.542 55.9234 0.79115 0.0332205
1582600 60.2606 233.555 55.9234 0.79125 0.0437906
1582800 60.2606 233.569 55.9234 0.79135 0.0423991
1583000 60.2606 233.582 55.9234 0.79145 0.0427273
1583200 60.2606 233.595 55.9234 0.79155 0.0480293
1583400 60.2606 233.608 55.9234 0.79165 0.0185705
1583600 60.2606 233.621 55.9234 0.79175 0.00827714
1583800 60.2606 233.634 55.9234 0.79185 -0.0145153
1584000 60.2606 233.647 55.9234 0.79195 -0.00544866
1584200 60.2606 233.66 55.9234 0.79205 -0.0231129
1584400 60.2606 233.673 55.9234 0.79215 -0.0276784
1584600 60.2606 233.686 55.9234 0.79225 -0.0302663
1584800 60.2606 233.699 55.9234 0.79235 -0.035828
1585000 60.2606 233.712 55.9234 0.79245 -0.0400071
1585200 60.2606 233.725 55.9234 0.79255 -0.028274
1585400 60.2606 233.738 55.9234 0.79265 -0.023871
1585600 60.2606 233.751 55.9234 0.79275 -0.0024855
1585800 60.2606 233.764 55.9234 0.79285 0.012563
1586000 60.2606 233.777 55.9234 0.79295 0.0341237
1586200 60.2606 233.79 55.9234 0.79305 0.0320866
1586400 60.2606 233.803 55.9234 0.79315 0.0370418
1586600 60.2606 233.816 55.9234 0.79325 0.0290182
1586800 60.2606 233.829 55.9234 0.79335 0.0473147
1587000 60.2606 233.842 55.9234 0.79345 0.045228
1587200 60.2606 233.855 55.9234 0.79355 0.0299118
1587400 60.2606 233.868 55.9234 0.79365 0.0403786
1587600 60.2606 233.881 55.9234 0.79375 0.00820578
1587800 60.2606 233.895 55.9234 0.79385 0.00406578
1588000 60.2606 233.908 55.9234 0.79395 -0.0240155
1588200 60.2606 233.921 55.9234 0.79405 -0.0343187
1588400 60.2606 233.934 55.9234 0.79415 -0.0226972
1588600 60.2606 233.947 55.9234 0.79425 -0.0310578
1588800 60.2606 233.96 55.9234 0.79435 -0.057971
1589000 60.2606 233.973 55.9234 0.79445 -0.0235236
1589200 60.2606 233.986 55.9234 0.79455 -0.0392601
1589400 60.2606 233.999 55.9234 0.79465 -0.0149946
1589600 60.2606 234.012 55.9234 0.79475 0.0012458
1589800 60.2606 234.025 55.9234 0.79485 0.0140087
1590000 60.2606 234.038 55.9234 0.79495 0.0234007
1590200 60.2606 234.051 55.9234 0.79505 0.037576
1590400 60.2606 234.064 55.9234 0.79515 0.049514
1590600 60.2606 234.077 55.9234 0.79525 0.0396975
1590800 60.2606 234.09 55.9234 0.79535 0.0488209
1591000 60.2606 234.103 55.9234 0.79545 0.0370853
1591200 60.2606 234.116 55.9234 0.79555 0.041583
1591400 60.2606 234.129 55.9234 0.79565 0.0190577
1591600 60.2606 234.142 55.9234 0.79575 0.0144661
1591800 60.2606 234.155 55.9234 0.79585 -0.00205
1592000 60.2606 234.168 55.9234 0.79595 -0.0234116
1592200 60.2606 234.181 55.9234 0.79605 -0.0323772
1592400 60.2606 234.194 55.9234 0.79615 -0.0321838
1592600 60.2606 234.207 55.9234 0.79625 -0.0412487
1592800 60.2606 234.22 55.9234 0.79635 -0.0465073
1593000 60.2606 234.234 55.9234 0.79645 -0.0412727
1593200 60.2606 234.247 55.9234 0.79655 -0.018773
1593400 60.2606 234.26 55.9234 0.79665 -0.0113702
1593600 60.2606 234.273 55.9234 0.79675 -0.00438591
1593800 60.2606 234.286 55.9234 0.79685 0.0107411
1594000 60.2606 234.299 55.9234 0.79695 0.0294469
1594200 60.2606 234.312 55.9234 0.79705 0.0287412
1594400 60.2606 234.325 55.9234 0.79715 0.0580873
1594600 60.2606 234.338 55.9234 0.79725 0.0532878
1594800 60.2606 234.351 55.9234 0.79735 0.0472385
1595000 60.2606 234.364 55.9234 0.79745 0.0345182
1595200 60.2606 234.377 55.9234 0.79755 0.0252072
1595400 60.2606 234.39 55.9234 0.79765 0.00953847
1595600 60.2606 234.403 55.9234 0.79775 0.0175472
1595800 60.2606 234.416 55.9234 0.79785 -0.00863394
1596000 60.2606 234.429 55.9234 0.79795 -0.0244695
1596200 60.2606 234.442 55.9234 0.79805 -0.0285934
1596400 60.2606 234.455 55.9234 0.79815 -0.04079
1596600 60.2606 234.468 55.9234 0.79825 -0.0449325
1596800 60.2606 234.481 55.9234 0.79835 -0.0396079
1597000 60.2606 234.494 55.9234 0.79845 -0.0354233
1597200 60.2606 234.507 55.9234 0.79855 -0.0161072
1597400 60.2606 234.52 55.9234 0.79865 -0.0109289
1597600 60.2606 234.533 55.9234 0.79875 0.0233561
1597800 60.2606 234.546 55.9234 0.79885 0.00313074
1598000 60.2606 234.559 55.9234 0.79895 0.0326631
1598200 60.2606 234.573 55.9234 0.79905 0.0434867
1598400 60.2606 234.586 55.9234 0.79915 0.0510939
1598600 60.2606 234.599 55.9234 0.79925 0.0550302
1598800 60.2606 234.612 55.9234 0.79935 0.0521824
1599000 60.2606 234.625 55.9234 0.79945 0.0372726
1599200 60.2606 234.638 55.9234 0.79955 0.0138124
1599400 60.2606 234.651 55.9234 0.79965 -0.00205472
1599600 60.2606 234.664 55.9234 0.79975 0.0112702
1599800 60.2606 234.677 55.9234 0.79985 -0.0129621
1600000 60.2606 234.69 55.9234 0.79995 -0.0122196
1600200 60.2606 234.703 55.9234 0.80005 -0.0363828
1600400 60.2606 234.716 55.9234 0.80015 -0.0402634
1600600 60.2606 234.729 55.9234 0.80025 -0.0540819
1600800 60.2606 234.742 55.9234 0.80035 -0.0464626
1601000 60.2606 234.755 55.9234 0.80045 -0.0304651
1601200 60.2606 234.768 55.9234 0.80055 -0.0167812
1601400 60.2606 234.781 55.9234 0.80065 0.00437466
1601600 60.2606 234.794 55.9234 0.80075 0.000799697
1601800 60.2606 234.807 55.9234 0.80085 0.0226087
1602000 60.2606 234.82 55.9234 0.80095 0.0266028
1602200 60.2606 234.833 55.9234 0.80105 0.0362958
1602400 60.2606 234.846 55.9234 0.80115 0.0645782
1602600 60.2606 234.859 55.9234 0.80125 0.0458754
1602800 60.2606 234.872 55.9234 0.80135 0.0463715
1603000 60.2606 234.885 55.9234 0.80145 0.0547961
1603200 60.2606 234.898 55.9234 0.80155 0.0127046
1603400 60.2606 234.912 55.9234 0.80165 0.0141957
1603600 60.2606 234.925 55.9234 0.80175 -0.0146722
1603800 60.2606 234.938 55.9234 0.80185 -0.0130554
1604000 60.2606 234.951 55.9234 0.80195 -0.018361
1604200 60.2606 234.964 55.9234 0.80205 -0.0114008
1604400 60.2606 234.977 55.9234 0.80215 -0.0465747
1604600 60.2606 234.99 55.9234 0.80225 -0.0438181
1604800 60.2606 235.003 55.9234 0.80235 -0.050193
1605000 60.2606 235.016 55.9234 0.80245 -0.0415833
1605200 60.2606 235.029 55.9234 0.80255 -0.0242246
1605400 60.2606 235.042 55.9234 0.80265 -0.00524035
1605600 60.2606 235.055 55.9234 0.80275 0.0260325
1605800 60.2606 235.068 55.9234 0.80285 0.0283649
1606000 60.2606 235.081 55.9234 0.80295 0.0392809
1606200 60.2606 235.094 55.9234 0.80305 0.0268214
1606400 60.2606 235.107 55.9234 0.80315 0.0408964
1606600 60.2606 235.12 55.9234 0.80325 0.0517548
1606800 60.2606 235.133 55.9234 0.80335 0.0441035
1607000 60.2606 235.146 55.9234 0.80345 0.0400359
1607200 60.2606 235.159 55.9234 0.80355 0.0261508
1607400 60.2606 235.172 55.9234 0.80365 0.0109609
1607600 60.2606 235.185 55.9234 0.80375 -0.011323
1607800 60.2606 235.198 55.9234 0.80385 -0.018751
1608000 60.2606 235.211 55.9234 0.80395 -0.0161882
1608200 60.2606 235.224 55.9234 0.80405 -0.0362733
1608400 60.2606 235.237 55.9234 0.80415 -0.0413904
1608600 60.2606 235.251 55.9234 0.80425 -0.0217453
1608800 60.2606 235.264 55.9234 0.80435 -0.0523835
1609000 60.2606 235.277 55.9234 0.80445 -0.0352128
1609200 60.2606 235.29 55.9234 0.80455 -0.0213909
1609400 60.2606 235.303 55.9234 0.80465 -0.0115704
1609600 60.2606 235.316 55.9234 0.80475 0.0204783
1609800 60.2606 235.329 55.9234 0.80485 0.0345985
1610000 60.2606 235.342 55.9234 0.80495 0.0336555
1610200 60.2606 235.355 55.9234 0.80505 0.0422575
1610400 60.2606 235.368 55.9234 0.80515 0.0442945
1610600 60.2606 235.381 55.9234 0.80525 0.0467913
1610800 60.2606 235.394 55.9234 0.80535 0.0295924
1611000 60.2606 235.407 55.9234 0.80545 0.0461487
1611200 60.2606 235.42 55.9234 0.80555 0.0259802
1611400 60.2606 235.433 55.9234 0.80565 0.0166892
1611600 60.2606 235.446 55.9234 0.80575 -0.0111409
1611800 60.2606 235.459 55.9234 0.80585 -0.0108177
1612000 60.2606 235.472 55.9234 0.80595 -0.0247948
1612200 60.2606 235.485 55.9234 0.80605 -0.0375651
1612400 60.2606 235.498 55.9234 0.80615 -0.0377272
1612600 60.2606 235.511 55.9234 0.80625 -0.0456772
1612800 60.2606 235.524 55.9234 0.80635 -0.0404811
1613000 60.2606 235.537 55.9234 0.80645 -0.0311923
1613200 60.2606 235.55 55.9234 0.80655 -0.0193986
1613400 60.2606 235.563 55.9234 0.80665 -0.0115941
1613600 60.2606 235.576 55.9234 0.80675 0.024553
1613800 60.2606 235.59 55.9234 0.80685 0.0285514
1614000 60.2606 235.603 55.9234 0.80695 0.0444086
1614200 60.2606 235.616 55.9234 0.80705 0.0320872
1614400 60.2606 235.629 55.9234 0.80715 0.047388
1614600 60.2606 235.642 55.9234 0.80725 0.0635917
1614800 60.2606 235.655 55.9234 0.80735 0.0295979
1615000 60.2606 235.668 55.9234 0.80745 0.0311256
1615200 60.2606 235.681 55.9234 0.80755 0.026285
1615400 60.2606 235.694 55.9234 0.80765 0.0191978
1615600 60.2606 235.707 55.9234 0.80775 -0.017574
1615800 60.2606 235.72 55.9234 0.80785 -0.0232758
1616000 60.2606 235.733 55.9234 0.80795 -0.0421071
1616200 60.2606 235.746 55.9234 0.80805 -0.0303402
1616400 60.2606 235.759 55.9234 0.80815 -0.0280982
1616600 60.2606 235.772 55.9234 0.80825 -0.0406236
1616800 60.2606 235.785 55.9234 0.80835 -0.0520537
1617000 60.2606 235.798 55.9234 0.80845 -0.0171708
1617200 60.2606 235.811 55.9234 0.80855 -0.0253347
1617400 60.2606 235.824 55.9234 0.80865 -0.0110958
1617600 60.2606 235.837 55.9234 0.80875 0.019147
1617800 60.2606 235.85 55.9234 0.80885 0.0445979
1618000 60.2606 235.863 55.9234 0.80895 0.0607694
1618200 60.2606 235.876 55.9234 0.80905 0.0422135
1618400 60.2606 235.889 55.9234 0.80915 0.0482436
1618600 60.2606 235.902 55.9234 0.80925 0.034356
1618800 60.2606 235.916 55.9234 0.80935 0.0409375
1619000 60.2606 235.929 55.9234 0.80945 0.0329419
1619200 60.2606 235.942 55.9234 0.80955 0.0134372
1619400 60.2606 235.955 55.9234 0.80965 0.0130566
1619600 60.2606 235.968 55.9234 0.80975 -0.0267041
1619800 60.2606 235.981 55.9234 0.80985 -0.0265055
1620000 60.2606 235.994 55.9234 0.80995 -0.0217718
1620200 60.2606 236.007 55.9234 0.81005 -0.040609
1620400 60.2606 236.02 55.9234 0.81015 -0.0414402
1620600 60.2606 236.033 55.9234 0.81025 -0.0196344
1620800 60.2606 236.046 55.9234 0.81035 -0.030587
1621000 60.2606 236.059 55.9234 0.81045 -0.0324314
1621200 60.2606 236.072 55.9234 0.81055 -0.0255946
1621400 60.2606 236.085 55.9234 0.81065 0.0101925
1621600 60.2606 236.098 55.9234 0.81075 0.0168139
1621800 60.2606 236.111 55.9234 0.81085 0.0290543
1622000 60.2606 236.124 55.9234 0.81095 0.0357339
1622200 60.2606 236.137 55.9234 0.81105 0.0510251
1622400 60.2606 236.15 55.9234 0.81115 0.0259339
1622600 60.2606 236.163 55.9234 0.81125 0.0682569
1622800 60.2606 236.176 55.9234 0.81135 0.0256994
1623000 60.2606 236.189 55.9234 0.81145 0.0339771
1623200 60.2606 236.202 55.9234 0.81155 0.0380233
1623400 60.2606 236.215 55.9234 0.81165 -0.00809992
1623600 60.2606 236.228 55.9234 0.81175 -0.023835
1623800 60.2606 236.241 55.9234 0.81185 -0.0161038
1624000 60.2606 236.255 55.9234 0.81195 -0.0315936
1624200 60.2606 236.268 55.9234 0.81205 -0.0425892
1624400 60.2606 236.281 55.9234 0.81215 -0.040017
1624600 60.2606 236.294 55.9234 0.81225 -0.0213758
1624800 60.2606 236.307 55.9234 0.81235 -0.0179757
1625000 60.2606 236.32 55.9234 0.81245 -0.0265266
1625200 60.2606 236.333 55.9234 0.81255 -0.0155075
1625400 60.2606 236.346 55.9234 0.81265 -0.00395599
1625600 60.2606 236.359 55.9234 0.81275 0.0122627
1625800 60.2606 236.372 55.9234 0.81285 0.0339427
1626000 60.2606 236.385 55.9234 0.81295 0.0476708
1626200 60.2606 236.398 55.9234 0.81305 0.0337771
1626400 60.2606 236.411 55.9234 0.81315 0.0529372
1626600 60.2606 236.424 55.9234 0.81325 0.0306082
1626800 60.2606 236.437 55.9234 0.81335 0.0291106
1627000 60.2606 236.45 55.9234 0.81345 0.0225622
1627200 60.2606 236.463 55.9234 0.81355 0.0147671
1627400 60.2606 236.476 55.9234 0.81365 0.0076198
1627600 60.2606 236.489 55.9234 0.81375 -0.0127158
1627800 60.2606 236.502 55.9234 0.81385 -0.0225212
1628000 60.2606 236.515 55.9234 0.81395 -0.0139905
1628200 60.2606 236.528 55.9234 0.81405 -0.0485388
1628400 60.2606 236.541 55.9234 0.81415 -0.034185
1628600 60.2606 236.554 55.9234 0.81425 -0.0234156
1628800 60.2606 236.567 55.9234 0.81435 -0.0222528
1629000 60.2606 236.58 55.9234 0.81445 -0.0210122
1629200 60.2606 236.594 55.9234 0.81455 0.00634665
1629400 60.2606 236.607 55.9234 0.81465 0.00100554
1629600 60.2606 236.62 55.9234 0.81475 0.00175968
1629800 60.2606 236.633 55.9234 0.81485 0.0212468
1630000 60.2606 236.646 55.9234 0.81495 0.0460863
1630200 60.2606 236.659 55.9234 0.81505 0.043505
1630400 60.2606 236.672 55.9234 0.81515 0.0488312
1630600 60.2606 236.685 55.9234 0.81525 0.0281249
1630800 60.2606 236.698 55.9234 0.81535 0.014209
1631000 60.2606 236.711 55.9234 0.81545 0.0228713
1631200 60.2606 236.724 55.9234 0.81555 0.0222929
1631400 60.2606 236.737 55.9234 0.81565 0.000220646
1631600 60.2606 236.75 55.9234 0.81575 0.00213984
1631800 60.2606 236.763 55.9234 0.81585 -0.0159255
1632000 60.2606 236.776 55.9234 0.81595 -0.0312098
1632200 60.2606 236.789 55.9234 0.81605 -0.0437142
1632400 60.2606 236.802 55.9234 0.81615 -0.0221439
1632600 60.2606 236.815 55.9234 0.81625 -0.0287534
1632800 60.2606 236.828 55.9234 0.81635 -0.0224353
1633000 60.2606 236.841 55.9234 0.81645 -0.0067124
1633200 60.2606 236.854 55.9234 0.81655 -0.00122819
1633400 60.2606 236.867 55.9234 0.81665 -0.00389798
1633600 60.2606 236.88 55.9234 0.81675 -0.0015174
1633800 60.2606 236.893 55.9234 0.81685 0.0305986
1634000 60.2606 236.906 55.9234 0.81695 0.0442287
1634200 60.2606 236.919 55.9234 0.81705 0.0395728
1634400 60.2606 236.933 55.9234 0.81715 0.0386511
1634600 60.2606 236.946 55.9234 0.81725 0.019822
1634800 60.2606 236.959 55.9234 0.81735 0.0253138
1635000 60.2606 236.972 55.9234 0.81745 0.0202386
1635200 60.2606 236.985 55.9234 0.81755 0.00523175
1635400 60.2606 236.998 55.9234 0.81765 0.00724179
1635600 60.2606 237.011 55.9234 0.81775 -0.00531508
1635800 60.2606 237.024 55.9234 0.81785 -0.0143161
1636000 60.2606 237.037 55.9234 0.81795 -0.0198124
1636200 60.2606 237.05 55.9234 0.81805 -0.031651
1636400 60.2606 237.063 55.9234 0.81815 -0.0192421
1636600 60.2606 237.076 55.9234 0.81825 -0.0256942
1636800 60.2606 237.089 55.9234 0.81835 -0.0242076
1637000 60.2606 237.102 55.9234 0.81845 -0.00931291
1637200 60.2606 237.115 55.9234 0.81855 0.00833561
1637400 60.2606 237.128 55.9234 0.81865 -0.00120985
1637600 60.2606 237.141 55.9234 0.81875 0.00304686
1637800 60.2606 237.154 55.9234 0.81885 0.0143638
1638000 60.2606 237.167 55.9234 0.81895 0.0258714
1638200 60.2606 237.18 55.9234 0.81905 0.0437658
1638400 60.2606 237.193 55.9234 0.81915 0.0327285
1638600 60.2606 237.206 55.9234 0.81925 0.0244579
1638800 60.2606 237.219 55.9234 0.81935 0.0275617
1639000 60.2606 237.232 55.9234 0.81945 0.0280194
1639200 60.2606 237.245 55.9234 0.81955 0.00851113
1639400 60.2606 237.258 55.9234 0.81965 -0.00712741
1639600 60.2606 237.272 55.9234 0.81975 -0.00630189
1639800 60.2606 237.285 55.9234 0.81985 -0.0111038
1640000 60.2606 237.298 55.9234 0.81995 -0.0104024
1640200 60.2606 237.311 55.9234 0.82005 -0.026024
1640400 60.2606 237.324 55.9234 0.82015 -0.0331544
1640600 60.2606 237.337 55.9234 0.82025 -0.0139599
1640800 60.2606 237.35 55.9234 0.82035 -0.022974
1641000 60.2606 237.363 55.9234 0.82045 -0.0088674
1641200 60.2606 237.376 55.9234 0.82055 -0.00975603
1641400 60.2606 237.389 55.9234 0.82065 0.00655306
1641600 60.2606 237.402 55.9234 0.82075 0.0160344
1641800 60.2606 237.415 55.9234 0.82085 0.0303983
1642000 60.2606 237.428 55.9234 0.82095 0.0303534
1642200 60.2606 237.441 55.9234 0.82105 0.0233123
1642400 60.2606 237.454 55.9234 0.82115 0.0309354
1642600 60.2606 237.467 55.9234 0.82125 0.0295989
1642800 60.2606 237.48 55.9234 0.82135 0.0153101
1643000 60.2606 237.493 55.9234 0.82145 0.0206488
1643200 60.2606 237.506 55.9234 0.82155 0.0143182
1643400 60.2606 237.519 55.9234 0.82165 0.00179653
1643600 60.2606 237.532 55.9234 0.82175 -0.0245983
1643800 60.2606 237.545 55.9234 0.82185 -0.0202748
1644000 60.2606 237.558 55.9234 0.82195 -0.0198901
1644200 60.2606 237.571 55.9234 0.82205 -0.0271645
1644400 60.2606 237.584 55.9234 0.82215 -0.00134437
1644600 60.2606 237.597 55.9234 0.82225 -0.0120994
1644800 60.2606 237.611 55.9234 0.82235 -0.0216567
1645000 60.2606 237.624 55.9234 0.82245 -0.00934807
1645200 60.2606 237.637 55.9234 0.82255 -0.00242288
1645400 60.2606 237.65 55.9234 0.82265 0.0105652
1645600 60.2606 237.663 55.9234 0.82275 0.0140986
1645800 60.2606 237.676 55.9234 0.82285 0.0256426
1646000 60.2606 237.689 55.9234 0.82295 0.0329028
1646200 60.2606 237.702 55.9234 0.82305 0.029767
1646400 60.2606 237.715 55.9234 0.82315 0.0216417
1646600 60.2606 237.728 55.9234 0.82325 0.0302693
1646800 60.2606 237.741 55.9234 0.82335 0.0181843
1647000 60.2606 237.754 55.9234 0.82345 0.00473074
1647200 60.2606 237.767 55.9234 0.82355 0.00697848
1647400 60.2606 237.78 55.9234 0.82365 0.00785432
1647600 60.2606 237.793 55.9234 0.82375 -0.0096016
1647800 60.2606 237.806 55.9234 0.82385 -0.0128168
1648000 60.2606 237.819 55.9234 0.82395 -0.0277994
1648200 60.2606 237.832 55.9234 0.82405 -0.0117934
1648400 60.2606 237.845 55.9234 0.82415 -0.0205959
1648600 60.2606 237.858 55.9234 0.82425 -0.0306999
1648800 60.2606 237.871 55.9234 0.82435 -0.0121279
1649000 60.2606 237.884 55.9234 0.82445 -0.0045644
1649200 60.2606 237.897 55.9234 0.82455 0.0102038
1649400 60.2606 237.91 55.9234 0.82465 0.000735267
1649600 60.2606 237.923 55.9234 0.82475 0.0206566
1649800 60.2606 237.936 55.9234 0.82485 0.0276311
1650000 60.2606 237.95 55.9234 0.82495 0.0125579
1650200 60.2606 237.963 55.9234 0.82505 0.020882
1650400 60.2606 237.976 55.9234 0.82515 0.0339168
1650600 60.2606 237.989 55.9234 0.82525 0.025354
1650800 60.2606 238.002 55.9234 0.82535 0.042373
1651000 60.2606 238.015 55.9234 0.82545 -0.0118132
1651200 60.2606 238.028 55.9234 0.82555 -0.00341168
1651400 60.2606 238.041 55.9234 0.82565 0.00311767
1651600 60.2606 238.054 55.9234 0.82575 -0.0160079
1651800 60.2606 238.067 55.9234 0.82585 0.00242785
1652000 60.2606 238.08 55.9234 0.82595 -0.0245452
1652200 60.2606 238.093 55.9234 0.82605 -0.015099
1652400 60.2606 238.106 55.9234 0.82615 -0.00502811
1652600 60.2606 238.119 55.9234 0.82625 -0.0196215
1652800 60.2606 238.132 55.9234 0.82635 -0.0114766
1653000 60.2606 238.145 55.9234 0.82645 -0.0157293
1653200 60.2606 238.158 55.9234 0.82655 0.00842289
1653400 60.2606 238.171 55.9234 0.82665 0.00908394
1653600 60.2606 238.184 55.9234 0.82675 0.0259688
1653800 60.2606 238.197 55.9234 0.82685 0.0237904
1654000 60.2606 238.21 55.9234 0.82695 0.0270489
1654200 60.2606 238.223 55.9234 0.82705 0.0123619
1654400 60.2606 238.236 55.9234 0.82715 0.0143077
1654600 60.2606 238.249 55.9234 0.82725 0.013959
1654800 60.2606 238.262 55.9234 0.82735 0.0283179
1655000 60.2606 238.276 55.9234 0.82745 0.0141166
1655200 60.2606 238.289 55.9234 0.82755 0.0186073
1655400 60.2606 238.302 55.9234 0.82765 -0.0127406
1655600 60.2606 238.315 55.9234 0.82775 -0.0162197
1655800 60.2606 238.328 55.9234 0.82785 -0.0143216
1656000 60.2606 238.341 55.9234 0.82795 -0.0244088
1656200 60.2606 238.354 55.9234 0.82805 -0.0063161
1656400 60.2606 238.367 55.9234 0.82815 -0.0139768
1656600 60.2606 238.38 55.9234 0.82825 -0.00278349
1656800 60.2606 238.393 55.9234 0.82835 -0.0146154
1657000 60.2606 238.406 55.9234 0.82845 0.0026275
1657200 60.2606 238.419 55.9234 0.82855 -0.000129634
1657400 60.2606 238.432 55.9234 0.82865 -0.0013512
1657600 60.2606 238.445 55.9234 0.82875 0.0067106
1657800 60.2606 238.458 55.9234 0.82885 0.0340829
1658000 60.2606 238.471 55.9234 0.82895 0.0304336
1658200 60.2606 238.484 55.9234 0.82905 0.0214722
1658400 60.2606 238.497 55.9234 0.82915 0.00739931
1658600 60.2606 238.51 55.9234 0.82925 0.0242609
1658800 60.2606 238.523 55.9234 0.82935 0.0129199
1659000 60.2606 238.536 55.9234 0.82945 0.0121604
1659200 60.2606 238.549 55.9234 0.82955 0.0139238
1659400 60.2606 238.562 55.9234 0.82965 -0.00169148
1659600 60.2606 238.575 55.9234 0.82975 -0.014802
1659800 60.2606 238.588 55.9234 0.82985 -0.0116206
1660000 60.2606 238.601 55.9234 0.82995 -0.0246414
1660200 60.2606 238.615 55.9234 0.83005 -0.00839836
1660400 60.2606 238.628 55.9234 0.83015 -0.0260072
1660600 60.2606 238.641 55.9234 0.83025 0.00835927
1660800 60.2606 238.654 55.9234 0.83035 -0.0125302
1661000 60.2606 238.667 55.9234 0.83045 0.00823696
1661200 60.2606 238.68 55.9234 0.83055 0.0086926
1661400 60.2606 238.693 55.9234 0.83065 -0.0056382
1661600 60.2606 238.706 55.9234 0.83075 0.00747975
1661800 60.2606 238.719 55.9234 0.83085 0.0161279
1662000 60.2606 238.732 55.9234 0.83095 0.0149031
1662200 60.2606 238.745 55.9234 0.83105 0.0452862
1662400 60.2606 238.758 55.9234 0.83115 0.00299864
1662600 60.2606 238.771 55.9234 0.83125 0.0240784
1662800 60.2606 238.784 55.9234 0.83135 0.0208587
1663000 60.2606 238.797 55.9234 0.83145 0.00360965
1663200 60.2606 238.81 55.9234 0.83155 0.00440771
1663400 60.2606 238.823 55.9234 0.83165 0.0131747
1663600 60.2606 238.836 55.9234 0.83175 -0.012091
1663800 60.2606 238.849 55.9234 0.83185 -0.00486369
1664000 60.2606 238.862 55.9234 0.83195 -0.0217619
1664200 60.2606 238.875 55.9234 0.83205 -0.0247434
1664400 60.2606 238.888 55.9234 0.83215 -0.0197798
1664600 60.2606 238.901 55.9234 0.83225 -0.00210712
1664800 60.2606 238.914 55.9234 0.83235 -0.000310091
1665000 60.2606 238.927 55.9234 0.83245 -0.0191598
1665200 60.2606 238.94 55.9234 0.83255 0.00659813
1665400 60.2606 238.954 55.9234 0.83265 0.0211184
1665600 60.2606 238.967 55.9234 0.83275 0.00378536
1665800 60.2606 238.98 55.9234 0.83285 0.0161747
1666000 60.2606 238.993 55.9234 0.83295 0.0253505
1666200 60.2606 239.006 55.9234 0.83305 0.044854
1666400 60.2606 239.019 55.9234 0.83315 0.0118678
1666600 60.2606 239.032 55.9234 0.83325 0.0275486
1666800 60.2606 239.045 55.9234 0.83335 0.00685648
1667000 60.2606 239.058 55.9234 0.83345 0.00829762
1667200 60.2606 239.071 55.9234 0.83355 0.00582612
1667400 60.2606 239.084 55.9234 0.83365 -0.00934256
1667600 60.2606 239.097 55.9234 0.83375 -0.000505954
1667800 60.2606 239.11 55.9234 0.83385 -0.023754
1668000 60.2606 239.123 55.9234 0.83395 -0.0331032
1668200 60.2606 239.136 55.9234 0.83405 -0.00237008
1668400 60.2606 239.149 55.9234 0.83415 -0.0174653
1668600 60.2606 239.162 55.9234 0.83425 -0.00282615
1668800 60.2606 239.175 55.9234 0.83435 -0.00331192
1669000 60.2606 239.188 55.9234 0.83445 -0.0062996
1669200 60.2606 239.201 55.9234 0.83455 0.0133942
1669400 60.2606 239.214 55.9234 0.83465 -0.00552627
1669600 60.2606 239.227 55.9234 0.83475 0.0240667
1669800 60.2606 239.24 55.9234 0.83485 0.0256379
1670000 60.2606 239.253 55.9234 0.83495 0.0227253
1670200 60.2606 239.266 55.9234 0.83505 0.0319896
1670400 60.2606 239.279 55.9234 0.83515 0.0205508
1670600 60.2606 239.293 55.9234 0.83525 0.00886553
1670800 60.2606 239.306 55.9234 0.83535 0.0172538
1671000 60.2606 239.319 55.9234 0.83545 0.0145548
1671200 60.2606 239.332 55.9234 0.83555 0.00385056
1671400 60.2606 239.345 55.9234 0.83565 -0.0136871
1671600 60.2606 239.358 55.9234 0.83575 -0.0023048
1671800 60.2606 239.371 55.9234 0.83585 -0.0125238
1672000 60.2606 239.384 55.9234 0.83595 -0.0372202
1672200 60.2606 239.397 55.9234 0.83605 -0.024648
1672400 60.2606 239.41 55.9234 0.83615 -0.00237096
1672600 60.2606 239.423 55.9234 0.83625 -0.00849849
1672800 60.2606 239.436 55.9234 0.83635 -0.0192867
1673000 60.2606 239.449 55.9234 0.83645 0.00970774
1673200 60.2606 239.462 55.9234 0.83655 0.0116439
1673400 60.2606 239.475 55.9234 0.83665 0.0225852
1673600 60.2606 239.488 55.9234 0.83675 0.00906215
1673800 60.2606 239.501 55.9234 0.83685 0.0326742
1674000 60.2606 239.514 55.9234 0.83695 0.0269704
1674200 60.2606 239.527 55.9234 0.83705 0.0355925
1674400 60.2606 239.54 55.9234 0.83715 0.0078902
1674600 60.2606 239.553 55.9234 0.83725 0.010286
1674800 60.2606 239.566 55.9234 0.83735 0.0206549
1675000 60.2606 239.579 55.9234 0.83745 0.00421668
1675200 60.2606 239.592 55.9234 0.83755 -0.0246517
1675400 60.2606 239.605 55.9234 0.83765 -0.0102938
1675600 60.2606 239.618 55.9234 0.83775 -0.0120434
1675800 60.2606 239.632 55.9234 0.83785 -0.00123021
1676000 60.2606 239.645 55.9234 0.83795 -0.0238338
1676200 60.2606 239.658 55.9234 0.83805 -0.0140375
1676400 60.2606 239.671 55.9234 0.83815 -0.015652
1676600 60.2606 239.684 55.9234 0.83825 -0.00756977
1676800 60.2606 239.697 55.9234 0.83835 0.00474442
1677000 60.2606 239.71 55.9234 0.83845 0.0140536
1677200 60.2606 239.723 55.9234 0.83855 0.00140091
1677400 60.2606 239.736 55.9234 0.83865 0.0205052
1677600 60.2606 239.749 55.9234 0.83875 0.0256209
1677800 60.2606 239.762 55.9234 0.83885 0.0142053
1678000 60.2606 239.775 55.9234 0.83895 0.0292685
1678200 60.2606 239.788 55.9234 0.83905 0.0225369
1678400 60.2606 239.801 55.9234 0.83915 0.0215606
1678600 60.2606 239.814 55.9234 0.83925 0.00998008
1678800 60.2606 239.827 55.9234 0.83935 0.00174832
1679000 60.2606 239.84 55.9234 0.83945 0.00914305
1679200 60.2606 239.853 55.9234 0.83955 -0.0161674
1679400 60.2606 239.866 55.9234 0.83965 -0.00398099
1679600 60.2606 239.879 55.9234 0.83975 -0.0211754
1679800 60.2606 239.892 55.9234 0.83985 -0.00734782
1680000 60.2606 239.905 55.9234 0.83995 -0.0139056
1680200 60.2606 239.918 55.9234 0.84005 -0.0212881
1680400 60.2606 239.931 55.9234 0.84015 -0.0186366
1680600 60.2606 239.944 55.9234 0.84025 -0.00426161
1680800 60.2606 239.957 55.9234 0.84035 -0.00235735
1681000 60.2606 239.971 55.9234 0.84045 0.0247168
1681200 60.2606 239.984 55.9234 0.84055 0.0232363
1681400 60.2606 239.997 55.9234 0.84065 0.0163198
1681600 60.2606 240.01 55.9234 0.84075 0.019701
1681800 60.2606 240.023 55.9234 0.84085 0.0245727
1682000 60.2606 240.036 55.9234 0.84095 0.0151738
1682200 60.2606 240.049 55.9234 0.84105 0.00831349
1682400 60.2606 240.062 55.9234 0.84115 0.025019
1682600 60.2606 240.075 55.9234 0.84125 0.0287134
1682800 60.2606 240.088 55.9234 0.84135 0.00229831
1683000 60.2606 240.101 55.9234 0.84145 -0.0120557
1683200 60.2606 240.114 55.9234 0.84155 -0.0205356
1683400 60.2606 240.127 55.9234 0.84165 -0.0072881
1683600 60.2606 240.14 55.9234 0.84175 -0.0146148
1683800 60.2606 240.153 55.9234 0.84185 -0.00835934
1684000 60.2606 240.166 55.9234 0.84195 -0.0155828
1684200 60.2606 240.179 55.9234 0.84205 -0.0213345
1684400 60.2606 240.192 55.9234 0.84215 -0.0104436
1684600 60.2606 240.205 55.9234 0.84225 -0.0180144
1684800 60.2606 240.218 55.9234 0.84235 0.0152362
1685000 60.2606 240.231 55.9234 0.84245 0.0169893
1685200 60.2606 240.244 55.9234 0.84255 0.018685
1685400 60.2606 240.257 55.9234 0.84265 0.0183242
1685600 60.2606 240.27 55.9234 0.84275 0.0238253
1685800 60.2606 240.283 55.9234 0.84285 0.0168488
1686000 60.2606 240.296 55.9234 0.84295 0.0308658
1686200 60.2606 240.31 55.9234 0.84305 0.00707544
1686400 60.2606 240.323 55.9234 0.84315 0.0329271
1686600 60.2606 240.336 55.9234 0.84325 0.025178
1686800 60.2606 240.349 55.9234 0.84335 0.00383559
1687000 60.2606 240.362 55.9234 0.84345 0.0032964
1687200 60.2606 240.375 55.9234 0.84355 -0.0201884
1687400 60.2606 240.388 55.9234 0.84365 -0.018515
1687600 60.2606 240.401 55.9234 0.84375 -0.0221695
1687800 60.2606 240.414 55.9234 0.84385 -0.0281045
1688000 60.2606 240.427 55.9234 0.84395 -0.0145959
1688200 60.2606 240.44 55.9234 0.84405 -0.0110668
1688400 60.2606 240.453 55.9234 0.84415 -0.011995
1688600 60.2606 240.466 55.9234 0.84425 -0.0154684
1688800 60.2606 240.479 55.9234 0.84435 -0.00768118
1689000 60.2606 240.492 55.9234 0.84445 0.0233439
1689200 60.2606 240.505 55.9234 0.84455 0.02648
1689400 60.2606 240.518 55.9234 0.84465 0.0120702
1689600 60.2606 240.531 55.9234 0.84475 0.0563222
1689800 60.2606 240.544 55.9234 0.84485 0.0236664
1690000 60.2606 240.557 55.9234 0.84495 0.0191324
1690200 60.2606 240.57 55.9234 0.84505 0.0203015
1690400 60.2606 240.583 55.9234 0.84515 0.0229343
1690600 60.2606 240.596 55.9234 0.84525 0.0151516
1690800 60.2606 240.609 55.9234 0.84535 -0.00378248
1691000 60.2606 240.622 55.9234 0.84545 -0.00371225
1691200 60.2606 240.636 55.9234 0.84555 -0.0147636
1691400 60.2606 240.649 55.9234 0.84565 -0.0107531
1691600 60.2606 240.662 55.9234 0.84575 -0.0242017
1691800 60.2606 240.675 55.9234 0.84585 -0.0259828
1692000 60.2606 240.688 55.9234 0.84595 -0.0154098
1692200 60.2606 240.701 55.9234 0.84605 -0.0364892
1692400 60.2606 240.714 55.9234 0.84615 -0.0139484
1692600 60.2606 240.727 55.9234 0.84625 0.00592551
1692800 60.2606 240.74 55.9234 0.84635 -0.000138085
1693000 60.2606 240.753 55.9234 0.84645 0.0170161
1693200 60.2606 240.766 55.9234 0.84655 0.0200685
1693400 60.2606 240.779 55.9234 0.84665 0.0213869
1693600 60.2606 240.792 55.9234 0.84675 0.0381108
1693800 60.2606 240.805 55.9234 0.84685 0.0287165
1694000 60.2606 240.818 55.9234 0.84695 0.0398623
1694200 60.2606 240.831 55.9234 0.84705 0.0153055
1694400 60.2606 240.844 55.9234 0.84715 0.0100109
1694600 60.2606 240.857 55.9234 0.84725 0.0260527
1694800 60.2606 240.87 55.9234 0.84735 0.00380774
1695000 60.2606 240.883 55.9234 0.84745 -0.00177479
1695200 60.2606 240.896 55.9234 0.84755 -0.0230277
1695400 60.2606 240.909 55.9234 0.84765 -0.0253549
1695600 60.2606 240.922 55.9234 0.84775 -0.0418205
1695800 60.2606 240.935 55.9234 0.84785 -0.0161651
1696000 60.2606 240.948 55.9234 0.84795 -0.0221705
1696200 60.2606 240.961 55.9234 0.84805 -0.0155939
1696400 60.2606 240.975 55.9234 0.84815 0.00278091
1696600 60.2606 240.988 55.9234 0.84825 0.00240902
1696800 60.2606 241.001 55.9234 0.84835 0.00346662
1697000 60.2606 241.014 55.9234 0.84845 0.00751938
1697200 60.2606 241.027 55.9234 0.84855 0.0149557
1697400 60.2606 241.04 55.9234 0.84865 0.0333173
1697600 60.2606 241.053 55.9234 0.84875 0.0487166
1697800 60.2606 241.066 55.9234 0.84885 0.0232824
1698000 60.2606 241.079 55.9234 0.84895 0.0298623
1698200 60.2606 241.092 55.9234 0.84905 0.00777593
1698400 60.2606 241.105 55.9234 0.84915 0.0193315
1698600 60.2606 241.118 55.9234 0.84925 0.00568348
1698800 60.2606 241.131 55.9234 0.84935 0.0127062
1699000 60.2606 241.144 55.9234 0.84945 -0.0129595
1699200 60.2606 241.157 55.9234 0.84955 -0.0236342
1699400 60.2606 241.17 55.9234 0.84965 -0.00897434
1699600 60.2606 241.183 55.9234 0.84975 -0.0370136
1699800 60.2606 241.196 55.9234 0.84985 -0.031389
1700000 60.2606 241.209 55.9234 0.84995 -0.00829784
1700200 60.2606 241.222 55.9234 0.85005 -0.00812595
1700400 60.2606 241.235 55.9234 0.85015 -0.0119132
1700600 60.2606 241.248 55.9234 0.85025 -0.00108734
1700800 60.2606 241.261 55.9234 0.85035 0.000643706
1701000 60.2606 241.274 55.9234 0.85045 0.0179437
1701200 60.2606 241.287 55.9234 0.85055 0.0297341
1701400 60.2606 241.3 55.9234 0.85065 0.0210846
1701600 60.2606 241.314 55.9234 0.85075 0.0493453
1701800 60.2606 241.327 55.9234 0.85085 0.0266763
1702000 60.2606 241.34 55.9234 0.85095 0.0325149
1702200 60.2606 241.353 55.9234 0.85105 0.00935941
1702400 60.2606 241.366 55.9234 0.85115 0.0105328
1702600 60.2606 241.379 55.9234 0.85125 0.00772741
1702800 60.2606 241.392 55.9234 0.85135 0.000206788
1703000 60.2606 241.405 55.9234 0.85145 -0.00941439
1703200 60.2606 241.418 55.9234 0.85155 -0.0420983
1703400 60.2606 241.431 55.9234 0.85165 -0.00735655
1703600 60.2606 241.444 55.9234 0.85175 -0.0308018
1703800 60.2606 241.457 55.9234 0.85185 -0.0292011
1704000 60.2606 241.47 55.9234 0.85195 -0.0178455
1704200 60.2606 241.483 55.9234 0.85205 -0.0236822
1704400 60.2606 241.496 55.9234 0.85215 0.00253535
1704600 60.2606 241.509 55.9234 0.85225 0.00712651
1704800 60.2606 241.522 55.9234 0.85235 0.0207527
1705000 60.2606 241.535 55.9234 0.85245 0.0279639
1705200 60.2606 241.548 55.9234 0.85255 0.029299
1705400 60.2606 241.561 55.9234 0.85265 0.0312808
1705600 60.2606 241.574 55.9234 0.85275 0.0291393
1705800 60.2606 241.587 55.9234 0.85285 0.0240484
1706000 60.2606 241.6 55.9234 0.85295 0.0336543
1706200 60.2606 241.613 55.9234 0.85305 0.0406234
1706400 60.2606 241.626 55.9234 0.85315 -0.0132249
1706600 60.2606 241.639 55.9234 0.85325 -0.00509427
1706800 60.2606 241.653 55.9234 0.85335 -0.0107291
1707000 60.2606 241.666 55.9234 0.85345 -0.00623194
1707200 60.2606 241.679 55.9234 0.85355 -0.0352233
1707400 60.2606 241.692 55.9234 0.85365 -0.0258273
1707600 60.2606 241.705 55.9234 0.85375 -0.0140641
1707800 60.2606 241.718 55.9234 0.85385 -0.0185124
1708000 60.2606 241.731 55.9234 0.85395 -0.0351553
1708200 60.2606 241.744 55.9234 0.85405 -0.0109171
1708400 60.2606 241.757 55.9234 0.85415 -0.00702117
1708600 60.2606 241.77 55.9234 0.85425 -5.89896e-05
1708800 60.2606 241.783 55.9234 0.85435 0.028799
1709000 60.2606 241.796 55.9234 0.85445 0.0357214
1709200 60.2606 241.809 55.9234 0.85455 0.029702
1709400 60.2606 241.822 55.9234 0.85465 0.0412523
1709600 60.2606 241.835 55.9234 0.85475 0.0127795
1709800 60.2606 241.848 55.9234 0.85485 0.0157949
1710000 60.2606 241.861 55.9234 0.85495 0.0335438
1710200 60.2606 241.874 55.9234 0.85505 0.0282382
1710400 60.2606 241.887 55.9234 0.85515 0.00192814
1710600 60.2606 241.9 55.9234 0.85525 0.00765764
1710800 60.2606 241.913 55.9234 0.85535 0.000612173
1711000 60.2606 241.926 55.9234 0.85545 -0.0171304
1711200 60.2606 241.939 55.9234 0.85555 -0.0314982
1711400 60.2606 241.952 55.9234 0.85565 -0.0319834
1711600 60.2606 241.965 55.9234 0.85575 -0.0336459
1711800 60.2606 241.978 55.9234 0.85585 -0.0290588
1712000 60.2606 241.992 55.9234 0.85595 -0.0150075
1712200 60.2606 242.005 55.9234 0.85605 0.00300866
1712400 60.2606 242.018 55.9234 0.85615 0.00263776
1712600 60.2606 242.031 55.9234 0.85625 -0.00182272
1712800 60.2606 242.044 55.9234 0.85635 0.00641112
1713000 60.2606 242.057 55.9234 0.85645 0.0156379
1713200 60.2606 242.07 55.9234 0.85655 0.0248936
1713400 60.2606 242.083 55.9234 0.85665 0.0457556
1713600 60.2606 242.096 55.9234 0.85675 0.0501206
1713800 60.2606 242.109 55.9234 0.85685 0.038178
1714000 60.2606 242.122 55.9234 0.85695 0.0207003
1714200 60.2606 242.135 55.9234 0.85705 0.0261716
1714400 60.2606 242.148 55.9234 0.85715 -0.00150688
1714600 60.2606 242.161 55.9234 0.85725 -0.0219348
1714800 60.2606 242.174 55.9234 0.85735 -0.0173756
1715000 60.2606 242.187 55.9234 0.85745 0.00271134
1715200 60.2606 242.2 55.9234 0.85755 -0.016475
1715400 60.2606 242.213 55.9234 0.85765 -0.03296
1715600 60.2606 242.226 55.9234 0.85775 -0.0301174
1715800 60.2606 242.239 55.9234 0.85785 -0.0330591
1716000 60.2606 242.252 55.9234 0.85795 -0.0205979
1716200 60.2606 242.265 55.9234 0.85805 -0.00304215
1716400 60.2606 242.278 55.9234 0.85815 -0.00380005
1716600 60.2606 242.291 55.9234 0.85825 0.01335
1716800 60.2606 242.304 55.9234 0.85835 0.0211057
1717000 60.2606 242.317 55.9234 0.85845 0.0314947
1717200 60.2606 242.331 55.9234 0.85855 0.0189253
1717400 60.2606 242.344 55.9234 0.85865 0.0254644
1717600 60.2606 242.357 55.9234 0.85875 0.0346544
1717800 60.2606 242.37 55.9234 0.85885 0.0280503
1718000 60.2606 242.383 55.9234 0.85895 0.0372928
1718200 60.2606 242.396 55.9234 0.85905 0.0332971
1718400 60.2606 242.409 55.9234 0.85915 0.0145591
1718600 60.2606 242.422 55.9234 0.85925 -0.0206587
1718800 60.2606 242.435 55.9234 0.85935 -0.00915358
1719000 60.2606 242.448 55.9234 0.85945 -0.0230126
1719200 60.2606 242.461 55.9234 0.85955 -0.0344067
1719400 60.2606 242.474 55.9234 0.85965 -0.0236142
1719600 60.2606 242.487 55.9234 0.85975 -0.0219189
1719800 60.2606 242.5 55.9234 0.85985 -0.0161038
1720000 60.2606 242.513 55.9234 0.85995 -0.0467048
1720200 60.2606 242.526 55.9234 0.86005 -0.0172054
1720400 60.2606 242.539 55.9234 0.86015 0.00274268
1720600 60.2606 242.552 55.9234 0.86025 0.0010352
1720800 60.2606 242.565 55.9234 0.86035 0.0410845
1721000 60.2606 242.578 55.9234 0.86045 0.0196114
1721200 60.2606 242.591 55.9234 0.86055 0.0392399
1721400 60.2606 242.604 55.9234 0.86065 0.0464576
1721600 60.2606 242.617 55.9234 0.86075 0.0298931
1721800 60.2606 242.63 55.9234 0.86085 0.0362756
1722000 60.2606 242.643 55.9234 0.86095 0.0260476
1722200 60.2606 242.657 55.9234 0.86105 0.0127217
1722400 60.2606 242.67 55.9234 0.86115 0.0116089
1722600 60.2606 242.683 55.9234 0.86125 -0.0144353
1722800 60.2606 242.696 55.9234 0.86135 -0.0189873
1723000 60.2606 242.709 55.9234 0.86145 -0.0205398
1723200 60.2606 242.722 55.9234 0.86155 -0.0365307
1723400 60.2606 242.735 55.9234 0.86165 -0.0242723
1723600 60.2606 242.748 55.9234 0.86175 -0.0221311
1723800 60.2606 242.761 55.9234 0.86185 -0.024469
1724000 60.2606 242.774 55.9234 0.86195 -0.0415761
1724200 60.2606 242.787 55.9234 0.86205 -0.0162137
1724400 60.2606 242.8 55.9234 0.86215 0.00272552
1724600 60.2606 242.813 55.9234 0.86225 0.0317251
1724800 60.2606 242.826 55.9234 0.86235 0.0256713
1725000 60.2606 242.839 55.9234 0.86245 0.0259821
1725200 60.2606 242.852 55.9234 0.86255 0.0340701
1725400 60.2606 242.865 55.9234 0.86265 0.0519236
1725600 60.2606 242.878 55.9234 0.86275 0.0323277
1725800 60.2606 242.891 55.9234 0.86285 0.0356211
1726000 60.2606 242.904 55.9234 0.86295 0.0193415
1726200 60.2606 242.917 55.9234 0.86305 0.0270641
1726400 60.2606 242.93 55.9234 0.86315 0.00075516
1726600 60.2606 242.943 55.9234 0.86325 -0.0130276
1726800 60.2606 242.956 55.9234 0.86335 -0.00864017
1727000 60.2606 242.969 55.9234 0.86345 -0.0264156
1727200 60.2606 242.982 55.9234 0.86355 -0.0420936
1727400 60.2606 242.996 55.9234 0.86365 -0.0359006
1727600 60.2606 243.009 55.9234 0.86375 -0.0301935
1727800 60.2606 243.022 55.9234 0.86385 -0.039403
1728000 60.2606 243.035 55.9234 0.86395 -0.0174761
1728200 60.2606 243.048 55.9234 0.86405 -0.010915
1728400 60.2606 243.061 55.9234 0.86415 0.00186031
1728600 60.2606 243.074 55.9234 0.86425 0.00900424
1728800 60.2606 243.087 55.9234 0.86435 0.0398129
1729000 60.2606 243.1 55.9234 0.86445 0.0393743
1729200 60.2606 243.113 55.9234 0.86455 0.0379784
1729400 60.2606 243.126 55.9234 0.86465 0.0478393
1729600 60.2606 243.139 55.9234 0.86475 0.0399526
1729800 60.2606 243.152 55.9234 0.86485 0.0280523
1730000 60.2606 243.165 55.9234 0.86495 0.0213841
1730200 60.2606 243.178 55.9234 0.86505 0.00787632
1730400 60.2606 243.191 55.9234 0.86515 -0.00364198
1730600 60.2606 243.204 55.9234 0.86525 -0.00218771
1730800 60.2606 243.217 55.9234 0.86535 -0.0120958
1731000 60.2606 243.23 55.9234 0.86545 -0.0249422
1731200 60.2606 243.243 55.9234 0.86555 -0.0485335
1731400 60.2606 243.256 55.9234 0.86565 -0.0335667
1731600 60.2606 243.269 55.9234 0.86575 -0.0275902
1731800 60.2606 243.282 55.9234 0.86585 -0.0261891
1732000 60.2606 243.295 55.9234 0.86595 -0.0199088
1732200 60.2606 243.308 55.9234 0.86605 -0.0133744
1732400 60.2606 243.321 55.9234 0.86615 0.0125833
1732600 60.2606 243.335 55.9234 0.86625 0.00533497
1732800 60.2606 243.348 55.9234 0.86635 0.0353193
1733000 60.2606 243.361 55.9234 0.86645 0.033197
1733200 60.2606 243.374 55.9234 0.86655 0.0366292
1733400 60.2606 243.387 55.9234 0.86665 0.0432839
1733600 60.2606 243.4 55.9234 0.86675 0.0477745
1733800 60.2606 243.413 55.9234 0.86685 0.0429558
1734000 60.2606 243.426 55.9234 0.86695 0.00842398
1734200 60.2606 243.439 55.9234 0.86705 0.00415306
1734400 60.2606 243.452 55.9234 0.86715 -0.00615124
1734600 60.2606 243.465 55.9234 0.86725 -0.00360545
1734800 60.2606 243.478 55.9234 0.86735 -0.00956944
1735000 60.2606 243.491 55.9234 0.86745 -0.00945859
1735200 60.2606 243.504 55.9234 0.86755 -0.0601095
1735400 60.2606 243.517 55.9234 0.86765 -0.0433323
1735600 60.2606 243.53 55.9234 0.86775 -0.025673
1735800 60.2606 243.543 55.9234 0.86785 -0.0286396
1736000 60.2606 243.556 55.9234 0.86795 -0.0173011
1736200 60.2606 243.569 55.9234 0.86805 -0.0112705
1736400 60.2606 243.582 55.9234 0.86815 0.00845061
1736600 60.2606 243.595 55.9234 0.86825 0.0279553
1736800 60.2606 243.608 55.9234 0.86835 0.0284341
1737000 60.2606 243.621 55.9234 0.86845 0.0406516
1737200 60.2606 243.634 55.9234 0.86855 0.0391275
1737400 60.2606 243.647 55.9234 0.86865 0.0332481
1737600 60.2606 243.66 55.9234 0.86875 0.0381798
1737800 60.2606 243.674 55.9234 0.86885 0.0463657
1738000 60.2606 243.687 55.9234 0.86895 0.017453
1738200 60.2606 243.7 55.9234 0.86905 0.00600935
1738400 60.2606 243.713 55.9234 0.86915 -0.0114186
1738600 60.2606 243.726 55.9234 0.86925 -0.0275142
1738800 60.2606 243.739 55.9234 0.86935 -0.019879
1739000 60.2606 243.752 55.9234 0.86945 -0.0399139
1739200 60.2606 243.765 55.9234 0.86955 -0.0213223
1739400 60.2606 243.778 55.9234 0.86965 -0.0325991
1739600 60.2606 243.791 55.9234 0.86975 -0.00906013
1739800 60.2606 243.804 55.9234 0.86985 -0.0258645
1740000 60.2606 243.817 55.9234 0.86995 -0.0262236
1740200 60.2606 243.83 55.9234 0.87005 -0.00620005
1740400 60.2606 243.843 55.9234 0.87015 -0.00175875
1740600 60.2606 243.856 55.9234 0.87025 0.0305485
1740800 60.2606 243.869 55.9234 0.87035 0.043463
1741000 60.2606 243.882 55.9234 0.87045 0.0520403
1741200 60.2606 243.895 55.9234 0.87055 0.0126152
1741400 60.2606 243.908 55.9234 0.87065 0.0377682
1741600 60.2606 243.921 55.9234 0.87075 0.0360278
1741800 60.2606 243.934 55.9234 0.87085 0.0157792
1742000 60.2606 243.947 55.9234 0.87095 0.00902597
1742200 60.2606 243.96 55.9234 0.87105 0.0160446
1742400 60.2606 243.973 55.9234 0.87115 0.000298143
1742600 60.2606 243.986 55.9234 0.87125 -0.0084715
1742800 60.2606 243.999 55.9234 0.87135 -0.0389637
1743000 60.2606 244.013 55.9234 0.87145 -0.0317075
1743200 60.2606 244.026 55.9234 0.87155 -0.0237023
1743400 60.2606 244.039 55.9234 0.87165 -0.0120767
1743600 60.2606 244.052 55.9234 0.87175 -0.0335626
1743800 60.2606 244.065 55.9234 0.87185 -0.00681599
1744000 60.2606 244.078 55.9234 0.87195 -0.00119645
1744200 60.2606 244.091 55.9234 0.87205 -0.00483883
1744400 60.2606 244.104 55.9234 0.87215 0.0118999
1744600 60.2606 244.117 55.9234 0.87225 0.020594
1744800 60.2606 244.13 55.9234 0.87235 0.0136169
1745000 60.2606 244.143 55.9234 0.87245 0.0322602
1745200 60.2606 244.156 55.9234 0.87255 0.0427399
1745400 60.2606 244.169 55.9234 0.87265 0.03491
1745600 60.2606 244.182 55.9234 0.87275 0.0321524
1745800 60.2606 244.195 55.9234 0.87285 0.0136452
1746000 60.2606 244.208 55.9234 0.87295 0.00611854
1746200 60.2606 244.221 55.9234 0.87305 -0.0112146
1746400 60.2606 244.234 55.9234 0.87315 -0.0164359
1746600 60.2606 244.247 55.9234 0.87325 -0.0081376
1746800 60.2606 244.26 55.9234 0.87335 -0.0185781
1747000 60.2606 244.273 55.9234 0.87345 -0.040497
1747200 60.2606 244.286 55.9234 0.87355 -0.02176
1747400 60.2606 244.299 55.9234 0.87365 -0.0241755
1747600 60.2606 244.312 55.9234 0.87375 0.0120031
1747800 60.2606 244.325 55.9234 0.87385 -0.013147
1748000 60.2606 244.338 55.9234 0.87395 -0.00334907
1748200 60.2606 244.352 55.9234 0.87405 0.00469899
1748400 60.2606 244.365 55.9234 0.87415 0.00248907
1748600 60.2606 244.378 55.9234 0.87425 0.0399552
1748800 60.2606 244.391 55.9234 0.87435 0.0182451
1749000 60.2606 244.404 55.9234 0.87445 0.039379
1749200 60.2606 244.417 55.9234 0.87455 0.032844
1749400 60.2606 244.43 55.9234 0.87465 0.0108899
1749600 60.2606 244.443 55.9234 0.87475 0.0227959
1749800 60.2606 244.456 55.9234 0.87485 0.024362
1750000 60.2606 244.469 55.9234 0.87495 0.00328066
1750200 60.2606 244.482 55.9234 0.87505 -0.00797373
1750400 60.2606 244.495 55.9234 0.87515 -0.0102535
1750600 60.2606 244.508 55.9234 0.87525 -0.0218723
1750800 60.2606 244.521 55.9234 0.87535 -0.0299941
1751000 60.2606 244.534 55.9234 0.87545 -0.027774
1751200 60.2606 244.547 55.9234 0.87555 -0.0151261
1751400 60.2606 244.56 55.9234 0.87565 -0.0254408
1751600 60.2606 244.573 55.9234 0.87575 -0.00238279
1751800 60.2606 244.586 55.9234 0.87585 -0.0120824
1752000 60.2606 244.599 55.9234 0.87595 -0.000221785
1752200 60.2606 244.612 55.9234 0.87605 0.0165094
1752400 60.2606 244.625 55.9234 0.87615 0.0304897
1752600 60.2606 244.638 55.9234 0.87625 0.0308319
1752800 60.2606 244.651 55.9234 0.87635 0.0191817
1753000 60.2606 244.664 55.9234 0.87645 0.0313454
1753200 60.2606 244.677 55.9234 0.87655 0.0210557
1753400 60.2606 244.691 55.9234 0.87665 0.0191874
1753600 60.2606 244.704 55.9234 0.87675 0.0239171
1753800 60.2606 244.717 55.9234 0.87685 0.0139146
1754000 60.2606 244.73 55.9234 0.87695 -0.0135348
1754200 60.2606 244.743 55.9234 0.87705 0.000146869
1754400 60.2606 244.756 55.9234 0.87715 -0.0100006
1754600 60.2606 244.769 55.9234 0.87725 -0.0303758
1754800 60.2606 244.782 55.9234 0.87735 -0.0239854
1755000 60.2606 244.795 55.9234 0.87745 -0.0137047
1755200 60.2606 244.808 55.9234 0.87755 -0.0201394
1755400 60.2606 244.821 55.9234 0.87765 -0.0375614
1755600 60.2606 244.834 55.9234 0.87775 -0.00185961
1755800 60.2606 244.847 55.9234 0.87785 -0.0043932
1756000 60.2606 244.86 55.9234 0.87795 0.00774973
1756200 60.2606 244.873 55.9234 0.87805 0.0118507
1756400 60.2606 244.886 55.9234 0.87815 0.021112
1756600 60.2606 244.899 55.9234 0.87825 0.0304228
1756800 60.2606 244.912 55.9234 0.87835 0.03236
1757000 60.2606 244.925 55.9234 0.87845 0.0196022
1757200 60.2606 244.938 55.9234 0.87855 0.0333347
1757400 60.2606 244.951 55.9234 0.87865 0.036479
1757600 60.2606 244.964 55.9234 0.87875 0.0235629
1757800 60.2606 244.977 55.9234 0.87885 -0.0076577
1758000 60.2606 244.99 55.9234 0.87895 0.00565859
1758200 60.2606 245.003 55.9234 0.87905 -0.0181582
1758400 60.2606 245.017 55.9234 0.87915 -0.0114479
1758600 60.2606 245.03 55.9234 0.87925 -0.0268556
1758800 60.2606 245.043 55.9234 0.87935 -0.0154789
1759000 60.2606 245.056 55.9234 0.87945 -0.0213265
1759200 60.2606 245.069 55.9234 0.87955 -0.0273885
1759400 60.2606 245.082 55.9234 0.87965 -0.0150137
1759600 60.2606 245.095 55.9234 0.87975 -0.00736064
1759800 60.2606 245.108 55.9234 0.87985 -0.00988347
1760000 60.2606 245.121 55.9234 0.87995 0.0101164
1760200 60.2606 245.134 55.9234 0.88005 0.00332794
1760400 60.2606 245.147 55.9234 0.88015 0.00979841
1760600 60.2606 245.16 55.9234 0.88025 0.0375622
1760800 60.2606 245.173 55.9234 0.88035 0.0418235
1761000 60.2606 245.186 55.9234 0.88045 0.0305283
1761200 60.2606 245.199 55.9234 0.88055 0.0203469
1761400 60.2606 245.212 55.9234 0.88065 0.0254362
1761600 60.2606 245.225 55.9234 0.88075 0.00906899
1761800 60.2606 245.238 55.9234 0.88085 0.00250616
1762000 60.2606 245.251 55.9234 0.88095 0.00301208
1762200 60.2606 245.264 55.9234 0.88105 0.00984518
1762400 60.2606 245.277 55.9234 0.88115 -0.024042
1762600 60.2606 245.29 55.9234 0.88125 -0.0122896
1762800 60.2606 245.303 55.9234 0.88135 -0.0433377
1763000 60.2606 245.316 55.9234 0.88145 -0.0232314
1763200 60.2606 245.329 55.9234 0.88155 -0.0132336
1763400 60.2606 245.342 55.9234 0.88165 -0.0135082
1763600 60.2606 245.356 55.9234 0.88175 -0.0113438
1763800 60.2606 245.369 55.9234 0.88185 -0.00173133
1764000 60.2606 245.382 55.9234 0.88195 0.015395
1764200 60.2606 245.395 55.9234 0.88205 0.0114182
1764400 60.2606 245.408 55.9234 0.88215 0.0132977
1764600 60.2606 245.421 55.9234 0.88225 0.0315712
1764800 60.2606 245.434 55.9234 0.88235 0.0282989
1765000 60.2606 245.447 55.9234 0.88245 0.0312563
1765200 60.2606 245.46 55.9234 0.88255 0.0345812
1765400 60.2606 245.473 55.9234 0.88265 0.0112328
1765600 60.2606 245.486 55.9234 0.88275 0.0203354
1765800 60.2606 245.499 55.9234 0.88285 0.00548316
1766000 60.2606 245.512 55.9234 0.88295 0.000229999
1766200 60.2606 245.525 55.9234 0.88305 -0.0207769
1766400 60.2606 245.538 55.9234 0.88315 -0.0285719
1766600 60.2606 245.551 55.9234 0.88325 -0.0155977
1766800 60.2606 245.564 55.9234 0.88335 -0.0245395
1767000 60.2606 245.577 55.9234 0.88345 -0.0138747
1767200 60.2606 245.59 55.9234 0.88355 -0.0246713
1767400 60.2606 245.603 55.9234 0.88365 -0.015026
1767600 60.2606 245.616 55.9234 0.88375 -0.00767936
1767800 60.2606 245.629 55.9234 0.88385 0.0112888
1768000 60.2606 245.642 55.9234 0.88395 0.00710043
1768200 60.2606 245.655 55.9234 0.88405 0.0020167
1768400 60.2606 245.668 55.9234 0.88415 0.0262047
1768600 60.2606 245.681 55.9234 0.88425 0.0549091
1768800 60.2606 245.695 55.9234 0.88435 0.015706
1769000 60.2606 245.708 55.9234 0.88445 0.0141612
1769200 60.2606 245.721 55.9234 0.88455 0.0181523
1769400 60.2606 245.734 55.9234 0.88465 0.0258567
1769600 60.2606 245.747 55.9234 0.88475 0.0136957
1769800 60.2606 245.76 55.9234 0.88485 -0.00180763
1770000 60.2606 245.773 55.9234 0.88495 0.0121516
1770200 60.2606 245.786 55.9234 0.88505 -0.015541
1770400 60.2606 245.799 55.9234 0.88515 -0.0135338
1770600 60.2606 245.812 55.9234 0.88525 -0.028496
1770800 60.2606 245.825 55.9234 0.88535 -0.0162188
1771000 60.2606 245.838 55.9234 0.88545 -0.0154208
1771200 60.2606 245.851 55.9234 0.88555 -0.0154492
1771400 60.2606 245.864 55.9234 0.88565 -0.0291332
1771600 60.2606 245.877 55.9234 0.88575 -0.00339287
1771800 60.2606 245.89 55.9234 0.88585 0.00151643
1772000 60.2606 245.903 55.9234 0.88595 0.0123531
1772200 60.2606 245.916 55.9234 0.88605 0.00294531
1772400 60.2606 245.929 55.9234 0.88615 0.0281299
1772600 60.2606 245.942 55.9234 0.88625 0.0366731
1772800 60.2606 245.955 55.9234 0.88635 0.0147364
1773000 60.2606 245.968 55.9234 0.88645 0.0288803
1773200 60.2606 245.981 55.9234 0.88655 0.0182247
1773400 60.2606 245.994 55.9234 0.88665 0.0301744
1773600 60.2606 246.007 55.9234 0.88675 0.0170783
1773800 60.2606 246.02 55.9234 0.88685 0.00114211
1774000 60.2606 246.034 55.9234 0.88695 -0.0082744
1774200 60.2606 246.047 55.9234 0.88705 -0.019634
1774400 60.2606 246.06 55.9234 0.88715 -0.018271
1774600 60.2606 246.073 55.9234 0.88725 -0.00939034
1774800 60.2606 246.086 55.9234 0.88735 -0.0120764
1775000 60.2606 246.099 55.9234 0.88745 -0.0301087
1775200 60.2606 246.112 55.9234 0.88755 0.00596619
1775400 60.2606 246.125 55.9234 0.88765 -0.0192559
1775600 60.2606 246.138 55.9234 0.88775 -0.0185646
1775800 60.2606 246.151 55.9234 0.88785 -0.00165179
1776000 60.2606 246.164 55.9234 0.88795 0.00416334
1776200 60.2606 246.177 55.9234 0.88805 0.0161054
1776400 60.2606 246.19 55.9234 0.88815 0.0334036
1776600 60.2606 246.203 55.9234 0.88825 0.0234325
1776800 60.2606 246.216 55.9234 0.88835 0.0365538
1777000 60.2606 246.229 55.9234 0.88845 0.0117825
1777200 60.2606 246.242 55.9234 0.88855 0.00536554
1777400 60.2606 246.255 55.9234 0.88865 0.0144039
1777600 60.2606 246.268 55.9234 0.88875 0.0209191
1777800 60.2606 246.281 55.9234 0.88885 -0.00157403
1778000 60.2606 246.294 55.9234 0.88895 0.00681937
1778200 60.2606 246.307 55.9234 0.88905 0.0181473
1778400 60.2606 246.32 55.9234 0.88915 -0.00877068
1778600 60.2606 246.333 55.9234 0.88925 -0.0329384
1778800 60.2606 246.346 55.9234 0.88935 -0.0272198
1779000 60.2606 246.359 55.9234 0.88945 -0.0362767
1779200 60.2606 246.373 55.9234 0.88955 -0.00629519
1779400 60.2606 246.386 55.9234 0.88965 -0.00879928
1779600 60.2606 246.399 55.9234 0.88975 0.0129812
1779800 60.2606 246.412 55.9234 0.88985 0.00611423
1780000 60.2606 246.425 55.9234 0.88995 -0.014662
1780200 60.2606 246.438 55.9234 0.89005 -0.00170154
1780400 60.2606 246.451 55.9234 0.89015 0.0159553
1780600 60.2606 246.464 55.9234 0.89025 0.0192185
1780800 60.2606 246.477 55.9234 0.89035 0.0350393
1781000 60.2606 246.49 55.9234 0.89045 0.0344624
1781200 60.2606 246.503 55.9234 0.89055 0.0269148
1781400 60.2606 246.516 55.9234 0.89065 0.0283678
1781600 60.2606 246.529 55.9234 0.89075 -0.00953935
1781800 60.2606 246.542 55.9234 0.89085 0.0158445
1782000 60.2606 246.555 55.9234 0.89095 -0.00764184
1782200 60.2606 246.568 55.9234 0.89105 0.000367544
1782400 60.2606 246.581 55.9234 0.89115 -0.00218635
1782600 60.2606 246.594 55.9234 0.89125 -0.0313852
1782800 60.2606 246.607 55.9234 0.89135 -0.0246952
1783000 60.2606 246.62 55.9234 0.89145 -0.0143711
1783200 60.2606 246.633 55.9234 0.89155 -0.030117
1783400 60.2606 246.646 55.9234 0.89165 -0.00327857
1783600 60.2606 246.659 55.9234 0.89175 -0.00575059
1783800 60.2606 246.672 55.9234 0.89185 0.0123253
1784000 60.2606 246.685 55.9234 0.89195 0.00121293
1784200 60.2606 246.698 55.9234 0.89205 0.00763129
1784400 60.2606 246.712 55.9234 0.89215 0.00995467
1784600 60.2606 246.725 55.9234 0.89225 0.0156995
1784800 60.2606 246.738 55.9234 0.89235 0.0516244
1785000 60.2606 246.751 55.9234 0.89245 0.023612
1785200 60.2606 246.764 55.9234 0.89255 0.0181312
1785400 60.2606 246.777 55.9234 0.89265 0.0218234
1785600 60.2606 246.79 55.9234 0.89275 -0.0034569
1785800 60.2606 246.803 55.9234 0.89285 -0.0018589
1786000 60.2606 246.816 55.9234 0.89295 -0.000633122
1786200 60.2606 246.829 55.9234 0.89305 0.00504001
1786400 60.2606 246.842 55.9234 0.89315 -0.0145282
1786600 60.2606 246.855 55.9234 0.89325 -0.0111952
1786800 60.2606 246.868 55.9234 0.89335 -0.0322912
1787000 60.2606 246.881 55.9234 0.89345 -0.0166543
1787200 60.2606 246.894 55.9234 0.89355 -0.0030103
1787400 60.2606 246.907 55.9234 0.89365 -0.010203
1787600 60.2606 246.92 55.9234 0.89375 0.000550908
1787800 60.2606 246.933 55.9234 0.89385 -0.00508571
1788000 60.2606 246.946 55.9234 0.89395 0.0120802
1788200 60.2606 246.959 55.9234 0.89405 0.0109785
1788400 60.2606 246.972 55.9234 0.89415 0.0138545
1788600 60.2606 246.985 55.9234 0.89425 0.00883909
1788800 60.2606 246.998 55.9234 0.89435 0.0326987
1789000 60.2606 247.011 55.9234 0.89445 0.0228128
1789200 60.2606 247.024 55.9234 0.89455 0.0188833
1789400 60.2606 247.037 55.9234 0.89465 0.0241723
1789600 60.2606 247.051 55.9234 0.89475 0.00377451
1789800 60.2606 247.064 55.9234 0.89485 0.00519423
1790000 60.2606 247.077 55.9234 0.89495 -0.0175277
1790200 60.2606 247.09 55.9234 0.89505 -0.00155033
1790400 60.2606 247.103 55.9234 0.89515 -0.0115015
1790600 60.2606 247.116 55.9234 0.89525 0.00302329
1790800 60.2606 247.129 55.9234 0.89535 -0.0145339
1791000 60.2606 247.142 55.9234 0.89545 -0.0290982
1791200 60.2606 247.155 55.9234 0.89555 -0.018704
1791400 60.2606 247.168 55.9234 0.89565 -0.0143835
1791600 60.2606 247.181 55.9234 0.89575 0.0084641
1791800 60.2606 247.194 55.9234 0.89585 -0.000976427
1792000 60.2606 247.207 55.9234 0.89595 0.0116167
1792200 60.2606 247.22 55.9234 0.89605 0.0131657
1792400 60.2606 247.233 55.9234 0.89615 0.0158706
1792600 60.2606 247.246 55.9234 0.89625 0.00350885
1792800 60.2606 247.259 55.9234 0.89635 0.0208571
1793000 60.2606 247.272 55.9234 0.89645 0.0292541
1793200 60.2606 247.285 55.9234 0.89655 0.0348783
1793400 60.2606 247.298 55.9234 0.89665 0.0255408
1793600 60.2606 247.311 55.9234 0.89675 0.00424533
1793800 60.2606 247.324 55.9234 0.89685 0.00152046
1794000 60.2606 247.337 55.9234 0.89695 -0.0099961
1794200 60.2606 247.35 55.9234 0.89705 -0.00759734
1794400 60.2606 247.363 55.9234 0.89715 -0.0106414
1794600 60.2606 247.377 55.9234 0.89725 -0.0240571
1794800 60.2606 247.39 55.9234 0.89735 -0.0134068
1795000 60.2606 247.403 55.9234 0.89745 -0.0175185
1795200 60.2606 247.416 55.9234 0.89755 -0.0155336
1795400 60.2606 247.429 55.9234 0.89765 -0.0173036
1795600 60.2606 247.442 55.9234 0.89775 0.0020182
1795800 60.2606 247.455 55.9234 0.89785 -0.00865587
1796000 60.2606 247.468 55.9234 0.89795 0.0114268
1796200 60.2606 247.481 55.9234 0.89805 0.0170714
1796400 60.2606 247.494 55.9234 0.89815 0.023998
1796600 60.2606 247.507 55.9234 0.89825 0.0247214
1796800 60.2606 247.52 55.9234 0.89835 0.0302129
1797000 60.2606 247.533 55.9234 0.89845 0.030171
1797200 60.2606 247.546 55.9234 0.89855 0.0120251
1797400 60.2606 247.559 55.9234 0.89865 0.0226363
1797600 60.2606 247.572 55.9234 0.89875 0.0148513
1797800 60.2606 247.585 55.9234 0.89885 -4.39735e-05
1798000 60.2606 247.598 55.9234 0.89895 0.000217566
1798200 60.2606 247.611 55.9234 0.89905 -0.014986
1798400 60.2606 247.624 55.9234 0.89915 -0.0194691
1798600 60.2606 247.637 55.9234 0.89925 -0.0187955
1798800 60.2606 247.65 55.9234 0.89935 -0.0319291
1799000 60.2606 247.663 55.9234 0.89945 -0.0160036
1799200 60.2606 247.676 55.9234 0.89955 -0.0221623
1799400 60.2606 247.689 55.9234 0.89965 -0.00626765
1799600 60.2606 247.702 55.9234 0.89975 -0.00932541
1799800 60.2606 247.716 55.9234 0.89985 0.00673559
1800000 60.2606 247.729 55.9234 0.89995 0.0192315
1800200 60.2606 247.742 55.9234 0.90005 0.028612
1800400 60.2606 247.755 55.9234 0.90015 0.011539
1800600 60.2606 247.768 55.9234 0.90025 0.0191021
1800800 60.2606 247.781 55.9234 0.90035 0.0345577
1801000 60.2606 247.794 55.9234 0.90045 0.0208791
1801200 60.2606 247.807 55.9234 0.90055 0.0351294
1801400 60.2606 247.82 55.9234 0.90065 0.012247
1801600 60.2606 247.833 55.9234 0.90075 0.00397493
1801800 60.2606 247.846 55.9234 0.90085 -0.00187841
1802000 60.2606 247.859 55.9234 0.90095 0.000929987
1802200 60.2606 247.872 55.9234 0.90105 -0.0130815
1802400 60.2606 247.885 55.9234 0.90115 -0.031662
1802600 60.2606 247.898 55.9234 0.90125 -0.0223465
1802800 60.2606 247.911 55.9234 0.90135 -0.0189616
1803000 60.2606 247.924 55.9234 0.90145 -0.0169344
1803200 60.2606 247.937 55.9234 0.90155 -0.0163029
1803400 60.2606 247.95 55.9234 0.90165 -0.000325687
1803600 60.2606 247.963 55.9234 0.90175 -0.011376
1803800 60.2606 247.976 55.9234 0.90185 0.00245193
1804000 60.2606 247.989 55.9234 0.90195 0.0189834
1804200 60.2606 248.002 55.9234 0.90205 0.0282471
1804400 60.2606 248.015 55.9234 0.90215 0.0264149
1804600 60.2606 248.028 55.9234 0.90225 0.0204611
1804800 60.2606 248.041 55.9234 0.90235 0.0240851
1805000 60.2606 248.055 55.9234 0.90245 0.0182527
1805200 60.2606 248.068 55.9234 0.90255 0.014466
1805400 60.2606 248.081 55.9234 0.90265 0.00567411
1805600 60.2606 248.094 55.9234 0.90275 0.0190893
1805800 60.2606 248.107 55.9234 0.90285 0.00854471
1806000 60.2606 248.12 55.9234 0.90295 -0.0159928
1806200 60.2606 248.133 55.9234 0.90305 -0.0163264
1806400 60.2606 248.146 55.9234 0.90315 -0.0217173
1806600 60.2606 248.159 55.9234 0.90325 -0.00511698
1806800 60.2606 248.172 55.9234 0.90335 -0.0110178
1807000 60.2606 248.185 55.9234 0.90345 -0.0200436
1807200 60.2606 248.198 55.9234 0.90355 -0.0117533
1807400 60.2606 248.211 55.9234 0.90365 -0.00773716
1807600 60.2606 248.224 55.9234 0.90375 -0.01323
1807800 60.2606 248.237 55.9234 0.90385 0.00591172
1808000 60.2606 248.25 55.9234 0.90395 0.0234941
1808200 60.2606 248.263 55.9234 0.90405 0.025052
1808400 60.2606 248.276 55.9234 0.90415 0.0142815
1808600 60.2606 248.289 55.9234 0.90425 0.00721672
1808800 60.2606 248.302 55.9234 0.90435 0.0261907
1809000 60.2606 248.315 55.9234 0.90445 0.0176041
1809200 60.2606 248.328 55.9234 0.90455 0.0157632
1809400 60.2606 248.341 55.9234 0.90465 0.0159365
1809600 60.2606 248.354 55.9234 0.90475 0.0202315
1809800 60.2606 248.367 55.9234 0.90485 -0.00505187
1810000 60.2606 248.38 55.9234 0.90495 0.00230943
1810200 60.2606 248.394 55.9234 0.90505 -0.0147467
1810400 60.2606 248.407 55.9234 0.90515 -0.0244306
1810600 60.2606 248.42 55.9234 0.90525 -0.0122035
1810800 60.2606 248.433 55.9234 0.90535 -0.0151832
1811000 60.2606 248.446 55.9234 0.90545 -0.011726
1811200 60.2606 248.459 55.9234 0.90555 -0.00910515
1811400 60.2606 248.472 55.9234 0.90565 -0.00290364
1811600 60.2606 248.485 55.9234 0.90575 -0.0136401
1811800 60.2606 248.498 55.9234 0.90585 -0.0161878
1812000 60.2606 248.511 55.9234 0.90595 0.014421
1812200 60.2606 248.524 55.9234 0.90605 0.0227427
1812400 60.2606 248.537 55.9234 0.90615 0.0319698
1812600 60.2606 248.55 55.9234 0.90625 0.0263978
1812800 60.2606 248.563 55.9234 0.90635 0.0366459
1813000 60.2606 248.576 55.9234 0.90645 0.00101583
1813200 60.2606 248.589 55.9234 0.90655 0.00796515
1813400 60.2606 248.602 55.9234 0.90665 0.0132245
1813600 60.2606 248.615 55.9234 0.90675 0.0287026
1813800 60.2606 248.628 55.9234 0.90685 -0.00170676
1814000 60.2606 248.641 55.9234 0.90695 -0.00573241
1814200 60.2606 248.654 55.9234 0.90705 -0.0134361
1814400 60.2606 248.667 55.9234 0.90715 -0.0164962
1814600 60.2606 248.68 55.9234 0.90725 -0.022216
1814800 60.2606 248.693 55.9234 0.90735 -0.0136777
1815000 60.2606 248.706 55.9234 0.90745 -0.0159625
1815200 60.2606 248.719 55.9234 0.90755 -0.0115123
1815400 60.2606 248.733 55.9234 0.90765 -0.0142572
1815600 60.2606 248.746 55.9234 0.90775 0.00463772
1815800 60.2606 248.759 55.9234 0.90785 0.0105173
1816000 60.2606 248.772 55.9234 0.90795 0.00658421
1816200 60.2606 248.785 55.9234 0.90805 0.0198848
1816400 60.2606 248.798 55.9234 0.90815 0.0136395
1816600 60.2606 248.811 55.9234 0.90825 0.0197744
1816800 60.2606 248.824 55.9234 0.90835 0.0352014
1817000 60.2606 248.837 55.9234 0.90845 0.0223131
1817200 60.2606 248.85 55.9234 0.90855 0.0191558
1817400 60.2606 248.863 55.9234 0.90865 0.00684114
1817600 60.2606 248.876 55.9234 0.90875 -0.0153105
1817800 60.2606 248.889 55.9234 0.90885 -0.00307683
1818000 60.2606 248.902 55.9234 0.90895 0.00199231
1818200 60.2606 248.915 55.9234 0.90905 -0.0159378
1818400 60.2606 248.928 55.9234 0.90915 -0.00540233
1818600 60.2606 248.941 55.9234 0.90925 -0.00206996
1818800 60.2606 248.954 55.9234 0.90935 -0.0186058
1819000 60.2606 248.967 55.9234 0.90945 -0.0306073
1819200 60.2606 248.98 55.9234 0.90955 -0.00988826
1819400 60.2606 248.993 55.9234 0.90965 -0.0140822
1819600 60.2606 249.006 55.9234 0.90975 0.0154906
1819800 60.2606 249.019 55.9234 0.90985 0.0170767
1820000 60.2606 249.032 55.9234 0.90995 0.00838121
1820200 60.2606 249.045 55.9234 0.91005 0.00417867
1820400 60.2606 249.058 55.9234 0.91015 0.0302804
1820600 60.2606 249.072 55.9234 0.91025 0.0198621
1820800 60.2606 249.085 55.9234 0.91035 0.00094137
1821000 60.2606 249.098 55.9234 0.91045 0.0125461
1821200 60.2606 249.111 55.9234 0.91055 0.0420099
1821400 60.2606 249.124 55.9234 0.91065 0.00892861
1821600 60.2606 249.137 55.9234 0.91075 0.00594585
1821800 60.2606 249.15 55.9234 0.91085 -0.0037664
1822000 60.2606 249.163 55.9234 0.91095 -0.00938537
1822200 60.2606 249.176 55.9234 0.91105 -0.0160486
1822400 60.2606 249.189 55.9234 0.91115 -0.0118549
1822600 60.2606 249.202 55.9234 0.91125 -0.0114377
1822800 60.2606 249.215 55.9234 0.91135 -0.00471257
1823000 60.2606 249.228 55.9234 0.91145 -0.0106712
1823200 60.2606 249.241 55.9234 0.91155 -0.0200949
1823400 60.2606 249.254 55.9234 0.91165 -0.0126808
1823600 60.2606 249.267 55.9234 0.91175 0.00117129
1823800 60.2606 249.28 55.9234 0.91185 0.0108938
1824000 60.2606 249.293 55.9234 0.91195 0.0180247
1824200 60.2606 249.306 55.9234 0.91205 0.00770262
1824400 60.2606 249.319 55.9234 0.91215 0.0165766
1824600 60.2606 249.332 55.9234 0.91225 0.0391062
1824800 60.2606 249.345 55.9234 0.91235 0.0277081
1825000 60.2606 249.358 55.9234 0.91245 0.0069849
1825200 60.2606 249.371 55.9234 0.91255 0.00831496
1825400 60.2606 249.384 55.9234 0.91265 -0.0123969
1825600 60.2606 249.398 55.9234 0.91275 -0.00166492
1825800 60.2606 249.411 55.9234 0.91285 0.025799
1826000 60.2606 249.424 55.9234 0.91295 -0.00784916
1826200 60.2606 249.437 55.9234 0.91305 -0.00454597
1826400 60.2606 249.45 55.9234 0.91315 -0.00606854
1826600 60.2606 249.463 55.9234 0.91325 -0.0316803
1826800 60.2606 249.476 55.9234 0.91335 -0.019268
1827000 60.2606 249.489 55.9234 0.91345 -0.0204089
1827200 60.2606 249.502 55.9234 0.91355 0.00849084
1827400 60.2606 249.515 55.9234 0.91365 0.00676311
1827600 60.2606 249.528 55.9234 0.91375 0.000242253
1827800 60.2606 249.541 55.9234 0.91385 -0.0114297
1828000 60.2606 249.554 55.9234 0.91395 0.00351783
1828200 60.2606 249.567 55.9234 0.91405 0.00156541
1828400 60.2606 249.58 55.9234 0.91415 0.0265538
1828600 60.2606 249.593 55.9234 0.91425 0.0361906
1828800 60.2606 249.606 55.9234 0.91435 0.0219868
1829000 60.2606 249.619 55.9234 0.91445 0.0191579
1829200 60.2606 249.632 55.9234 0.91455 0.00825233
1829400 60.2606 249.645 55.9234 0.91465 -0.00381261
1829600 60.2606 249.658 55.9234 0.91475 0.00704979
1829800 60.2606 249.671 55.9234 0.91485 0.0190813
1830000 60.2606 249.684 55.9234 0.91495 0.000353885
1830200 60.2606 249.697 55.9234 0.91505 0.00554984
1830400 60.2606 249.71 55.9234 0.91515 -0.0193466
1830600 60.2606 249.723 55.9234 0.91525 -0.0236304
1830800 60.2606 249.737 55.9234 0.91535 -0.0274346
1831000 60.2606 249.75 55.9234 0.91545 -0.00765913
1831200 60.2606 249.763 55.9234 0.91555 -0.0165833
1831400 60.2606 249.776 55.9234 0.91565 0.00520222
1831600 60.2606 249.789 55.9234 0.91575 0.00268874
1831800 60.2606 249.802 55.9234 0.91585 -0.00154039
1832000 60.2606 249.815 55.9234 0.91595 -0.0101005
1832200 60.2606 249.828 55.9234 0.91605 0.010874
1832400 60.2606 249.841 55.9234 0.91615 0.0279019
1832600 60.2606 249.854 55.9234 0.91625 0.0260176
1832800 60.2606 249.867 55.9234 0.91635 0.016041
1833000 60.2606 249.88 55.9234 0.91645 0.0207213
1833200 60.2606 249.893 55.9234 0.91655 0.017328
1833400 60.2606 249.906 55.9234 0.91665 0.00635612
1833600 60.2606 249.919 55.9234 0.91675 0.00638761
1833800 60.2606 249.932 55.9234 0.91685 0.0103477
1834000 60.2606 249.945 55.9234 0.91695 0.00725726
1834200 60.2606 249.958 55.9234 0.91705 -0.0139838
1834400 60.2606 249.971 55.9234 0.91715 -0.0198441
1834600 60.2606 249.984 55.9234 0.91725 -0.00722604
1834800 60.2606 249.997 55.9234 0.91735 -0.012924
1835000 60.2606 250.01 55.9234 0.91745 -0.0182865
1835200 60.2606 250.023 55.9234 0.91755 -0.0127965
1835400 60.2606 250.036 55.9234 0.91765 0.0043588
1835600 60.2606 250.049 55.9234 0.91775 -0.0137797
1835800 60.2606 250.062 55.9234 0.91785 0.000655233
1836000 60.2606 250.076 55.9234 0.91795 0.00067712
1836200 60.2606 250.089 55.9234 0.91805 0.011776
1836400 60.2606 250.102 55.9234 0.91815 0.0165338
1836600 60.2606 250.115 55.9234 0.91825 0.0139522
1836800 60.2606 250.128 55.9234 0.91835 0.0370597
1837000 60.2606 250.141 55.9234 0.91845 0.0142895
1837200 60.2606 250.154 55.9234 0.91855 0.0228749
1837400 60.2606 250.167 55.9234 0.91865 -0.000698551
1837600 60.2606 250.18 55.9234 0.91875 0.00358343
1837800 60.2606 250.193 55.9234 0.91885 0.00833649
1838000 60.2606 250.206 55.9234 0.91895 0.0173274
1838200 60.2606 250.219 55.9234 0.91905 -0.0085806
1838400 60.2606 250.232 55.9234 0.91915 -0.0165189
1838600 60.2606 250.245 55.9234 0.91925 -0.0198528
1838800 60.2606 250.258 55.9234 0.91935 -0.0165921
1839000 60.2606 250.271 55.9234 0.91945 -0.0199517
1839200 60.2606 250.284 55.9234 0.91955 -0.0220756
1839400 60.2606 250.297 55.9234 0.91965 0.00963675
1839600 60.2606 250.31 55.9234 0.91975 -0.00499057
1839800 60.2606 250.323 55.9234 0.91985 0.00718432
1840000 60.2606 250.336 55.9234 0.91995 0.010912
1840200 60.2606 250.349 55.9234 0.92005 0.00598003
1840400 60.2606 250.362 55.9234 0.92015 0.0129713
1840600 60.2606 250.375 55.9234 0.92025 0.0170628
1840800 60.2606 250.388 55.9234 0.92035 0.027364
1841000 60.2606 250.401 55.9234 0.92045 0.0244233
1841200 60.2606 250.415 55.9234 0.92055 0.0202406
1841400 60.2606 250.428 55.9234 0.92065 0.00354217
1841600 60.2606 250.441 55.9234 0.92075 0.00246592
1841800 60.2606 250.454 55.9234 0.92085 0.00140896
1842000 60.2606 250.467 55.9234 0.92095 -0.00472448
1842200 60.2606 250.48 55.9234 0.92105 -0.00686676
1842400 60.2606 250.493 55.9234 0.92115 -0.015364
1842600 60.2606 250.506 55.9234 0.92125 -0.00907677
1842800 60.2606 250.519 55.9234 0.92135 -0.0318924
1843000 60.2606 250.532 55.9234 0.92145 -0.00851291
1843200 60.2606 250.545 55.9234 0.92155 -0.00186086
1843400 60.2606 250.558 55.9234 0.92165 -0.00679493
1843600 60.2606 250.571 55.9234 0.92175 -0.0116033
1843800 60.2606 250.584 55.9234 0.92185 -0.00323037
1844000 60.2606 250.597 55.9234 0.92195 0.0264712
1844200 60.2606 250.61 55.9234 0.92205 0.0275711
1844400 60.2606 250.623 55.9234 0.92215 0.0136246
1844600 60.2606 250.636 55.9234 0.92225 0.0286622
1844800 60.2606 250.649 55.9234 0.92235 0.0247452
1845000 60.2606 250.662 55.9234 0.92245 0.005849
1845200 60.2606 250.675 55.9234 0.92255 0.0119467
1845400 60.2606 250.688 55.9234 0.92265 0.0153074
1845600 60.2606 250.701 55.9234 0.92275 0.0111147
1845800 60.2606 250.714 55.9234 0.92285 -0.00107737
1846000 60.2606 250.727 55.9234 0.92295 -0.00813449
1846200 60.2606 250.74 55.9234 0.92305 -0.0302518
1846400 60.2606 250.754 55.9234 0.92315 -0.0193617
1846600 60.2606 250.767 55.9234 0.92325 -0.0356325
1846800 60.2606 250.78 55.9234 0.92335 -0.00682997
1847000 60.2606 250.793 55.9234 0.92345 0.00459605
1847200 60.2606 250.806 55.9234 0.92355 -0.00744542
1847400 60.2606 250.819 55.9234 0.92365 -0.0066569
1847600 60.2606 250.832 55.9234 0.92375 0.000512996
1847800 60.2606 250.845 55.9234 0.92385 0.00258499
1848000 60.2606 250.858 55.9234 0.92395 0.0260418
1848200 60.2606 250.871 55.9234 0.92405 0.00685531
1848400 60.2606 250.884 55.9234 0.92415 0.0358609
1848600 60.2606 250.897 55.9234 0.92425 0.0237296
1848800 60.2606 250.91 55.9234 0.92435 0.0375086
1849000 60.2606 250.923 55.9234 0.92445 0.0101757
1849200 60.2606 250.936 55.9234 0.92455 0.00165046
1849400 60.2606 250.949 55.9234 0.92465 -0.00581145
1849600 60.2606 250.962 55.9234 0.92475 -0.00196515
1849800 60.2606 250.975 55.9234 0.92485 0.00536708
1850000 60.2606 250.988 55.9234 0.92495 -0.00967518
1850200 60.2606 251.001 55.9234 0.92505 -0.0204379
1850400 60.2606 251.014 55.9234 0.92515 -0.0248652
1850600 60.2606 251.027 55.9234 0.92525 -0.013137
1850800 60.2606 251.04 55.9234 0.92535 -0.0244695
1851000 60.2606 251.053 55.9234 0.92545 -0.0100734
1851200 60.2606 251.066 55.9234 0.92555 -0.00138854
1851400 60.2606 251.079 55.9234 0.92565 0.00490702
1851600 60.2606 251.093 55.9234 0.92575 0.00548457
1851800 60.2606 251.106 55.9234 0.92585 0.0232184
1852000 60.2606 251.119 55.9234 0.92595 0.00189359
1852200 60.2606 251.132 55.9234 0.92605 0.0244685
1852400 60.2606 251.145 55.9234 0.92615 0.0264765
1852600 60.2606 251.158 55.9234 0.92625 0.0216717
1852800 60.2606 251.171 55.9234 0.92635 0.0202672
1853000 60.2606 251.184 55.9234 0.92645 0.0177412
1853200 60.2606 251.197 55.9234 0.92655 0.00840391
1853400 60.2606 251.21 55.9234 0.92665 0.0110133
1853600 60.2606 251.223 55.9234 0.92675 -0.0115688
1853800 60.2606 251.236 55.9234 0.92685 -0.0149171
1854000 60.2606 251.249 55.9234 0.92695 -0.00334503
1854200 60.2606 251.262 55.9234 0.92705 -0.015817
1854400 60.2606 251.275 55.9234 0.92715 -0.0178085
1854600 60.2606 251.288 55.9234 0.92725 -0.0146463
1854800 60.2606 251.301 55.9234 0.92735 -0.0187895
1855000 60.2606 251.314 55.9234 0.92745 -0.0262113
1855200 60.2606 251.327 55.9234 0.92755 -0.0108377
1855400 60.2606 251.34 55.9234 0.92765 0.0168896
1855600 60.2606 251.353 55.9234 0.92775 0.00104777
1855800 60.2606 251.366 55.9234 0.92785 0.0102429
1856000 60.2606 251.379 55.9234 0.92795 0.0219486
1856200 60.2606 251.392 55.9234 0.92805 0.0360916
1856400 60.2606 251.405 55.9234 0.92815 0.00930552
1856600 60.2606 251.418 55.9234 0.92825 0.0273492
1856800 60.2606 251.432 55.9234 0.92835 0.0313384
1857000 60.2606 251.445 55.9234 0.92845 -0.0052221
1857200 60.2606 251.458 55.9234 0.92855 0.0184205
1857400 60.2606 251.471 55.9234 0.92865 -0.00415998
1857600 60.2606 251.484 55.9234 0.92875 -0.00380648
1857800 60.2606 251.497 55.9234 0.92885 -0.0036146
1858000 60.2606 251.51 55.9234 0.92895 -0.00390865
1858200 60.2606 251.523 55.9234 0.92905 -0.0298833
1858400 60.2606 251.536 55.9234 0.92915 -0.000386513
1858600 60.2606 251.549 55.9234 0.92925 -0.0308164
1858800 60.2606 251.562 55.9234 0.92935 -0.00235509
1859000 60.2606 251.575 55.9234 0.92945 -0.0200837
1859200 60.2606 251.588 55.9234 0.92955 0.0151561
1859400 60.2606 251.601 55.9234 0.92965 -0.00688542
1859600 60.2606 251.614 55.9234 0.92975 -0.0108794
1859800 60.2606 251.627 55.9234 0.92985 0.012776
1860000 60.2606 251.64 55.9234 0.92995 0.0251886
1860200 60.2606 251.653 55.9234 0.93005 0.0156098
1860400 60.2606 251.666 55.9234 0.93015 0.0239263
1860600 60.2606 251.679 55.9234 0.93025 0.0249941
1860800 60.2606 251.692 55.9234 0.93035 0.00988715
1861000 60.2606 251.705 55.9234 0.93045 0.0130218
1861200 60.2606 251.718 55.9234 0.93055 0.000920125
1861400 60.2606 251.731 55.9234 0.93065 0.00946091
1861600 60.2606 251.744 55.9234 0.93075 0.000233445
1861800 60.2606 251.758 55.9234 0.93085 0.000136269
1862000 60.2606 251.771 55.9234 0.93095 -0.00837728
1862200 60.2606 251.784 55.9234 0.93105 -0.0370058
1862400 60.2606 251.797 55.9234 0.93115 -0.00657789
1862600 60.2606 251.81 55.9234 0.93125 -0.0176461
1862800 60.2606 251.823 55.9234 0.93135 -0.00281231
1863000 60.2606 251.836 55.9234 0.93145 -0.0051923
1863200 60.2606 251.849 55.9234 0.93155 -0.00714712
1863400 60.2606 251.862 55.9234 0.93165 0.00751218
1863600 60.2606 251.875 55.9234 0.93175 -0.00511794
1863800 60.2606 251.888 55.9234 0.93185 0.0069087
1864000 60.2606 251.901 55.9234 0.93195 0.0174758
1864200 60.2606 251.914 55.9234 0.93205 0.0377678
1864400 60.2606 251.927 55.9234 0.93215 0.00648869
1864600 60.2606 251.94 55.9234 0.93225 0.00558572
1864800 60.2606 251.953 55.9234 0.93235 0.013107
1865000 60.2606 251.966 55.9234 0.93245 0.0146013
1865200 60.2606 251.979 55.9234 0.93255 0.00882286
1865400 60.2606 251.992 55.9234 0.93265 0.00710193
1865600 60.2606 252.005 55.9234 0.93275 0.00988353
1865800 60.2606 252.018 55.9234 0.93285 -0.0237143
1866000 60.2606 252.031 55.9234 0.93295 0.00713773
1866200 60.2606 252.044 55.9234 0.93305 -0.0128572
1866400 60.2606 252.057 55.9234 0.93315 -0.0263152
1866600 60.2606 252.07 55.9234 0.93325 -0.0150221
1866800 60.2606 252.083 55.9234 0.93335 0.000898341
1867000 60.2606 252.097 55.9234 0.93345 8.69588e-05
1867200 60.2606 252.11 55.9234 0.93355 -0.0182018
1867400 60.2606 252.123 55.9234 0.93365 0.0109822
1867600 60.2606 252.136 55.9234 0.93375 0.00737456
1867800 60.2606 252.149 55.9234 0.93385 0.000441798
1868000 60.2606 252.162 55.9234 0.93395 0.019588
1868200 60.2606 252.175 55.9234 0.93405 0.0145236
1868400 60.2606 252.188 55.9234 0.93415 0.0151084
1868600 60.2606 252.201 55.9234 0.93425 0.0291841
1868800 60.2606 252.214 55.9234 0.93435 0.00647608
1869000 60.2606 252.227 55.9234 0.93445 0.0143413
1869200 60.2606 252.24 55.9234 0.93455 -0.00432634
1869400 60.2606 252.253 55.9234 0.93465 -0.0207688
1869600 60.2606 252.266 55.9234 0.93475 0.0188546
1869800 60.2606 252.279 55.9234 0.93485 -0.00534627
1870000 60.2606 252.292 55.9234 0.93495 -0.00695832
1870200 60.2606 252.305 55.9234 0.93505 -0.0105086
1870400 60.2606 252.318 55.9234 0.93515 -0.00230988
1870600 60.2606 252.331 55.9234 0.93525 -0.017708
1870800 60.2606 252.344 55.9234 0.93535 -0.0184605
1871000 60.2606 252.357 55.9234 0.93545 0.00273357
1871200 60.2606 252.37 55.9234 0.93555 -0.0125998
1871400 60.2606 252.383 55.9234 0.93565 0.0150732
1871600 60.2606 252.396 55.9234 0.93575 0.0165947
1871800 60.2606 252.409 55.9234 0.93585 0.00706706
1872000 60.2606 252.422 55.9234 0.93595 0.00420383
1872200 60.2606 252.436 55.9234 0.93605 0.00399897
1872400 60.2606 252.449 55.9234 0.93615 0.00930745
1872600 60.2606 252.462 55.9234 0.93625 0.0327663
1872800 60.2606 252.475 55.9234 0.93635 0.0116762
1873000 60.2606 252.488 55.9234 0.93645 0.00833175
1873200 60.2606 252.501 55.9234 0.93655 0.00930312
1873400 60.2606 252.514 55.9234 0.93665 -0.0162383
1873600 60.2606 252.527 55.9234 0.93675 0.000817851
1873800 60.2606 252.54 55.9234 0.93685 -0.00110528
1874000 60.2606 252.553 55.9234 0.93695 -0.00250994
1874200 60.2606 252.566 55.9234 0.93705 -0.000184668
1874400 60.2606 252.579 55.9234 0.93715 -0.0177737
1874600 60.2606 252.592 55.9234 0.93725 -0.00699141
1874800 60.2606 252.605 55.9234 0.93735 -0.0122136
1875000 60.2606 252.618 55.9234 0.93745 -0.000124828
1875200 60.2606 252.631 55.9234 0.93755 -0.00815126
1875400 60.2606 252.644 55.9234 0.93765 -0.00226556
1875600 60.2606 252.657 55.9234 0.93775 -0.00136506
1875800 60.2606 252.67 55.9234 0.93785 0.0200061
1876000 60.2606 252.683 55.9234 0.93795 0.0128738
1876200 60.2606 252.696 55.9234 0.93805 0.00970536
1876400 60.2606 252.709 55.9234 0.93815 0.0105282
1876600 60.2606 252.722 55.9234 0.93825 0.0107125
1876800 60.2606 252.735 55.9234 0.93835 0.00874923
1877000 60.2606 252.748 55.9234 0.93845 0.0187494
1877200 60.2606 252.761 55.9234 0.93855 0.0208191
1877400 60.2606 252.775 55.9234 0.93865 0.00449565
1877600 60.2606 252.788 55.9234 0.93875 0.00594552
1877800 60.2606 252.801 55.9234 0.93885 -0.0145482
1878000 60.2606 252.814 55.9234 0.93895 -0.00856546
1878200 60.2606 252.827 55.9234 0.93905 -0.0167489
1878400 60.2606 252.84 55.9234 0.93915 -0.001701
1878600 60.2606 252.853 55.9234 0.93925 -0.00161254
1878800 60.2606 252.866 55.9234 0.93935 -0.0244996
1879000 60.2606 252.879 55.9234 0.93945 -0.0124899
1879200 60.2606 252.892 55.9234 0.93955 -0.00844054
1879400 60.2606 252.905 55.9234 0.93965 -0.017352
1879600 60.2606 252.918 55.9234 0.93975 0.00152451
1879800 60.2606 252.931 55.9234 0.93985 0.0227123
1880000 60.2606 252.944 55.9234 0.93995 0.0131031
1880200 60.2606 252.957 55.9234 0.94005 0.0130062
1880400 60.2606 252.97 55.9234 0.94015 0.0267823
1880600 60.2606 252.983 55.9234 0.94025 0.00605917
1880800 60.2606 252.996 55.9234 0.94035 0.0159109
1881000 60.2606 253.009 55.9234 0.94045 0.0213614
1881200 60.2606 253.022 55.9234 0.94055 0.0050748
1881400 60.2606 253.035 55.9234 0.94065 0.0260011
1881600 60.2606 253.048 55.9234 0.94075 -0.0116179
1881800 60.2606 253.061 55.9234 0.94085 0.0146794
1882000 60.2606 253.074 55.9234 0.94095 -0.0165323
1882200 60.2606 253.087 55.9234 0.94105 -0.0169487
1882400 60.2606 253.1 55.9234 0.94115 -0.0193331
1882600 60.2606 253.114 55.9234 0.94125 -0.0125233
1882800 60.2606 253.127 55.9234 0.94135 -0.0120869
1883000 60.2606 253.14 55.9234 0.94145 -0.0155143
1883200 60.2606 253.153 55.9234 0.94155 -0.0111794
1883400 60.2606 253.166 55.9234 0.94165 0.00459499
1883600 60.2606 253.179 55.9234 0.94175 -0.00515917
1883800 60.2606 253.192 55.9234 0.94185 -0.000710709
1884000 60.2606 253.205 55.9234 0.94195 0.012127
1884200 60.2606 253.218 55.9234 0.94205 0.0209067
1884400 60.2606 253.231 55.9234 0.94215 0.0165727
1884600 60.2606 253.244 55.9234 0.94225 0.0253554
1884800 60.2606 253.257 55.9234 0.94235 0.0394956
1885000 60.2606 253.27 55.9234 0.94245 0.0174319
1885200 60.2606 253.283 55.9234 0.94255 0.00598018
1885400 60.2606 253.296 55.9234 0.94265 -0.00368813
1885600 60.2606 253.309 55.9234 0.94275 0.00170017
1885800 60.2606 253.322 55.9234 0.94285 -0.0106143
1886000 60.2606 253.335 55.9234 0.94295 -0.00805766
1886200 60.2606 253.348 55.9234 0.94305 -0.00578178
1886400 60.2606 253.361 55.9234 0.94315 -0.016229
1886600 60.2606 253.374 55.9234 0.94325 -0.0280249
1886800 60.2606 253.387 55.9234 0.94335 -0.0166826
1887000 60.2606 253.4 55.9234 0.94345 -0.0131358
1887200 60.2606 253.413 55.9234 0.94355 0.00167835
1887400 60.2606 253.426 55.9234 0.94365 0.00125242
1887600 60.2606 253.439 55.9234 0.94375 0.0035308
1887800 60.2606 253.453 55.9234 0.94385 0.0162801
1888000 60.2606 253.466 55.9234 0.94395 0.0158165
1888200 60.2606 253.479 55.9234 0.94405 0.0224577
1888400 60.2606 253.492 55.9234 0.94415 0.0116729
1888600 60.2606 253.505 55.9234 0.94425 0.00368651
1888800 60.2606 253.518 55.9234 0.94435 0.0308841
1889000 60.2606 253.531 55.9234 0.94445 0.00600195
1889200 60.2606 253.544 55.9234 0.94455 0.022232
1889400 60.2606 253.557 55.9234 0.94465 -0.00188856
1889600 60.2606 253.57 55.9234 0.94475 0.000185233
1889800 60.2606 253.583 55.9234 0.94485 -0.00668761
1890000 60.2606 253.596 55.9234 0.94495 -0.0215096
1890200 60.2606 253.609 55.9234 0.94505 -0.0184411
1890400 60.2606 253.622 55.9234 0.94515 -0.00992353
1890600 60.2606 253.635 55.9234 0.94525 -0.00926064
1890800 60.2606 253.648 55.9234 0.94535 -0.0115356
1891000 60.2606 253.661 55.9234 0.94545 -0.004606
1891200 60.2606 253.674 55.9234 0.94555 -0.00650858
1891400 60.2606 253.687 55.9234 0.94565 -0.0108726
1891600 60.2606 253.7 55.9234 0.94575 0.0143187
1891800 60.2606 253.713 55.9234 0.94585 0.0131192
1892000 60.2606 253.726 55.9234 0.94595 0.030436
1892200 60.2606 253.739 55.9234 0.94605 0.0121526
1892400 60.2606 253.752 55.9234 0.94615 0.0088332
1892600 60.2606 253.765 55.9234 0.94625 0.0225915
1892800 60.2606 253.779 55.9234 0.94635 0.0120209
1893000 60.2606 253.792 55.9234 0.94645 0.0121821
1893200 60.2606 253.805 55.9234 0.94655 0.00728488
1893400 60.2606 253.818 55.9234 0.94665 -0.00834037
1893600 60.2606 253.831 55.9234 0.94675 0.00189641
1893800 60.2606 253.844 55.9234 0.94685 -0.0201005
1894000 60.2606 253.857 55.9234 0.94695 -0.0236565
1894200 60.2606 253.87 55.9234 0.94705 -0.0112025
1894400 60.2606 253.883 55.9234 0.94715 0.0018333
1894600 60.2606 253.896 55.9234 0.94725 0.00897009
1894800 60.2606 253.909 55.9234 0.94735 -0.0224378
1895000 60.2606 253.922 55.9234 0.94745 0.000486083
1895200 60.2606 253.935 55.9234 0.94755 -0.01459
1895400 60.2606 253.948 55.9234 0.94765 0.00133878
1895600 60.2606 253.961 55.9234 0.94775 0.0216022
1895800 60.2606 253.974 55.9234 0.94785 0.028099
1896000 60.2606 253.987 55.9234 0.94795 0.0314574
1896200 60.2606 254 55.9234 0.94805 -0.00396999
1896400 60.2606 254.013 55.9234 0.94815 0.0123892
1896600 60.2606 254.026 55.9234 0.94825 0.00164054
1896800 60.2606 254.039 55.9234 0.94835 0.0140642
1897000 60.2606 254.052 55.9234 0.94845 0.0018395
1897200 60.2606 254.065 55.9234 0.94855 0.00186825
1897400 60.2606 254.078 55.9234 0.94865 -0.00364392
1897600 60.2606 254.091 55.9234 0.94875 -0.00474512
1897800 60.2606 254.104 55.9234 0.94885 -0.0298015
1898000 60.2606 254.118 55.9234 0.94895 -0.00741793
1898200 60.2606 254.131 55.9234 0.94905 -0.00119971
1898400 60.2606 254.144 55.9234 0.94915 -0.00738347
1898600 60.2606 254.157 55.9234 0.94925 -0.0167448
1898800 60.2606 254.17 55.9234 0.94935 0.0131924
1899000 60.2606 254.183 55.9234 0.94945 -0.00328991
1899200 60.2606 254.196 55.9234 0.94955 -0.00671359
1899400 60.2606 254.209 55.9234 0.94965 0.0216226
1899600 60.2606 254.222 55.9234 0.94975 0.00777293
1899800 60.2606 254.235 55.9234 0.94985 0.00671082
1900000 60.2606 254.248 55.9234 0.94995 0.0239092
1900200 60.2606 254.261 55.9234 0.95005 0.0220675
1900400 60.2606 254.274 55.9234 0.95015 0.00275347
1900600 60.2606 254.287 55.9234 0.95025 0.0137964
1900800 60.2606 254.3 55.9234 0.95035 0.00626564
1901000 60.2606 254.313 55.9234 0.95045 0.00686915
1901200 60.2606 254.326 55.9234 0.95055 -0.0100386
1901400 60.2606 254.339 55.9234 0.95065 -0.00846173
1901600 60.2606 254.352 55.9234 0.95075 -0.00663316
1901800 60.2606 254.365 55.9234 0.95085 -0.0110157
1902000 60.2606 254.378 55.9234 0.95095 -0.00570343
1902200 60.2606 254.391 55.9234 0.95105 -0.0143622
1902400 60.2606 254.404 55.9234 0.95115 -0.00447936
1902600 60.2606 254.417 55.9234 0.95125 -0.00463063
1902800 60.2606 254.43 55.9234 0.95135 -0.00297719
1903000 60.2606 254.443 55.9234 0.95145 0.00960787
1903200 60.2606 254.457 55.9234 0.95155 0.00107634
1903400 60.2606 254.47 55.9234 0.95165 0.0140748
1903600 60.2606 254.483 55.9234 0.95175 0.00371974
1903800 60.2606 254.496 55.9234 0.95185 0.00894598
1904000 60.2606 254.509 55.9234 0.95195 -0.00692424
1904200 60.2606 254.522 55.9234 0.95205 0.0218825
1904400 60.2606 254.535 55.9234 0.95215 0.029333
1904600 60.2606 254.548 55.9234 0.95225 0.00875716
1904800 60.2606 254.561 55.9234 0.95235 0.00495746
1905000 60.2606 254.574 55.9234 0.95245 -0.00136227
1905200 60.2606 254.587 55.9234 0.95255 -0.00958526
1905400 60.2606 254.6 55.9234 0.95265 -0.0131246
1905600 60.2606 254.613 55.9234 0.95275 -0.00631755
1905800 60.2606 254.626 55.9234 0.95285 -0.00521954
1906000 60.2606 254.639 55.9234 0.95295 0.0110099
1906200 60.2606 254.652 55.9234 0.95305 -0.0121464
1906400 60.2606 254.665 55.9234 0.95315 -0.00735191
1906600 60.2606 254.678 55.9234 0.95325 -0.0183486
1906800 60.2606 254.691 55.9234 0.95335 -0.000751624
1907000 60.2606 254.704 55.9234 0.95345 0.00974574
1907200 60.2606 254.717 55.9234 0.95355 0.00218015
1907400 60.2606 254.73 55.9234 0.95365 0.0144892
1907600 60.2606 254.743 55.9234 0.95375 0.00351779
1907800 60.2606 254.756 55.9234 0.95385 0.00862022
1908000 60.2606 254.769 55.9234 0.95395 0.022033
1908200 60.2606 254.782 55.9234 0.95405 0.00485369
1908400 60.2606 254.796 55.9234 0.95415 0.0218553
1908600 60.2606 254.809 55.9234 0.95425 0.0115192
1908800 60.2606 254.822 55.9234 0.95435 -0.00234005
1909000 60.2606 254.835 55.9234 0.95445 0.00441398
1909200 60.2606 254.848 55.9234 0.95455 -0.00952598
1909400 60.2606 254.861 55.9234 0.95465 -0.00205597
1909600 60.2606 254.874 55.9234 0.95475 -0.0180842
1909800 60.2606 254.887 55.9234 0.95485 -0.0039432
1910000 60.2606 254.9 55.9234 0.95495 -0.019633
1910200 60.2606 254.913 55.9234 0.95505 -0.00626964
1910400 60.2606 254.926 55.9234 0.95515 0.0111365
1910600 60.2606 254.939 55.9234 0.95525 -0.00640305
1910800 60.2606 254.952 55.9234 0.95535 0.00279139
1911000 60.2606 254.965 55.9234 0.95545 0.00147784
1911200 60.2606 254.978 55.9234 0.95555 -0.00515849
1911400 60.2606 254.991 55.9234 0.95565 0.0210883
1911600 60.2606 255.004 55.9234 0.95575 0.00429398
1911800 60.2606 255.017 55.9234 0.95585 0.022126
1912000 60.2606 255.03 55.9234 0.95595 0.0151339
1912200 60.2606 255.043 55.9234 0.95605 -0.000414187
1912400 60.2606 255.056 55.9234 0.95615 0.00805581
1912600 60.2606 255.069 55.9234 0.95625 0.00444366
1912800 60.2606 255.082 55.9234 0.95635 -0.00329266
1913000 60.2606 255.095 55.9234 0.95645 -0.000939107
1913200 60.2606 255.108 55.9234 0.95655 0.00396111
1913400 60.2606 255.121 55.9234 0.95665 0.000783648
1913600 60.2606 255.135 55.9234 0.95675 -0.0110205
1913800 60.2606 255.148 55.9234 0.95685 -0.0124527
1914000 60.2606 255.161 55.9234 0.95695 -0.0107261
1914200 60.2606 255.174 55.9234 0.95705 -0.0136855
1914400 60.2606 255.187 55.9234 0.95715 0.0114527
1914600 60.2606 255.2 55.9234 0.95725 0.00463443
1914800 60.2606 255.213 55.9234 0.95735 -0.00490011
1915000 60.2606 255.226 55.9234 0.95745 0.0152446
1915200 60.2606 255.239 55.9234 0.95755 -0.000408629
1915400 60.2606 255.252 55.9234 0.95765 0.00616281
1915600 60.2606 255.265 55.9234 0.95775 0.00727302
1915800 60.2606 255.278 55.9234 0.95785 0.0229709
1916000 60.2606 255.291 55.9234 0.95795 0.0171845
1916200 60.2606 255.304 55.9234 0.95805 0.00367137
1916400 60.2606 255.317 55.9234 0.95815 -0.000223859
1916600 60.2606 255.33 55.9234 0.95825 -0.00545919
1916800 60.2606 255.343 55.9234 0.95835 0.00210943
1917000 60.2606 255.356 55.9234 0.95845 -0.00360484
1917200 60.2606 255.369 55.9234 0.95855 -0.00153826
1917400 60.2606 255.382 55.9234 0.95865 -0.0130073
1917600 60.2606 255.395 55.9234 0.95875 0.00743253
1917800 60.2606 255.408 55.9234 0.95885 -0.0259229
1918000 60.2606 255.421 55.9234 0.95895 -0.00665369
1918200 60.2606 255.434 55.9234 0.95905 0.00205728
1918400 60.2606 255.447 55.9234 0.95915 -0.0051901
1918600 60.2606 255.46 55.9234 0.95925 0.021522
1918800 60.2606 255.474 55.9234 0.95935 -0.000911763
1919000 60.2606 255.487 55.9234 0.95945 0.0135053
1919200 60.2606 255.5 55.9234 0.95955 0.0103225
1919400 60.2606 255.513 55.9234 0.95965 0.000653569
1919600 60.2606 255.526 55.9234 0.95975 0.00424618
1919800 60.2606 255.539 55.9234 0.95985 0.0150535
1920000 60.2606 255.552 55.9234 0.95995 0.00715972
1920200 60.2606 255.565 55.9234 0.96005 0.00515764
1920400 60.2606 255.578 55.9234 0.96015 0.0113197
1920600 60.2606 255.591 55.9234 0.96025 5.81793e-05
1920800 60.2606 255.604 55.9234 0.96035 -0.010985
1921000 60.2606 255.617 55.9234 0.96045 -0.00060415
1921200 60.2606 255.63 55.9234 0.96055 -0.0141389
1921400 60.2606 255.643 55.9234 0.96065 0.00261053
1921600 60.2606 255.656 55.9234 0.96075 -0.00357423
1921800 60.2606 255.669 55.9234 0.96085 0.00208581
1922000 60.2606 255.682 55.9234 0.96095 -0.0176827
1922200 60.2606 255.695 55.9234 0.96105 -0.00089985
1922400 60.2606 255.708 55.9234 0.96115 -0.00317269
1922600 60.2606 255.721 55.9234 0.96125 -0.000679705
1922800 60.2606 255.734 55.9234 0.96135 0.0222472
1923000 60.2606 255.747 55.9234 0.96145 0.00977451
1923200 60.2606 255.76 55.9234 0.96155 0.0115568
1923400 60.2606 255.773 55.9234 0.96165 -0.000253858
1923600 60.2606 255.786 55.9234 0.96175 -0.0059695
1923800 60.2606 255.799 55.9234 0.96185 0.00574872
1924000 60.2606 255.813 55.9234 0.96195 0.0115329
1924200 60.2606 255.826 55.9234 0.96205 0.00681449
1924400 60.2606 255.839 55.9234 0.96215 0.0138042
1924600 60.2606 255.852 55.9234 0.96225 0.00155353
1924800 60.2606 255.865 55.9234 0.96235 -0.0149654
1925000 60.2606 255.878 55.9234 0.96245 -0.00747666
1925200 60.2606 255.891 55.9234 0.96255 0.00333645
1925400 60.2606 255.904 55.9234 0.96265 0.00209697
1925600 60.2606 255.917 55.9234 0.96275 -0.00237813
1925800 60.2606 255.93 55.9234 0.96285 -0.00841261
1926000 60.2606 255.943 55.9234 0.96295 0.00684212
1926200 60.2606 255.956 55.9234 0.96305 -0.0073825
1926400 60.2606 255.969 55.9234 0.96315 -0.00599013
1926600 60.2606 255.982 55.9234 0.96325 0.011019
1926800 60.2606 255.995 55.9234 0.96335 0.00762557
1927000 60.2606 256.008 55.9234 0.96345 -0.000605575
1927200 60.2606 256.021 55.9234 0.96355 0.00189722
1927400 60.2606 256.034 55.9234 0.96365 0.0050256
1927600 60.2606 256.047 55.9234 0.96375 0.0025062
1927800 60.2606 256.06 55.9234 0.96385 0.0180268
1928000 60.2606 256.073 55.9234 0.96395 0.010721
1928200 60.2606 256.086 55.9234 0.96405 0.00697555
1928400 60.2606 256.099 55.9234 0.96415 -0.00448255
1928600 60.2606 256.112 55.9234 0.96425 0.0028527
1928800 60.2606 256.125 55.9234 0.96435 -0.00399156
1929000 60.2606 256.139 55.9234 0.96445 -0.0121236
1929200 60.2606 256.152 55.9234 0.96455 0.0111838
1929400 60.2606 256.165 55.9234 0.96465 0.00291234
1929600 60.2606 256.178 55.9234 0.96475 -0.00850015
1929800 60.2606 256.191 55.9234 0.96485 -0.0117443
1930000 60.2606 256.204 55.9234 0.96495 -0.00774736
1930200 60.2606 256.217 55.9234 0.96505 -0.00791209
1930400 60.2606 256.23 55.9234 0.96515 -0.00371332
1930600 60.2606 256.243 55.9234 0.96525 0.0102264
1930800 60.2606 256.256 55.9234 0.96535 0.000350186
1931000 60.2606 256.269 55.9234 0.96545 0.0159313
1931200 60.2606 256.282 55.9234 0.96555 0.0138102
1931400 60.2606 256.295 55.9234 0.96565 0.0115155
1931600 60.2606 256.308 55.9234 0.96575 -0.00317917
1931800 60.2606 256.321 55.9234 0.96585 0.00902732
1932000 60.2606 256.334 55.9234 0.96595 0.0141021
1932200 60.2606 256.347 55.9234 0.96605 0.00302699
1932400 60.2606 256.36 55.9234 0.96615 0.0137576
1932600 60.2606 256.373 55.9234 0.96625 0.000866521
1932800 60.2606 256.386 55.9234 0.96635 -0.00552655
1933000 60.2606 256.399 55.9234 0.96645 -0.0148087
1933200 60.2606 256.412 55.9234 0.96655 -0.00213709
1933400 60.2606 256.425 55.9234 0.96665 -0.00835312
1933600 60.2606 256.438 55.9234 0.96675 -0.00393373
1933800 60.2606 256.451 55.9234 0.96685 -0.00927587
1934000 60.2606 256.464 55.9234 0.96695 0.00206361
1934200 60.2606 256.478 55.9234 0.96705 0.00491868
1934400 60.2606 256.491 55.9234 0.96715 -0.00644369
1934600 60.2606 256.504 55.9234 0.96725 -0.00923996
1934800 60.2606 256.517 55.9234 0.96735 0.0148007
1935000 60.2606 256.53 55.9234 0.96745 0.00901401
1935200 60.2606 256.543 55.9234 0.96755 0.0127366
1935400 60.2606 256.556 55.9234 0.96765 0.00851121
1935600 60.2606 256.569 55.9234 0.96775 -0.0019066
1935800 60.2606 256.582 55.9234 0.96785 0.00732354
1936000 60.2606 256.595 55.9234 0.96795 0.0175362
1936200 60.2606 256.608 55.9234 0.96805 0.00464128
1936400 60.2606 256.621 55.9234 0.96815 0.00687512
1936600 60.2606 256.634 55.9234 0.96825 0.0147211
1936800 60.2606 256.647 55.9234 0.96835 -0.00504496
1937000 60.2606 256.66 55.9234 0.96845 -0.0200179
1937200 60.2606 256.673 55.9234 0.96855 -0.00496614
1937400 60.2606 256.686 55.9234 0.96865 -0.00283134
1937600 60.2606 256.699 55.9234 0.96875 -0.021655
1937800 60.2606 256.712 55.9234 0.96885 -0.00282246
1938000 60.2606 256.725 55.9234 0.96895 -0.00679248
1938200 60.2606 256.738 55.9234 0.96905 -0.00651897
1938400 60.2606 256.751 55.9234 0.96915 0.00656461
1938600 60.2606 256.764 55.9234 0.96925 0.00287291
1938800 60.2606 256.777 55.9234 0.96935 -0.0062486
1939000 60.2606 256.79 55.9234 0.96945 0.0123298
1939200 60.2606 256.803 55.9234 0.96955 0.027043
1939400 60.2606 256.817 55.9234 0.96965 0.0138477
1939600 60.2606 256.83 55.9234 0.96975 0.0194854
1939800 60.2606 256.843 55.9234 0.96985 0.00675105
1940000 60.2606 256.856 55.9234 0.96995 0.00779272
1940200 60.2606 256.869 55.9234 0.97005 0.007871
1940400 60.2606 256.882 55.9234 0.97015 0.000683037
1940600 60.2606 256.895 55.9234 0.97025 0.00190177
1940800 60.2606 256.908 55.9234 0.97035 -0.0089606
1941000 60.2606 256.921 55.9234 0.97045 -0.016255
1941200 60.2606 256.934 55.9234 0.97055 -0.0180054
1941400 60.2606 256.947 55.9234 0.97065 -0.00856162
1941600 60.2606 256.96 55.9234 0.97075 -0.00863722
1941800 60.2606 256.973 55.9234 0.97085 -0.00230225
1942000 60.2606 256.986 55.9234 0.97095 -0.0109471
1942200 60.2606 256.999 55.9234 0.97105 0.00275557
1942400 60.2606 257.012 55.9234 0.97115 -0.00939311
1942600 60.2606 257.025 55.9234 0.97125 0.00237094
1942800 60.2606 257.038 55.9234 0.97135 0.0207871
1943000 60.2606 257.051 55.9234 0.97145 0.0307775
1943200 60.2606 257.064 55.9234 0.97155 0.0187101
1943400 60.2606 257.077 55.9234 0.97165 0.0225927
1943600 60.2606 257.09 55.9234 0.97175 0.02244
1943800 60.2606 257.103 55.9234 0.97185 -0.00389596
1944000 60.2606 257.116 55.9234 0.97195 0.00812121
1944200 60.2606 257.129 55.9234 0.97205 -0.0102302
1944400 60.2606 257.142 55.9234 0.97215 0.00623494
1944600 60.2606 257.156 55.9234 0.97225 -0.000472521
1944800 60.2606 257.169 55.9234 0.97235 -0.0153158
1945000 60.2606 257.182 55.9234 0.97245 -0.0200572
1945200 60.2606 257.195 55.9234 0.97255 -0.0206495
1945400 60.2606 257.208 55.9234 0.97265 -0.00575923
1945600 60.2606 257.221 55.9234 0.97275 -0.0130737
1945800 60.2606 257.234 55.9234 0.97285 -0.0153118
1946000 60.2606 257.247 55.9234 0.97295 -0.00739617
1946200 60.2606 257.26 55.9234 0.97305 0.0044455
1946400 60.2606 257.273 55.9234 0.97315 0.0150366
1946600 60.2606 257.286 55.9234 0.97325 0.018903
1946800 60.2606 257.299 55.9234 0.97335 0.003107
1947000 60.2606 257.312 55.9234 0.97345 0.0300714
1947200 60.2606 257.325 55.9234 0.97355 0.0358736
1947400 60.2606 257.338 55.9234 0.97365 0.0159778
1947600 60.2606 257.351 55.9234 0.97375 0.0151538
1947800 60.2606 257.364 55.9234 0.97385 0.00902828
1948000 60.2606 257.377 55.9234 0.97395 -0.0124248
1948200 60.2606 257.39 55.9234 0.97405 0.00864627
1948400 60.2606 257.403 55.9234 0.97415 -0.0194548
1948600 60.2606 257.416 55.9234 0.97425 -0.0141817
1948800 60.2606 257.429 55.9234 0.97435 -0.0179657
1949000 60.2606 257.442 55.9234 0.97445 -0.0169426
1949200 60.2606 257.455 55.9234 0.97455 -0.0170252
1949400 60.2606 257.468 55.9234 0.97465 -0.0265527
1949600 60.2606 257.481 55.9234 0.97475 0.00285148
1949800 60.2606 257.495 55.9234 0.97485 -0.00662819
1950000 60.2606 257.508 55.9234 0.97495 0.00541243
1950200 60.2606 257.521 55.9234 0.97505 0.0114424
1950400 60.2606 257.534 55.9234 0.97515 0.0131964
1950600 60.2606 257.547 55.9234 0.97525 0.0158557
1950800 60.2606 257.56 55.9234 0.97535 0.0221394
1951000 60.2606 257.573 55.9234 0.97545 0.0253348
1951200 60.2606 257.586 55.9234 0.97555 0.0200542
1951400 60.2606 257.599 55.9234 0.97565 0.0215621
1951600 60.2606 257.612 55.9234 0.97575 0.0115278
1951800 60.2606 257.625 55.9234 0.97585 0.00379458
1952000 60.2606 257.638 55.9234 0.97595 0.00798998
1952200 60.2606 257.651 55.9234 0.97605 -0.00556433
1952400 60.2606 257.664 55.9234 0.97615 -0.0184567
1952600 60.2606 257.677 55.9234 0.97625 -0.017649
1952800 60.2606 257.69 55.9234 0.97635 -0.0124245
1953000 60.2606 257.703 55.9234 0.97645 -0.0389019
1953200 60.2606 257.716 55.9234 0.97655 -0.00869477
1953400 60.2606 257.729 55.9234 0.97665 -0.0215698
1953600 60.2606 257.742 55.9234 0.97675 -0.0145285
1953800 60.2606 257.755 55.9234 0.97685 0.0123169
1954000 60.2606 257.768 55.9234 0.97695 0.00717917
1954200 60.2606 257.781 55.9234 0.97705 0.0152889
1954400 60.2606 257.794 55.9234 0.97715 0.00940253
1954600 60.2606 257.807 55.9234 0.97725 0.00704919
1954800 60.2606 257.82 55.9234 0.97735 0.0201111
1955000 60.2606 257.834 55.9234 0.97745 0.0292357
1955200 60.2606 257.847 55.9234 0.97755 0.0258776
1955400 60.2606 257.86 55.9234 0.97765 0.0285892
1955600 60.2606 257.873 55.9234 0.97775 0.0110151
1955800 60.2606 257.886 55.9234 0.97785 -0.002844
1956000 60.2606 257.899 55.9234 0.97795 -0.0127692
1956200 60.2606 257.912 55.9234 0.97805 -0.00565225
1956400 60.2606 257.925 55.9234 0.97815 -0.0128411
1956600 60.2606 257.938 55.9234 0.97825 -0.000306664
1956800 60.2606 257.951 55.9234 0.97835 -0.0132683
1957000 60.2606 257.964 55.9234 0.97845 -0.0197074
1957200 60.2606 257.977 55.9234 0.97855 -0.0234959
1957400 60.2606 257.99 55.9234 0.97865 -0.0189428
1957600 60.2606 258.003 55.9234 0.97875 -0.0131556
1957800 60.2606 258.016 55.9234 0.97885 -0.0105498
1958000 60.2606 258.029 55.9234 0.97895 0.0138503
1958200 60.2606 258.042 55.9234 0.97905 0.0161707
1958400 60.2606 258.055 55.9234 0.97915 0.0157281
1958600 60.2606 258.068 55.9234 0.97925 0.0201791
1958800 60.2606 258.081 55.9234 0.97935 0.0145258
1959000 60.2606 258.094 55.9234 0.97945 0.0138811
1959200 60.2606 258.107 55.9234 0.97955 0.0282295
1959400 60.2606 258.12 55.9234 0.97965 0.0178244
1959600 60.2606 258.133 55.9234 0.97975 0.0292791
1959800 60.2606 258.146 55.9234 0.97985 0.00349791
1960000 60.2606 258.159 55.9234 0.97995 -0.0125908
1960200 60.2606 258.173 55.9234 0.98005 -0.0166779
1960400 60.2606 258.186 55.9234 0.98015 -0.0156806
1960600 60.2606 258.199 55.9234 0.98025 -0.0200108
1960800 60.2606 258.212 55.9234 0.98035 -0.0218472
1961000 60.2606 258.225 55.9234 0.98045 -0.0105583
1961200 60.2606 258.238 55.9234 0.98055 -0.0273662
1961400 60.2606 258.251 55.9234 0.98065 -0.0127219
1961600 60.2606 258.264 55.9234 0.98075 0.00927379
1961800 60.2606 258.277 55.9234 0.98085 -0.00208971
1962000 60.2606 258.29 55.9234 0.98095 0.0130253
1962200 60.2606 258.303 55.9234 0.98105 0.0120107
1962400 60.2606 258.316 55.9234 0.98115 0.0313828
1962600 60.2606 258.329 55.9234 0.98125 0.0206447
1962800 60.2606 258.342 55.9234 0.98135 0.0123175
1963000 60.2606 258.355 55.9234 0.98145 0.0256438
1963200 60.2606 258.368 55.9234 0.98155 0.0128512
1963400 60.2606 258.381 55.9234 0.98165 0.0120386
1963600 60.2606 258.394 55.9234 0.98175 0.0129573
1963800 60.2606 258.407 55.9234 0.98185 -0.0013101
1964000 60.2606 258.42 55.9234 0.98195 -0.0154186
1964200 60.2606 258.433 55.9234 0.98205 -0.0174597
1964400 60.2606 258.446 55.9234 0.98215 -0.0158657
1964600 60.2606 258.459 55.9234 0.98225 -0.0097587
1964800 60.2606 258.472 55.9234 0.98235 -0.0263241
1965000 60.2606 258.485 55.9234 0.98245 -0.0151851
1965200 60.2606 258.499 55.9234 0.98255 -0.0183807
1965400 60.2606 258.512 55.9234 0.98265 0.000510356
1965600 60.2606 258.525 55.9234 0.98275 -0.0141995
1965800 60.2606 258.538 55.9234 0.98285 0.00662687
1966000 60.2606 258.551 55.9234 0.98295 0.0174772
1966200 60.2606 258.564 55.9234 0.98305 0.0215752
1966400 60.2606 258.577 55.9234 0.98315 0.027929
1966600 60.2606 258.59 55.9234 0.98325 0.0224694
1966800 60.2606 258.603 55.9234 0.98335 0.00829758
1967000 60.2606 258.616 55.9234 0.98345 0.0255206
1967200 60.2606 258.629 55.9234 0.98355 0.0334285
1967400 60.2606 258.642 55.9234 0.98365 0.00496066
1967600 60.2606 258.655 55.9234 0.98375 -0.0107385
1967800 60.2606 258.668 55.9234 0.98385 -0.00495126
1968000 60.2606 258.681 55.9234 0.98395 -0.0181402
1968200 60.2606 258.694 55.9234 0.98405 -0.00483597
1968400 60.2606 258.707 55.9234 0.98415 -0.0189542
1968600 60.2606 258.72 55.9234 0.98425 -0.0229434
1968800 60.2606 258.733 55.9234 0.98435 -0.0222352
1969000 60.2606 258.746 55.9234 0.98445 -0.0162813
1969200 60.2606 258.759 55.9234 0.98455 -0.00697737
1969400 60.2606 258.772 55.9234 0.98465 -0.00606968
1969600 60.2606 258.785 55.9234 0.98475 0.0133173
1969800 60.2606 258.798 55.9234 0.98485 0.000803396
1970000 60.2606 258.811 55.9234 0.98495 0.0257425
1970200 60.2606 258.824 55.9234 0.98505 0.0140528
1970400 60.2606 258.838 55.9234 0.98515 0.0165103
1970600 60.2606 258.851 55.9234 0.98525 0.0270575
1970800 60.2606 258.864 55.9234 0.98535 0.0173208
1971000 60.2606 258.877 55.9234 0.98545 0.0193621
1971200 60.2606 258.89 55.9234 0.98555 0.0143378
1971400 60.2606 258.903 55.9234 0.98565 0.00915134
1971600 60.2606 258.916 55.9234 0.98575 -0.00553034
1971800 60.2606 258.929 55.9234 0.98585 -0.00484706
1972000 60.2606 258.942 55.9234 0.98595 -0.0104923
1972200 60.2606 258.955 55.9234 0.98605 -0.0228668
1972400 60.2606 258.968 55.9234 0.98615 -0.026605
1972600 60.2606 258.981 55.9234 0.98625 -0.00741009
1972800 60.2606 258.994 55.9234 0.98635 -0.0132246
1973000 60.2606 259.007 55.9234 0.98645 -0.0107563
1973200 60.2606 259.02 55.9234 0.98655 -0.0213398
1973400 60.2606 259.033 55.9234 0.98665 -0.0108956
1973600 60.2606 259.046 55.9234 0.98675 -0.000182386
1973800 60.2606 259.059 55.9234 0.98685 0.0261451
1974000 60.2606 259.072 55.9234 0.98695 0.0107444
1974200 60.2606 259.085 55.9234 0.98705 0.0299992
1974400 60.2606 259.098 55.9234 0.98715 0.0283919
1974600 60.2606 259.111 55.9234 0.98725 0.0219471
1974800 60.2606 259.124 55.9234 0.98735 0.0183309
1975000 60.2606 259.137 55.9234 0.98745 0.0133721
1975200 60.2606 259.15 55.9234 0.98755 -0.00704999
1975400 60.2606 259.163 55.9234 0.98765 0.00898002
1975600 60.2606 259.177 55.9234 0.98775 0.0123647
1975800 60.2606 259.19 55.9234 0.98785 0.00157753
1976000 60.2606 259.203 55.9234 0.98795 -0.0229637
1976200 60.2606 259.216 55.9234 0.98805 -0.0237745
1976400 60.2606 259.229 55.9234 0.98815 -0.0222077
1976600 60.2606 259.242 55.9234 0.98825 -0.0212172
1976800 60.2606 259.255 55.9234 0.98835 -0.0136227
1977000 60.2606 259.268 55.9234 0.98845 -0.0069397
1977200 60.2606 259.281 55.9234 0.98855 -0.00669506
1977400 60.2606 259.294 55.9234 0.98865 0.00556327
1977600 60.2606 259.307 55.9234 0.98875 0.000688188
1977800 60.2606 259.32 55.9234 0.98885 0.00965307
1978000 60.2606 259.333 55.9234 0.98895 0.0141825
1978200 60.2606 259.346 55.9234 0.98905 0.00529351
1978400 60.2606 259.359 55.9234 0.98915 0.0281397
1978600 60.2606 259.372 55.9234 0.98925 0.0397188
1978800 60.2606 259.385 55.9234 0.98935 0.0197897
1979000 60.2606 259.398 55.9234 0.98945 0.00632619
1979200 60.2606 259.411 55.9234 0.98955 0.0023272
1979400 60.2606 259.424 55.9234 0.98965 -0.00642074
1979600 60.2606 259.437 55.9234 0.98975 0.00338491
1979800 60.2606 259.45 55.9234 0.98985 -0.0125035
1980000 60.2606 259.463 55.9234 0.98995 -0.0215682
1980200 60.2606 259.476 55.9234 0.99005 -0.00504355
1980400 60.2606 259.489 55.9234 0.99015 -0.00171293
1980600 60.2606 259.502 55.9234 0.99025 -0.00861587
1980800 60.2606 259.516 55.9234 0.99035 -0.0334723
1981000 60.2606 259.529 55.9234 0.99045 -0.0107787
1981200 60.2606 259.542 55.9234 0.99055 0.00362558
1981400 60.2606 259.555 55.9234 0.99065 0.00586449
1981600 60.2606 259.568 55.9234 0.99075 -0.00365965
1981800 60.2606 259.581 55.9234 0.99085 0.0225632
1982000 60.2606 259.594 55.9234 0.99095 0.0187797
1982200 60.2606 259.607 55.9234 0.99105 0.0221141
1982400 60.2606 259.62 55.9234 0.99115 0.00713394
1982600 60.2606 259.633 55.9234 0.99125 0.0354524
1982800 60.2606 259.646 55.9234 0.99135 -0.000490144
1983000 60.2606 259.659 55.9234 0.99145 0.00995326
1983200 60.2606 259.672 55.9234 0.99155 -0.00557414
1983400 60.2606 259.685 55.9234 0.99165 0.00132349
1983600 60.2606 259.698 55.9234 0.99175 0.000672941
1983800 60.2606 259.711 55.9234 0.99185 -0.00205137
1984000 60.2606 259.724 55.9234 0.99195 -0.0149328
1984200 60.2606 259.737 55.9234 0.99205 -0.021601
1984400 60.2606 259.75 55.9234 0.99215 -0.0174713
1984600 60.2606 259.763 55.9234 0.99225 -0.0130504
1984800 60.2606 259.776 55.9234 0.99235 -0.00578897
1985000 60.2606 259.789 55.9234 0.99245 0.00271876
1985200 60.2606 259.802 55.9234 0.99255 0.00829173
1985400 60.2606 259.815 55.9234 0.99265 -0.0062889
1985600 60.2606 259.828 55.9234 0.99275 -0.00420993
1985800 60.2606 259.841 55.9234 0.99285 0.00398349
1986000 60.2606 259.855 55.9234 0.99295 0.0136631
1986200 60.2606 259.868 55.9234 0.99305 0.0191659
1986400 60.2606 259.881 55.9234 0.99315 0.0284048
1986600 60.2606 259.894 55.9234 0.99325 0.00453079
1986800 60.2606 259.907 55.9234 0.99335 0.0158556
1987000 60.2606 259.92 55.9234 0.99345 0.00189471
1987200 60.2606 259.933 55.9234 0.99355 0.0143032
1987400 60.2606 259.946 55.9234 0.99365 -0.00433531
1987600 60.2606 259.959 55.9234 0.99375 0.000566562
1987800 60.2606 259.972 55.9234 0.99385 -0.00212406
1988000 60.2606 259.985 55.9234 0.99395 -0.0126309
1988200 60.2606 259.998 55.9234 0.99405 -0.0213323
1988400 60.2606 260.011 55.9234 0.99415 -0.0110827
1988600 60.2606 260.024 55.9234 0.99425 0.00535655
1988800 60.2606 260.037 55.9234 0.99435 -0.00326634
1989000 60.2606 260.05 55.9234 0.99445 -0.0251905
1989200 60.2606 260.063 55.9234 0.99455 -0.0114715
1989400 60.2606 260.076 55.9234 0.99465 0.0114288
1989600 60.2606 260.089 55.9234 0.99475 0.00232307
1989800 60.2606 260.102 55.9234 0.99485 0.0229084
1990000 60.2606 260.115 55.9234 0.99495 0.0192936
1990200 60.2606 260.128 55.9234 0.99505 0.0103312
1990400 60.2606 260.141 55.9234 0.99515 0.0215216
1990600 60.2606 260.154 55.9234 0.99525 0.00211639
1990800 60.2606 260.167 55.9234 0.99535 0.0135347
1991000 60.2606 260.18 55.9234 0.99545 0.0176099
1991200 60.2606 260.194 55.9234 0.99555 0.00623441
1991400 60.2606 260.207 55.9234 0.99565 0.00243767
1991600 60.2606 260.22 55.9234 0.99575 -0.0060702
1991800 60.2606 260.233 55.9234 0.99585 -0.0234397
1992000 60.2606 260.246 55.9234 0.99595 -0.0146082
1992200 60.2606 260.259 55.9234 0.99605 -0.0143869
1992400 60.2606 260.272 55.9234 0.99615 -0.0168464
1992600 60.2606 260.285 55.9234 0.99625 0.00517853
1992800 60.2606 260.298 55.9234 0.99635 -0.00673809
1993000 60.2606 260.311 55.9234 0.99645 -0.0261728
1993200 60.2606 260.324 55.9234 0.99655 0.0103242
1993400 60.2606 260.337 55.9234 0.99665 -0.011181
1993600 60.2606 260.35 55.9234 0.99675 0.0224792
1993800 60.2606 260.363 55.9234 0.99685 0.017314
1994000 60.2606 260.376 55.9234 0.99695 0.0163773
1994200 60.2606 260.389 55.9234 0.99705 0.0155192
1994400 60.2606 260.402 55.9234 0.99715 0.0248292
1994600 60.2606 260.415 55.9234 0.99725 0.025796
1994800 60.2606 260.428 55.9234 0.99735 -2.19209e-05
1995000 60.2606 260.441 55.9234 0.99745 0.00658687
1995200 60.2606 260.454 55.9234 0.99755 0.00860751
1995400 60.2606 260.467 55.9234 0.99765 -0.0017209
1995600 60.2606 260.48 55.9234 0.99775 -0.00917278
1995800 60.2606 260.493 55.9234 0.99785 -0.0288837
1996000 60.2606 260.506 55.9234 0.99795 -0.0193158
1996200 60.2606 260.52 55.9234 0.99805 -0.013176
1996400 60.2606 260.533 55.9234 0.99815 -0.0187303
1996600 60.2606 260.546 55.9234 0.99825 -0.015328
1996800 60.2606 260.559 55.9234 0.99835 -0.00608126
1997000 60.2606 260.572 55.9234 0.99845 -0.00241577
1997200 60.2606 260.585 55.9234 0.99855 0.0084187
1997400 60.2606 260.598 55.9234 0.99865 0.0102072
1997600 60.2606 260.611 55.9234 0.99875 0.0110641
1997800 60.2606 260.624 55.9234 0.99885 0.017986
1998000 60.2606 260.637 55.9234 0.99895 0.0185905
1998200 60.2606 260.65 55.9234 0.99905 0.0264545
1998400 60.2606 260.663 55.9234 0.99915 0.0190743
1998600 60.2606 260.676 55.9234 0.99925 0.0190575
1998800 60.2606 260.689 55.9234 0.99935 0.00867364
1999000 60.2606 260.702 55.9234 0.99945 -0.00228815
1999200 60.2606 260.715 55.9234 0.99955 0.00295592
1999400 60.2606 260.728 55.9234 0.99965 -0.010166
1999600 60.2606 260.741 55.9234 0.99975 -0.0169404
1999800 60.2606 260.754 55.9234 0.99985 -0.0157525
2000000 60.2606 260.767 55.9234 0.99995 -0.0155572
