# Time-averaged data for fix Re_Primary
Step Lx Ly Lz StrainY StressYY
200 60.2883 130.402 55.8291 5.025e-05 0.0433392
400 60.2883 130.415 55.8291 0.00015025 0.0379562
600 60.2883 130.428 55.8291 0.00025025 0.0443855
800 60.2883 130.441 55.8291 0.00035025 0.0773518
1000 60.2883 130.454 55.8291 0.00045025 0.0728421
1200 60.2883 130.467 55.8291 0.00055025 0.0648039
1400 60.2883 130.48 55.8291 0.00065025 0.10725
1600 60.2883 130.493 55.8291 0.00075025 0.0999082
1800 60.2883 130.506 55.8291 0.00085025 0.115425
2000 60.2883 130.519 55.8291 0.00095025 0.135321
2200 60.2883 130.532 55.8291 0.00105025 0.117047
2400 60.2883 130.545 55.8291 0.00115025 0.165624
2600 60.2883 130.558 55.8291 0.00125025 0.133852
2800 60.2883 130.571 55.8291 0.00135025 0.169315
3000 60.2883 130.584 55.8291 0.00145025 0.164943
3200 60.2883 130.597 55.8291 0.00155025 0.199791
3400 60.2883 130.61 55.8291 0.00165025 0.190901
3600 60.2883 130.623 55.8291 0.00175025 0.197967
3800 60.2883 130.637 55.8291 0.00185025 0.208128
4000 60.2883 130.65 55.8291 0.00195025 0.236766
4200 60.2883 130.663 55.8291 0.00205025 0.226784
4400 60.2883 130.676 55.8291 0.00215025 0.246972
4600 60.2883 130.689 55.8291 0.00225025 0.259898
4800 60.2883 130.702 55.8291 0.00235025 0.259194
5000 60.2883 130.715 55.8291 0.00245025 0.280033
5200 60.2883 130.728 55.8291 0.00255025 0.269493
5400 60.2883 130.741 55.8291 0.00265025 0.331959
5600 60.2883 130.754 55.8291 0.00275025 0.29776
5800 60.2883 130.767 55.8291 0.00285025 0.299825
6000 60.2883 130.78 55.8291 0.00295025 0.347577
6200 60.2883 130.793 55.8291 0.00305025 0.335282
6400 60.2883 130.806 55.8291 0.00315025 0.361201
6600 60.2883 130.819 55.8291 0.00325025 0.374696
6800 60.2883 130.832 55.8291 0.00335025 0.361634
7000 60.2883 130.845 55.8291 0.00345025 0.388733
7200 60.2883 130.858 55.8291 0.00355025 0.38241
7400 60.2883 130.871 55.8291 0.00365025 0.393089
7600 60.2883 130.884 55.8291 0.00375025 0.427037
7800 60.2883 130.897 55.8291 0.00385025 0.420546
8000 60.2883 130.91 55.8291 0.00395025 0.428985
8200 60.2883 130.923 55.8291 0.00405025 0.462438
8400 60.2883 130.936 55.8291 0.00415025 0.435224
8600 60.2883 130.949 55.8291 0.00425025 0.475597
8800 60.2883 130.963 55.8291 0.00435025 0.475015
9000 60.2883 130.976 55.8291 0.00445025 0.494311
9200 60.2883 130.989 55.8291 0.00455025 0.511514
9400 60.2883 131.002 55.8291 0.00465025 0.502804
9600 60.2883 131.015 55.8291 0.00475025 0.522959
9800 60.2883 131.028 55.8291 0.00485025 0.530992
10000 60.2883 131.041 55.8291 0.00495025 0.536161
10200 60.2883 131.054 55.8291 0.00505025 0.550257
10400 60.2883 131.067 55.8291 0.00515025 0.560081
10600 60.2883 131.08 55.8291 0.00525025 0.579414
10800 60.2883 131.093 55.8291 0.00535025 0.584085
11000 60.2883 131.106 55.8291 0.00545025 0.604671
11200 60.2883 131.119 55.8291 0.00555025 0.602745
11400 60.2883 131.132 55.8291 0.00565025 0.592724
11600 60.2883 131.145 55.8291 0.00575025 0.635085
11800 60.2883 131.158 55.8291 0.00585025 0.637761
12000 60.2883 131.171 55.8291 0.00595025 0.641564
12200 60.2883 131.184 55.8291 0.00605025 0.650813
12400 60.2883 131.197 55.8291 0.00615025 0.69264
12600 60.2883 131.21 55.8291 0.00625025 0.667507
12800 60.2883 131.223 55.8291 0.00635025 0.680472
13000 60.2883 131.236 55.8291 0.00645025 0.693876
13200 60.2883 131.249 55.8291 0.00655025 0.705315
13400 60.2883 131.262 55.8291 0.00665025 0.721551
13600 60.2883 131.275 55.8291 0.00675025 0.734082
13800 60.2883 131.289 55.8291 0.00685025 0.730668
14000 60.2883 131.302 55.8291 0.00695025 0.760068
14200 60.2883 131.315 55.8291 0.00705025 0.75622
14400 60.2883 131.328 55.8291 0.00715025 0.766056
14600 60.2883 131.341 55.8291 0.00725025 0.805363
14800 60.2883 131.354 55.8291 0.00735025 0.7626
15000 60.2883 131.367 55.8291 0.00745025 0.803453
15200 60.2883 131.38 55.8291 0.00755025 0.823845
15400 60.2883 131.393 55.8291 0.00765025 0.821975
15600 60.2883 131.406 55.8291 0.00775025 0.833378
15800 60.2883 131.419 55.8291 0.00785025 0.834554
16000 60.2883 131.432 55.8291 0.00795025 0.877899
16200 60.2883 131.445 55.8291 0.00805025 0.878565
16400 60.2883 131.458 55.8291 0.00815025 0.870096
16600 60.2883 131.471 55.8291 0.00825025 0.896566
16800 60.2883 131.484 55.8291 0.00835025 0.915096
17000 60.2883 131.497 55.8291 0.00845025 0.891171
17200 60.2883 131.51 55.8291 0.00855025 0.921303
17400 60.2883 131.523 55.8291 0.00865025 0.926775
17600 60.2883 131.536 55.8291 0.00875025 0.956904
17800 60.2883 131.549 55.8291 0.00885025 0.965555
18000 60.2883 131.562 55.8291 0.00895025 0.954709
18200 60.2883 131.575 55.8291 0.00905025 0.981253
18400 60.2883 131.588 55.8291 0.00915025 0.979093
18600 60.2883 131.601 55.8291 0.00925025 1.00859
18800 60.2883 131.615 55.8291 0.00935025 1.00798
19000 60.2883 131.628 55.8291 0.00945025 1.04298
19200 60.2883 131.641 55.8291 0.00955025 1.02114
19400 60.2883 131.654 55.8291 0.00965025 1.06109
19600 60.2883 131.667 55.8291 0.00975025 1.03635
19800 60.2883 131.68 55.8291 0.00985025 1.05761
20000 60.2883 131.693 55.8291 0.00995025 1.07513
20200 60.2883 131.706 55.8291 0.0100503 1.07634
20400 60.2883 131.719 55.8291 0.0101503 1.09913
20600 60.2883 131.732 55.8291 0.0102503 1.1096
20800 60.2883 131.745 55.8291 0.0103503 1.11206
21000 60.2883 131.758 55.8291 0.0104503 1.13734
21200 60.2883 131.771 55.8291 0.0105503 1.12882
21400 60.2883 131.784 55.8291 0.0106503 1.15688
21600 60.2883 131.797 55.8291 0.0107503 1.16877
21800 60.2883 131.81 55.8291 0.0108503 1.16243
22000 60.2883 131.823 55.8291 0.0109503 1.17568
22200 60.2883 131.836 55.8291 0.0110503 1.19243
22400 60.2883 131.849 55.8291 0.0111503 1.21729
22600 60.2883 131.862 55.8291 0.0112503 1.2036
22800 60.2883 131.875 55.8291 0.0113503 1.23197
23000 60.2883 131.888 55.8291 0.0114503 1.23455
23200 60.2883 131.901 55.8291 0.0115503 1.24172
23400 60.2883 131.914 55.8291 0.0116503 1.26401
23600 60.2883 131.927 55.8291 0.0117503 1.27701
23800 60.2883 131.94 55.8291 0.0118503 1.26737
24000 60.2883 131.954 55.8291 0.0119503 1.30636
24200 60.2883 131.967 55.8291 0.0120503 1.30519
24400 60.2883 131.98 55.8291 0.0121503 1.32013
24600 60.2883 131.993 55.8291 0.0122503 1.31234
24800 60.2883 132.006 55.8291 0.0123503 1.3497
25000 60.2883 132.019 55.8291 0.0124503 1.33685
25200 60.2883 132.032 55.8291 0.0125503 1.34266
25400 60.2883 132.045 55.8291 0.0126503 1.4012
25600 60.2883 132.058 55.8291 0.0127503 1.37627
25800 60.2883 132.071 55.8291 0.0128503 1.4001
26000 60.2883 132.084 55.8291 0.0129503 1.39026
26200 60.2883 132.097 55.8291 0.0130503 1.41826
26400 60.2883 132.11 55.8291 0.0131503 1.43713
26600 60.2883 132.123 55.8291 0.0132503 1.41995
26800 60.2883 132.136 55.8291 0.0133503 1.45828
27000 60.2883 132.149 55.8291 0.0134503 1.44879
27200 60.2883 132.162 55.8291 0.0135503 1.46876
27400 60.2883 132.175 55.8291 0.0136503 1.48051
27600 60.2883 132.188 55.8291 0.0137503 1.49657
27800 60.2883 132.201 55.8291 0.0138503 1.49117
28000 60.2883 132.214 55.8291 0.0139503 1.52309
28200 60.2883 132.227 55.8291 0.0140503 1.50787
28400 60.2883 132.24 55.8291 0.0141503 1.53758
28600 60.2883 132.253 55.8291 0.0142503 1.53551
28800 60.2883 132.266 55.8291 0.0143503 1.56919
29000 60.2883 132.28 55.8291 0.0144503 1.57437
29200 60.2883 132.293 55.8291 0.0145503 1.57359
29400 60.2883 132.306 55.8291 0.0146503 1.59808
29600 60.2883 132.319 55.8291 0.0147503 1.59248
29800 60.2883 132.332 55.8291 0.0148503 1.61939
30000 60.2883 132.345 55.8291 0.0149503 1.62219
30200 60.2883 132.358 55.8291 0.0150503 1.63921
30400 60.2883 132.371 55.8291 0.0151503 1.64967
30600 60.2883 132.384 55.8291 0.0152503 1.65651
30800 60.2883 132.397 55.8291 0.0153503 1.66203
31000 60.2883 132.41 55.8291 0.0154503 1.67827
31200 60.2883 132.423 55.8291 0.0155503 1.69058
31400 60.2883 132.436 55.8291 0.0156503 1.71354
31600 60.2883 132.449 55.8291 0.0157503 1.68999
31800 60.2883 132.462 55.8291 0.0158503 1.72164
32000 60.2883 132.475 55.8291 0.0159503 1.75836
32200 60.2883 132.488 55.8291 0.0160503 1.73866
32400 60.2883 132.501 55.8291 0.0161503 1.7441
32600 60.2883 132.514 55.8291 0.0162503 1.78539
32800 60.2883 132.527 55.8291 0.0163503 1.78885
33000 60.2883 132.54 55.8291 0.0164503 1.79494
33200 60.2883 132.553 55.8291 0.0165503 1.78749
33400 60.2883 132.566 55.8291 0.0166503 1.82205
33600 60.2883 132.579 55.8291 0.0167503 1.83075
33800 60.2883 132.592 55.8291 0.0168503 1.82932
34000 60.2883 132.606 55.8291 0.0169503 1.86101
34200 60.2883 132.619 55.8291 0.0170503 1.86105
34400 60.2883 132.632 55.8291 0.0171503 1.86365
34600 60.2883 132.645 55.8291 0.0172503 1.90218
34800 60.2883 132.658 55.8291 0.0173503 1.89244
35000 60.2883 132.671 55.8291 0.0174503 1.89996
35200 60.2883 132.684 55.8291 0.0175503 1.91836
35400 60.2883 132.697 55.8291 0.0176503 1.92656
35600 60.2883 132.71 55.8291 0.0177503 1.94104
35800 60.2883 132.723 55.8291 0.0178503 1.9634
36000 60.2883 132.736 55.8291 0.0179503 1.95286
36200 60.2883 132.749 55.8291 0.0180503 1.97107
36400 60.2883 132.762 55.8291 0.0181503 1.98646
36600 60.2883 132.775 55.8291 0.0182503 2.00843
36800 60.2883 132.788 55.8291 0.0183503 1.99074
37000 60.2883 132.801 55.8291 0.0184503 2.02158
37200 60.2883 132.814 55.8291 0.0185503 2.0272
37400 60.2883 132.827 55.8291 0.0186503 2.02676
37600 60.2883 132.84 55.8291 0.0187503 2.08248
37800 60.2883 132.853 55.8291 0.0188503 2.05236
38000 60.2883 132.866 55.8291 0.0189503 2.07881
38200 60.2883 132.879 55.8291 0.0190503 2.0805
38400 60.2883 132.892 55.8291 0.0191503 2.09461
38600 60.2883 132.905 55.8291 0.0192503 2.11956
38800 60.2883 132.918 55.8291 0.0193503 2.12039
39000 60.2883 132.931 55.8291 0.0194503 2.1193
39200 60.2883 132.945 55.8291 0.0195503 2.14483
39400 60.2883 132.958 55.8291 0.0196503 2.1673
39600 60.2883 132.971 55.8291 0.0197503 2.15525
39800 60.2883 132.984 55.8291 0.0198503 2.16517
40000 60.2883 132.997 55.8291 0.0199503 2.21339
40200 60.2883 133.01 55.8291 0.0200503 2.17268
40400 60.2883 133.023 55.8291 0.0201503 2.21128
40600 60.2883 133.036 55.8291 0.0202503 2.22191
40800 60.2883 133.049 55.8291 0.0203503 2.24366
41000 60.2883 133.062 55.8291 0.0204503 2.25029
41200 60.2883 133.075 55.8291 0.0205503 2.24599
41400 60.2883 133.088 55.8291 0.0206503 2.28449
41600 60.2883 133.101 55.8291 0.0207503 2.27486
41800 60.2883 133.114 55.8291 0.0208503 2.2924
42000 60.2883 133.127 55.8291 0.0209503 2.30206
42200 60.2883 133.14 55.8291 0.0210503 2.32544
42400 60.2883 133.153 55.8291 0.0211503 2.31673
42600 60.2883 133.166 55.8291 0.0212503 2.36395
42800 60.2883 133.179 55.8291 0.0213503 2.31562
43000 60.2883 133.192 55.8291 0.0214503 2.36927
43200 60.2883 133.205 55.8291 0.0215503 2.38649
43400 60.2883 133.218 55.8291 0.0216503 2.38435
43600 60.2883 133.231 55.8291 0.0217503 2.39778
43800 60.2883 133.244 55.8291 0.0218503 2.3993
44000 60.2883 133.257 55.8291 0.0219503 2.42787
44200 60.2883 133.271 55.8291 0.0220503 2.44144
44400 60.2883 133.284 55.8291 0.0221503 2.42785
44600 60.2883 133.297 55.8291 0.0222503 2.45288
44800 60.2883 133.31 55.8291 0.0223503 2.46388
45000 60.2883 133.323 55.8291 0.0224503 2.49048
45200 60.2883 133.336 55.8291 0.0225503 2.46371
45400 60.2883 133.349 55.8291 0.0226503 2.49191
45600 60.2883 133.362 55.8291 0.0227503 2.49108
45800 60.2883 133.375 55.8291 0.0228503 2.52693
46000 60.2883 133.388 55.8291 0.0229503 2.52577
46200 60.2883 133.401 55.8291 0.0230503 2.52392
46400 60.2883 133.414 55.8291 0.0231503 2.54842
46600 60.2883 133.427 55.8291 0.0232503 2.55813
46800 60.2883 133.44 55.8291 0.0233503 2.59176
47000 60.2883 133.453 55.8291 0.0234503 2.57794
47200 60.2883 133.466 55.8291 0.0235503 2.58169
47400 60.2883 133.479 55.8291 0.0236503 2.60586
47600 60.2883 133.492 55.8291 0.0237503 2.61515
47800 60.2883 133.505 55.8291 0.0238503 2.61443
48000 60.2883 133.518 55.8291 0.0239503 2.63892
48200 60.2883 133.531 55.8291 0.0240503 2.65377
48400 60.2883 133.544 55.8291 0.0241503 2.67378
48600 60.2883 133.557 55.8291 0.0242503 2.6686
48800 60.2883 133.57 55.8291 0.0243503 2.67013
49000 60.2883 133.583 55.8291 0.0244503 2.69268
49200 60.2883 133.597 55.8291 0.0245503 2.70589
49400 60.2883 133.61 55.8291 0.0246503 2.6941
49600 60.2883 133.623 55.8291 0.0247503 2.73878
49800 60.2883 133.636 55.8291 0.0248503 2.73451
50000 60.2883 133.649 55.8291 0.0249503 2.75179
50200 60.2883 133.662 55.8291 0.0250503 2.78326
50400 60.2883 133.675 55.8291 0.0251503 2.78412
50600 60.2883 133.688 55.8291 0.0252503 2.77006
50800 60.2883 133.701 55.8291 0.0253503 2.80594
51000 60.2883 133.714 55.8291 0.0254503 2.80088
51200 60.2883 133.727 55.8291 0.0255503 2.84452
51400 60.2883 133.74 55.8291 0.0256503 2.82759
51600 60.2883 133.753 55.8291 0.0257503 2.85279
51800 60.2883 133.766 55.8291 0.0258503 2.84216
52000 60.2883 133.779 55.8291 0.0259503 2.88608
52200 60.2883 133.792 55.8291 0.0260503 2.87226
52400 60.2883 133.805 55.8291 0.0261503 2.88929
52600 60.2883 133.818 55.8291 0.0262503 2.91585
52800 60.2883 133.831 55.8291 0.0263503 2.90291
53000 60.2883 133.844 55.8291 0.0264503 2.93893
53200 60.2883 133.857 55.8291 0.0265503 2.94039
53400 60.2883 133.87 55.8291 0.0266503 2.94283
53600 60.2883 133.883 55.8291 0.0267503 2.97338
53800 60.2883 133.896 55.8291 0.0268503 2.96771
54000 60.2883 133.909 55.8291 0.0269503 2.99554
54200 60.2883 133.922 55.8291 0.0270503 3.00299
54400 60.2883 133.936 55.8291 0.0271503 3.00937
54600 60.2883 133.949 55.8291 0.0272503 3.01275
54800 60.2883 133.962 55.8291 0.0273503 3.04523
55000 60.2883 133.975 55.8291 0.0274503 3.05824
55200 60.2883 133.988 55.8291 0.0275503 3.04613
55400 60.2883 134.001 55.8291 0.0276503 3.07362
55600 60.2883 134.014 55.8291 0.0277503 3.08613
55800 60.2883 134.027 55.8291 0.0278503 3.08123
56000 60.2883 134.04 55.8291 0.0279503 3.10946
56200 60.2883 134.053 55.8291 0.0280503 3.11672
56400 60.2883 134.066 55.8291 0.0281503 3.12865
56600 60.2883 134.079 55.8291 0.0282503 3.14494
56800 60.2883 134.092 55.8291 0.0283503 3.15189
57000 60.2883 134.105 55.8291 0.0284503 3.15637
57200 60.2883 134.118 55.8291 0.0285503 3.19042
57400 60.2883 134.131 55.8291 0.0286503 3.17372
57600 60.2883 134.144 55.8291 0.0287503 3.21808
57800 60.2883 134.157 55.8291 0.0288503 3.21485
58000 60.2883 134.17 55.8291 0.0289503 3.21128
58200 60.2883 134.183 55.8291 0.0290503 3.25516
58400 60.2883 134.196 55.8291 0.0291503 3.24037
58600 60.2883 134.209 55.8291 0.0292503 3.25497
58800 60.2883 134.222 55.8291 0.0293503 3.28205
59000 60.2883 134.235 55.8291 0.0294503 3.27239
59200 60.2883 134.248 55.8291 0.0295503 3.31031
59400 60.2883 134.262 55.8291 0.0296503 3.28812
59600 60.2883 134.275 55.8291 0.0297503 3.33644
59800 60.2883 134.288 55.8291 0.0298503 3.33342
60000 60.2883 134.301 55.8291 0.0299503 3.33498
60200 60.2883 134.314 55.8291 0.0300503 3.35584
60400 60.2883 134.327 55.8291 0.0301503 3.36628
60600 60.2883 134.34 55.8291 0.0302503 3.37821
60800 60.2883 134.353 55.8291 0.0303503 3.39046
61000 60.2883 134.366 55.8291 0.0304503 3.39915
61200 60.2883 134.379 55.8291 0.0305503 3.41598
61400 60.2883 134.392 55.8291 0.0306503 3.4329
61600 60.2883 134.405 55.8291 0.0307503 3.43325
61800 60.2883 134.418 55.8291 0.0308503 3.44867
62000 60.2883 134.431 55.8291 0.0309503 3.46441
62200 60.2883 134.444 55.8291 0.0310503 3.46214
62400 60.2883 134.457 55.8291 0.0311503 3.46543
62600 60.2883 134.47 55.8291 0.0312503 3.50918
62800 60.2883 134.483 55.8291 0.0313503 3.49518
63000 60.2883 134.496 55.8291 0.0314503 3.52502
63200 60.2883 134.509 55.8291 0.0315503 3.54431
63400 60.2883 134.522 55.8291 0.0316503 3.54643
63600 60.2883 134.535 55.8291 0.0317503 3.55063
63800 60.2883 134.548 55.8291 0.0318503 3.57405
64000 60.2883 134.561 55.8291 0.0319503 3.58658
64200 60.2883 134.574 55.8291 0.0320503 3.59843
64400 60.2883 134.588 55.8291 0.0321503 3.61128
64600 60.2883 134.601 55.8291 0.0322503 3.61401
64800 60.2883 134.614 55.8291 0.0323503 3.6324
65000 60.2883 134.627 55.8291 0.0324503 3.64679
65200 60.2883 134.64 55.8291 0.0325503 3.63883
65400 60.2883 134.653 55.8291 0.0326503 3.67036
65600 60.2883 134.666 55.8291 0.0327503 3.67096
65800 60.2883 134.679 55.8291 0.0328503 3.70181
66000 60.2883 134.692 55.8291 0.0329503 3.6835
66200 60.2883 134.705 55.8291 0.0330503 3.71448
66400 60.2883 134.718 55.8291 0.0331503 3.72582
66600 60.2883 134.731 55.8291 0.0332503 3.73621
66800 60.2883 134.744 55.8291 0.0333503 3.74693
67000 60.2883 134.757 55.8291 0.0334503 3.7658
67200 60.2883 134.77 55.8291 0.0335503 3.78527
67400 60.2883 134.783 55.8291 0.0336503 3.77736
67600 60.2883 134.796 55.8291 0.0337503 3.79987
67800 60.2883 134.809 55.8291 0.0338503 3.82002
68000 60.2883 134.822 55.8291 0.0339503 3.82096
68200 60.2883 134.835 55.8291 0.0340503 3.84264
68400 60.2883 134.848 55.8291 0.0341503 3.84365
68600 60.2883 134.861 55.8291 0.0342503 3.86265
68800 60.2883 134.874 55.8291 0.0343503 3.86467
69000 60.2883 134.887 55.8291 0.0344503 3.8887
69200 60.2883 134.9 55.8291 0.0345503 3.90077
69400 60.2883 134.914 55.8291 0.0346503 3.92199
69600 60.2883 134.927 55.8291 0.0347503 3.91106
69800 60.2883 134.94 55.8291 0.0348503 3.93046
70000 60.2883 134.953 55.8291 0.0349503 3.942
70200 60.2883 134.966 55.8291 0.0350503 3.97112
70400 60.2883 134.979 55.8291 0.0351503 3.95253
70600 60.2883 134.992 55.8291 0.0352503 3.99044
70800 60.2883 135.005 55.8291 0.0353503 3.99337
71000 60.2883 135.018 55.8291 0.0354503 3.99971
71200 60.2883 135.031 55.8291 0.0355503 4.01622
71400 60.2883 135.044 55.8291 0.0356503 4.02007
71600 60.2883 135.057 55.8291 0.0357503 4.04926
71800 60.2883 135.07 55.8291 0.0358503 4.04945
72000 60.2883 135.083 55.8291 0.0359503 4.06199
72200 60.2883 135.096 55.8291 0.0360503 4.08331
72400 60.2883 135.109 55.8291 0.0361503 4.09136
72600 60.2883 135.122 55.8291 0.0362503 4.09085
72800 60.2883 135.135 55.8291 0.0363503 4.09719
73000 60.2883 135.148 55.8291 0.0364503 4.12347
73200 60.2883 135.161 55.8291 0.0365503 4.13855
73400 60.2883 135.174 55.8291 0.0366503 4.14587
73600 60.2883 135.187 55.8291 0.0367503 4.15951
73800 60.2883 135.2 55.8291 0.0368503 4.1564
74000 60.2883 135.213 55.8291 0.0369503 4.21671
74200 60.2883 135.226 55.8291 0.0370503 4.1694
74400 60.2883 135.239 55.8291 0.0371503 4.21887
74600 60.2883 135.253 55.8291 0.0372503 4.21344
74800 60.2883 135.266 55.8291 0.0373503 4.23342
75000 60.2883 135.279 55.8291 0.0374503 4.26008
75200 60.2883 135.292 55.8291 0.0375503 4.26036
75400 60.2883 135.305 55.8291 0.0376503 4.26164
75600 60.2883 135.318 55.8291 0.0377503 4.2898
75800 60.2883 135.331 55.8291 0.0378503 4.30957
76000 60.2883 135.344 55.8291 0.0379503 4.29941
76200 60.2883 135.357 55.8291 0.0380503 4.30327
76400 60.2883 135.37 55.8291 0.0381503 4.34578
76600 60.2883 135.383 55.8291 0.0382503 4.34705
76800 60.2883 135.396 55.8291 0.0383503 4.35927
77000 60.2883 135.409 55.8291 0.0384503 4.3813
77200 60.2883 135.422 55.8291 0.0385503 4.37187
77400 60.2883 135.435 55.8291 0.0386503 4.40481
77600 60.2883 135.448 55.8291 0.0387503 4.41405
77800 60.2883 135.461 55.8291 0.0388503 4.43296
78000 60.2883 135.474 55.8291 0.0389503 4.40767
78200 60.2883 135.487 55.8291 0.0390503 4.46817
78400 60.2883 135.5 55.8291 0.0391503 4.44265
78600 60.2883 135.513 55.8291 0.0392503 4.47581
78800 60.2883 135.526 55.8291 0.0393503 4.46375
79000 60.2883 135.539 55.8291 0.0394503 4.50824
79200 60.2883 135.552 55.8291 0.0395503 4.49132
79400 60.2883 135.565 55.8291 0.0396503 4.50327
79600 60.2883 135.579 55.8291 0.0397503 4.52214
79800 60.2883 135.592 55.8291 0.0398503 4.54868
80000 60.2883 135.605 55.8291 0.0399503 4.53391
80200 60.2883 135.618 55.8291 0.0400503 4.57693
80400 60.2883 135.631 55.8291 0.0401503 4.5593
80600 60.2883 135.644 55.8291 0.0402503 4.59681
80800 60.2883 135.657 55.8291 0.0403503 4.57593
81000 60.2883 135.67 55.8291 0.0404503 4.61599
81200 60.2883 135.683 55.8291 0.0405503 4.61497
81400 60.2883 135.696 55.8291 0.0406503 4.63071
81600 60.2883 135.709 55.8291 0.0407503 4.64527
81800 60.2883 135.722 55.8291 0.0408503 4.65226
82000 60.2883 135.735 55.8291 0.0409503 4.66876
82200 60.2883 135.748 55.8291 0.0410503 4.68874
82400 60.2883 135.761 55.8291 0.0411503 4.67713
82600 60.2883 135.774 55.8291 0.0412503 4.70943
82800 60.2883 135.787 55.8291 0.0413503 4.72889
83000 60.2883 135.8 55.8291 0.0414503 4.72115
83200 60.2883 135.813 55.8291 0.0415503 4.73121
83400 60.2883 135.826 55.8291 0.0416503 4.76864
83600 60.2883 135.839 55.8291 0.0417503 4.75413
83800 60.2883 135.852 55.8291 0.0418503 4.77348
84000 60.2883 135.865 55.8291 0.0419503 4.7907
84200 60.2883 135.878 55.8291 0.0420503 4.81251
84400 60.2883 135.891 55.8291 0.0421503 4.80931
84600 60.2883 135.905 55.8291 0.0422503 4.82266
84800 60.2883 135.918 55.8291 0.0423503 4.84848
85000 60.2883 135.931 55.8291 0.0424503 4.85626
85200 60.2883 135.944 55.8291 0.0425503 4.85818
85400 60.2883 135.957 55.8291 0.0426503 4.89662
85600 60.2883 135.97 55.8291 0.0427503 4.89267
85800 60.2883 135.983 55.8291 0.0428503 4.88896
86000 60.2883 135.996 55.8291 0.0429503 4.92129
86200 60.2883 136.009 55.8291 0.0430503 4.93924
86400 60.2883 136.022 55.8291 0.0431503 4.93415
86600 60.2883 136.035 55.8291 0.0432503 4.9645
86800 60.2883 136.048 55.8291 0.0433503 4.95639
87000 60.2883 136.061 55.8291 0.0434503 4.98852
87200 60.2883 136.074 55.8291 0.0435503 4.98976
87400 60.2883 136.087 55.8291 0.0436503 5.01927
87600 60.2883 136.1 55.8291 0.0437503 4.99383
87800 60.2883 136.113 55.8291 0.0438503 5.05498
88000 60.2883 136.126 55.8291 0.0439503 5.04038
88200 60.2883 136.139 55.8291 0.0440503 5.05664
88400 60.2883 136.152 55.8291 0.0441503 5.06033
88600 60.2883 136.165 55.8291 0.0442503 5.09724
88800 60.2883 136.178 55.8291 0.0443503 5.0839
89000 60.2883 136.191 55.8291 0.0444503 5.1251
89200 60.2883 136.204 55.8291 0.0445503 5.10185
89400 60.2883 136.217 55.8291 0.0446503 5.13763
89600 60.2883 136.23 55.8291 0.0447503 5.14269
89800 60.2883 136.244 55.8291 0.0448503 5.1622
90000 60.2883 136.257 55.8291 0.0449503 5.16681
90200 60.2883 136.27 55.8291 0.0450503 5.17647
90400 60.2883 136.283 55.8291 0.0451503 5.20942
90600 60.2883 136.296 55.8291 0.0452503 5.20926
90800 60.2883 136.309 55.8291 0.0453503 5.20492
91000 60.2883 136.322 55.8291 0.0454503 5.24619
91200 60.2883 136.335 55.8291 0.0455503 5.23987
91400 60.2883 136.348 55.8291 0.0456503 5.26016
91600 60.2883 136.361 55.8291 0.0457503 5.26976
91800 60.2883 136.374 55.8291 0.0458503 5.26611
92000 60.2883 136.387 55.8291 0.0459503 5.32436
92200 60.2883 136.4 55.8291 0.0460503 5.29791
92400 60.2883 136.413 55.8291 0.0461503 5.33061
92600 60.2883 136.426 55.8291 0.0462503 5.32075
92800 60.2883 136.439 55.8291 0.0463503 5.36327
93000 60.2883 136.452 55.8291 0.0464503 5.34672
93200 60.2883 136.465 55.8291 0.0465503 5.38024
93400 60.2883 136.478 55.8291 0.0466503 5.38213
93600 60.2883 136.491 55.8291 0.0467503 5.39471
93800 60.2883 136.504 55.8291 0.0468503 5.40553
94000 60.2883 136.517 55.8291 0.0469503 5.44463
94200 60.2883 136.53 55.8291 0.0470503 5.41358
94400 60.2883 136.543 55.8291 0.0471503 5.46212
94600 60.2883 136.556 55.8291 0.0472503 5.47645
94800 60.2883 136.57 55.8291 0.0473503 5.45672
95000 60.2883 136.583 55.8291 0.0474503 5.4972
95200 60.2883 136.596 55.8291 0.0475503 5.50064
95400 60.2883 136.609 55.8291 0.0476503 5.51046
95600 60.2883 136.622 55.8291 0.0477503 5.51799
95800 60.2883 136.635 55.8291 0.0478503 5.53776
96000 60.2883 136.648 55.8291 0.0479503 5.54608
96200 60.2883 136.661 55.8291 0.0480503 5.55665
96400 60.2883 136.674 55.8291 0.0481503 5.57576
96600 60.2883 136.687 55.8291 0.0482503 5.59605
96800 60.2883 136.7 55.8291 0.0483503 5.58765
97000 60.2883 136.713 55.8291 0.0484503 5.62597
97200 60.2883 136.726 55.8291 0.0485503 5.60606
97400 60.2883 136.739 55.8291 0.0486503 5.65242
97600 60.2883 136.752 55.8291 0.0487503 5.64368
97800 60.2883 136.765 55.8291 0.0488503 5.65905
98000 60.2883 136.778 55.8291 0.0489503 5.67309
98200 60.2883 136.791 55.8291 0.0490503 5.70575
98400 60.2883 136.804 55.8291 0.0491503 5.68454
98600 60.2883 136.817 55.8291 0.0492503 5.71642
98800 60.2883 136.83 55.8291 0.0493503 5.7204
99000 60.2883 136.843 55.8291 0.0494503 5.74501
99200 60.2883 136.856 55.8291 0.0495503 5.73843
99400 60.2883 136.869 55.8291 0.0496503 5.77432
99600 60.2883 136.882 55.8291 0.0497503 5.77581
99800 60.2883 136.896 55.8291 0.0498503 5.78266
100000 60.2883 136.909 55.8291 0.0499503 5.80167
100200 60.2883 136.922 55.8291 0.0500503 5.81563
100400 60.2883 136.935 55.8291 0.0501503 5.8161
100600 60.2883 136.948 55.8291 0.0502503 5.86197
100800 60.2883 136.961 55.8291 0.0503503 5.829
101000 60.2883 136.974 55.8291 0.0504503 5.86843
101200 60.2883 136.987 55.8291 0.0505503 5.88242
101400 60.2883 137 55.8291 0.0506503 5.90085
101600 60.2883 137.013 55.8291 0.0507503 5.89431
101800 60.2883 137.026 55.8291 0.0508503 5.93751
102000 60.2883 137.039 55.8291 0.0509503 5.90865
102200 60.2883 137.052 55.8291 0.0510503 5.9663
102400 60.2883 137.065 55.8291 0.0511503 5.94558
102600 60.2883 137.078 55.8291 0.0512503 5.97241
102800 60.2883 137.091 55.8291 0.0513503 5.98028
103000 60.2883 137.104 55.8291 0.0514503 5.99987
103200 60.2883 137.117 55.8291 0.0515503 6.02339
103400 60.2883 137.13 55.8291 0.0516503 6.01605
103600 60.2883 137.143 55.8291 0.0517503 6.02935
103800 60.2883 137.156 55.8291 0.0518503 6.03524
104000 60.2883 137.169 55.8291 0.0519503 6.06255
104200 60.2883 137.182 55.8291 0.0520503 6.08013
104400 60.2883 137.195 55.8291 0.0521503 6.08082
104600 60.2883 137.208 55.8291 0.0522503 6.09438
104800 60.2883 137.221 55.8291 0.0523503 6.11422
105000 60.2883 137.235 55.8291 0.0524503 6.11938
105200 60.2883 137.248 55.8291 0.0525503 6.15003
105400 60.2883 137.261 55.8291 0.0526503 6.13988
105600 60.2883 137.274 55.8291 0.0527503 6.14943
105800 60.2883 137.287 55.8291 0.0528503 6.1914
106000 60.2883 137.3 55.8291 0.0529503 6.17647
106200 60.2883 137.313 55.8291 0.0530503 6.21339
106400 60.2883 137.326 55.8291 0.0531503 6.19703
106600 60.2883 137.339 55.8291 0.0532503 6.23328
106800 60.2883 137.352 55.8291 0.0533503 6.22336
107000 60.2883 137.365 55.8291 0.0534503 6.26361
107200 60.2883 137.378 55.8291 0.0535503 6.26346
107400 60.2883 137.391 55.8291 0.0536503 6.27489
107600 60.2883 137.404 55.8291 0.0537503 6.28649
107800 60.2883 137.417 55.8291 0.0538503 6.30146
108000 60.2883 137.43 55.8291 0.0539503 6.31594
108200 60.2883 137.443 55.8291 0.0540503 6.34546
108400 60.2883 137.456 55.8291 0.0541503 6.34039
108600 60.2883 137.469 55.8291 0.0542503 6.36258
108800 60.2883 137.482 55.8291 0.0543503 6.35715
109000 60.2883 137.495 55.8291 0.0544503 6.39492
109200 60.2883 137.508 55.8291 0.0545503 6.41191
109400 60.2883 137.521 55.8291 0.0546503 6.40466
109600 60.2883 137.534 55.8291 0.0547503 6.42319
109800 60.2883 137.547 55.8291 0.0548503 6.43652
110000 60.2883 137.561 55.8291 0.0549503 6.46345
110200 60.2883 137.574 55.8291 0.0550503 6.4567
110400 60.2883 137.587 55.8291 0.0551503 6.47702
110600 60.2883 137.6 55.8291 0.0552503 6.4944
110800 60.2883 137.613 55.8291 0.0553503 6.49054
111000 60.2883 137.626 55.8291 0.0554503 6.52268
111200 60.2883 137.639 55.8291 0.0555503 6.54084
111400 60.2883 137.652 55.8291 0.0556503 6.52935
111600 60.2883 137.665 55.8291 0.0557503 6.56117
111800 60.2883 137.678 55.8291 0.0558503 6.56957
112000 60.2883 137.691 55.8291 0.0559503 6.57371
112200 60.2883 137.704 55.8291 0.0560503 6.59449
112400 60.2883 137.717 55.8291 0.0561503 6.61808
112600 60.2883 137.73 55.8291 0.0562503 6.60984
112800 60.2883 137.743 55.8291 0.0563503 6.6321
113000 60.2883 137.756 55.8291 0.0564503 6.66278
113200 60.2883 137.769 55.8291 0.0565503 6.66065
113400 60.2883 137.782 55.8291 0.0566503 6.65553
113600 60.2883 137.795 55.8291 0.0567503 6.68417
113800 60.2883 137.808 55.8291 0.0568503 6.7104
114000 60.2883 137.821 55.8291 0.0569503 6.7126
114200 60.2883 137.834 55.8291 0.0570503 6.7315
114400 60.2883 137.847 55.8291 0.0571503 6.73442
114600 60.2883 137.86 55.8291 0.0572503 6.73994
114800 60.2883 137.873 55.8291 0.0573503 6.7684
115000 60.2883 137.887 55.8291 0.0574503 6.78198
115200 60.2883 137.9 55.8291 0.0575503 6.78565
115400 60.2883 137.913 55.8291 0.0576503 6.80127
115600 60.2883 137.926 55.8291 0.0577503 6.82692
115800 60.2883 137.939 55.8291 0.0578503 6.8227
116000 60.2883 137.952 55.8291 0.0579503 6.83663
116200 60.2883 137.965 55.8291 0.0580503 6.86864
116400 60.2883 137.978 55.8291 0.0581503 6.86633
116600 60.2883 137.991 55.8291 0.0582503 6.89445
116800 60.2883 138.004 55.8291 0.0583503 6.88312
117000 60.2883 138.017 55.8291 0.0584503 6.91786
117200 60.2883 138.03 55.8291 0.0585503 6.91669
117400 60.2883 138.043 55.8291 0.0586503 6.94088
117600 60.2883 138.056 55.8291 0.0587503 6.94567
117800 60.2883 138.069 55.8291 0.0588503 6.95292
118000 60.2883 138.082 55.8291 0.0589503 6.98822
118200 60.2883 138.095 55.8291 0.0590503 6.9863
118400 60.2883 138.108 55.8291 0.0591503 6.99625
118600 60.2883 138.121 55.8291 0.0592503 7.01887
118800 60.2883 138.134 55.8291 0.0593503 7.03474
119000 60.2883 138.147 55.8291 0.0594503 7.03705
119200 60.2883 138.16 55.8291 0.0595503 7.06639
119400 60.2883 138.173 55.8291 0.0596503 7.07018
119600 60.2883 138.186 55.8291 0.0597503 7.06001
119800 60.2883 138.199 55.8291 0.0598503 7.08304
120000 60.2883 138.213 55.8291 0.0599503 7.10775
120200 60.2883 138.226 55.8291 0.0600503 7.10621
120400 60.2883 138.239 55.8291 0.0601503 7.12957
120600 60.2883 138.252 55.8291 0.0602503 7.14941
120800 60.2883 138.265 55.8291 0.0603503 7.14382
121000 60.2883 138.278 55.8291 0.0604503 7.17182
121200 60.2883 138.291 55.8291 0.0605503 7.18435
121400 60.2883 138.304 55.8291 0.0606503 7.19984
121600 60.2883 138.317 55.8291 0.0607503 7.21003
121800 60.2883 138.33 55.8291 0.0608503 7.22439
122000 60.2883 138.343 55.8291 0.0609503 7.22531
122200 60.2883 138.356 55.8291 0.0610503 7.2523
122400 60.2883 138.369 55.8291 0.0611503 7.27308
122600 60.2883 138.382 55.8291 0.0612503 7.26204
122800 60.2883 138.395 55.8291 0.0613503 7.29281
123000 60.2883 138.408 55.8291 0.0614503 7.28975
123200 60.2883 138.421 55.8291 0.0615503 7.32627
123400 60.2883 138.434 55.8291 0.0616503 7.32589
123600 60.2883 138.447 55.8291 0.0617503 7.32594
123800 60.2883 138.46 55.8291 0.0618503 7.35716
124000 60.2883 138.473 55.8291 0.0619503 7.36648
124200 60.2883 138.486 55.8291 0.0620503 7.38296
124400 60.2883 138.499 55.8291 0.0621503 7.38111
124600 60.2883 138.512 55.8291 0.0622503 7.41066
124800 60.2883 138.525 55.8291 0.0623503 7.42075
125000 60.2883 138.538 55.8291 0.0624503 7.42845
125200 60.2883 138.552 55.8291 0.0625503 7.45887
125400 60.2883 138.565 55.8291 0.0626503 7.45112
125600 60.2883 138.578 55.8291 0.0627503 7.47657
125800 60.2883 138.591 55.8291 0.0628503 7.4791
126000 60.2883 138.604 55.8291 0.0629503 7.50375
126200 60.2883 138.617 55.8291 0.0630503 7.51342
126400 60.2883 138.63 55.8291 0.0631503 7.52504
126600 60.2883 138.643 55.8291 0.0632503 7.53782
126800 60.2883 138.656 55.8291 0.0633503 7.5727
127000 60.2883 138.669 55.8291 0.0634503 7.54821
127200 60.2883 138.682 55.8291 0.0635503 7.58531
127400 60.2883 138.695 55.8291 0.0636503 7.60383
127600 60.2883 138.708 55.8291 0.0637503 7.58696
127800 60.2883 138.721 55.8291 0.0638503 7.62642
128000 60.2883 138.734 55.8291 0.0639503 7.63591
128200 60.2883 138.747 55.8291 0.0640503 7.64856
128400 60.2883 138.76 55.8291 0.0641503 7.65674
128600 60.2883 138.773 55.8291 0.0642503 7.6839
128800 60.2883 138.786 55.8291 0.0643503 7.68492
129000 60.2883 138.799 55.8291 0.0644503 7.69869
129200 60.2883 138.812 55.8291 0.0645503 7.711
129400 60.2883 138.825 55.8291 0.0646503 7.73392
129600 60.2883 138.838 55.8291 0.0647503 7.73703
129800 60.2883 138.851 55.8291 0.0648503 7.75405
130000 60.2883 138.864 55.8291 0.0649503 7.76087
130200 60.2883 138.878 55.8291 0.0650503 7.78893
130400 60.2883 138.891 55.8291 0.0651503 7.78699
130600 60.2883 138.904 55.8291 0.0652503 7.80801
130800 60.2883 138.917 55.8291 0.0653503 7.81304
131000 60.2883 138.93 55.8291 0.0654503 7.82309
131200 60.2883 138.943 55.8291 0.0655503 7.8614
131400 60.2883 138.956 55.8291 0.0656503 7.84032
131600 60.2883 138.969 55.8291 0.0657503 7.8717
131800 60.2883 138.982 55.8291 0.0658503 7.901
132000 60.2883 138.995 55.8291 0.0659503 7.8851
132200 60.2883 139.008 55.8291 0.0660503 7.89985
132400 60.2883 139.021 55.8291 0.0661503 7.93355
132600 60.2883 139.034 55.8291 0.0662503 7.94938
132800 60.2883 139.047 55.8291 0.0663503 7.94184
133000 60.2883 139.06 55.8291 0.0664503 7.96053
133200 60.2883 139.073 55.8291 0.0665503 7.98658
133400 60.2883 139.086 55.8291 0.0666503 7.9856
133600 60.2883 139.099 55.8291 0.0667503 8.007
133800 60.2883 139.112 55.8291 0.0668503 8.02958
134000 60.2883 139.125 55.8291 0.0669503 8.01952
134200 60.2883 139.138 55.8291 0.0670503 8.05977
134400 60.2883 139.151 55.8291 0.0671503 8.05379
134600 60.2883 139.164 55.8291 0.0672503 8.09082
134800 60.2883 139.177 55.8291 0.0673503 8.09166
135000 60.2883 139.19 55.8291 0.0674503 8.09595
135200 60.2883 139.204 55.8291 0.0675503 8.12091
135400 60.2883 139.217 55.8291 0.0676503 8.13932
135600 60.2883 139.23 55.8291 0.0677503 8.13481
135800 60.2883 139.243 55.8291 0.0678503 8.17485
136000 60.2883 139.256 55.8291 0.0679503 8.14785
136200 60.2883 139.269 55.8291 0.0680503 8.18331
136400 60.2883 139.282 55.8291 0.0681503 8.20151
136600 60.2883 139.295 55.8291 0.0682503 8.21084
136800 60.2883 139.308 55.8291 0.0683503 8.23357
137000 60.2883 139.321 55.8291 0.0684503 8.22785
137200 60.2883 139.334 55.8291 0.0685503 8.25435
137400 60.2883 139.347 55.8291 0.0686503 8.27725
137600 60.2883 139.36 55.8291 0.0687503 8.28145
137800 60.2883 139.373 55.8291 0.0688503 8.29321
138000 60.2883 139.386 55.8291 0.0689503 8.31955
138200 60.2883 139.399 55.8291 0.0690503 8.304
138400 60.2883 139.412 55.8291 0.0691503 8.34375
138600 60.2883 139.425 55.8291 0.0692503 8.35732
138800 60.2883 139.438 55.8291 0.0693503 8.35505
139000 60.2883 139.451 55.8291 0.0694503 8.37639
139200 60.2883 139.464 55.8291 0.0695503 8.40436
139400 60.2883 139.477 55.8291 0.0696503 8.39033
139600 60.2883 139.49 55.8291 0.0697503 8.39181
139800 60.2883 139.503 55.8291 0.0698503 8.435
140000 60.2883 139.516 55.8291 0.0699503 8.41566
140200 60.2883 139.529 55.8291 0.0700503 8.45186
140400 60.2883 139.543 55.8291 0.0701503 8.45962
140600 60.2883 139.556 55.8291 0.0702503 8.47483
140800 60.2883 139.569 55.8291 0.0703503 8.49798
141000 60.2883 139.582 55.8291 0.0704503 8.50255
141200 60.2883 139.595 55.8291 0.0705503 8.5042
141400 60.2883 139.608 55.8291 0.0706503 8.55013
141600 60.2883 139.621 55.8291 0.0707503 8.53883
141800 60.2883 139.634 55.8291 0.0708503 8.54581
142000 60.2883 139.647 55.8291 0.0709503 8.58167
142200 60.2883 139.66 55.8291 0.0710503 8.57626
142400 60.2883 139.673 55.8291 0.0711503 8.59552
142600 60.2883 139.686 55.8291 0.0712503 8.61283
142800 60.2883 139.699 55.8291 0.0713503 8.61806
143000 60.2883 139.712 55.8291 0.0714503 8.63867
143200 60.2883 139.725 55.8291 0.0715503 8.64879
143400 60.2883 139.738 55.8291 0.0716503 8.65488
143600 60.2883 139.751 55.8291 0.0717503 8.6767
143800 60.2883 139.764 55.8291 0.0718503 8.69455
144000 60.2883 139.777 55.8291 0.0719503 8.69505
144200 60.2883 139.79 55.8291 0.0720503 8.72487
144400 60.2883 139.803 55.8291 0.0721503 8.7224
144600 60.2883 139.816 55.8291 0.0722503 8.75093
144800 60.2883 139.829 55.8291 0.0723503 8.74954
145000 60.2883 139.842 55.8291 0.0724503 8.77967
145200 60.2883 139.855 55.8291 0.0725503 8.78107
145400 60.2883 139.869 55.8291 0.0726503 8.8008
145600 60.2883 139.882 55.8291 0.0727503 8.8014
145800 60.2883 139.895 55.8291 0.0728503 8.82587
146000 60.2883 139.908 55.8291 0.0729503 8.85289
146200 60.2883 139.921 55.8291 0.0730503 8.84052
146400 60.2883 139.934 55.8291 0.0731503 8.87922
146600 60.2883 139.947 55.8291 0.0732503 8.86786
146800 60.2883 139.96 55.8291 0.0733503 8.88854
147000 60.2883 139.973 55.8291 0.0734503 8.89043
147200 60.2883 139.986 55.8291 0.0735503 8.9047
147400 60.2883 139.999 55.8291 0.0736503 8.92968
147600 60.2883 140.012 55.8291 0.0737503 8.938
147800 60.2883 140.025 55.8291 0.0738503 8.95941
148000 60.2883 140.038 55.8291 0.0739503 8.95885
148200 60.2883 140.051 55.8291 0.0740503 8.98543
148400 60.2883 140.064 55.8291 0.0741503 8.97979
148600 60.2883 140.077 55.8291 0.0742503 9.01691
148800 60.2883 140.09 55.8291 0.0743503 9.02205
149000 60.2883 140.103 55.8291 0.0744503 9.03754
149200 60.2883 140.116 55.8291 0.0745503 9.04674
149400 60.2883 140.129 55.8291 0.0746503 9.06908
149600 60.2883 140.142 55.8291 0.0747503 9.0855
149800 60.2883 140.155 55.8291 0.0748503 9.08672
150000 60.2883 140.168 55.8291 0.0749503 9.09729
150200 60.2883 140.181 55.8291 0.0750503 9.13036
150400 60.2883 140.195 55.8291 0.0751503 9.1261
150600 60.2883 140.208 55.8291 0.0752503 9.15043
150800 60.2883 140.221 55.8291 0.0753503 9.16403
151000 60.2883 140.234 55.8291 0.0754503 9.16124
151200 60.2883 140.247 55.8291 0.0755503 9.19244
151400 60.2883 140.26 55.8291 0.0756503 9.19791
151600 60.2883 140.273 55.8291 0.0757503 9.2078
151800 60.2883 140.286 55.8291 0.0758503 9.24146
152000 60.2883 140.299 55.8291 0.0759503 9.22591
152200 60.2883 140.312 55.8291 0.0760503 9.25886
152400 60.2883 140.325 55.8291 0.0761503 9.28155
152600 60.2883 140.338 55.8291 0.0762503 9.27358
152800 60.2883 140.351 55.8291 0.0763503 9.30902
153000 60.2883 140.364 55.8291 0.0764503 9.30867
153200 60.2883 140.377 55.8291 0.0765503 9.31365
153400 60.2883 140.39 55.8291 0.0766503 9.32777
153600 60.2883 140.403 55.8291 0.0767503 9.35659
153800 60.2883 140.416 55.8291 0.0768503 9.37049
154000 60.2883 140.429 55.8291 0.0769503 9.35959
154200 60.2883 140.442 55.8291 0.0770503 9.40088
154400 60.2883 140.455 55.8291 0.0771503 9.40076
154600 60.2883 140.468 55.8291 0.0772503 9.40795
154800 60.2883 140.481 55.8291 0.0773503 9.45097
155000 60.2883 140.494 55.8291 0.0774503 9.42359
155200 60.2883 140.507 55.8291 0.0775503 9.46548
155400 60.2883 140.52 55.8291 0.0776503 9.46812
155600 60.2883 140.534 55.8291 0.0777503 9.48779
155800 60.2883 140.547 55.8291 0.0778503 9.50771
156000 60.2883 140.56 55.8291 0.0779503 9.50287
156200 60.2883 140.573 55.8291 0.0780503 9.52035
156400 60.2883 140.586 55.8291 0.0781503 9.55083
156600 60.2883 140.599 55.8291 0.0782503 9.53471
156800 60.2883 140.612 55.8291 0.0783503 9.56577
157000 60.2883 140.625 55.8291 0.0784503 9.5763
157200 60.2883 140.638 55.8291 0.0785503 9.58056
157400 60.2883 140.651 55.8291 0.0786503 9.62457
157600 60.2883 140.664 55.8291 0.0787503 9.59342
157800 60.2883 140.677 55.8291 0.0788503 9.6424
158000 60.2883 140.69 55.8291 0.0789503 9.63532
158200 60.2883 140.703 55.8291 0.0790503 9.65634
158400 60.2883 140.716 55.8291 0.0791503 9.664
158600 60.2883 140.729 55.8291 0.0792503 9.68681
158800 60.2883 140.742 55.8291 0.0793503 9.69323
159000 60.2883 140.755 55.8291 0.0794503 9.72562
159200 60.2883 140.768 55.8291 0.0795503 9.71609
159400 60.2883 140.781 55.8291 0.0796503 9.72931
159600 60.2883 140.794 55.8291 0.0797503 9.75833
159800 60.2883 140.807 55.8291 0.0798503 9.75887
160000 60.2883 140.82 55.8291 0.0799503 9.77765
160200 60.2883 140.833 55.8291 0.0800503 9.7986
160400 60.2883 140.846 55.8291 0.0801503 9.79984
160600 60.2883 140.86 55.8291 0.0802503 9.82747
160800 60.2883 140.873 55.8291 0.0803503 9.85002
161000 60.2883 140.886 55.8291 0.0804503 9.84293
161200 60.2883 140.899 55.8291 0.0805503 9.85024
161400 60.2883 140.912 55.8291 0.0806503 9.88238
161600 60.2883 140.925 55.8291 0.0807503 9.88543
161800 60.2883 140.938 55.8291 0.0808503 9.91444
162000 60.2883 140.951 55.8291 0.0809503 9.8944
162200 60.2883 140.964 55.8291 0.0810503 9.95654
162400 60.2883 140.977 55.8291 0.0811503 9.94419
162600 60.2883 140.99 55.8291 0.0812503 9.95365
162800 60.2883 141.003 55.8291 0.0813503 9.97026
163000 60.2883 141.016 55.8291 0.0814503 9.99177
163200 60.2883 141.029 55.8291 0.0815503 10.0078
163400 60.2883 141.042 55.8291 0.0816503 10.0126
163600 60.2883 141.055 55.8291 0.0817503 10.0443
163800 60.2883 141.068 55.8291 0.0818503 10.0337
164000 60.2883 141.081 55.8291 0.0819503 10.063
164200 60.2883 141.094 55.8291 0.0820503 10.0644
164400 60.2883 141.107 55.8291 0.0821503 10.0917
164600 60.2883 141.12 55.8291 0.0822503 10.0903
164800 60.2883 141.133 55.8291 0.0823503 10.1231
165000 60.2883 141.146 55.8291 0.0824503 10.132
165200 60.2883 141.159 55.8291 0.0825503 10.146
165400 60.2883 141.172 55.8291 0.0826503 10.1451
165600 60.2883 141.186 55.8291 0.0827503 10.176
165800 60.2883 141.199 55.8291 0.0828503 10.1876
166000 60.2883 141.212 55.8291 0.0829503 10.1869
166200 60.2883 141.225 55.8291 0.0830503 10.2226
166400 60.2883 141.238 55.8291 0.0831503 10.2153
166600 60.2883 141.251 55.8291 0.0832503 10.2419
166800 60.2883 141.264 55.8291 0.0833503 10.2503
167000 60.2883 141.277 55.8291 0.0834503 10.2659
167200 60.2883 141.29 55.8291 0.0835503 10.2747
167400 60.2883 141.303 55.8291 0.0836503 10.2983
167600 60.2883 141.316 55.8291 0.0837503 10.313
167800 60.2883 141.329 55.8291 0.0838503 10.3189
168000 60.2883 141.342 55.8291 0.0839503 10.3354
168200 60.2883 141.355 55.8291 0.0840503 10.3341
168400 60.2883 141.368 55.8291 0.0841503 10.3835
168600 60.2883 141.381 55.8291 0.0842503 10.352
168800 60.2883 141.394 55.8291 0.0843503 10.3916
169000 60.2883 141.407 55.8291 0.0844503 10.412
169200 60.2883 141.42 55.8291 0.0845503 10.4086
169400 60.2883 141.433 55.8291 0.0846503 10.434
169600 60.2883 141.446 55.8291 0.0847503 10.4444
169800 60.2883 141.459 55.8291 0.0848503 10.4665
170000 60.2883 141.472 55.8291 0.0849503 10.465
170200 60.2883 141.485 55.8291 0.0850503 10.4952
170400 60.2883 141.498 55.8291 0.0851503 10.4978
170600 60.2883 141.512 55.8291 0.0852503 10.5201
170800 60.2883 141.525 55.8291 0.0853503 10.51
171000 60.2883 141.538 55.8291 0.0854503 10.565
171200 60.2883 141.551 55.8291 0.0855503 10.5646
171400 60.2883 141.564 55.8291 0.0856503 10.5664
171600 60.2883 141.577 55.8291 0.0857503 10.5893
171800 60.2883 141.59 55.8291 0.0858503 10.6198
172000 60.2883 141.603 55.8291 0.0859503 10.5925
172200 60.2883 141.616 55.8291 0.0860503 10.6354
172400 60.2883 141.629 55.8291 0.0861503 10.6451
172600 60.2883 141.642 55.8291 0.0862503 10.6519
172800 60.2883 141.655 55.8291 0.0863503 10.6722
173000 60.2883 141.668 55.8291 0.0864503 10.6878
173200 60.2883 141.681 55.8291 0.0865503 10.6938
173400 60.2883 141.694 55.8291 0.0866503 10.7138
173600 60.2883 141.707 55.8291 0.0867503 10.7201
173800 60.2883 141.72 55.8291 0.0868503 10.7547
174000 60.2883 141.733 55.8291 0.0869503 10.7471
174200 60.2883 141.746 55.8291 0.0870503 10.7671
174400 60.2883 141.759 55.8291 0.0871503 10.7992
174600 60.2883 141.772 55.8291 0.0872503 10.7707
174800 60.2883 141.785 55.8291 0.0873503 10.819
175000 60.2883 141.798 55.8291 0.0874503 10.8223
175200 60.2883 141.811 55.8291 0.0875503 10.8403
175400 60.2883 141.824 55.8291 0.0876503 10.8448
175600 60.2883 141.837 55.8291 0.0877503 10.8619
175800 60.2883 141.851 55.8291 0.0878503 10.8818
176000 60.2883 141.864 55.8291 0.0879503 10.8949
176200 60.2883 141.877 55.8291 0.0880503 10.909
176400 60.2883 141.89 55.8291 0.0881503 10.9015
176600 60.2883 141.903 55.8291 0.0882503 10.9444
176800 60.2883 141.916 55.8291 0.0883503 10.9443
177000 60.2883 141.929 55.8291 0.0884503 10.9551
177200 60.2883 141.942 55.8291 0.0885503 10.9791
177400 60.2883 141.955 55.8291 0.0886503 10.9892
177600 60.2883 141.968 55.8291 0.0887503 11.0042
177800 60.2883 141.981 55.8291 0.0888503 11.005
178000 60.2883 141.994 55.8291 0.0889503 11.0415
178200 60.2883 142.007 55.8291 0.0890503 11.0408
178400 60.2883 142.02 55.8291 0.0891503 11.0476
178600 60.2883 142.033 55.8291 0.0892503 11.0801
178800 60.2883 142.046 55.8291 0.0893503 11.0918
179000 60.2883 142.059 55.8291 0.0894503 11.0877
179200 60.2883 142.072 55.8291 0.0895503 11.1272
179400 60.2883 142.085 55.8291 0.0896503 11.1273
179600 60.2883 142.098 55.8291 0.0897503 11.1375
179800 60.2883 142.111 55.8291 0.0898503 11.1581
180000 60.2883 142.124 55.8291 0.0899503 11.1776
180200 60.2883 142.137 55.8291 0.0900503 11.1695
180400 60.2883 142.15 55.8291 0.0901503 11.2036
180600 60.2883 142.163 55.8291 0.0902503 11.2213
180800 60.2883 142.177 55.8291 0.0903503 11.2135
181000 60.2883 142.19 55.8291 0.0904503 11.2311
181200 60.2883 142.203 55.8291 0.0905503 11.2645
181400 60.2883 142.216 55.8291 0.0906503 11.2667
181600 60.2883 142.229 55.8291 0.0907503 11.2921
181800 60.2883 142.242 55.8291 0.0908503 11.2833
182000 60.2883 142.255 55.8291 0.0909503 11.3191
182200 60.2883 142.268 55.8291 0.0910503 11.3157
182400 60.2883 142.281 55.8291 0.0911503 11.3408
182600 60.2883 142.294 55.8291 0.0912503 11.3675
182800 60.2883 142.307 55.8291 0.0913503 11.3569
183000 60.2883 142.32 55.8291 0.0914503 11.3827
183200 60.2883 142.333 55.8291 0.0915503 11.404
183400 60.2883 142.346 55.8291 0.0916503 11.4063
183600 60.2883 142.359 55.8291 0.0917503 11.4374
183800 60.2883 142.372 55.8291 0.0918503 11.422
184000 60.2883 142.385 55.8291 0.0919503 11.4523
184200 60.2883 142.398 55.8291 0.0920503 11.4778
184400 60.2883 142.411 55.8291 0.0921503 11.4748
184600 60.2883 142.424 55.8291 0.0922503 11.5025
184800 60.2883 142.437 55.8291 0.0923503 11.5058
185000 60.2883 142.45 55.8291 0.0924503 11.5179
185200 60.2883 142.463 55.8291 0.0925503 11.5469
185400 60.2883 142.476 55.8291 0.0926503 11.5562
185600 60.2883 142.489 55.8291 0.0927503 11.5569
185800 60.2883 142.503 55.8291 0.0928503 11.58
186000 60.2883 142.516 55.8291 0.0929503 11.5885
186200 60.2883 142.529 55.8291 0.0930503 11.6095
186400 60.2883 142.542 55.8291 0.0931503 11.6158
186600 60.2883 142.555 55.8291 0.0932503 11.6499
186800 60.2883 142.568 55.8291 0.0933503 11.6306
187000 60.2883 142.581 55.8291 0.0934503 11.6717
187200 60.2883 142.594 55.8291 0.0935503 11.6706
187400 60.2883 142.607 55.8291 0.0936503 11.6906
187600 60.2883 142.62 55.8291 0.0937503 11.7052
187800 60.2883 142.633 55.8291 0.0938503 11.7264
188000 60.2883 142.646 55.8291 0.0939503 11.7304
188200 60.2883 142.659 55.8291 0.0940503 11.7434
188400 60.2883 142.672 55.8291 0.0941503 11.7658
188600 60.2883 142.685 55.8291 0.0942503 11.7767
188800 60.2883 142.698 55.8291 0.0943503 11.7873
189000 60.2883 142.711 55.8291 0.0944503 11.8071
189200 60.2883 142.724 55.8291 0.0945503 11.8101
189400 60.2883 142.737 55.8291 0.0946503 11.84
189600 60.2883 142.75 55.8291 0.0947503 11.8589
189800 60.2883 142.763 55.8291 0.0948503 11.8507
190000 60.2883 142.776 55.8291 0.0949503 11.8683
190200 60.2883 142.789 55.8291 0.0950503 11.8796
190400 60.2883 142.802 55.8291 0.0951503 11.9059
190600 60.2883 142.815 55.8291 0.0952503 11.9076
190800 60.2883 142.828 55.8291 0.0953503 11.9287
191000 60.2883 142.842 55.8291 0.0954503 11.9413
191200 60.2883 142.855 55.8291 0.0955503 11.9609
191400 60.2883 142.868 55.8291 0.0956503 11.978
191600 60.2883 142.881 55.8291 0.0957503 11.9872
191800 60.2883 142.894 55.8291 0.0958503 11.9908
192000 60.2883 142.907 55.8291 0.0959503 12.0104
192200 60.2883 142.92 55.8291 0.0960503 12.0195
192400 60.2883 142.933 55.8291 0.0961503 12.044
192600 60.2883 142.946 55.8291 0.0962503 12.0537
192800 60.2883 142.959 55.8291 0.0963503 12.0685
193000 60.2883 142.972 55.8291 0.0964503 12.0862
193200 60.2883 142.985 55.8291 0.0965503 12.0887
193400 60.2883 142.998 55.8291 0.0966503 12.1096
193600 60.2883 143.011 55.8291 0.0967503 12.1251
193800 60.2883 143.024 55.8291 0.0968503 12.1397
194000 60.2883 143.037 55.8291 0.0969503 12.1592
194200 60.2883 143.05 55.8291 0.0970503 12.1648
194400 60.2883 143.063 55.8291 0.0971503 12.1784
194600 60.2883 143.076 55.8291 0.0972503 12.2032
194800 60.2883 143.089 55.8291 0.0973503 12.1893
195000 60.2883 143.102 55.8291 0.0974503 12.2434
195200 60.2883 143.115 55.8291 0.0975503 12.2251
195400 60.2883 143.128 55.8291 0.0976503 12.2607
195600 60.2883 143.141 55.8291 0.0977503 12.2633
195800 60.2883 143.154 55.8291 0.0978503 12.2839
196000 60.2883 143.168 55.8291 0.0979503 12.2932
196200 60.2883 143.181 55.8291 0.0980503 12.3018
196400 60.2883 143.194 55.8291 0.0981503 12.3226
196600 60.2883 143.207 55.8291 0.0982503 12.3404
196800 60.2883 143.22 55.8291 0.0983503 12.3428
197000 60.2883 143.233 55.8291 0.0984503 12.3609
197200 60.2883 143.246 55.8291 0.0985503 12.3885
197400 60.2883 143.259 55.8291 0.0986503 12.3891
197600 60.2883 143.272 55.8291 0.0987503 12.4079
197800 60.2883 143.285 55.8291 0.0988503 12.423
198000 60.2883 143.298 55.8291 0.0989503 12.4352
198200 60.2883 143.311 55.8291 0.0990503 12.4535
198400 60.2883 143.324 55.8291 0.0991503 12.4601
198600 60.2883 143.337 55.8291 0.0992503 12.4735
198800 60.2883 143.35 55.8291 0.0993503 12.504
199000 60.2883 143.363 55.8291 0.0994503 12.5013
199200 60.2883 143.376 55.8291 0.0995503 12.5269
199400 60.2883 143.389 55.8291 0.0996503 12.5366
199600 60.2883 143.402 55.8291 0.0997503 12.5624
199800 60.2883 143.415 55.8291 0.0998503 12.546
200000 60.2883 143.428 55.8291 0.0999503 12.5848
200200 60.2883 143.441 55.8291 0.10005 12.5945
200400 60.2883 143.454 55.8291 0.10015 12.608
200600 60.2883 143.467 55.8291 0.10025 12.6287
200800 60.2883 143.48 55.8291 0.10035 12.6329
201000 60.2883 143.494 55.8291 0.10045 12.654
201200 60.2883 143.507 55.8291 0.10055 12.6643
201400 60.2883 143.52 55.8291 0.10065 12.6788
201600 60.2883 143.533 55.8291 0.10075 12.6943
201800 60.2883 143.546 55.8291 0.10085 12.7011
202000 60.2883 143.559 55.8291 0.10095 12.7268
202200 60.2883 143.572 55.8291 0.10105 12.7297
202400 60.2883 143.585 55.8291 0.10115 12.7437
202600 60.2883 143.598 55.8291 0.10125 12.7543
202800 60.2883 143.611 55.8291 0.10135 12.7849
203000 60.2883 143.624 55.8291 0.10145 12.7764
203200 60.2883 143.637 55.8291 0.10155 12.8118
203400 60.2883 143.65 55.8291 0.10165 12.8235
203600 60.2883 143.663 55.8291 0.10175 12.823
203800 60.2883 143.676 55.8291 0.10185 12.8448
204000 60.2883 143.689 55.8291 0.10195 12.8535
204200 60.2883 143.702 55.8291 0.10205 12.88
204400 60.2883 143.715 55.8291 0.10215 12.9062
204600 60.2883 143.728 55.8291 0.10225 12.8843
204800 60.2883 143.741 55.8291 0.10235 12.9174
205000 60.2883 143.754 55.8291 0.10245 12.9171
205200 60.2883 143.767 55.8291 0.10255 12.9372
205400 60.2883 143.78 55.8291 0.10265 12.9508
205600 60.2883 143.793 55.8291 0.10275 12.9605
205800 60.2883 143.806 55.8291 0.10285 12.9622
206000 60.2883 143.819 55.8291 0.10295 12.9749
206200 60.2883 143.833 55.8291 0.10305 12.9631
206400 60.2883 143.846 55.8291 0.10315 12.9891
206600 60.2883 143.859 55.8291 0.10325 13.0171
206800 60.2883 143.872 55.8291 0.10335 13.0084
207000 60.2883 143.885 55.8291 0.10345 13.0323
207200 60.2883 143.898 55.8291 0.10355 13.0405
207400 60.2883 143.911 55.8291 0.10365 13.062
207600 60.2883 143.924 55.8291 0.10375 13.0641
207800 60.2883 143.937 55.8291 0.10385 13.0826
208000 60.2883 143.95 55.8291 0.10395 13.0922
208200 60.2883 143.963 55.8291 0.10405 13.1164
208400 60.2883 143.976 55.8291 0.10415 13.1193
208600 60.2883 143.989 55.8291 0.10425 13.1498
208800 60.2883 144.002 55.8291 0.10435 13.1247
209000 60.2883 144.015 55.8291 0.10445 13.1804
209200 60.2883 144.028 55.8291 0.10455 13.1771
209400 60.2883 144.041 55.8291 0.10465 13.2037
209600 60.2883 144.054 55.8291 0.10475 13.1996
209800 60.2883 144.067 55.8291 0.10485 13.198
210000 60.2883 144.08 55.8291 0.10495 13.2149
210200 60.2883 144.093 55.8291 0.10505 13.2455
210400 60.2883 144.106 55.8291 0.10515 13.245
210600 60.2883 144.119 55.8291 0.10525 13.263
210800 60.2883 144.132 55.8291 0.10535 13.2798
211000 60.2883 144.145 55.8291 0.10545 13.2822
211200 60.2883 144.159 55.8291 0.10555 13.3183
211400 60.2883 144.172 55.8291 0.10565 13.3253
211600 60.2883 144.185 55.8291 0.10575 13.3282
211800 60.2883 144.198 55.8291 0.10585 13.3481
212000 60.2883 144.211 55.8291 0.10595 13.3662
212200 60.2883 144.224 55.8291 0.10605 13.3854
212400 60.2883 144.237 55.8291 0.10615 13.4072
212600 60.2883 144.25 55.8291 0.10625 13.3916
212800 60.2883 144.263 55.8291 0.10635 13.442
213000 60.2883 144.276 55.8291 0.10645 13.4059
213200 60.2883 144.289 55.8291 0.10655 13.4601
213400 60.2883 144.302 55.8291 0.10665 13.4442
213600 60.2883 144.315 55.8291 0.10675 13.4668
213800 60.2883 144.328 55.8291 0.10685 13.48
214000 60.2883 144.341 55.8291 0.10695 13.495
214200 60.2883 144.354 55.8291 0.10705 13.5029
214400 60.2883 144.367 55.8291 0.10715 13.5383
214600 60.2883 144.38 55.8291 0.10725 13.536
214800 60.2883 144.393 55.8291 0.10735 13.5468
215000 60.2883 144.406 55.8291 0.10745 13.5717
215200 60.2883 144.419 55.8291 0.10755 13.5721
215400 60.2883 144.432 55.8291 0.10765 13.5968
215600 60.2883 144.445 55.8291 0.10775 13.6099
215800 60.2883 144.458 55.8291 0.10785 13.6263
216000 60.2883 144.471 55.8291 0.10795 13.6362
216200 60.2883 144.485 55.8291 0.10805 13.6446
216400 60.2883 144.498 55.8291 0.10815 13.6713
216600 60.2883 144.511 55.8291 0.10825 13.6474
216800 60.2883 144.524 55.8291 0.10835 13.6618
217000 60.2883 144.537 55.8291 0.10845 13.6682
217200 60.2883 144.55 55.8291 0.10855 13.6747
217400 60.2883 144.563 55.8291 0.10865 13.685
217600 60.2883 144.576 55.8291 0.10875 13.6837
217800 60.2883 144.589 55.8291 0.10885 13.6826
218000 60.2883 144.602 55.8291 0.10895 13.701
218200 60.2883 144.615 55.8291 0.10905 13.7144
218400 60.2883 144.628 55.8291 0.10915 13.7322
218600 60.2883 144.641 55.8291 0.10925 13.7077
218800 60.2883 144.654 55.8291 0.10935 13.7262
219000 60.2883 144.667 55.8291 0.10945 13.7346
219200 60.2883 144.68 55.8291 0.10955 13.7503
219400 60.2883 144.693 55.8291 0.10965 13.7341
219600 60.2883 144.706 55.8291 0.10975 13.7553
219800 60.2883 144.719 55.8291 0.10985 13.7712
220000 60.2883 144.732 55.8291 0.10995 13.7795
220200 60.2883 144.745 55.8291 0.11005 13.7943
220400 60.2883 144.758 55.8291 0.11015 13.8185
220600 60.2883 144.771 55.8291 0.11025 13.8226
220800 60.2883 144.784 55.8291 0.11035 13.8382
221000 60.2883 144.797 55.8291 0.11045 13.8536
221200 60.2883 144.811 55.8291 0.11055 13.8639
221400 60.2883 144.824 55.8291 0.11065 13.8985
221600 60.2883 144.837 55.8291 0.11075 13.8901
221800 60.2883 144.85 55.8291 0.11085 13.9121
222000 60.2883 144.863 55.8291 0.11095 13.9291
222200 60.2883 144.876 55.8291 0.11105 13.9327
222400 60.2883 144.889 55.8291 0.11115 13.958
222600 60.2883 144.902 55.8291 0.11125 13.9324
222800 60.2883 144.915 55.8291 0.11135 13.9623
223000 60.2883 144.928 55.8291 0.11145 13.9603
223200 60.2883 144.941 55.8291 0.11155 13.9806
223400 60.2883 144.954 55.8291 0.11165 13.9962
223600 60.2883 144.967 55.8291 0.11175 14.0085
223800 60.2883 144.98 55.8291 0.11185 14.0175
224000 60.2883 144.993 55.8291 0.11195 14.0307
224200 60.2883 145.006 55.8291 0.11205 14.0541
224400 60.2883 145.019 55.8291 0.11215 14.0651
224600 60.2883 145.032 55.8291 0.11225 14.0779
224800 60.2883 145.045 55.8291 0.11235 14.0964
225000 60.2883 145.058 55.8291 0.11245 14.1022
225200 60.2883 145.071 55.8291 0.11255 14.1089
225400 60.2883 145.084 55.8291 0.11265 14.1419
225600 60.2883 145.097 55.8291 0.11275 14.1481
225800 60.2883 145.11 55.8291 0.11285 14.1624
226000 60.2883 145.123 55.8291 0.11295 14.1801
226200 60.2883 145.136 55.8291 0.11305 14.1954
226400 60.2883 145.15 55.8291 0.11315 14.2011
226600 60.2883 145.163 55.8291 0.11325 14.2212
226800 60.2883 145.176 55.8291 0.11335 14.2383
227000 60.2883 145.189 55.8291 0.11345 14.2342
227200 60.2883 145.202 55.8291 0.11355 14.2681
227400 60.2883 145.215 55.8291 0.11365 14.281
227600 60.2883 145.228 55.8291 0.11375 14.287
227800 60.2883 145.241 55.8291 0.11385 14.3114
228000 60.2883 145.254 55.8291 0.11395 14.3221
228200 60.2883 145.267 55.8291 0.11405 14.3185
228400 60.2883 145.28 55.8291 0.11415 14.3535
228600 60.2883 145.293 55.8291 0.11425 14.3592
228800 60.2883 145.306 55.8291 0.11435 14.3713
229000 60.2883 145.319 55.8291 0.11445 14.3959
229200 60.2883 145.332 55.8291 0.11455 14.3931
229400 60.2883 145.345 55.8291 0.11465 14.4133
229600 60.2883 145.358 55.8291 0.11475 14.4392
229800 60.2883 145.371 55.8291 0.11485 14.4377
230000 60.2883 145.384 55.8291 0.11495 14.4636
230200 60.2883 145.397 55.8291 0.11505 14.4676
230400 60.2883 145.41 55.8291 0.11515 14.4813
230600 60.2883 145.423 55.8291 0.11525 14.4753
230800 60.2883 145.436 55.8291 0.11535 14.4932
231000 60.2883 145.449 55.8291 0.11545 14.5068
231200 60.2883 145.462 55.8291 0.11555 14.5185
231400 60.2883 145.476 55.8291 0.11565 14.5258
231600 60.2883 145.489 55.8291 0.11575 14.5572
231800 60.2883 145.502 55.8291 0.11585 14.5477
232000 60.2883 145.515 55.8291 0.11595 14.5866
232200 60.2883 145.528 55.8291 0.11605 14.5846
232400 60.2883 145.541 55.8291 0.11615 14.6023
232600 60.2883 145.554 55.8291 0.11625 14.6149
232800 60.2883 145.567 55.8291 0.11635 14.6281
233000 60.2883 145.58 55.8291 0.11645 14.6441
233200 60.2883 145.593 55.8291 0.11655 14.6655
233400 60.2883 145.606 55.8291 0.11665 14.6431
233600 60.2883 145.619 55.8291 0.11675 14.6871
233800 60.2883 145.632 55.8291 0.11685 14.6812
234000 60.2883 145.645 55.8291 0.11695 14.7021
234200 60.2883 145.658 55.8291 0.11705 14.7157
234400 60.2883 145.671 55.8291 0.11715 14.7276
234600 60.2883 145.684 55.8291 0.11725 14.7426
234800 60.2883 145.697 55.8291 0.11735 14.7452
235000 60.2883 145.71 55.8291 0.11745 14.767
235200 60.2883 145.723 55.8291 0.11755 14.7506
235400 60.2883 145.736 55.8291 0.11765 14.7794
235600 60.2883 145.749 55.8291 0.11775 14.7836
235800 60.2883 145.762 55.8291 0.11785 14.7692
236000 60.2883 145.775 55.8291 0.11795 14.7972
236200 60.2883 145.788 55.8291 0.11805 14.8251
236400 60.2883 145.802 55.8291 0.11815 14.8126
236600 60.2883 145.815 55.8291 0.11825 14.8392
236800 60.2883 145.828 55.8291 0.11835 14.8463
237000 60.2883 145.841 55.8291 0.11845 14.8662
237200 60.2883 145.854 55.8291 0.11855 14.8642
237400 60.2883 145.867 55.8291 0.11865 14.8461
237600 60.2883 145.88 55.8291 0.11875 14.8601
237800 60.2883 145.893 55.8291 0.11885 14.8803
238000 60.2883 145.906 55.8291 0.11895 14.8713
238200 60.2883 145.919 55.8291 0.11905 14.8938
238400 60.2883 145.932 55.8291 0.11915 14.9112
238600 60.2883 145.945 55.8291 0.11925 14.9161
238800 60.2883 145.958 55.8291 0.11935 14.936
239000 60.2883 145.971 55.8291 0.11945 14.9462
239200 60.2883 145.984 55.8291 0.11955 14.9566
239400 60.2883 145.997 55.8291 0.11965 14.9765
239600 60.2883 146.01 55.8291 0.11975 14.9439
239800 60.2883 146.023 55.8291 0.11985 14.9658
240000 60.2883 146.036 55.8291 0.11995 14.961
240200 60.2883 146.049 55.8291 0.12005 14.9829
240400 60.2883 146.062 55.8291 0.12015 14.9875
240600 60.2883 146.075 55.8291 0.12025 15.0054
240800 60.2883 146.088 55.8291 0.12035 15.0345
241000 60.2883 146.101 55.8291 0.12045 15.0142
241200 60.2883 146.114 55.8291 0.12055 15.0488
241400 60.2883 146.127 55.8291 0.12065 15.0366
241600 60.2883 146.141 55.8291 0.12075 15.026
241800 60.2883 146.154 55.8291 0.12085 15.0234
242000 60.2883 146.167 55.8291 0.12095 15.0462
242200 60.2883 146.18 55.8291 0.12105 15.0572
242400 60.2883 146.193 55.8291 0.12115 15.0627
242600 60.2883 146.206 55.8291 0.12125 15.0779
242800 60.2883 146.219 55.8291 0.12135 15.082
243000 60.2883 146.232 55.8291 0.12145 15.0999
243200 60.2883 146.245 55.8291 0.12155 15.0977
243400 60.2883 146.258 55.8291 0.12165 15.116
243600 60.2883 146.271 55.8291 0.12175 15.1108
243800 60.2883 146.284 55.8291 0.12185 15.1491
244000 60.2883 146.297 55.8291 0.12195 15.1577
244200 60.2883 146.31 55.8291 0.12205 15.1723
244400 60.2883 146.323 55.8291 0.12215 15.1711
244600 60.2883 146.336 55.8291 0.12225 15.2066
244800 60.2883 146.349 55.8291 0.12235 15.178
245000 60.2883 146.362 55.8291 0.12245 15.1761
245200 60.2883 146.375 55.8291 0.12255 15.177
245400 60.2883 146.388 55.8291 0.12265 15.1861
245600 60.2883 146.401 55.8291 0.12275 15.1973
245800 60.2883 146.414 55.8291 0.12285 15.2049
246000 60.2883 146.427 55.8291 0.12295 15.2065
246200 60.2883 146.44 55.8291 0.12305 15.2288
246400 60.2883 146.453 55.8291 0.12315 15.2388
246600 60.2883 146.467 55.8291 0.12325 15.224
246800 60.2883 146.48 55.8291 0.12335 15.1786
247000 60.2883 146.493 55.8291 0.12345 15.2088
247200 60.2883 146.506 55.8291 0.12355 15.2095
247400 60.2883 146.519 55.8291 0.12365 15.2425
247600 60.2883 146.532 55.8291 0.12375 15.2573
247800 60.2883 146.545 55.8291 0.12385 15.2608
248000 60.2883 146.558 55.8291 0.12395 15.2599
248200 60.2883 146.571 55.8291 0.12405 15.2447
248400 60.2883 146.584 55.8291 0.12415 15.2317
248600 60.2883 146.597 55.8291 0.12425 15.2457
248800 60.2883 146.61 55.8291 0.12435 15.2259
249000 60.2883 146.623 55.8291 0.12445 15.2649
249200 60.2883 146.636 55.8291 0.12455 15.2635
249400 60.2883 146.649 55.8291 0.12465 15.2381
249600 60.2883 146.662 55.8291 0.12475 15.2755
249800 60.2883 146.675 55.8291 0.12485 15.279
250000 60.2883 146.688 55.8291 0.12495 15.2976
250200 60.2883 146.701 55.8291 0.12505 15.3077
250400 60.2883 146.714 55.8291 0.12515 15.3206
250600 60.2883 146.727 55.8291 0.12525 15.3231
250800 60.2883 146.74 55.8291 0.12535 15.3713
251000 60.2883 146.753 55.8291 0.12545 15.3651
251200 60.2883 146.766 55.8291 0.12555 15.3635
251400 60.2883 146.779 55.8291 0.12565 15.3691
251600 60.2883 146.793 55.8291 0.12575 15.3867
251800 60.2883 146.806 55.8291 0.12585 15.4059
252000 60.2883 146.819 55.8291 0.12595 15.4054
252200 60.2883 146.832 55.8291 0.12605 15.4328
252400 60.2883 146.845 55.8291 0.12615 15.442
252600 60.2883 146.858 55.8291 0.12625 15.4571
252800 60.2883 146.871 55.8291 0.12635 15.4706
253000 60.2883 146.884 55.8291 0.12645 15.4666
253200 60.2883 146.897 55.8291 0.12655 15.4856
253400 60.2883 146.91 55.8291 0.12665 15.4373
253600 60.2883 146.923 55.8291 0.12675 15.4623
253800 60.2883 146.936 55.8291 0.12685 15.4587
254000 60.2883 146.949 55.8291 0.12695 15.4583
254200 60.2883 146.962 55.8291 0.12705 15.4911
254400 60.2883 146.975 55.8291 0.12715 15.4802
254600 60.2883 146.988 55.8291 0.12725 15.4962
254800 60.2883 147.001 55.8291 0.12735 15.5121
255000 60.2883 147.014 55.8291 0.12745 15.514
255200 60.2883 147.027 55.8291 0.12755 15.5179
255400 60.2883 147.04 55.8291 0.12765 15.5344
255600 60.2883 147.053 55.8291 0.12775 15.5554
255800 60.2883 147.066 55.8291 0.12785 15.5666
256000 60.2883 147.079 55.8291 0.12795 15.5701
256200 60.2883 147.092 55.8291 0.12805 15.5816
256400 60.2883 147.105 55.8291 0.12815 15.5676
256600 60.2883 147.118 55.8291 0.12825 15.5817
256800 60.2883 147.132 55.8291 0.12835 15.5664
257000 60.2883 147.145 55.8291 0.12845 15.569
257200 60.2883 147.158 55.8291 0.12855 15.5493
257400 60.2883 147.171 55.8291 0.12865 15.5376
257600 60.2883 147.184 55.8291 0.12875 15.5368
257800 60.2883 147.197 55.8291 0.12885 15.5365
258000 60.2883 147.21 55.8291 0.12895 15.5325
258200 60.2883 147.223 55.8291 0.12905 15.5671
258400 60.2883 147.236 55.8291 0.12915 15.5374
258600 60.2883 147.249 55.8291 0.12925 15.5516
258800 60.2883 147.262 55.8291 0.12935 15.5965
259000 60.2883 147.275 55.8291 0.12945 15.5578
259200 60.2883 147.288 55.8291 0.12955 15.5826
259400 60.2883 147.301 55.8291 0.12965 15.5923
259600 60.2883 147.314 55.8291 0.12975 15.591
259800 60.2883 147.327 55.8291 0.12985 15.6249
260000 60.2883 147.34 55.8291 0.12995 15.6274
260200 60.2883 147.353 55.8291 0.13005 15.6664
260400 60.2883 147.366 55.8291 0.13015 15.6363
260600 60.2883 147.379 55.8291 0.13025 15.6527
260800 60.2883 147.392 55.8291 0.13035 15.6272
261000 60.2883 147.405 55.8291 0.13045 15.6763
261200 60.2883 147.418 55.8291 0.13055 15.6784
261400 60.2883 147.431 55.8291 0.13065 15.6847
261600 60.2883 147.444 55.8291 0.13075 15.6996
261800 60.2883 147.458 55.8291 0.13085 15.7363
262000 60.2883 147.471 55.8291 0.13095 15.7197
262200 60.2883 147.484 55.8291 0.13105 15.7089
262400 60.2883 147.497 55.8291 0.13115 15.7403
262600 60.2883 147.51 55.8291 0.13125 15.7399
262800 60.2883 147.523 55.8291 0.13135 15.7711
263000 60.2883 147.536 55.8291 0.13145 15.7831
263200 60.2883 147.549 55.8291 0.13155 15.7888
263400 60.2883 147.562 55.8291 0.13165 15.7974
263600 60.2883 147.575 55.8291 0.13175 15.812
263800 60.2883 147.588 55.8291 0.13185 15.8063
264000 60.2883 147.601 55.8291 0.13195 15.8263
264200 60.2883 147.614 55.8291 0.13205 15.8287
264400 60.2883 147.627 55.8291 0.13215 15.8504
264600 60.2883 147.64 55.8291 0.13225 15.8675
264800 60.2883 147.653 55.8291 0.13235 15.8656
265000 60.2883 147.666 55.8291 0.13245 15.8628
265200 60.2883 147.679 55.8291 0.13255 15.8956
265400 60.2883 147.692 55.8291 0.13265 15.869
265600 60.2883 147.705 55.8291 0.13275 15.873
265800 60.2883 147.718 55.8291 0.13285 15.868
266000 60.2883 147.731 55.8291 0.13295 15.8713
266200 60.2883 147.744 55.8291 0.13305 15.8913
266400 60.2883 147.757 55.8291 0.13315 15.8821
266600 60.2883 147.77 55.8291 0.13325 15.899
266800 60.2883 147.784 55.8291 0.13335 15.9157
267000 60.2883 147.797 55.8291 0.13345 15.9261
267200 60.2883 147.81 55.8291 0.13355 15.9321
267400 60.2883 147.823 55.8291 0.13365 15.95
267600 60.2883 147.836 55.8291 0.13375 15.9698
267800 60.2883 147.849 55.8291 0.13385 15.952
268000 60.2883 147.862 55.8291 0.13395 15.9788
268200 60.2883 147.875 55.8291 0.13405 15.998
268400 60.2883 147.888 55.8291 0.13415 16.0002
268600 60.2883 147.901 55.8291 0.13425 16.0149
268800 60.2883 147.914 55.8291 0.13435 16.0284
269000 60.2883 147.927 55.8291 0.13445 16.058
269200 60.2883 147.94 55.8291 0.13455 16.0516
269400 60.2883 147.953 55.8291 0.13465 16.0651
269600 60.2883 147.966 55.8291 0.13475 16.0823
269800 60.2883 147.979 55.8291 0.13485 16.0749
270000 60.2883 147.992 55.8291 0.13495 16.101
270200 60.2883 148.005 55.8291 0.13505 16.1137
270400 60.2883 148.018 55.8291 0.13515 16.1002
270600 60.2883 148.031 55.8291 0.13525 16.1032
270800 60.2883 148.044 55.8291 0.13535 16.1086
271000 60.2883 148.057 55.8291 0.13545 16.1187
271200 60.2883 148.07 55.8291 0.13555 16.1217
271400 60.2883 148.083 55.8291 0.13565 16.1361
271600 60.2883 148.096 55.8291 0.13575 16.1331
271800 60.2883 148.11 55.8291 0.13585 16.1251
272000 60.2883 148.123 55.8291 0.13595 16.1053
272200 60.2883 148.136 55.8291 0.13605 16.1403
272400 60.2883 148.149 55.8291 0.13615 16.1306
272600 60.2883 148.162 55.8291 0.13625 16.1422
272800 60.2883 148.175 55.8291 0.13635 16.1352
273000 60.2883 148.188 55.8291 0.13645 16.1607
273200 60.2883 148.201 55.8291 0.13655 16.1426
273400 60.2883 148.214 55.8291 0.13665 16.156
273600 60.2883 148.227 55.8291 0.13675 16.1843
273800 60.2883 148.24 55.8291 0.13685 16.1735
274000 60.2883 148.253 55.8291 0.13695 16.1949
274200 60.2883 148.266 55.8291 0.13705 16.1988
274400 60.2883 148.279 55.8291 0.13715 16.2118
274600 60.2883 148.292 55.8291 0.13725 16.2388
274800 60.2883 148.305 55.8291 0.13735 16.2394
275000 60.2883 148.318 55.8291 0.13745 16.2534
275200 60.2883 148.331 55.8291 0.13755 16.2505
275400 60.2883 148.344 55.8291 0.13765 16.2588
275600 60.2883 148.357 55.8291 0.13775 16.2356
275800 60.2883 148.37 55.8291 0.13785 16.2486
276000 60.2883 148.383 55.8291 0.13795 16.2581
276200 60.2883 148.396 55.8291 0.13805 16.275
276400 60.2883 148.409 55.8291 0.13815 16.2823
276600 60.2883 148.422 55.8291 0.13825 16.2908
276800 60.2883 148.435 55.8291 0.13835 16.2668
277000 60.2883 148.449 55.8291 0.13845 16.2796
277200 60.2883 148.462 55.8291 0.13855 16.3057
277400 60.2883 148.475 55.8291 0.13865 16.318
277600 60.2883 148.488 55.8291 0.13875 16.3035
277800 60.2883 148.501 55.8291 0.13885 16.3194
278000 60.2883 148.514 55.8291 0.13895 16.3228
278200 60.2883 148.527 55.8291 0.13905 16.2833
278400 60.2883 148.54 55.8291 0.13915 16.2855
278600 60.2883 148.553 55.8291 0.13925 16.2587
278800 60.2883 148.566 55.8291 0.13935 16.2731
279000 60.2883 148.579 55.8291 0.13945 16.2263
279200 60.2883 148.592 55.8291 0.13955 16.2127
279400 60.2883 148.605 55.8291 0.13965 16.1573
279600 60.2883 148.618 55.8291 0.13975 16.1443
279800 60.2883 148.631 55.8291 0.13985 16.1326
280000 60.2883 148.644 55.8291 0.13995 16.1175
280200 60.2883 148.657 55.8291 0.14005 16.1135
280400 60.2883 148.67 55.8291 0.14015 16.128
280600 60.2883 148.683 55.8291 0.14025 16.1311
280800 60.2883 148.696 55.8291 0.14035 16.1499
281000 60.2883 148.709 55.8291 0.14045 16.1475
281200 60.2883 148.722 55.8291 0.14055 16.1282
281400 60.2883 148.735 55.8291 0.14065 16.1382
281600 60.2883 148.748 55.8291 0.14075 16.1435
281800 60.2883 148.761 55.8291 0.14085 16.138
282000 60.2883 148.775 55.8291 0.14095 16.1464
282200 60.2883 148.788 55.8291 0.14105 16.135
282400 60.2883 148.801 55.8291 0.14115 16.1316
282600 60.2883 148.814 55.8291 0.14125 16.1609
282800 60.2883 148.827 55.8291 0.14135 16.166
283000 60.2883 148.84 55.8291 0.14145 16.1593
283200 60.2883 148.853 55.8291 0.14155 16.1777
283400 60.2883 148.866 55.8291 0.14165 16.1931
283600 60.2883 148.879 55.8291 0.14175 16.1975
283800 60.2883 148.892 55.8291 0.14185 16.196
284000 60.2883 148.905 55.8291 0.14195 16.1824
284200 60.2883 148.918 55.8291 0.14205 16.1856
284400 60.2883 148.931 55.8291 0.14215 16.214
284600 60.2883 148.944 55.8291 0.14225 16.2132
284800 60.2883 148.957 55.8291 0.14235 16.2214
285000 60.2883 148.97 55.8291 0.14245 16.2546
285200 60.2883 148.983 55.8291 0.14255 16.2498
285400 60.2883 148.996 55.8291 0.14265 16.2739
285600 60.2883 149.009 55.8291 0.14275 16.2841
285800 60.2883 149.022 55.8291 0.14285 16.2878
286000 60.2883 149.035 55.8291 0.14295 16.3028
286200 60.2883 149.048 55.8291 0.14305 16.2981
286400 60.2883 149.061 55.8291 0.14315 16.2795
286600 60.2883 149.074 55.8291 0.14325 16.2675
286800 60.2883 149.087 55.8291 0.14335 16.2463
287000 60.2883 149.101 55.8291 0.14345 16.2386
287200 60.2883 149.114 55.8291 0.14355 16.2734
287400 60.2883 149.127 55.8291 0.14365 16.2756
287600 60.2883 149.14 55.8291 0.14375 16.2665
287800 60.2883 149.153 55.8291 0.14385 16.2759
288000 60.2883 149.166 55.8291 0.14395 16.2938
288200 60.2883 149.179 55.8291 0.14405 16.3058
288400 60.2883 149.192 55.8291 0.14415 16.2881
288600 60.2883 149.205 55.8291 0.14425 16.2799
288800 60.2883 149.218 55.8291 0.14435 16.2811
289000 60.2883 149.231 55.8291 0.14445 16.248
289200 60.2883 149.244 55.8291 0.14455 16.1846
289400 60.2883 149.257 55.8291 0.14465 16.171
289600 60.2883 149.27 55.8291 0.14475 16.071
289800 60.2883 149.283 55.8291 0.14485 16.0493
290000 60.2883 149.296 55.8291 0.14495 16.0364
290200 60.2883 149.309 55.8291 0.14505 16.0042
290400 60.2883 149.322 55.8291 0.14515 15.9299
290600 60.2883 149.335 55.8291 0.14525 15.9138
290800 60.2883 149.348 55.8291 0.14535 15.9071
291000 60.2883 149.361 55.8291 0.14545 15.8832
291200 60.2883 149.374 55.8291 0.14555 15.8825
291400 60.2883 149.387 55.8291 0.14565 15.8427
291600 60.2883 149.4 55.8291 0.14575 15.8314
291800 60.2883 149.413 55.8291 0.14585 15.8041
292000 60.2883 149.426 55.8291 0.14595 15.7843
292200 60.2883 149.44 55.8291 0.14605 15.7658
292400 60.2883 149.453 55.8291 0.14615 15.7375
292600 60.2883 149.466 55.8291 0.14625 15.701
292800 60.2883 149.479 55.8291 0.14635 15.6887
293000 60.2883 149.492 55.8291 0.14645 15.7144
293200 60.2883 149.505 55.8291 0.14655 15.6855
293400 60.2883 149.518 55.8291 0.14665 15.659
293600 60.2883 149.531 55.8291 0.14675 15.6763
293800 60.2883 149.544 55.8291 0.14685 15.6067
294000 60.2883 149.557 55.8291 0.14695 15.5384
294200 60.2883 149.57 55.8291 0.14705 15.5056
294400 60.2883 149.583 55.8291 0.14715 15.4355
294600 60.2883 149.596 55.8291 0.14725 15.3183
294800 60.2883 149.609 55.8291 0.14735 15.2222
295000 60.2883 149.622 55.8291 0.14745 15.1568
295200 60.2883 149.635 55.8291 0.14755 15.0579
295400 60.2883 149.648 55.8291 0.14765 14.8865
295600 60.2883 149.661 55.8291 0.14775 14.7187
295800 60.2883 149.674 55.8291 0.14785 14.4889
296000 60.2883 149.687 55.8291 0.14795 14.1415
296200 60.2883 149.7 55.8291 0.14805 13.7295
296400 60.2883 149.713 55.8291 0.14815 13.2007
296600 60.2883 149.726 55.8291 0.14825 12.3911
296800 60.2883 149.739 55.8291 0.14835 11.134
297000 60.2883 149.752 55.8291 0.14845 9.53584
297200 60.2883 149.766 55.8291 0.14855 7.81152
297400 60.2883 149.779 55.8291 0.14865 5.89442
297600 60.2883 149.792 55.8291 0.14875 3.99486
297800 60.2883 149.805 55.8291 0.14885 2.21105
298000 60.2883 149.818 55.8291 0.14895 0.714574
298200 60.2883 149.831 55.8291 0.14905 -0.468691
298400 60.2883 149.844 55.8291 0.14915 -1.42323
298600 60.2883 149.857 55.8291 0.14925 -2.21076
298800 60.2883 149.87 55.8291 0.14935 -2.69153
299000 60.2883 149.883 55.8291 0.14945 -3.00764
299200 60.2883 149.896 55.8291 0.14955 -3.12228
299400 60.2883 149.909 55.8291 0.14965 -3.00335
299600 60.2883 149.922 55.8291 0.14975 -2.75411
299800 60.2883 149.935 55.8291 0.14985 -2.34851
300000 60.2883 149.948 55.8291 0.14995 -1.74665
300200 60.2883 149.961 55.8291 0.15005 -0.953349
300400 60.2883 149.974 55.8291 0.15015 -0.0673235
300600 60.2883 149.987 55.8291 0.15025 1.01074
300800 60.2883 150 55.8291 0.15035 2.0519
301000 60.2883 150.013 55.8291 0.15045 3.03635
301200 60.2883 150.026 55.8291 0.15055 3.70512
301400 60.2883 150.039 55.8291 0.15065 3.90555
301600 60.2883 150.052 55.8291 0.15075 3.50102
301800 60.2883 150.065 55.8291 0.15085 2.68586
302000 60.2883 150.078 55.8291 0.15095 1.66694
302200 60.2883 150.092 55.8291 0.15105 0.622277
302400 60.2883 150.105 55.8291 0.15115 -0.339175
302600 60.2883 150.118 55.8291 0.15125 -1.10064
302800 60.2883 150.131 55.8291 0.15135 -1.76001
303000 60.2883 150.144 55.8291 0.15145 -2.16679
303200 60.2883 150.157 55.8291 0.15155 -2.48122
303400 60.2883 150.17 55.8291 0.15165 -2.54283
303600 60.2883 150.183 55.8291 0.15175 -2.51573
303800 60.2883 150.196 55.8291 0.15185 -2.23013
304000 60.2883 150.209 55.8291 0.15195 -1.76988
304200 60.2883 150.222 55.8291 0.15205 -1.12078
304400 60.2883 150.235 55.8291 0.15215 -0.375054
304600 60.2883 150.248 55.8291 0.15225 0.498148
304800 60.2883 150.261 55.8291 0.15235 1.41535
305000 60.2883 150.274 55.8291 0.15245 2.29946
305200 60.2883 150.287 55.8291 0.15255 2.98429
305400 60.2883 150.3 55.8291 0.15265 3.29028
305600 60.2883 150.313 55.8291 0.15275 3.22094
305800 60.2883 150.326 55.8291 0.15285 2.6059
306000 60.2883 150.339 55.8291 0.15295 1.79125
306200 60.2883 150.352 55.8291 0.15305 0.848055
306400 60.2883 150.365 55.8291 0.15315 0.00741685
306600 60.2883 150.378 55.8291 0.15325 -0.7346
306800 60.2883 150.391 55.8291 0.15335 -1.37004
307000 60.2883 150.404 55.8291 0.15345 -1.81391
307200 60.2883 150.418 55.8291 0.15355 -2.1794
307400 60.2883 150.431 55.8291 0.15365 -2.29274
307600 60.2883 150.444 55.8291 0.15375 -2.27594
307800 60.2883 150.457 55.8291 0.15385 -2.06748
308000 60.2883 150.47 55.8291 0.15395 -1.74206
308200 60.2883 150.483 55.8291 0.15405 -1.18549
308400 60.2883 150.496 55.8291 0.15415 -0.475441
308600 60.2883 150.509 55.8291 0.15425 0.22858
308800 60.2883 150.522 55.8291 0.15435 1.06232
309000 60.2883 150.535 55.8291 0.15445 1.84522
309200 60.2883 150.548 55.8291 0.15455 2.45288
309400 60.2883 150.561 55.8291 0.15465 2.83997
309600 60.2883 150.574 55.8291 0.15475 2.77228
309800 60.2883 150.587 55.8291 0.15485 2.39669
310000 60.2883 150.6 55.8291 0.15495 1.74299
310200 60.2883 150.613 55.8291 0.15505 0.954105
310400 60.2883 150.626 55.8291 0.15515 0.166219
310600 60.2883 150.639 55.8291 0.15525 -0.542968
310800 60.2883 150.652 55.8291 0.15535 -1.13715
311000 60.2883 150.665 55.8291 0.15545 -1.59932
311200 60.2883 150.678 55.8291 0.15555 -1.90558
311400 60.2883 150.691 55.8291 0.15565 -2.00026
311600 60.2883 150.704 55.8291 0.15575 -1.97453
311800 60.2883 150.717 55.8291 0.15585 -1.80595
312000 60.2883 150.73 55.8291 0.15595 -1.4911
312200 60.2883 150.743 55.8291 0.15605 -1.0106
312400 60.2883 150.757 55.8291 0.15615 -0.42582
312600 60.2883 150.77 55.8291 0.15625 0.284907
312800 60.2883 150.783 55.8291 0.15635 0.993489
313000 60.2883 150.796 55.8291 0.15645 1.73223
313200 60.2883 150.809 55.8291 0.15655 2.27409
313400 60.2883 150.822 55.8291 0.15665 2.51642
313600 60.2883 150.835 55.8291 0.15675 2.42635
313800 60.2883 150.848 55.8291 0.15685 2.08109
314000 60.2883 150.861 55.8291 0.15695 1.47708
314200 60.2883 150.874 55.8291 0.15705 0.789611
314400 60.2883 150.887 55.8291 0.15715 0.0857619
314600 60.2883 150.9 55.8291 0.15725 -0.545344
314800 60.2883 150.913 55.8291 0.15735 -1.03931
315000 60.2883 150.926 55.8291 0.15745 -1.44208
315200 60.2883 150.939 55.8291 0.15755 -1.70622
315400 60.2883 150.952 55.8291 0.15765 -1.78561
315600 60.2883 150.965 55.8291 0.15775 -1.73904
315800 60.2883 150.978 55.8291 0.15785 -1.55511
316000 60.2883 150.991 55.8291 0.15795 -1.23229
316200 60.2883 151.004 55.8291 0.15805 -0.773568
316400 60.2883 151.017 55.8291 0.15815 -0.214748
316600 60.2883 151.03 55.8291 0.15825 0.379231
316800 60.2883 151.043 55.8291 0.15835 1.00473
317000 60.2883 151.056 55.8291 0.15845 1.57451
317200 60.2883 151.069 55.8291 0.15855 1.97792
317400 60.2883 151.083 55.8291 0.15865 2.17543
317600 60.2883 151.096 55.8291 0.15875 2.01266
317800 60.2883 151.109 55.8291 0.15885 1.61904
318000 60.2883 151.122 55.8291 0.15895 1.0848
318200 60.2883 151.135 55.8291 0.15905 0.463485
318400 60.2883 151.148 55.8291 0.15915 -0.151763
318600 60.2883 151.161 55.8291 0.15925 -0.667039
318800 60.2883 151.174 55.8291 0.15935 -1.10932
319000 60.2883 151.187 55.8291 0.15945 -1.43066
319200 60.2883 151.2 55.8291 0.15955 -1.62093
319400 60.2883 151.213 55.8291 0.15965 -1.66896
319600 60.2883 151.226 55.8291 0.15975 -1.5888
319800 60.2883 151.239 55.8291 0.15985 -1.37691
320000 60.2883 151.252 55.8291 0.15995 -1.05077
320200 60.2883 151.265 55.8291 0.16005 -0.542843
320400 60.2883 151.278 55.8291 0.16015 -0.0169935
320600 60.2883 151.291 55.8291 0.16025 0.561244
320800 60.2883 151.304 55.8291 0.16035 1.15253
321000 60.2883 151.317 55.8291 0.16045 1.62986
321200 60.2883 151.33 55.8291 0.16055 1.91528
321400 60.2883 151.343 55.8291 0.16065 2.00169
321600 60.2883 151.356 55.8291 0.16075 1.81292
321800 60.2883 151.369 55.8291 0.16085 1.41478
322000 60.2883 151.382 55.8291 0.16095 0.847248
322200 60.2883 151.395 55.8291 0.16105 0.26672
322400 60.2883 151.409 55.8291 0.16115 -0.266099
322600 60.2883 151.422 55.8291 0.16125 -0.766551
322800 60.2883 151.435 55.8291 0.16135 -1.12139
323000 60.2883 151.448 55.8291 0.16145 -1.3644
323200 60.2883 151.461 55.8291 0.16155 -1.51891
323400 60.2883 151.474 55.8291 0.16165 -1.52069
323600 60.2883 151.487 55.8291 0.16175 -1.41307
323800 60.2883 151.5 55.8291 0.16185 -1.16231
324000 60.2883 151.513 55.8291 0.16195 -0.795875
324200 60.2883 151.526 55.8291 0.16205 -0.308495
324400 60.2883 151.539 55.8291 0.16215 0.213515
324600 60.2883 151.552 55.8291 0.16225 0.747625
324800 60.2883 151.565 55.8291 0.16235 1.22955
325000 60.2883 151.578 55.8291 0.16245 1.60884
325200 60.2883 151.591 55.8291 0.16255 1.82133
325400 60.2883 151.604 55.8291 0.16265 1.74331
325600 60.2883 151.617 55.8291 0.16275 1.50995
325800 60.2883 151.63 55.8291 0.16285 1.05426
326000 60.2883 151.643 55.8291 0.16295 0.555546
326200 60.2883 151.656 55.8291 0.16305 0.0297959
326400 60.2883 151.669 55.8291 0.16315 -0.458729
326600 60.2883 151.682 55.8291 0.16325 -0.872632
326800 60.2883 151.695 55.8291 0.16335 -1.16448
327000 60.2883 151.708 55.8291 0.16345 -1.36974
327200 60.2883 151.721 55.8291 0.16355 -1.41939
327400 60.2883 151.734 55.8291 0.16365 -1.36384
327600 60.2883 151.748 55.8291 0.16375 -1.17357
327800 60.2883 151.761 55.8291 0.16385 -0.87996
328000 60.2883 151.774 55.8291 0.16395 -0.492736
328200 60.2883 151.787 55.8291 0.16405 0.00714054
328400 60.2883 151.8 55.8291 0.16415 0.508731
328600 60.2883 151.813 55.8291 0.16425 0.969846
328800 60.2883 151.826 55.8291 0.16435 1.36712
329000 60.2883 151.839 55.8291 0.16445 1.64987
329200 60.2883 151.852 55.8291 0.16455 1.69822
329400 60.2883 151.865 55.8291 0.16465 1.56171
329600 60.2883 151.878 55.8291 0.16475 1.23037
329800 60.2883 151.891 55.8291 0.16485 0.778177
330000 60.2883 151.904 55.8291 0.16495 0.21738
330200 60.2883 151.917 55.8291 0.16505 -0.248047
330400 60.2883 151.93 55.8291 0.16515 -0.66132
330600 60.2883 151.943 55.8291 0.16525 -1.00519
330800 60.2883 151.956 55.8291 0.16535 -1.23558
331000 60.2883 151.969 55.8291 0.16545 -1.35863
331200 60.2883 151.982 55.8291 0.16555 -1.32433
331400 60.2883 151.995 55.8291 0.16565 -1.23136
331600 60.2883 152.008 55.8291 0.16575 -0.995739
331800 60.2883 152.021 55.8291 0.16585 -0.666336
332000 60.2883 152.034 55.8291 0.16595 -0.237993
332200 60.2883 152.047 55.8291 0.16605 0.251651
332400 60.2883 152.06 55.8291 0.16615 0.714777
332600 60.2883 152.074 55.8291 0.16625 1.13915
332800 60.2883 152.087 55.8291 0.16635 1.43733
333000 60.2883 152.1 55.8291 0.16645 1.60057
333200 60.2883 152.113 55.8291 0.16655 1.53952
333400 60.2883 152.126 55.8291 0.16665 1.31851
333600 60.2883 152.139 55.8291 0.16675 0.950372
333800 60.2883 152.152 55.8291 0.16685 0.458412
334000 60.2883 152.165 55.8291 0.16695 0.00212041
334200 60.2883 152.178 55.8291 0.16705 -0.448454
334400 60.2883 152.191 55.8291 0.16715 -0.761836
334600 60.2883 152.204 55.8291 0.16725 -1.03275
334800 60.2883 152.217 55.8291 0.16735 -1.20915
335000 60.2883 152.23 55.8291 0.16745 -1.22171
335200 60.2883 152.243 55.8291 0.16755 -1.18646
335400 60.2883 152.256 55.8291 0.16765 -1.00716
335600 60.2883 152.269 55.8291 0.16775 -0.712146
335800 60.2883 152.282 55.8291 0.16785 -0.358152
336000 60.2883 152.295 55.8291 0.16795 0.107396
336200 60.2883 152.308 55.8291 0.16805 0.550038
336400 60.2883 152.321 55.8291 0.16815 0.964999
336600 60.2883 152.334 55.8291 0.16825 1.31482
336800 60.2883 152.347 55.8291 0.16835 1.47492
337000 60.2883 152.36 55.8291 0.16845 1.48323
337200 60.2883 152.373 55.8291 0.16855 1.32292
337400 60.2883 152.386 55.8291 0.16865 1.01452
337600 60.2883 152.4 55.8291 0.16875 0.625523
337800 60.2883 152.413 55.8291 0.16885 0.0939135
338000 60.2883 152.426 55.8291 0.16895 -0.288352
338200 60.2883 152.439 55.8291 0.16905 -0.696948
338400 60.2883 152.452 55.8291 0.16915 -0.956542
338600 60.2883 152.465 55.8291 0.16925 -1.12974
338800 60.2883 152.478 55.8291 0.16935 -1.21951
339000 60.2883 152.491 55.8291 0.16945 -1.17311
339200 60.2883 152.504 55.8291 0.16955 -1.01662
339400 60.2883 152.517 55.8291 0.16965 -0.782378
339600 60.2883 152.53 55.8291 0.16975 -0.447224
339800 60.2883 152.543 55.8291 0.16985 -0.0442253
340000 60.2883 152.556 55.8291 0.16995 0.446039
340200 60.2883 152.569 55.8291 0.17005 0.853146
340400 60.2883 152.582 55.8291 0.17015 1.2256
340600 60.2883 152.595 55.8291 0.17025 1.4508
340800 60.2883 152.608 55.8291 0.17035 1.47603
341000 60.2883 152.621 55.8291 0.17045 1.37649
341200 60.2883 152.634 55.8291 0.17055 1.11128
341400 60.2883 152.647 55.8291 0.17065 0.708626
341600 60.2883 152.66 55.8291 0.17075 0.320584
341800 60.2883 152.673 55.8291 0.17085 -0.161387
342000 60.2883 152.686 55.8291 0.17095 -0.521143
342200 60.2883 152.699 55.8291 0.17105 -0.852647
342400 60.2883 152.712 55.8291 0.17115 -1.04843
342600 60.2883 152.725 55.8291 0.17125 -1.12603
342800 60.2883 152.739 55.8291 0.17135 -1.10975
343000 60.2883 152.752 55.8291 0.17145 -1.03064
343200 60.2883 152.765 55.8291 0.17155 -0.801012
343400 60.2883 152.778 55.8291 0.17165 -0.518944
343600 60.2883 152.791 55.8291 0.17175 -0.0874225
343800 60.2883 152.804 55.8291 0.17185 0.293225
344000 60.2883 152.817 55.8291 0.17195 0.723311
344200 60.2883 152.83 55.8291 0.17205 1.09183
344400 60.2883 152.843 55.8291 0.17215 1.33096
344600 60.2883 152.856 55.8291 0.17225 1.40352
344800 60.2883 152.869 55.8291 0.17235 1.31272
345000 60.2883 152.882 55.8291 0.17245 1.07331
345200 60.2883 152.895 55.8291 0.17255 0.768228
345400 60.2883 152.908 55.8291 0.17265 0.353077
345600 60.2883 152.921 55.8291 0.17275 -0.0668723
345800 60.2883 152.934 55.8291 0.17285 -0.434646
346000 60.2883 152.947 55.8291 0.17295 -0.723736
346200 60.2883 152.96 55.8291 0.17305 -0.968115
346400 60.2883 152.973 55.8291 0.17315 -1.05545
346600 60.2883 152.986 55.8291 0.17325 -1.07373
346800 60.2883 152.999 55.8291 0.17335 -0.94028
347000 60.2883 153.012 55.8291 0.17345 -0.773855
347200 60.2883 153.025 55.8291 0.17355 -0.474938
347400 60.2883 153.038 55.8291 0.17365 -0.139777
347600 60.2883 153.051 55.8291 0.17375 0.281675
347800 60.2883 153.065 55.8291 0.17385 0.683801
348000 60.2883 153.078 55.8291 0.17395 1.00005
348200 60.2883 153.091 55.8291 0.17405 1.2886
348400 60.2883 153.104 55.8291 0.17415 1.3907
348600 60.2883 153.117 55.8291 0.17425 1.32405
348800 60.2883 153.13 55.8291 0.17435 1.14114
349000 60.2883 153.143 55.8291 0.17445 0.811818
349200 60.2883 153.156 55.8291 0.17455 0.396436
349400 60.2883 153.169 55.8291 0.17465 0.0192352
349600 60.2883 153.182 55.8291 0.17475 -0.36376
349800 60.2883 153.195 55.8291 0.17485 -0.686539
350000 60.2883 153.208 55.8291 0.17495 -0.907945
350200 60.2883 153.221 55.8291 0.17505 -0.993721
350400 60.2883 153.234 55.8291 0.17515 -1.0705
350600 60.2883 153.247 55.8291 0.17525 -1.01057
350800 60.2883 153.26 55.8291 0.17535 -0.782043
351000 60.2883 153.273 55.8291 0.17545 -0.535697
351200 60.2883 153.286 55.8291 0.17555 -0.188861
351400 60.2883 153.299 55.8291 0.17565 0.175616
351600 60.2883 153.312 55.8291 0.17575 0.570458
351800 60.2883 153.325 55.8291 0.17585 0.931762
352000 60.2883 153.338 55.8291 0.17595 1.17158
352200 60.2883 153.351 55.8291 0.17605 1.33794
352400 60.2883 153.364 55.8291 0.17615 1.32235
352600 60.2883 153.377 55.8291 0.17625 1.15552
352800 60.2883 153.391 55.8291 0.17635 0.850318
353000 60.2883 153.404 55.8291 0.17645 0.464021
353200 60.2883 153.417 55.8291 0.17655 0.102805
353400 60.2883 153.43 55.8291 0.17665 -0.248208
353600 60.2883 153.443 55.8291 0.17675 -0.558329
353800 60.2883 153.456 55.8291 0.17685 -0.772096
354000 60.2883 153.469 55.8291 0.17695 -0.945784
354200 60.2883 153.482 55.8291 0.17705 -0.949034
354400 60.2883 153.495 55.8291 0.17715 -0.910922
354600 60.2883 153.508 55.8291 0.17725 -0.769229
354800 60.2883 153.521 55.8291 0.17735 -0.496658
355000 60.2883 153.534 55.8291 0.17745 -0.230074
355200 60.2883 153.547 55.8291 0.17755 0.140039
355400 60.2883 153.56 55.8291 0.17765 0.536013
355600 60.2883 153.573 55.8291 0.17775 0.884168
355800 60.2883 153.586 55.8291 0.17785 1.15964
356000 60.2883 153.599 55.8291 0.17795 1.26337
356200 60.2883 153.612 55.8291 0.17805 1.27793
356400 60.2883 153.625 55.8291 0.17815 1.12754
356600 60.2883 153.638 55.8291 0.17825 0.833887
356800 60.2883 153.651 55.8291 0.17835 0.493023
357000 60.2883 153.664 55.8291 0.17845 0.141983
357200 60.2883 153.677 55.8291 0.17855 -0.210327
357400 60.2883 153.69 55.8291 0.17865 -0.538444
357600 60.2883 153.703 55.8291 0.17875 -0.772386
357800 60.2883 153.717 55.8291 0.17885 -0.922904
358000 60.2883 153.73 55.8291 0.17895 -0.968053
358200 60.2883 153.743 55.8291 0.17905 -0.904237
358400 60.2883 153.756 55.8291 0.17915 -0.76161
358600 60.2883 153.769 55.8291 0.17925 -0.523513
358800 60.2883 153.782 55.8291 0.17935 -0.242569
359000 60.2883 153.795 55.8291 0.17945 0.137651
359200 60.2883 153.808 55.8291 0.17955 0.512842
359400 60.2883 153.821 55.8291 0.17965 0.855962
359600 60.2883 153.834 55.8291 0.17975 1.14136
359800 60.2883 153.847 55.8291 0.17985 1.28992
360000 60.2883 153.86 55.8291 0.17995 1.30944
360200 60.2883 153.873 55.8291 0.18005 1.15658
360400 60.2883 153.886 55.8291 0.18015 0.917293
360600 60.2883 153.899 55.8291 0.18025 0.600882
360800 60.2883 153.912 55.8291 0.18035 0.193908
361000 60.2883 153.925 55.8291 0.18045 -0.154186
361200 60.2883 153.938 55.8291 0.18055 -0.459705
361400 60.2883 153.951 55.8291 0.18065 -0.702766
361600 60.2883 153.964 55.8291 0.18075 -0.865465
361800 60.2883 153.977 55.8291 0.18085 -0.909901
362000 60.2883 153.99 55.8291 0.18095 -0.877105
362200 60.2883 154.003 55.8291 0.18105 -0.735697
362400 60.2883 154.016 55.8291 0.18115 -0.532386
362600 60.2883 154.029 55.8291 0.18125 -0.248982
362800 60.2883 154.042 55.8291 0.18135 0.105474
363000 60.2883 154.056 55.8291 0.18145 0.444453
363200 60.2883 154.069 55.8291 0.18155 0.806753
363400 60.2883 154.082 55.8291 0.18165 1.08879
363600 60.2883 154.095 55.8291 0.18175 1.22361
363800 60.2883 154.108 55.8291 0.18185 1.27964
364000 60.2883 154.121 55.8291 0.18195 1.12712
364200 60.2883 154.134 55.8291 0.18205 0.868242
364400 60.2883 154.147 55.8291 0.18215 0.575179
364600 60.2883 154.16 55.8291 0.18225 0.235646
364800 60.2883 154.173 55.8291 0.18235 -0.12173
365000 60.2883 154.186 55.8291 0.18245 -0.424686
365200 60.2883 154.199 55.8291 0.18255 -0.652519
365400 60.2883 154.212 55.8291 0.18265 -0.833385
365600 60.2883 154.225 55.8291 0.18275 -0.855807
365800 60.2883 154.238 55.8291 0.18285 -0.824357
366000 60.2883 154.251 55.8291 0.18295 -0.711827
366200 60.2883 154.264 55.8291 0.18305 -0.460931
366400 60.2883 154.277 55.8291 0.18315 -0.234169
366600 60.2883 154.29 55.8291 0.18325 0.148673
366800 60.2883 154.303 55.8291 0.18335 0.482259
367000 60.2883 154.316 55.8291 0.18345 0.798892
367200 60.2883 154.329 55.8291 0.18355 1.10152
367400 60.2883 154.342 55.8291 0.18365 1.232
367600 60.2883 154.355 55.8291 0.18375 1.24004
367800 60.2883 154.368 55.8291 0.18385 1.11406
368000 60.2883 154.382 55.8291 0.18395 0.921738
368200 60.2883 154.395 55.8291 0.18405 0.613212
368400 60.2883 154.408 55.8291 0.18415 0.232013
368600 60.2883 154.421 55.8291 0.18425 -0.0757988
368800 60.2883 154.434 55.8291 0.18435 -0.37962
369000 60.2883 154.447 55.8291 0.18445 -0.649082
369200 60.2883 154.46 55.8291 0.18455 -0.772683
369400 60.2883 154.473 55.8291 0.18465 -0.839256
369600 60.2883 154.486 55.8291 0.18475 -0.811135
369800 60.2883 154.499 55.8291 0.18485 -0.67959
370000 60.2883 154.512 55.8291 0.18495 -0.469932
370200 60.2883 154.525 55.8291 0.18505 -0.225481
370400 60.2883 154.538 55.8291 0.18515 0.0935134
370600 60.2883 154.551 55.8291 0.18525 0.422551
370800 60.2883 154.564 55.8291 0.18535 0.756134
371000 60.2883 154.577 55.8291 0.18545 1.00328
371200 60.2883 154.59 55.8291 0.18555 1.16258
371400 60.2883 154.603 55.8291 0.18565 1.21208
371600 60.2883 154.616 55.8291 0.18575 1.10464
371800 60.2883 154.629 55.8291 0.18585 0.917749
372000 60.2883 154.642 55.8291 0.18595 0.597177
372200 60.2883 154.655 55.8291 0.18605 0.300462
372400 60.2883 154.668 55.8291 0.18615 -0.0331658
372600 60.2883 154.681 55.8291 0.18625 -0.280538
372800 60.2883 154.694 55.8291 0.18635 -0.541634
373000 60.2883 154.708 55.8291 0.18645 -0.691077
373200 60.2883 154.721 55.8291 0.18655 -0.81364
373400 60.2883 154.734 55.8291 0.18665 -0.827322
373600 60.2883 154.747 55.8291 0.18675 -0.752259
373800 60.2883 154.76 55.8291 0.18685 -0.615894
374000 60.2883 154.773 55.8291 0.18695 -0.400102
374200 60.2883 154.786 55.8291 0.18705 -0.13484
374400 60.2883 154.799 55.8291 0.18715 0.191974
374600 60.2883 154.812 55.8291 0.18725 0.492536
374800 60.2883 154.825 55.8291 0.18735 0.723155
375000 60.2883 154.838 55.8291 0.18745 0.908001
375200 60.2883 154.851 55.8291 0.18755 0.977961
375400 60.2883 154.864 55.8291 0.18765 0.961827
375600 60.2883 154.877 55.8291 0.18775 0.875799
375800 60.2883 154.89 55.8291 0.18785 0.692179
376000 60.2883 154.903 55.8291 0.18795 0.508925
376200 60.2883 154.916 55.8291 0.18805 0.207872
376400 60.2883 154.929 55.8291 0.18815 -0.0645041
376600 60.2883 154.942 55.8291 0.18825 -0.282892
376800 60.2883 154.955 55.8291 0.18835 -0.464363
377000 60.2883 154.968 55.8291 0.18845 -0.572831
377200 60.2883 154.981 55.8291 0.18855 -0.598185
377400 60.2883 154.994 55.8291 0.18865 -0.55337
377600 60.2883 155.007 55.8291 0.18875 -0.439005
377800 60.2883 155.02 55.8291 0.18885 -0.261132
378000 60.2883 155.033 55.8291 0.18895 -0.065174
378200 60.2883 155.047 55.8291 0.18905 0.216024
378400 60.2883 155.06 55.8291 0.18915 0.486445
378600 60.2883 155.073 55.8291 0.18925 0.740021
378800 60.2883 155.086 55.8291 0.18935 0.88874
379000 60.2883 155.099 55.8291 0.18945 1.01708
379200 60.2883 155.112 55.8291 0.18955 0.991497
379400 60.2883 155.125 55.8291 0.18965 0.913689
379600 60.2883 155.138 55.8291 0.18975 0.742431
379800 60.2883 155.151 55.8291 0.18985 0.47679
380000 60.2883 155.164 55.8291 0.18995 0.221967
380200 60.2883 155.177 55.8291 0.19005 -0.0166888
380400 60.2883 155.19 55.8291 0.19015 -0.269056
380600 60.2883 155.203 55.8291 0.19025 -0.42195
380800 60.2883 155.216 55.8291 0.19035 -0.521733
381000 60.2883 155.229 55.8291 0.19045 -0.634767
381200 60.2883 155.242 55.8291 0.19055 -0.610059
381400 60.2883 155.255 55.8291 0.19065 -0.558385
381600 60.2883 155.268 55.8291 0.19075 -0.45612
381800 60.2883 155.281 55.8291 0.19085 -0.263722
382000 60.2883 155.294 55.8291 0.19095 -0.0505426
382200 60.2883 155.307 55.8291 0.19105 0.203714
382400 60.2883 155.32 55.8291 0.19115 0.435181
382600 60.2883 155.333 55.8291 0.19125 0.628622
382800 60.2883 155.346 55.8291 0.19135 0.709998
383000 60.2883 155.359 55.8291 0.19145 0.754253
383200 60.2883 155.373 55.8291 0.19155 0.755721
383400 60.2883 155.386 55.8291 0.19165 0.718548
383600 60.2883 155.399 55.8291 0.19175 0.608039
383800 60.2883 155.412 55.8291 0.19185 0.418371
384000 60.2883 155.425 55.8291 0.19195 0.232358
384200 60.2883 155.438 55.8291 0.19205 0.0157442
384400 60.2883 155.451 55.8291 0.19215 -0.122552
384600 60.2883 155.464 55.8291 0.19225 -0.298866
384800 60.2883 155.477 55.8291 0.19235 -0.357477
385000 60.2883 155.49 55.8291 0.19245 -0.333366
385200 60.2883 155.503 55.8291 0.19255 -0.32644
385400 60.2883 155.516 55.8291 0.19265 -0.265691
385600 60.2883 155.529 55.8291 0.19275 -0.175445
385800 60.2883 155.542 55.8291 0.19285 -0.0620916
386000 60.2883 155.555 55.8291 0.19295 0.0559172
386200 60.2883 155.568 55.8291 0.19305 0.248456
386400 60.2883 155.581 55.8291 0.19315 0.376697
386600 60.2883 155.594 55.8291 0.19325 0.481309
386800 60.2883 155.607 55.8291 0.19335 0.527092
387000 60.2883 155.62 55.8291 0.19345 0.512398
387200 60.2883 155.633 55.8291 0.19355 0.421118
387400 60.2883 155.646 55.8291 0.19365 0.266958
387600 60.2883 155.659 55.8291 0.19375 0.165196
387800 60.2883 155.672 55.8291 0.19385 0.0481315
388000 60.2883 155.685 55.8291 0.19395 -0.0832876
388200 60.2883 155.699 55.8291 0.19405 -0.227484
388400 60.2883 155.712 55.8291 0.19415 -0.307915
388600 60.2883 155.725 55.8291 0.19425 -0.404293
388800 60.2883 155.738 55.8291 0.19435 -0.440284
389000 60.2883 155.751 55.8291 0.19445 -0.429074
389200 60.2883 155.764 55.8291 0.19455 -0.371365
389400 60.2883 155.777 55.8291 0.19465 -0.260445
389600 60.2883 155.79 55.8291 0.19475 -0.115388
389800 60.2883 155.803 55.8291 0.19485 -0.00660349
390000 60.2883 155.816 55.8291 0.19495 0.130628
390200 60.2883 155.829 55.8291 0.19505 0.270618
390400 60.2883 155.842 55.8291 0.19515 0.384296
390600 60.2883 155.855 55.8291 0.19525 0.436153
390800 60.2883 155.868 55.8291 0.19535 0.489875
391000 60.2883 155.881 55.8291 0.19545 0.479533
391200 60.2883 155.894 55.8291 0.19555 0.381635
391400 60.2883 155.907 55.8291 0.19565 0.258382
391600 60.2883 155.92 55.8291 0.19575 0.140632
391800 60.2883 155.933 55.8291 0.19585 0.0125666
392000 60.2883 155.946 55.8291 0.19595 -0.145266
392200 60.2883 155.959 55.8291 0.19605 -0.258736
392400 60.2883 155.972 55.8291 0.19615 -0.350246
392600 60.2883 155.985 55.8291 0.19625 -0.391591
392800 60.2883 155.998 55.8291 0.19635 -0.419054
393000 60.2883 156.011 55.8291 0.19645 -0.385416
393200 60.2883 156.024 55.8291 0.19655 -0.319054
393400 60.2883 156.038 55.8291 0.19665 -0.238541
393600 60.2883 156.051 55.8291 0.19675 -0.100793
393800 60.2883 156.064 55.8291 0.19685 0.0277114
394000 60.2883 156.077 55.8291 0.19695 0.181357
394200 60.2883 156.09 55.8291 0.19705 0.308966
394400 60.2883 156.103 55.8291 0.19715 0.40066
394600 60.2883 156.116 55.8291 0.19725 0.420129
394800 60.2883 156.129 55.8291 0.19735 0.445983
395000 60.2883 156.142 55.8291 0.19745 0.43423
395200 60.2883 156.155 55.8291 0.19755 0.364375
395400 60.2883 156.168 55.8291 0.19765 0.235869
395600 60.2883 156.181 55.8291 0.19775 0.0984673
395800 60.2883 156.194 55.8291 0.19785 -0.0281705
396000 60.2883 156.207 55.8291 0.19795 -0.177645
396200 60.2883 156.22 55.8291 0.19805 -0.283428
396400 60.2883 156.233 55.8291 0.19815 -0.359545
396600 60.2883 156.246 55.8291 0.19825 -0.415819
396800 60.2883 156.259 55.8291 0.19835 -0.396642
397000 60.2883 156.272 55.8291 0.19845 -0.367982
397200 60.2883 156.285 55.8291 0.19855 -0.297962
397400 60.2883 156.298 55.8291 0.19865 -0.175769
397600 60.2883 156.311 55.8291 0.19875 -0.0960927
397800 60.2883 156.324 55.8291 0.19885 0.0594709
398000 60.2883 156.337 55.8291 0.19895 0.193916
398200 60.2883 156.35 55.8291 0.19905 0.346976
398400 60.2883 156.364 55.8291 0.19915 0.427231
398600 60.2883 156.377 55.8291 0.19925 0.444056
398800 60.2883 156.39 55.8291 0.19935 0.457255
399000 60.2883 156.403 55.8291 0.19945 0.390904
399200 60.2883 156.416 55.8291 0.19955 0.311214
399400 60.2883 156.429 55.8291 0.19965 0.184621
399600 60.2883 156.442 55.8291 0.19975 0.0645013
399800 60.2883 156.455 55.8291 0.19985 -0.0465479
400000 60.2883 156.468 55.8291 0.19995 -0.220352
400200 60.2883 156.481 55.8291 0.20005 -0.297226
400400 60.2883 156.494 55.8291 0.20015 -0.367267
400600 60.2883 156.507 55.8291 0.20025 -0.405122
400800 60.2883 156.52 55.8291 0.20035 -0.440768
401000 60.2883 156.533 55.8291 0.20045 -0.3287
401200 60.2883 156.546 55.8291 0.20055 -0.244253
401400 60.2883 156.559 55.8291 0.20065 -0.153412
401600 60.2883 156.572 55.8291 0.20075 0.00567021
401800 60.2883 156.585 55.8291 0.20085 0.109555
402000 60.2883 156.598 55.8291 0.20095 0.222187
402200 60.2883 156.611 55.8291 0.20105 0.332331
402400 60.2883 156.624 55.8291 0.20115 0.422238
402600 60.2883 156.637 55.8291 0.20125 0.453947
402800 60.2883 156.65 55.8291 0.20135 0.433936
403000 60.2883 156.663 55.8291 0.20145 0.357979
403200 60.2883 156.676 55.8291 0.20155 0.271602
403400 60.2883 156.69 55.8291 0.20165 0.135122
403600 60.2883 156.703 55.8291 0.20175 0.0124836
403800 60.2883 156.716 55.8291 0.20185 -0.117733
404000 60.2883 156.729 55.8291 0.20195 -0.235125
404200 60.2883 156.742 55.8291 0.20205 -0.342652
404400 60.2883 156.755 55.8291 0.20215 -0.371653
404600 60.2883 156.768 55.8291 0.20225 -0.405417
404800 60.2883 156.781 55.8291 0.20235 -0.385606
405000 60.2883 156.794 55.8291 0.20245 -0.308761
405200 60.2883 156.807 55.8291 0.20255 -0.20878
405400 60.2883 156.82 55.8291 0.20265 -0.102924
405600 60.2883 156.833 55.8291 0.20275 0.0285423
405800 60.2883 156.846 55.8291 0.20285 0.160675
406000 60.2883 156.859 55.8291 0.20295 0.284015
406200 60.2883 156.872 55.8291 0.20305 0.364373
406400 60.2883 156.885 55.8291 0.20315 0.397777
406600 60.2883 156.898 55.8291 0.20325 0.451822
406800 60.2883 156.911 55.8291 0.20335 0.384986
407000 60.2883 156.924 55.8291 0.20345 0.334123
407200 60.2883 156.937 55.8291 0.20355 0.230114
407400 60.2883 156.95 55.8291 0.20365 0.0935197
407600 60.2883 156.963 55.8291 0.20375 -0.0303477
407800 60.2883 156.976 55.8291 0.20385 -0.167023
408000 60.2883 156.989 55.8291 0.20395 -0.258007
408200 60.2883 157.002 55.8291 0.20405 -0.357954
408400 60.2883 157.016 55.8291 0.20415 -0.365175
408600 60.2883 157.029 55.8291 0.20425 -0.382419
408800 60.2883 157.042 55.8291 0.20435 -0.376832
409000 60.2883 157.055 55.8291 0.20445 -0.287713
409200 60.2883 157.068 55.8291 0.20455 -0.187933
409400 60.2883 157.081 55.8291 0.20465 -0.0699434
409600 60.2883 157.094 55.8291 0.20475 0.0843663
409800 60.2883 157.107 55.8291 0.20485 0.20622
410000 60.2883 157.12 55.8291 0.20495 0.302955
410200 60.2883 157.133 55.8291 0.20505 0.388614
410400 60.2883 157.146 55.8291 0.20515 0.409087
410600 60.2883 157.159 55.8291 0.20525 0.420964
410800 60.2883 157.172 55.8291 0.20535 0.34854
411000 60.2883 157.185 55.8291 0.20545 0.287242
411200 60.2883 157.198 55.8291 0.20555 0.171752
411400 60.2883 157.211 55.8291 0.20565 0.053905
411600 60.2883 157.224 55.8291 0.20575 -0.065959
411800 60.2883 157.237 55.8291 0.20585 -0.217574
412000 60.2883 157.25 55.8291 0.20595 -0.315917
412200 60.2883 157.263 55.8291 0.20605 -0.352605
412400 60.2883 157.276 55.8291 0.20615 -0.385153
412600 60.2883 157.289 55.8291 0.20625 -0.36974
412800 60.2883 157.302 55.8291 0.20635 -0.278565
413000 60.2883 157.315 55.8291 0.20645 -0.227275
413200 60.2883 157.328 55.8291 0.20655 -0.134674
413400 60.2883 157.341 55.8291 0.20665 -0.0230643
413600 60.2883 157.355 55.8291 0.20675 0.102962
413800 60.2883 157.368 55.8291 0.20685 0.231019
414000 60.2883 157.381 55.8291 0.20695 0.329485
414200 60.2883 157.394 55.8291 0.20705 0.393191
414400 60.2883 157.407 55.8291 0.20715 0.411089
414600 60.2883 157.42 55.8291 0.20725 0.407313
414800 60.2883 157.433 55.8291 0.20735 0.326516
415000 60.2883 157.446 55.8291 0.20745 0.231618
415200 60.2883 157.459 55.8291 0.20755 0.105436
415400 60.2883 157.472 55.8291 0.20765 0.00137751
415600 60.2883 157.485 55.8291 0.20775 -0.121282
415800 60.2883 157.498 55.8291 0.20785 -0.214438
416000 60.2883 157.511 55.8291 0.20795 -0.303662
416200 60.2883 157.524 55.8291 0.20805 -0.37328
416400 60.2883 157.537 55.8291 0.20815 -0.363334
416600 60.2883 157.55 55.8291 0.20825 -0.337777
416800 60.2883 157.563 55.8291 0.20835 -0.28754
417000 60.2883 157.576 55.8291 0.20845 -0.203604
417200 60.2883 157.589 55.8291 0.20855 -0.102616
417400 60.2883 157.602 55.8291 0.20865 0.0100451
417600 60.2883 157.615 55.8291 0.20875 0.147676
417800 60.2883 157.628 55.8291 0.20885 0.252765
418000 60.2883 157.641 55.8291 0.20895 0.359831
418200 60.2883 157.654 55.8291 0.20905 0.402036
418400 60.2883 157.667 55.8291 0.20915 0.378684
418600 60.2883 157.681 55.8291 0.20925 0.365575
418800 60.2883 157.694 55.8291 0.20935 0.286946
419000 60.2883 157.707 55.8291 0.20945 0.192159
419200 60.2883 157.72 55.8291 0.20955 0.0811922
419400 60.2883 157.733 55.8291 0.20965 -0.0192762
419600 60.2883 157.746 55.8291 0.20975 -0.150416
419800 60.2883 157.759 55.8291 0.20985 -0.260686
420000 60.2883 157.772 55.8291 0.20995 -0.310513
420200 60.2883 157.785 55.8291 0.21005 -0.364282
420400 60.2883 157.798 55.8291 0.21015 -0.335129
420600 60.2883 157.811 55.8291 0.21025 -0.306218
420800 60.2883 157.824 55.8291 0.21035 -0.255573
421000 60.2883 157.837 55.8291 0.21045 -0.173829
421200 60.2883 157.85 55.8291 0.21055 -0.0267803
421400 60.2883 157.863 55.8291 0.21065 0.0475515
421600 60.2883 157.876 55.8291 0.21075 0.168355
421800 60.2883 157.889 55.8291 0.21085 0.266669
422000 60.2883 157.902 55.8291 0.21095 0.371051
422200 60.2883 157.915 55.8291 0.21105 0.385522
422400 60.2883 157.928 55.8291 0.21115 0.392779
422600 60.2883 157.941 55.8291 0.21125 0.313814
422800 60.2883 157.954 55.8291 0.21135 0.226112
423000 60.2883 157.967 55.8291 0.21145 0.160142
423200 60.2883 157.98 55.8291 0.21155 0.043993
423400 60.2883 157.993 55.8291 0.21165 -0.0779011
423600 60.2883 158.007 55.8291 0.21175 -0.179943
423800 60.2883 158.02 55.8291 0.21185 -0.281624
424000 60.2883 158.033 55.8291 0.21195 -0.326504
424200 60.2883 158.046 55.8291 0.21205 -0.352678
424400 60.2883 158.059 55.8291 0.21215 -0.346784
424600 60.2883 158.072 55.8291 0.21225 -0.270172
424800 60.2883 158.085 55.8291 0.21235 -0.201821
425000 60.2883 158.098 55.8291 0.21245 -0.120291
425200 60.2883 158.111 55.8291 0.21255 -0.00366442
425400 60.2883 158.124 55.8291 0.21265 0.105211
425600 60.2883 158.137 55.8291 0.21275 0.2267
425800 60.2883 158.15 55.8291 0.21285 0.293894
426000 60.2883 158.163 55.8291 0.21295 0.37072
426200 60.2883 158.176 55.8291 0.21305 0.377298
426400 60.2883 158.189 55.8291 0.21315 0.345741
426600 60.2883 158.202 55.8291 0.21325 0.283659
426800 60.2883 158.215 55.8291 0.21335 0.209628
427000 60.2883 158.228 55.8291 0.21345 0.0702302
427200 60.2883 158.241 55.8291 0.21355 0.0210363
427400 60.2883 158.254 55.8291 0.21365 -0.116291
427600 60.2883 158.267 55.8291 0.21375 -0.216645
427800 60.2883 158.28 55.8291 0.21385 -0.285759
428000 60.2883 158.293 55.8291 0.21395 -0.314026
428200 60.2883 158.306 55.8291 0.21405 -0.335094
428400 60.2883 158.319 55.8291 0.21415 -0.313155
428600 60.2883 158.332 55.8291 0.21425 -0.22808
428800 60.2883 158.346 55.8291 0.21435 -0.171054
429000 60.2883 158.359 55.8291 0.21445 -0.0963127
429200 60.2883 158.372 55.8291 0.21455 0.0549559
429400 60.2883 158.385 55.8291 0.21465 0.132698
429600 60.2883 158.398 55.8291 0.21475 0.237528
429800 60.2883 158.411 55.8291 0.21485 0.307181
430000 60.2883 158.424 55.8291 0.21495 0.350253
430200 60.2883 158.437 55.8291 0.21505 0.341797
430400 60.2883 158.45 55.8291 0.21515 0.309643
430600 60.2883 158.463 55.8291 0.21525 0.246649
430800 60.2883 158.476 55.8291 0.21535 0.182454
431000 60.2883 158.489 55.8291 0.21545 0.0296304
431200 60.2883 158.502 55.8291 0.21555 -0.0424058
431400 60.2883 158.515 55.8291 0.21565 -0.118642
431600 60.2883 158.528 55.8291 0.21575 -0.241423
431800 60.2883 158.541 55.8291 0.21585 -0.285328
432000 60.2883 158.554 55.8291 0.21595 -0.311603
432200 60.2883 158.567 55.8291 0.21605 -0.324054
432400 60.2883 158.58 55.8291 0.21615 -0.276159
432600 60.2883 158.593 55.8291 0.21625 -0.219263
432800 60.2883 158.606 55.8291 0.21635 -0.129561
433000 60.2883 158.619 55.8291 0.21645 -0.0134295
433200 60.2883 158.632 55.8291 0.21655 0.0689131
433400 60.2883 158.645 55.8291 0.21665 0.155076
433600 60.2883 158.658 55.8291 0.21675 0.253962
433800 60.2883 158.672 55.8291 0.21685 0.301625
434000 60.2883 158.685 55.8291 0.21695 0.366645
434200 60.2883 158.698 55.8291 0.21705 0.347994
434400 60.2883 158.711 55.8291 0.21715 0.290525
434600 60.2883 158.724 55.8291 0.21725 0.207652
434800 60.2883 158.737 55.8291 0.21735 0.0940263
435000 60.2883 158.75 55.8291 0.21745 0.027666
435200 60.2883 158.763 55.8291 0.21755 -0.0825137
435400 60.2883 158.776 55.8291 0.21765 -0.170973
435600 60.2883 158.789 55.8291 0.21775 -0.230083
435800 60.2883 158.802 55.8291 0.21785 -0.278998
436000 60.2883 158.815 55.8291 0.21795 -0.311026
436200 60.2883 158.828 55.8291 0.21805 -0.317242
436400 60.2883 158.841 55.8291 0.21815 -0.266864
436600 60.2883 158.854 55.8291 0.21825 -0.207255
436800 60.2883 158.867 55.8291 0.21835 -0.0635095
437000 60.2883 158.88 55.8291 0.21845 0.0239398
437200 60.2883 158.893 55.8291 0.21855 0.103866
437400 60.2883 158.906 55.8291 0.21865 0.187887
437600 60.2883 158.919 55.8291 0.21875 0.267119
437800 60.2883 158.932 55.8291 0.21885 0.320438
438000 60.2883 158.945 55.8291 0.21895 0.320319
438200 60.2883 158.958 55.8291 0.21905 0.301887
438400 60.2883 158.971 55.8291 0.21915 0.271611
438600 60.2883 158.984 55.8291 0.21925 0.220924
438800 60.2883 158.998 55.8291 0.21935 0.0653659
439000 60.2883 159.011 55.8291 0.21945 -0.0311241
439200 60.2883 159.024 55.8291 0.21955 -0.109588
439400 60.2883 159.037 55.8291 0.21965 -0.204314
439600 60.2883 159.05 55.8291 0.21975 -0.245457
439800 60.2883 159.063 55.8291 0.21985 -0.283649
440000 60.2883 159.076 55.8291 0.21995 -0.287822
440200 60.2883 159.089 55.8291 0.22005 -0.278805
440400 60.2883 159.102 55.8291 0.22015 -0.218534
440600 60.2883 159.115 55.8291 0.22025 -0.171434
440800 60.2883 159.128 55.8291 0.22035 -0.0789155
441000 60.2883 159.141 55.8291 0.22045 0.0584208
441200 60.2883 159.154 55.8291 0.22055 0.122919
441400 60.2883 159.167 55.8291 0.22065 0.230781
441600 60.2883 159.18 55.8291 0.22075 0.28471
441800 60.2883 159.193 55.8291 0.22085 0.315957
442000 60.2883 159.206 55.8291 0.22095 0.335075
442200 60.2883 159.219 55.8291 0.22105 0.294432
442400 60.2883 159.232 55.8291 0.22115 0.219053
442600 60.2883 159.245 55.8291 0.22125 0.14638
442800 60.2883 159.258 55.8291 0.22135 0.0352068
443000 60.2883 159.271 55.8291 0.22145 -0.0330352
443200 60.2883 159.284 55.8291 0.22155 -0.148828
443400 60.2883 159.297 55.8291 0.22165 -0.240115
443600 60.2883 159.31 55.8291 0.22175 -0.272542
443800 60.2883 159.323 55.8291 0.22185 -0.286577
444000 60.2883 159.337 55.8291 0.22195 -0.284125
444200 60.2883 159.35 55.8291 0.22205 -0.243087
444400 60.2883 159.363 55.8291 0.22215 -0.219049
444600 60.2883 159.376 55.8291 0.22225 -0.123956
444800 60.2883 159.389 55.8291 0.22235 -0.029062
445000 60.2883 159.402 55.8291 0.22245 0.0871915
445200 60.2883 159.415 55.8291 0.22255 0.179902
445400 60.2883 159.428 55.8291 0.22265 0.254724
445600 60.2883 159.441 55.8291 0.22275 0.317943
445800 60.2883 159.454 55.8291 0.22285 0.316133
446000 60.2883 159.467 55.8291 0.22295 0.280396
446200 60.2883 159.48 55.8291 0.22305 0.250909
446400 60.2883 159.493 55.8291 0.22315 0.211206
446600 60.2883 159.506 55.8291 0.22325 0.127282
446800 60.2883 159.519 55.8291 0.22335 0.0112914
447000 60.2883 159.532 55.8291 0.22345 -0.0858044
447200 60.2883 159.545 55.8291 0.22355 -0.191565
447400 60.2883 159.558 55.8291 0.22365 -0.240081
447600 60.2883 159.571 55.8291 0.22375 -0.278968
447800 60.2883 159.584 55.8291 0.22385 -0.276495
448000 60.2883 159.597 55.8291 0.22395 -0.259541
448200 60.2883 159.61 55.8291 0.22405 -0.240911
448400 60.2883 159.623 55.8291 0.22415 -0.170586
448600 60.2883 159.636 55.8291 0.22425 -0.0845907
448800 60.2883 159.649 55.8291 0.22435 0.00940806
449000 60.2883 159.663 55.8291 0.22445 0.121617
449200 60.2883 159.676 55.8291 0.22455 0.202467
449400 60.2883 159.689 55.8291 0.22465 0.257788
449600 60.2883 159.702 55.8291 0.22475 0.29427
449800 60.2883 159.715 55.8291 0.22485 0.285815
450000 60.2883 159.728 55.8291 0.22495 0.279772
450200 60.2883 159.741 55.8291 0.22505 0.253014
450400 60.2883 159.754 55.8291 0.22515 0.159095
450600 60.2883 159.767 55.8291 0.22525 0.0521692
450800 60.2883 159.78 55.8291 0.22535 -0.0227245
451000 60.2883 159.793 55.8291 0.22545 -0.118964
451200 60.2883 159.806 55.8291 0.22555 -0.204257
451400 60.2883 159.819 55.8291 0.22565 -0.255881
451600 60.2883 159.832 55.8291 0.22575 -0.251693
451800 60.2883 159.845 55.8291 0.22585 -0.280927
452000 60.2883 159.858 55.8291 0.22595 -0.229933
452200 60.2883 159.871 55.8291 0.22605 -0.222894
452400 60.2883 159.884 55.8291 0.22615 -0.112461
452600 60.2883 159.897 55.8291 0.22625 -0.041365
452800 60.2883 159.91 55.8291 0.22635 0.0369652
453000 60.2883 159.923 55.8291 0.22645 0.143767
453200 60.2883 159.936 55.8291 0.22655 0.230225
453400 60.2883 159.949 55.8291 0.22665 0.276434
453600 60.2883 159.962 55.8291 0.22675 0.299935
453800 60.2883 159.975 55.8291 0.22685 0.301682
454000 60.2883 159.989 55.8291 0.22695 0.250397
454200 60.2883 160.002 55.8291 0.22705 0.192798
454400 60.2883 160.015 55.8291 0.22715 0.125322
454600 60.2883 160.028 55.8291 0.22725 0.0283358
454800 60.2883 160.041 55.8291 0.22735 -0.0556521
455000 60.2883 160.054 55.8291 0.22745 -0.147315
455200 60.2883 160.067 55.8291 0.22755 -0.199081
455400 60.2883 160.08 55.8291 0.22765 -0.276764
455600 60.2883 160.093 55.8291 0.22775 -0.294761
455800 60.2883 160.106 55.8291 0.22785 -0.269917
456000 60.2883 160.119 55.8291 0.22795 -0.234141
456200 60.2883 160.132 55.8291 0.22805 -0.15027
456400 60.2883 160.145 55.8291 0.22815 -0.0923383
456600 60.2883 160.158 55.8291 0.22825 -0.0166465
456800 60.2883 160.171 55.8291 0.22835 0.0768546
457000 60.2883 160.184 55.8291 0.22845 0.149992
457200 60.2883 160.197 55.8291 0.22855 0.24644
457400 60.2883 160.21 55.8291 0.22865 0.288956
457600 60.2883 160.223 55.8291 0.22875 0.303261
457800 60.2883 160.236 55.8291 0.22885 0.299466
458000 60.2883 160.249 55.8291 0.22895 0.237374
458200 60.2883 160.262 55.8291 0.22905 0.177469
458400 60.2883 160.275 55.8291 0.22915 0.0837298
458600 60.2883 160.288 55.8291 0.22925 -0.0236138
458800 60.2883 160.301 55.8291 0.22935 -0.0880417
459000 60.2883 160.315 55.8291 0.22945 -0.176957
459200 60.2883 160.328 55.8291 0.22955 -0.207466
459400 60.2883 160.341 55.8291 0.22965 -0.257951
459600 60.2883 160.354 55.8291 0.22975 -0.289314
459800 60.2883 160.367 55.8291 0.22985 -0.241487
460000 60.2883 160.38 55.8291 0.22995 -0.211751
460200 60.2883 160.393 55.8291 0.23005 -0.148481
460400 60.2883 160.406 55.8291 0.23015 -0.0773834
460600 60.2883 160.419 55.8291 0.23025 0.0310119
460800 60.2883 160.432 55.8291 0.23035 0.115249
461000 60.2883 160.445 55.8291 0.23045 0.228579
461200 60.2883 160.458 55.8291 0.23055 0.237801
461400 60.2883 160.471 55.8291 0.23065 0.299158
461600 60.2883 160.484 55.8291 0.23075 0.289488
461800 60.2883 160.497 55.8291 0.23085 0.28359
462000 60.2883 160.51 55.8291 0.23095 0.198514
462200 60.2883 160.523 55.8291 0.23105 0.132772
462400 60.2883 160.536 55.8291 0.23115 0.0368546
462600 60.2883 160.549 55.8291 0.23125 -0.0557314
462800 60.2883 160.562 55.8291 0.23135 -0.114016
463000 60.2883 160.575 55.8291 0.23145 -0.207079
463200 60.2883 160.588 55.8291 0.23155 -0.244611
463400 60.2883 160.601 55.8291 0.23165 -0.28504
463600 60.2883 160.614 55.8291 0.23175 -0.281546
463800 60.2883 160.627 55.8291 0.23185 -0.21285
464000 60.2883 160.64 55.8291 0.23195 -0.178224
464200 60.2883 160.654 55.8291 0.23205 -0.113518
464400 60.2883 160.667 55.8291 0.23215 -0.0141256
464600 60.2883 160.68 55.8291 0.23225 0.0645761
464800 60.2883 160.693 55.8291 0.23235 0.164789
465000 60.2883 160.706 55.8291 0.23245 0.217025
465200 60.2883 160.719 55.8291 0.23255 0.258446
465400 60.2883 160.732 55.8291 0.23265 0.305784
465600 60.2883 160.745 55.8291 0.23275 0.286513
465800 60.2883 160.758 55.8291 0.23285 0.263185
466000 60.2883 160.771 55.8291 0.23295 0.193799
466200 60.2883 160.784 55.8291 0.23305 0.0672289
466400 60.2883 160.797 55.8291 0.23315 0.00445063
466600 60.2883 160.81 55.8291 0.23325 -0.0767604
466800 60.2883 160.823 55.8291 0.23335 -0.157454
467000 60.2883 160.836 55.8291 0.23345 -0.211827
467200 60.2883 160.849 55.8291 0.23355 -0.264928
467400 60.2883 160.862 55.8291 0.23365 -0.270122
467600 60.2883 160.875 55.8291 0.23375 -0.255779
467800 60.2883 160.888 55.8291 0.23385 -0.197598
468000 60.2883 160.901 55.8291 0.23395 -0.161647
468200 60.2883 160.914 55.8291 0.23405 -0.0662279
468400 60.2883 160.927 55.8291 0.23415 0.0212243
468600 60.2883 160.94 55.8291 0.23425 0.111923
468800 60.2883 160.953 55.8291 0.23435 0.162363
469000 60.2883 160.966 55.8291 0.23445 0.257511
469200 60.2883 160.98 55.8291 0.23455 0.266205
469400 60.2883 160.993 55.8291 0.23465 0.277749
469600 60.2883 161.006 55.8291 0.23475 0.252283
469800 60.2883 161.019 55.8291 0.23485 0.214371
470000 60.2883 161.032 55.8291 0.23495 0.148392
470200 60.2883 161.045 55.8291 0.23505 0.0454644
470400 60.2883 161.058 55.8291 0.23515 -0.0184574
470600 60.2883 161.071 55.8291 0.23525 -0.118172
470800 60.2883 161.084 55.8291 0.23535 -0.176856
471000 60.2883 161.097 55.8291 0.23545 -0.251818
471200 60.2883 161.11 55.8291 0.23555 -0.246762
471400 60.2883 161.123 55.8291 0.23565 -0.241709
471600 60.2883 161.136 55.8291 0.23575 -0.225894
471800 60.2883 161.149 55.8291 0.23585 -0.178703
472000 60.2883 161.162 55.8291 0.23595 -0.121818
472200 60.2883 161.175 55.8291 0.23605 -0.0318419
472400 60.2883 161.188 55.8291 0.23615 0.0414175
472600 60.2883 161.201 55.8291 0.23625 0.125305
472800 60.2883 161.214 55.8291 0.23635 0.22564
473000 60.2883 161.227 55.8291 0.23645 0.247345
473200 60.2883 161.24 55.8291 0.23655 0.266504
473400 60.2883 161.253 55.8291 0.23665 0.273625
473600 60.2883 161.266 55.8291 0.23675 0.23696
473800 60.2883 161.279 55.8291 0.23685 0.184359
474000 60.2883 161.292 55.8291 0.23695 0.106684
474200 60.2883 161.306 55.8291 0.23705 0.0382806
474400 60.2883 161.319 55.8291 0.23715 -0.041399
474600 60.2883 161.332 55.8291 0.23725 -0.149804
474800 60.2883 161.345 55.8291 0.23735 -0.198824
475000 60.2883 161.358 55.8291 0.23745 -0.259438
475200 60.2883 161.371 55.8291 0.23755 -0.257587
475400 60.2883 161.384 55.8291 0.23765 -0.240035
475600 60.2883 161.397 55.8291 0.23775 -0.20395
475800 60.2883 161.41 55.8291 0.23785 -0.184176
476000 60.2883 161.423 55.8291 0.23795 -0.0782164
476200 60.2883 161.436 55.8291 0.23805 -0.00693585
476400 60.2883 161.449 55.8291 0.23815 0.0755028
476600 60.2883 161.462 55.8291 0.23825 0.165416
476800 60.2883 161.475 55.8291 0.23835 0.221487
477000 60.2883 161.488 55.8291 0.23845 0.266506
477200 60.2883 161.501 55.8291 0.23855 0.273531
477400 60.2883 161.514 55.8291 0.23865 0.259458
477600 60.2883 161.527 55.8291 0.23875 0.218894
477800 60.2883 161.54 55.8291 0.23885 0.146046
478000 60.2883 161.553 55.8291 0.23895 0.0932541
478200 60.2883 161.566 55.8291 0.23905 -0.000925677
478400 60.2883 161.579 55.8291 0.23915 -0.0994123
478600 60.2883 161.592 55.8291 0.23925 -0.153003
478800 60.2883 161.605 55.8291 0.23935 -0.229217
479000 60.2883 161.618 55.8291 0.23945 -0.247493
479200 60.2883 161.631 55.8291 0.23955 -0.236135
479400 60.2883 161.645 55.8291 0.23965 -0.218842
479600 60.2883 161.658 55.8291 0.23975 -0.200134
479800 60.2883 161.671 55.8291 0.23985 -0.146524
480000 60.2883 161.684 55.8291 0.23995 -0.045025
480200 60.2883 161.697 55.8291 0.24005 0.0227937
480400 60.2883 161.71 55.8291 0.24015 0.0937082
480600 60.2883 161.723 55.8291 0.24025 0.220107
480800 60.2883 161.736 55.8291 0.24035 0.213556
481000 60.2883 161.749 55.8291 0.24045 0.296887
481200 60.2883 161.762 55.8291 0.24055 0.235908
481400 60.2883 161.775 55.8291 0.24065 0.24853
481600 60.2883 161.788 55.8291 0.24075 0.179805
481800 60.2883 161.801 55.8291 0.24085 0.121396
482000 60.2883 161.814 55.8291 0.24095 0.0841201
482200 60.2883 161.827 55.8291 0.24105 -0.0697311
482400 60.2883 161.84 55.8291 0.24115 -0.112582
482600 60.2883 161.853 55.8291 0.24125 -0.183614
482800 60.2883 161.866 55.8291 0.24135 -0.228201
483000 60.2883 161.879 55.8291 0.24145 -0.264258
483200 60.2883 161.892 55.8291 0.24155 -0.230769
483400 60.2883 161.905 55.8291 0.24165 -0.231861
483600 60.2883 161.918 55.8291 0.24175 -0.15776
483800 60.2883 161.931 55.8291 0.24185 -0.0969243
484000 60.2883 161.944 55.8291 0.24195 -0.0494407
484200 60.2883 161.957 55.8291 0.24205 0.0728445
484400 60.2883 161.971 55.8291 0.24215 0.132798
484600 60.2883 161.984 55.8291 0.24225 0.221149
484800 60.2883 161.997 55.8291 0.24235 0.251582
485000 60.2883 162.01 55.8291 0.24245 0.268094
485200 60.2883 162.023 55.8291 0.24255 0.242236
485400 60.2883 162.036 55.8291 0.24265 0.240882
485600 60.2883 162.049 55.8291 0.24275 0.17141
485800 60.2883 162.062 55.8291 0.24285 0.0784397
486000 60.2883 162.075 55.8291 0.24295 0.0206083
486200 60.2883 162.088 55.8291 0.24305 -0.0469521
486400 60.2883 162.101 55.8291 0.24315 -0.154921
486600 60.2883 162.114 55.8291 0.24325 -0.22065
486800 60.2883 162.127 55.8291 0.24335 -0.233014
487000 60.2883 162.14 55.8291 0.24345 -0.229414
487200 60.2883 162.153 55.8291 0.24355 -0.223171
487400 60.2883 162.166 55.8291 0.24365 -0.205228
487600 60.2883 162.179 55.8291 0.24375 -0.145749
487800 60.2883 162.192 55.8291 0.24385 -0.0715321
488000 60.2883 162.205 55.8291 0.24395 0.0135143
488200 60.2883 162.218 55.8291 0.24405 0.0858895
488400 60.2883 162.231 55.8291 0.24415 0.162275
488600 60.2883 162.244 55.8291 0.24425 0.236403
488800 60.2883 162.257 55.8291 0.24435 0.238179
489000 60.2883 162.27 55.8291 0.24445 0.280385
489200 60.2883 162.283 55.8291 0.24455 0.221411
489400 60.2883 162.297 55.8291 0.24465 0.192204
489600 60.2883 162.31 55.8291 0.24475 0.145462
489800 60.2883 162.323 55.8291 0.24485 0.0505411
490000 60.2883 162.336 55.8291 0.24495 0.00260298
490200 60.2883 162.349 55.8291 0.24505 -0.1082
490400 60.2883 162.362 55.8291 0.24515 -0.165708
490600 60.2883 162.375 55.8291 0.24525 -0.236953
490800 60.2883 162.388 55.8291 0.24535 -0.239877
491000 60.2883 162.401 55.8291 0.24545 -0.25284
491200 60.2883 162.414 55.8291 0.24555 -0.213702
491400 60.2883 162.427 55.8291 0.24565 -0.166845
491600 60.2883 162.44 55.8291 0.24575 -0.0916241
491800 60.2883 162.453 55.8291 0.24585 -0.014974
492000 60.2883 162.466 55.8291 0.24595 0.039656
492200 60.2883 162.479 55.8291 0.24605 0.11176
492400 60.2883 162.492 55.8291 0.24615 0.184038
492600 60.2883 162.505 55.8291 0.24625 0.247375
492800 60.2883 162.518 55.8291 0.24635 0.246285
493000 60.2883 162.531 55.8291 0.24645 0.277351
493200 60.2883 162.544 55.8291 0.24655 0.198575
493400 60.2883 162.557 55.8291 0.24665 0.177524
493600 60.2883 162.57 55.8291 0.24675 0.0951323
493800 60.2883 162.583 55.8291 0.24685 0.00615027
494000 60.2883 162.596 55.8291 0.24695 -0.0486697
494200 60.2883 162.609 55.8291 0.24705 -0.101562
494400 60.2883 162.622 55.8291 0.24715 -0.184804
494600 60.2883 162.636 55.8291 0.24725 -0.213724
494800 60.2883 162.649 55.8291 0.24735 -0.24334
495000 60.2883 162.662 55.8291 0.24745 -0.231845
495200 60.2883 162.675 55.8291 0.24755 -0.200027
495400 60.2883 162.688 55.8291 0.24765 -0.152045
495600 60.2883 162.701 55.8291 0.24775 -0.0874449
495800 60.2883 162.714 55.8291 0.24785 0.0187434
496000 60.2883 162.727 55.8291 0.24795 0.0873711
496200 60.2883 162.74 55.8291 0.24805 0.131084
496400 60.2883 162.753 55.8291 0.24815 0.193606
496600 60.2883 162.766 55.8291 0.24825 0.212837
496800 60.2883 162.779 55.8291 0.24835 0.240728
497000 60.2883 162.792 55.8291 0.24845 0.241693
497200 60.2883 162.805 55.8291 0.24855 0.20614
497400 60.2883 162.818 55.8291 0.24865 0.153113
497600 60.2883 162.831 55.8291 0.24875 0.0740699
497800 60.2883 162.844 55.8291 0.24885 -0.0367294
498000 60.2883 162.857 55.8291 0.24895 -0.070328
498200 60.2883 162.87 55.8291 0.24905 -0.135948
498400 60.2883 162.883 55.8291 0.24915 -0.172701
498600 60.2883 162.896 55.8291 0.24925 -0.214048
498800 60.2883 162.909 55.8291 0.24935 -0.210739
499000 60.2883 162.922 55.8291 0.24945 -0.239987
499200 60.2883 162.935 55.8291 0.24955 -0.190265
499400 60.2883 162.948 55.8291 0.24965 -0.11447
499600 60.2883 162.962 55.8291 0.24975 -0.0346452
499800 60.2883 162.975 55.8291 0.24985 0.0352994
500000 60.2883 162.988 55.8291 0.24995 0.0885268
500200 60.2883 163.001 55.8291 0.25005 0.150569
500400 60.2883 163.014 55.8291 0.25015 0.224628
500600 60.2883 163.027 55.8291 0.25025 0.20696
500800 60.2883 163.04 55.8291 0.25035 0.245629
501000 60.2883 163.053 55.8291 0.25045 0.233569
501200 60.2883 163.066 55.8291 0.25055 0.19561
501400 60.2883 163.079 55.8291 0.25065 0.0991759
501600 60.2883 163.092 55.8291 0.25075 0.0455464
501800 60.2883 163.105 55.8291 0.25085 -0.0518205
502000 60.2883 163.118 55.8291 0.25095 -0.0894681
502200 60.2883 163.131 55.8291 0.25105 -0.172286
502400 60.2883 163.144 55.8291 0.25115 -0.174479
502600 60.2883 163.157 55.8291 0.25125 -0.231447
502800 60.2883 163.17 55.8291 0.25135 -0.246357
503000 60.2883 163.183 55.8291 0.25145 -0.191615
503200 60.2883 163.196 55.8291 0.25155 -0.158297
503400 60.2883 163.209 55.8291 0.25165 -0.107696
503600 60.2883 163.222 55.8291 0.25175 0.00284475
503800 60.2883 163.235 55.8291 0.25185 0.0575163
504000 60.2883 163.248 55.8291 0.25195 0.134166
504200 60.2883 163.261 55.8291 0.25205 0.14969
504400 60.2883 163.274 55.8291 0.25215 0.211899
504600 60.2883 163.288 55.8291 0.25225 0.239018
504800 60.2883 163.301 55.8291 0.25235 0.230069
505000 60.2883 163.314 55.8291 0.25245 0.232635
505200 60.2883 163.327 55.8291 0.25255 0.165469
505400 60.2883 163.34 55.8291 0.25265 0.0938058
505600 60.2883 163.353 55.8291 0.25275 0.00946325
505800 60.2883 163.366 55.8291 0.25285 -0.04869
506000 60.2883 163.379 55.8291 0.25295 -0.144687
506200 60.2883 163.392 55.8291 0.25305 -0.169817
506400 60.2883 163.405 55.8291 0.25315 -0.200115
506600 60.2883 163.418 55.8291 0.25325 -0.196175
506800 60.2883 163.431 55.8291 0.25335 -0.219987
507000 60.2883 163.444 55.8291 0.25345 -0.193151
507200 60.2883 163.457 55.8291 0.25355 -0.166385
507400 60.2883 163.47 55.8291 0.25365 -0.0679574
507600 60.2883 163.483 55.8291 0.25375 0.0294451
507800 60.2883 163.496 55.8291 0.25385 0.0985571
508000 60.2883 163.509 55.8291 0.25395 0.133858
508200 60.2883 163.522 55.8291 0.25405 0.179356
508400 60.2883 163.535 55.8291 0.25415 0.219588
508600 60.2883 163.548 55.8291 0.25425 0.223596
508800 60.2883 163.561 55.8291 0.25435 0.198851
509000 60.2883 163.574 55.8291 0.25445 0.180874
509200 60.2883 163.587 55.8291 0.25455 0.132472
509400 60.2883 163.6 55.8291 0.25465 0.0871211
509600 60.2883 163.614 55.8291 0.25475 -0.0291442
509800 60.2883 163.627 55.8291 0.25485 -0.0959881
510000 60.2883 163.64 55.8291 0.25495 -0.154893
510200 60.2883 163.653 55.8291 0.25505 -0.173993
510400 60.2883 163.666 55.8291 0.25515 -0.211639
510600 60.2883 163.679 55.8291 0.25525 -0.200373
510800 60.2883 163.692 55.8291 0.25535 -0.185182
511000 60.2883 163.705 55.8291 0.25545 -0.144093
511200 60.2883 163.718 55.8291 0.25555 -0.114469
511400 60.2883 163.731 55.8291 0.25565 -0.0345206
511600 60.2883 163.744 55.8291 0.25575 0.0315725
511800 60.2883 163.757 55.8291 0.25585 0.132197
512000 60.2883 163.77 55.8291 0.25595 0.153433
512200 60.2883 163.783 55.8291 0.25605 0.168031
512400 60.2883 163.796 55.8291 0.25615 0.227326
512600 60.2883 163.809 55.8291 0.25625 0.227042
512800 60.2883 163.822 55.8291 0.25635 0.193431
513000 60.2883 163.835 55.8291 0.25645 0.172215
513200 60.2883 163.848 55.8291 0.25655 0.0885914
513400 60.2883 163.861 55.8291 0.25665 0.0280266
513600 60.2883 163.874 55.8291 0.25675 -0.0448159
513800 60.2883 163.887 55.8291 0.25685 -0.112886
514000 60.2883 163.9 55.8291 0.25695 -0.148402
514200 60.2883 163.913 55.8291 0.25705 -0.195562
514400 60.2883 163.926 55.8291 0.25715 -0.194504
514600 60.2883 163.939 55.8291 0.25725 -0.183895
514800 60.2883 163.953 55.8291 0.25735 -0.180003
515000 60.2883 163.966 55.8291 0.25745 -0.155591
515200 60.2883 163.979 55.8291 0.25755 -0.071371
515400 60.2883 163.992 55.8291 0.25765 -0.0146656
515600 60.2883 164.005 55.8291 0.25775 0.0710333
515800 60.2883 164.018 55.8291 0.25785 0.122708
516000 60.2883 164.031 55.8291 0.25795 0.17725
516200 60.2883 164.044 55.8291 0.25805 0.193706
516400 60.2883 164.057 55.8291 0.25815 0.206298
516600 60.2883 164.07 55.8291 0.25825 0.208529
516800 60.2883 164.083 55.8291 0.25835 0.173208
517000 60.2883 164.096 55.8291 0.25845 0.125931
517200 60.2883 164.109 55.8291 0.25855 0.0901699
517400 60.2883 164.122 55.8291 0.25865 0.0258593
517600 60.2883 164.135 55.8291 0.25875 -0.0994017
517800 60.2883 164.148 55.8291 0.25885 -0.136316
518000 60.2883 164.161 55.8291 0.25895 -0.161019
518200 60.2883 164.174 55.8291 0.25905 -0.181921
518400 60.2883 164.187 55.8291 0.25915 -0.181843
518600 60.2883 164.2 55.8291 0.25925 -0.191999
518800 60.2883 164.213 55.8291 0.25935 -0.137939
519000 60.2883 164.226 55.8291 0.25945 -0.131813
519200 60.2883 164.239 55.8291 0.25955 -0.0624316
519400 60.2883 164.252 55.8291 0.25965 0.0267433
519600 60.2883 164.265 55.8291 0.25975 0.0931664
519800 60.2883 164.279 55.8291 0.25985 0.162457
520000 60.2883 164.292 55.8291 0.25995 0.188426
520200 60.2883 164.305 55.8291 0.26005 0.205012
520400 60.2883 164.318 55.8291 0.26015 0.176788
520600 60.2883 164.331 55.8291 0.26025 0.204539
520800 60.2883 164.344 55.8291 0.26035 0.13314
521000 60.2883 164.357 55.8291 0.26045 0.110969
521200 60.2883 164.37 55.8291 0.26055 0.0424236
521400 60.2883 164.383 55.8291 0.26065 -0.0158736
521600 60.2883 164.396 55.8291 0.26075 -0.0825358
521800 60.2883 164.409 55.8291 0.26085 -0.148933
522000 60.2883 164.422 55.8291 0.26095 -0.189229
522200 60.2883 164.435 55.8291 0.26105 -0.193983
522400 60.2883 164.448 55.8291 0.26115 -0.192129
522600 60.2883 164.461 55.8291 0.26125 -0.15175
522800 60.2883 164.474 55.8291 0.26135 -0.122009
523000 60.2883 164.487 55.8291 0.26145 -0.0931519
523200 60.2883 164.5 55.8291 0.26155 -0.0228143
523400 60.2883 164.513 55.8291 0.26165 0.0603259
523600 60.2883 164.526 55.8291 0.26175 0.0885708
523800 60.2883 164.539 55.8291 0.26185 0.153437
524000 60.2883 164.552 55.8291 0.26195 0.200887
524200 60.2883 164.565 55.8291 0.26205 0.206009
524400 60.2883 164.578 55.8291 0.26215 0.180414
524600 60.2883 164.591 55.8291 0.26225 0.158033
524800 60.2883 164.605 55.8291 0.26235 0.15783
525000 60.2883 164.618 55.8291 0.26245 0.0836915
525200 60.2883 164.631 55.8291 0.26255 0.0166643
525400 60.2883 164.644 55.8291 0.26265 -0.0538712
525600 60.2883 164.657 55.8291 0.26275 -0.119617
525800 60.2883 164.67 55.8291 0.26285 -0.155611
526000 60.2883 164.683 55.8291 0.26295 -0.161075
526200 60.2883 164.696 55.8291 0.26305 -0.192038
526400 60.2883 164.709 55.8291 0.26315 -0.168928
526600 60.2883 164.722 55.8291 0.26325 -0.176682
526800 60.2883 164.735 55.8291 0.26335 -0.104159
527000 60.2883 164.748 55.8291 0.26345 -0.056809
527200 60.2883 164.761 55.8291 0.26355 0.0139677
527400 60.2883 164.774 55.8291 0.26365 0.0523326
527600 60.2883 164.787 55.8291 0.26375 0.154548
527800 60.2883 164.8 55.8291 0.26385 0.133888
528000 60.2883 164.813 55.8291 0.26395 0.215821
528200 60.2883 164.826 55.8291 0.26405 0.202076
528400 60.2883 164.839 55.8291 0.26415 0.181526
528600 60.2883 164.852 55.8291 0.26425 0.144343
528800 60.2883 164.865 55.8291 0.26435 0.125101
529000 60.2883 164.878 55.8291 0.26445 0.0459678
529200 60.2883 164.891 55.8291 0.26455 -0.0143712
529400 60.2883 164.904 55.8291 0.26465 -0.0798206
529600 60.2883 164.917 55.8291 0.26475 -0.113123
529800 60.2883 164.93 55.8291 0.26485 -0.183596
530000 60.2883 164.944 55.8291 0.26495 -0.2121
530200 60.2883 164.957 55.8291 0.26505 -0.175325
530400 60.2883 164.97 55.8291 0.26515 -0.145326
530600 60.2883 164.983 55.8291 0.26525 -0.129118
530800 60.2883 164.996 55.8291 0.26535 -0.0826618
531000 60.2883 165.009 55.8291 0.26545 -0.0265292
531200 60.2883 165.022 55.8291 0.26555 0.0148586
531400 60.2883 165.035 55.8291 0.26565 0.0874277
531600 60.2883 165.048 55.8291 0.26575 0.156091
531800 60.2883 165.061 55.8291 0.26585 0.169403
532000 60.2883 165.074 55.8291 0.26595 0.215503
532200 60.2883 165.087 55.8291 0.26605 0.205642
532400 60.2883 165.1 55.8291 0.26615 0.150618
532600 60.2883 165.113 55.8291 0.26625 0.134037
532800 60.2883 165.126 55.8291 0.26635 0.0832563
533000 60.2883 165.139 55.8291 0.26645 0.0171067
533200 60.2883 165.152 55.8291 0.26655 -0.0306468
533400 60.2883 165.165 55.8291 0.26665 -0.100308
533600 60.2883 165.178 55.8291 0.26675 -0.135908
533800 60.2883 165.191 55.8291 0.26685 -0.152497
534000 60.2883 165.204 55.8291 0.26695 -0.184437
534200 60.2883 165.217 55.8291 0.26705 -0.183473
534400 60.2883 165.23 55.8291 0.26715 -0.151532
534600 60.2883 165.243 55.8291 0.26725 -0.104839
534800 60.2883 165.256 55.8291 0.26735 -0.0840787
535000 60.2883 165.27 55.8291 0.26745 0.0135351
535200 60.2883 165.283 55.8291 0.26755 0.0462443
535400 60.2883 165.296 55.8291 0.26765 0.104248
535600 60.2883 165.309 55.8291 0.26775 0.164401
535800 60.2883 165.322 55.8291 0.26785 0.171729
536000 60.2883 165.335 55.8291 0.26795 0.178339
536200 60.2883 165.348 55.8291 0.26805 0.191964
536400 60.2883 165.361 55.8291 0.26815 0.145601
536600 60.2883 165.374 55.8291 0.26825 0.123078
536800 60.2883 165.387 55.8291 0.26835 0.0477825
537000 60.2883 165.4 55.8291 0.26845 -0.00655197
537200 60.2883 165.413 55.8291 0.26855 -0.0676777
537400 60.2883 165.426 55.8291 0.26865 -0.0972894
537600 60.2883 165.439 55.8291 0.26875 -0.129941
537800 60.2883 165.452 55.8291 0.26885 -0.170045
538000 60.2883 165.465 55.8291 0.26895 -0.172477
538200 60.2883 165.478 55.8291 0.26905 -0.165882
538400 60.2883 165.491 55.8291 0.26915 -0.117997
538600 60.2883 165.504 55.8291 0.26925 -0.102081
538800 60.2883 165.517 55.8291 0.26935 -0.034913
539000 60.2883 165.53 55.8291 0.26945 0.000882722
539200 60.2883 165.543 55.8291 0.26955 0.10966
539400 60.2883 165.556 55.8291 0.26965 0.122938
539600 60.2883 165.569 55.8291 0.26975 0.170146
539800 60.2883 165.582 55.8291 0.26985 0.163906
540000 60.2883 165.596 55.8291 0.26995 0.16403
540200 60.2883 165.609 55.8291 0.27005 0.173812
540400 60.2883 165.622 55.8291 0.27015 0.139943
540600 60.2883 165.635 55.8291 0.27025 0.0947583
540800 60.2883 165.648 55.8291 0.27035 0.00704518
541000 60.2883 165.661 55.8291 0.27045 -0.0231712
541200 60.2883 165.674 55.8291 0.27055 -0.107176
541400 60.2883 165.687 55.8291 0.27065 -0.0946411
541600 60.2883 165.7 55.8291 0.27075 -0.162492
541800 60.2883 165.713 55.8291 0.27085 -0.134954
542000 60.2883 165.726 55.8291 0.27095 -0.166882
542200 60.2883 165.739 55.8291 0.27105 -0.141602
542400 60.2883 165.752 55.8291 0.27115 -0.118435
542600 60.2883 165.765 55.8291 0.27125 -0.0776935
542800 60.2883 165.778 55.8291 0.27135 -0.0102331
543000 60.2883 165.791 55.8291 0.27145 0.0263308
543200 60.2883 165.804 55.8291 0.27155 0.0987433
543400 60.2883 165.817 55.8291 0.27165 0.145447
543600 60.2883 165.83 55.8291 0.27175 0.151382
543800 60.2883 165.843 55.8291 0.27185 0.180263
544000 60.2883 165.856 55.8291 0.27195 0.171394
544200 60.2883 165.869 55.8291 0.27205 0.125875
544400 60.2883 165.882 55.8291 0.27215 0.126808
544600 60.2883 165.895 55.8291 0.27225 0.0718585
544800 60.2883 165.908 55.8291 0.27235 0.0324985
545000 60.2883 165.921 55.8291 0.27245 -0.037024
545200 60.2883 165.935 55.8291 0.27255 -0.0902081
545400 60.2883 165.948 55.8291 0.27265 -0.151184
545600 60.2883 165.961 55.8291 0.27275 -0.15305
545800 60.2883 165.974 55.8291 0.27285 -0.168482
546000 60.2883 165.987 55.8291 0.27295 -0.131354
546200 60.2883 166 55.8291 0.27305 -0.117209
546400 60.2883 166.013 55.8291 0.27315 -0.0976404
546600 60.2883 166.026 55.8291 0.27325 -0.0610373
546800 60.2883 166.039 55.8291 0.27335 -0.00807712
547000 60.2883 166.052 55.8291 0.27345 0.0448051
547200 60.2883 166.065 55.8291 0.27355 0.120201
547400 60.2883 166.078 55.8291 0.27365 0.150353
547600 60.2883 166.091 55.8291 0.27375 0.164699
547800 60.2883 166.104 55.8291 0.27385 0.147236
548000 60.2883 166.117 55.8291 0.27395 0.156575
548200 60.2883 166.13 55.8291 0.27405 0.121634
548400 60.2883 166.143 55.8291 0.27415 0.101024
548600 60.2883 166.156 55.8291 0.27425 0.0506255
548800 60.2883 166.169 55.8291 0.27435 0.0232683
549000 60.2883 166.182 55.8291 0.27445 -0.0524435
549200 60.2883 166.195 55.8291 0.27455 -0.110502
549400 60.2883 166.208 55.8291 0.27465 -0.138157
549600 60.2883 166.221 55.8291 0.27475 -0.18467
549800 60.2883 166.234 55.8291 0.27485 -0.137872
550000 60.2883 166.247 55.8291 0.27495 -0.140943
550200 60.2883 166.261 55.8291 0.27505 -0.124291
550400 60.2883 166.274 55.8291 0.27515 -0.0696968
550600 60.2883 166.287 55.8291 0.27525 -0.0392184
550800 60.2883 166.3 55.8291 0.27535 0.0316555
551000 60.2883 166.313 55.8291 0.27545 0.0844055
551200 60.2883 166.326 55.8291 0.27555 0.107324
551400 60.2883 166.339 55.8291 0.27565 0.17491
551600 60.2883 166.352 55.8291 0.27575 0.158382
551800 60.2883 166.365 55.8291 0.27585 0.156508
552000 60.2883 166.378 55.8291 0.27595 0.162208
552200 60.2883 166.391 55.8291 0.27605 0.116033
552400 60.2883 166.404 55.8291 0.27615 0.0572126
552600 60.2883 166.417 55.8291 0.27625 0.0340042
552800 60.2883 166.43 55.8291 0.27635 -0.0522228
553000 60.2883 166.443 55.8291 0.27645 -0.0626285
553200 60.2883 166.456 55.8291 0.27655 -0.123538
553400 60.2883 166.469 55.8291 0.27665 -0.114535
553600 60.2883 166.482 55.8291 0.27675 -0.158389
553800 60.2883 166.495 55.8291 0.27685 -0.146521
554000 60.2883 166.508 55.8291 0.27695 -0.149437
554200 60.2883 166.521 55.8291 0.27705 -0.119566
554400 60.2883 166.534 55.8291 0.27715 -0.0298584
554600 60.2883 166.547 55.8291 0.27725 0.00603694
554800 60.2883 166.56 55.8291 0.27735 0.0351087
555000 60.2883 166.573 55.8291 0.27745 0.0995943
555200 60.2883 166.587 55.8291 0.27755 0.11715
555400 60.2883 166.6 55.8291 0.27765 0.159387
555600 60.2883 166.613 55.8291 0.27775 0.149118
555800 60.2883 166.626 55.8291 0.27785 0.169176
556000 60.2883 166.639 55.8291 0.27795 0.128146
556200 60.2883 166.652 55.8291 0.27805 0.093262
556400 60.2883 166.665 55.8291 0.27815 0.0564953
556600 60.2883 166.678 55.8291 0.27825 -0.0217438
556800 60.2883 166.691 55.8291 0.27835 -0.0390976
557000 60.2883 166.704 55.8291 0.27845 -0.0794215
557200 60.2883 166.717 55.8291 0.27855 -0.125246
557400 60.2883 166.73 55.8291 0.27865 -0.128841
557600 60.2883 166.743 55.8291 0.27875 -0.164119
557800 60.2883 166.756 55.8291 0.27885 -0.144238
558000 60.2883 166.769 55.8291 0.27895 -0.118731
558200 60.2883 166.782 55.8291 0.27905 -0.0686144
558400 60.2883 166.795 55.8291 0.27915 -0.0230595
558600 60.2883 166.808 55.8291 0.27925 0.0224263
558800 60.2883 166.821 55.8291 0.27935 0.0598835
559000 60.2883 166.834 55.8291 0.27945 0.111307
559200 60.2883 166.847 55.8291 0.27955 0.146659
559400 60.2883 166.86 55.8291 0.27965 0.130256
559600 60.2883 166.873 55.8291 0.27975 0.18033
559800 60.2883 166.886 55.8291 0.27985 0.143672
560000 60.2883 166.899 55.8291 0.27995 0.0943278
560200 60.2883 166.913 55.8291 0.28005 0.0799672
560400 60.2883 166.926 55.8291 0.28015 0.0109936
560600 60.2883 166.939 55.8291 0.28025 -0.00698137
560800 60.2883 166.952 55.8291 0.28035 -0.0550774
561000 60.2883 166.965 55.8291 0.28045 -0.112975
561200 60.2883 166.978 55.8291 0.28055 -0.121826
561400 60.2883 166.991 55.8291 0.28065 -0.133143
561600 60.2883 167.004 55.8291 0.28075 -0.149312
561800 60.2883 167.017 55.8291 0.28085 -0.124193
562000 60.2883 167.03 55.8291 0.28095 -0.11993
562200 60.2883 167.043 55.8291 0.28105 -0.0392225
562400 60.2883 167.056 55.8291 0.28115 -0.032419
562600 60.2883 167.069 55.8291 0.28125 0.0384561
562800 60.2883 167.082 55.8291 0.28135 0.0756645
563000 60.2883 167.095 55.8291 0.28145 0.122291
563200 60.2883 167.108 55.8291 0.28155 0.145192
563400 60.2883 167.121 55.8291 0.28165 0.146895
563600 60.2883 167.134 55.8291 0.28175 0.161932
563800 60.2883 167.147 55.8291 0.28185 0.129521
564000 60.2883 167.16 55.8291 0.28195 0.0898019
564200 60.2883 167.173 55.8291 0.28205 0.0476143
564400 60.2883 167.186 55.8291 0.28215 0.017602
564600 60.2883 167.199 55.8291 0.28225 -0.0395543
564800 60.2883 167.212 55.8291 0.28235 -0.0765668
565000 60.2883 167.225 55.8291 0.28245 -0.0996028
565200 60.2883 167.238 55.8291 0.28255 -0.120508
565400 60.2883 167.252 55.8291 0.28265 -0.134156
565600 60.2883 167.265 55.8291 0.28275 -0.134323
565800 60.2883 167.278 55.8291 0.28285 -0.121803
566000 60.2883 167.291 55.8291 0.28295 -0.0829676
566200 60.2883 167.304 55.8291 0.28305 -0.0548563
566400 60.2883 167.317 55.8291 0.28315 0.0196651
566600 60.2883 167.33 55.8291 0.28325 0.0549441
566800 60.2883 167.343 55.8291 0.28335 0.100705
567000 60.2883 167.356 55.8291 0.28345 0.111646
567200 60.2883 167.369 55.8291 0.28355 0.137538
567400 60.2883 167.382 55.8291 0.28365 0.1431
567600 60.2883 167.395 55.8291 0.28375 0.145515
567800 60.2883 167.408 55.8291 0.28385 0.110516
568000 60.2883 167.421 55.8291 0.28395 0.0821837
568200 60.2883 167.434 55.8291 0.28405 0.0464714
568400 60.2883 167.447 55.8291 0.28415 -0.0192844
568600 60.2883 167.46 55.8291 0.28425 -0.0761948
568800 60.2883 167.473 55.8291 0.28435 -0.0921035
569000 60.2883 167.486 55.8291 0.28445 -0.0958225
569200 60.2883 167.499 55.8291 0.28455 -0.149391
569400 60.2883 167.512 55.8291 0.28465 -0.122666
569600 60.2883 167.525 55.8291 0.28475 -0.130625
569800 60.2883 167.538 55.8291 0.28485 -0.077634
570000 60.2883 167.551 55.8291 0.28495 -0.0611044
570200 60.2883 167.564 55.8291 0.28505 -0.0197839
570400 60.2883 167.578 55.8291 0.28515 0.00866657
570600 60.2883 167.591 55.8291 0.28525 0.0645731
570800 60.2883 167.604 55.8291 0.28535 0.111527
571000 60.2883 167.617 55.8291 0.28545 0.140148
571200 60.2883 167.63 55.8291 0.28555 0.150577
571400 60.2883 167.643 55.8291 0.28565 0.155722
571600 60.2883 167.656 55.8291 0.28575 0.124257
571800 60.2883 167.669 55.8291 0.28585 0.0761591
572000 60.2883 167.682 55.8291 0.28595 0.0521545
572200 60.2883 167.695 55.8291 0.28605 0.0124546
572400 60.2883 167.708 55.8291 0.28615 -0.0169371
572600 60.2883 167.721 55.8291 0.28625 -0.0553949
572800 60.2883 167.734 55.8291 0.28635 -0.0902698
573000 60.2883 167.747 55.8291 0.28645 -0.116821
573200 60.2883 167.76 55.8291 0.28655 -0.145146
573400 60.2883 167.773 55.8291 0.28665 -0.131208
573600 60.2883 167.786 55.8291 0.28675 -0.127104
573800 60.2883 167.799 55.8291 0.28685 -0.0552163
574000 60.2883 167.812 55.8291 0.28695 -0.0405798
574200 60.2883 167.825 55.8291 0.28705 -0.00606344
574400 60.2883 167.838 55.8291 0.28715 0.0343783
574600 60.2883 167.851 55.8291 0.28725 0.0849705
574800 60.2883 167.864 55.8291 0.28735 0.106621
575000 60.2883 167.877 55.8291 0.28745 0.123834
575200 60.2883 167.89 55.8291 0.28755 0.141838
575400 60.2883 167.904 55.8291 0.28765 0.130442
575600 60.2883 167.917 55.8291 0.28775 0.124781
575800 60.2883 167.93 55.8291 0.28785 0.0832221
576000 60.2883 167.943 55.8291 0.28795 0.0211177
576200 60.2883 167.956 55.8291 0.28805 -0.00653686
576400 60.2883 167.969 55.8291 0.28815 -0.032131
576600 60.2883 167.982 55.8291 0.28825 -0.0803748
576800 60.2883 167.995 55.8291 0.28835 -0.103376
577000 60.2883 168.008 55.8291 0.28845 -0.130402
577200 60.2883 168.021 55.8291 0.28855 -0.14263
577400 60.2883 168.034 55.8291 0.28865 -0.114733
577600 60.2883 168.047 55.8291 0.28875 -0.0996376
577800 60.2883 168.06 55.8291 0.28885 -0.0323898
578000 60.2883 168.073 55.8291 0.28895 -0.000971393
578200 60.2883 168.086 55.8291 0.28905 -0.00984995
578400 60.2883 168.099 55.8291 0.28915 0.0592337
578600 60.2883 168.112 55.8291 0.28925 0.0774195
578800 60.2883 168.125 55.8291 0.28935 0.145529
579000 60.2883 168.138 55.8291 0.28945 0.158171
579200 60.2883 168.151 55.8291 0.28955 0.123268
579400 60.2883 168.164 55.8291 0.28965 0.119651
579600 60.2883 168.177 55.8291 0.28975 0.112922
579800 60.2883 168.19 55.8291 0.28985 0.0441271
580000 60.2883 168.203 55.8291 0.28995 0.00912384
580200 60.2883 168.216 55.8291 0.29005 -0.00374466
580400 60.2883 168.229 55.8291 0.29015 -0.0734238
580600 60.2883 168.243 55.8291 0.29025 -0.101568
580800 60.2883 168.256 55.8291 0.29035 -0.103815
581000 60.2883 168.269 55.8291 0.29045 -0.148345
581200 60.2883 168.282 55.8291 0.29055 -0.127236
581400 60.2883 168.295 55.8291 0.29065 -0.108974
581600 60.2883 168.308 55.8291 0.29075 -0.0739686
581800 60.2883 168.321 55.8291 0.29085 -0.0403181
582000 60.2883 168.334 55.8291 0.29095 0.0104553
582200 60.2883 168.347 55.8291 0.29105 0.0500954
582400 60.2883 168.36 55.8291 0.29115 0.0647623
582600 60.2883 168.373 55.8291 0.29125 0.0824179
582800 60.2883 168.386 55.8291 0.29135 0.145313
583000 60.2883 168.399 55.8291 0.29145 0.129054
583200 60.2883 168.412 55.8291 0.29155 0.1465
583400 60.2883 168.425 55.8291 0.29165 0.113204
583600 60.2883 168.438 55.8291 0.29175 0.0789059
583800 60.2883 168.451 55.8291 0.29185 0.0127265
584000 60.2883 168.464 55.8291 0.29195 -0.0192335
584200 60.2883 168.477 55.8291 0.29205 -0.0225884
584400 60.2883 168.49 55.8291 0.29215 -0.067002
584600 60.2883 168.503 55.8291 0.29225 -0.0692894
584800 60.2883 168.516 55.8291 0.29235 -0.135356
585000 60.2883 168.529 55.8291 0.29245 -0.11741
585200 60.2883 168.542 55.8291 0.29255 -0.13666
585400 60.2883 168.555 55.8291 0.29265 -0.101841
585600 60.2883 168.569 55.8291 0.29275 -0.04631
585800 60.2883 168.582 55.8291 0.29285 -0.00431465
586000 60.2883 168.595 55.8291 0.29295 -0.00482091
586200 60.2883 168.608 55.8291 0.29305 0.0531491
586400 60.2883 168.621 55.8291 0.29315 0.0687
586600 60.2883 168.634 55.8291 0.29325 0.138012
586800 60.2883 168.647 55.8291 0.29335 0.131345
587000 60.2883 168.66 55.8291 0.29345 0.142052
587200 60.2883 168.673 55.8291 0.29355 0.114816
587400 60.2883 168.686 55.8291 0.29365 0.0987643
587600 60.2883 168.699 55.8291 0.29375 0.059205
587800 60.2883 168.712 55.8291 0.29385 0.00608332
588000 60.2883 168.725 55.8291 0.29395 -0.00289863
588200 60.2883 168.738 55.8291 0.29405 -0.0591918
588400 60.2883 168.751 55.8291 0.29415 -0.070097
588600 60.2883 168.764 55.8291 0.29425 -0.127487
588800 60.2883 168.777 55.8291 0.29435 -0.123555
589000 60.2883 168.79 55.8291 0.29445 -0.129366
589200 60.2883 168.803 55.8291 0.29455 -0.111302
589400 60.2883 168.816 55.8291 0.29465 -0.0659921
589600 60.2883 168.829 55.8291 0.29475 -0.0487798
589800 60.2883 168.842 55.8291 0.29485 -0.00327827
590000 60.2883 168.855 55.8291 0.29495 0.0148844
590200 60.2883 168.868 55.8291 0.29505 0.0589202
590400 60.2883 168.881 55.8291 0.29515 0.0914324
590600 60.2883 168.895 55.8291 0.29525 0.155463
590800 60.2883 168.908 55.8291 0.29535 0.128116
591000 60.2883 168.921 55.8291 0.29545 0.129444
591200 60.2883 168.934 55.8291 0.29555 0.122524
591400 60.2883 168.947 55.8291 0.29565 0.0793195
591600 60.2883 168.96 55.8291 0.29575 0.04253
591800 60.2883 168.973 55.8291 0.29585 0.00933615
592000 60.2883 168.986 55.8291 0.29595 -0.0246575
592200 60.2883 168.999 55.8291 0.29605 -0.0606271
592400 60.2883 169.012 55.8291 0.29615 -0.0781251
592600 60.2883 169.025 55.8291 0.29625 -0.12628
592800 60.2883 169.038 55.8291 0.29635 -0.140423
593000 60.2883 169.051 55.8291 0.29645 -0.14894
593200 60.2883 169.064 55.8291 0.29655 -0.0761595
593400 60.2883 169.077 55.8291 0.29665 -0.0755262
593600 60.2883 169.09 55.8291 0.29675 -0.0142257
593800 60.2883 169.103 55.8291 0.29685 -0.00199542
594000 60.2883 169.116 55.8291 0.29695 0.0478753
594200 60.2883 169.129 55.8291 0.29705 0.0698827
594400 60.2883 169.142 55.8291 0.29715 0.102704
594600 60.2883 169.155 55.8291 0.29725 0.108554
594800 60.2883 169.168 55.8291 0.29735 0.178935
595000 60.2883 169.181 55.8291 0.29745 0.136737
595200 60.2883 169.194 55.8291 0.29755 0.099534
595400 60.2883 169.207 55.8291 0.29765 0.0404343
595600 60.2883 169.22 55.8291 0.29775 0.0112212
595800 60.2883 169.234 55.8291 0.29785 2.71609e-05
596000 60.2883 169.247 55.8291 0.29795 -0.0559721
596200 60.2883 169.26 55.8291 0.29805 -0.0452043
596400 60.2883 169.273 55.8291 0.29815 -0.100281
596600 60.2883 169.286 55.8291 0.29825 -0.116465
596800 60.2883 169.299 55.8291 0.29835 -0.132222
597000 60.2883 169.312 55.8291 0.29845 -0.121436
597200 60.2883 169.325 55.8291 0.29855 -0.0938995
597400 60.2883 169.338 55.8291 0.29865 -0.0482433
597600 60.2883 169.351 55.8291 0.29875 -0.0216684
597800 60.2883 169.364 55.8291 0.29885 0.0321032
598000 60.2883 169.377 55.8291 0.29895 0.0504644
598200 60.2883 169.39 55.8291 0.29905 0.10143
598400 60.2883 169.403 55.8291 0.29915 0.12602
598600 60.2883 169.416 55.8291 0.29925 0.119222
598800 60.2883 169.429 55.8291 0.29935 0.159203
599000 60.2883 169.442 55.8291 0.29945 0.112591
599200 60.2883 169.455 55.8291 0.29955 0.069229
599400 60.2883 169.468 55.8291 0.29965 0.0718256
599600 60.2883 169.481 55.8291 0.29975 0.0222597
599800 60.2883 169.494 55.8291 0.29985 -0.0132746
600000 60.2883 169.507 55.8291 0.29995 -0.0659729
600200 60.2883 169.52 55.8291 0.30005 -0.110123
600400 60.2883 169.533 55.8291 0.30015 -0.119008
600600 60.2883 169.546 55.8291 0.30025 -0.134808
600800 60.2883 169.56 55.8291 0.30035 -0.131166
601000 60.2883 169.573 55.8291 0.30045 -0.116734
601200 60.2883 169.586 55.8291 0.30055 -0.0743656
601400 60.2883 169.599 55.8291 0.30065 -0.0132741
601600 60.2883 169.612 55.8291 0.30075 0.00348783
601800 60.2883 169.625 55.8291 0.30085 0.0332705
602000 60.2883 169.638 55.8291 0.30095 0.0759639
602200 60.2883 169.651 55.8291 0.30105 0.0930673
602400 60.2883 169.664 55.8291 0.30115 0.127637
602600 60.2883 169.677 55.8291 0.30125 0.120927
602800 60.2883 169.69 55.8291 0.30135 0.147423
603000 60.2883 169.703 55.8291 0.30145 0.129121
603200 60.2883 169.716 55.8291 0.30155 0.0766817
603400 60.2883 169.729 55.8291 0.30165 0.0333394
603600 60.2883 169.742 55.8291 0.30175 -0.0122673
603800 60.2883 169.755 55.8291 0.30185 -0.0299964
604000 60.2883 169.768 55.8291 0.30195 -0.064048
604200 60.2883 169.781 55.8291 0.30205 -0.0932034
604400 60.2883 169.794 55.8291 0.30215 -0.131382
604600 60.2883 169.807 55.8291 0.30225 -0.127304
604800 60.2883 169.82 55.8291 0.30235 -0.125639
605000 60.2883 169.833 55.8291 0.30245 -0.0997488
605200 60.2883 169.846 55.8291 0.30255 -0.082875
605400 60.2883 169.859 55.8291 0.30265 -0.0138936
605600 60.2883 169.872 55.8291 0.30275 0.0396979
605800 60.2883 169.886 55.8291 0.30285 0.0569782
606000 60.2883 169.899 55.8291 0.30295 0.0737763
606200 60.2883 169.912 55.8291 0.30305 0.0973568
606400 60.2883 169.925 55.8291 0.30315 0.124035
606600 60.2883 169.938 55.8291 0.30325 0.144775
606800 60.2883 169.951 55.8291 0.30335 0.115179
607000 60.2883 169.964 55.8291 0.30345 0.125621
607200 60.2883 169.977 55.8291 0.30355 0.0762651
607400 60.2883 169.99 55.8291 0.30365 -0.00132425
607600 60.2883 170.003 55.8291 0.30375 -0.0208815
607800 60.2883 170.016 55.8291 0.30385 -0.031257
608000 60.2883 170.029 55.8291 0.30395 -0.0920795
608200 60.2883 170.042 55.8291 0.30405 -0.0972324
608400 60.2883 170.055 55.8291 0.30415 -0.128441
608600 60.2883 170.068 55.8291 0.30425 -0.122688
608800 60.2883 170.081 55.8291 0.30435 -0.106971
609000 60.2883 170.094 55.8291 0.30445 -0.0819858
609200 60.2883 170.107 55.8291 0.30455 -0.0675759
609400 60.2883 170.12 55.8291 0.30465 -0.033562
609600 60.2883 170.133 55.8291 0.30475 0.0387159
609800 60.2883 170.146 55.8291 0.30485 0.0621248
610000 60.2883 170.159 55.8291 0.30495 0.104722
610200 60.2883 170.172 55.8291 0.30505 0.0970832
610400 60.2883 170.185 55.8291 0.30515 0.130126
610600 60.2883 170.198 55.8291 0.30525 0.116293
610800 60.2883 170.212 55.8291 0.30535 0.103782
611000 60.2883 170.225 55.8291 0.30545 0.119509
611200 60.2883 170.238 55.8291 0.30555 0.0781398
611400 60.2883 170.251 55.8291 0.30565 0.0243475
611600 60.2883 170.264 55.8291 0.30575 -0.0170931
611800 60.2883 170.277 55.8291 0.30585 -0.067382
612000 60.2883 170.29 55.8291 0.30595 -0.0800255
612200 60.2883 170.303 55.8291 0.30605 -0.108433
612400 60.2883 170.316 55.8291 0.30615 -0.100723
612600 60.2883 170.329 55.8291 0.30625 -0.133869
612800 60.2883 170.342 55.8291 0.30635 -0.0933821
613000 60.2883 170.355 55.8291 0.30645 -0.0923306
613200 60.2883 170.368 55.8291 0.30655 -0.0751579
613400 60.2883 170.381 55.8291 0.30665 -0.0243401
613600 60.2883 170.394 55.8291 0.30675 0.0248705
613800 60.2883 170.407 55.8291 0.30685 0.0745943
614000 60.2883 170.42 55.8291 0.30695 0.130846
614200 60.2883 170.433 55.8291 0.30705 0.119682
614400 60.2883 170.446 55.8291 0.30715 0.113241
614600 60.2883 170.459 55.8291 0.30725 0.130089
614800 60.2883 170.472 55.8291 0.30735 0.104412
615000 60.2883 170.485 55.8291 0.30745 0.0848604
615200 60.2883 170.498 55.8291 0.30755 0.0462192
615400 60.2883 170.511 55.8291 0.30765 0.0217886
615600 60.2883 170.524 55.8291 0.30775 -0.0323276
615800 60.2883 170.537 55.8291 0.30785 -0.0584065
616000 60.2883 170.551 55.8291 0.30795 -0.108466
616200 60.2883 170.564 55.8291 0.30805 -0.110087
616400 60.2883 170.577 55.8291 0.30815 -0.1233
616600 60.2883 170.59 55.8291 0.30825 -0.104728
616800 60.2883 170.603 55.8291 0.30835 -0.0813433
617000 60.2883 170.616 55.8291 0.30845 -0.0809426
617200 60.2883 170.629 55.8291 0.30855 -0.0418348
617400 60.2883 170.642 55.8291 0.30865 0.0201149
617600 60.2883 170.655 55.8291 0.30875 0.0282223
617800 60.2883 170.668 55.8291 0.30885 0.0600759
618000 60.2883 170.681 55.8291 0.30895 0.123263
618200 60.2883 170.694 55.8291 0.30905 0.146214
618400 60.2883 170.707 55.8291 0.30915 0.122827
618600 60.2883 170.72 55.8291 0.30925 0.101312
618800 60.2883 170.733 55.8291 0.30935 0.0938411
619000 60.2883 170.746 55.8291 0.30945 0.054565
619200 60.2883 170.759 55.8291 0.30955 0.0302652
619400 60.2883 170.772 55.8291 0.30965 0.0186545
619600 60.2883 170.785 55.8291 0.30975 -0.0359649
619800 60.2883 170.798 55.8291 0.30985 -0.0637753
620000 60.2883 170.811 55.8291 0.30995 -0.113237
620200 60.2883 170.824 55.8291 0.31005 -0.127643
620400 60.2883 170.837 55.8291 0.31015 -0.108668
620600 60.2883 170.85 55.8291 0.31025 -0.0902434
620800 60.2883 170.863 55.8291 0.31035 -0.0934491
621000 60.2883 170.877 55.8291 0.31045 -0.0349885
621200 60.2883 170.89 55.8291 0.31055 -0.0361036
621400 60.2883 170.903 55.8291 0.31065 0.00100462
621600 60.2883 170.916 55.8291 0.31075 0.0392461
621800 60.2883 170.929 55.8291 0.31085 0.0788468
622000 60.2883 170.942 55.8291 0.31095 0.109309
622200 60.2883 170.955 55.8291 0.31105 0.136397
622400 60.2883 170.968 55.8291 0.31115 0.125014
622600 60.2883 170.981 55.8291 0.31125 0.116765
622800 60.2883 170.994 55.8291 0.31135 0.0650091
623000 60.2883 171.007 55.8291 0.31145 0.0568905
623200 60.2883 171.02 55.8291 0.31155 0.0273015
623400 60.2883 171.033 55.8291 0.31165 0.00226089
623600 60.2883 171.046 55.8291 0.31175 -0.045396
623800 60.2883 171.059 55.8291 0.31185 -0.0705674
624000 60.2883 171.072 55.8291 0.31195 -0.0895325
624200 60.2883 171.085 55.8291 0.31205 -0.133434
624400 60.2883 171.098 55.8291 0.31215 -0.120214
624600 60.2883 171.111 55.8291 0.31225 -0.105496
624800 60.2883 171.124 55.8291 0.31235 -0.059831
625000 60.2883 171.137 55.8291 0.31245 -0.0218915
625200 60.2883 171.15 55.8291 0.31255 -0.0370149
625400 60.2883 171.163 55.8291 0.31265 0.0303425
625600 60.2883 171.176 55.8291 0.31275 0.0320886
625800 60.2883 171.189 55.8291 0.31285 0.0860676
626000 60.2883 171.203 55.8291 0.31295 0.117275
626200 60.2883 171.216 55.8291 0.31305 0.142114
626400 60.2883 171.229 55.8291 0.31315 0.143373
626600 60.2883 171.242 55.8291 0.31325 0.121095
626800 60.2883 171.255 55.8291 0.31335 0.0636443
627000 60.2883 171.268 55.8291 0.31345 0.0419535
627200 60.2883 171.281 55.8291 0.31355 0.00213836
627400 60.2883 171.294 55.8291 0.31365 -0.0195993
627600 60.2883 171.307 55.8291 0.31375 -0.061662
627800 60.2883 171.32 55.8291 0.31385 -0.08218
628000 60.2883 171.333 55.8291 0.31395 -0.109056
628200 60.2883 171.346 55.8291 0.31405 -0.129575
628400 60.2883 171.359 55.8291 0.31415 -0.145229
628600 60.2883 171.372 55.8291 0.31425 -0.100713
628800 60.2883 171.385 55.8291 0.31435 -0.076657
629000 60.2883 171.398 55.8291 0.31445 -0.0278384
629200 60.2883 171.411 55.8291 0.31455 0.0164854
629400 60.2883 171.424 55.8291 0.31465 0.0327321
629600 60.2883 171.437 55.8291 0.31475 0.085957
629800 60.2883 171.45 55.8291 0.31485 0.0856906
630000 60.2883 171.463 55.8291 0.31495 0.139088
630200 60.2883 171.476 55.8291 0.31505 0.121571
630400 60.2883 171.489 55.8291 0.31515 0.136852
630600 60.2883 171.502 55.8291 0.31525 0.112965
630800 60.2883 171.515 55.8291 0.31535 0.0783378
631000 60.2883 171.528 55.8291 0.31545 0.0496201
631200 60.2883 171.542 55.8291 0.31555 -0.00977769
631400 60.2883 171.555 55.8291 0.31565 -0.0561036
631600 60.2883 171.568 55.8291 0.31575 -0.0695218
631800 60.2883 171.581 55.8291 0.31585 -0.0926075
632000 60.2883 171.594 55.8291 0.31595 -0.111285
632200 60.2883 171.607 55.8291 0.31605 -0.116453
632400 60.2883 171.62 55.8291 0.31615 -0.122878
632600 60.2883 171.633 55.8291 0.31625 -0.103716
632800 60.2883 171.646 55.8291 0.31635 -0.077218
633000 60.2883 171.659 55.8291 0.31645 -0.0143388
633200 60.2883 171.672 55.8291 0.31655 0.00436667
633400 60.2883 171.685 55.8291 0.31665 0.0668457
633600 60.2883 171.698 55.8291 0.31675 0.101119
633800 60.2883 171.711 55.8291 0.31685 0.106432
634000 60.2883 171.724 55.8291 0.31695 0.104565
634200 60.2883 171.737 55.8291 0.31705 0.147413
634400 60.2883 171.75 55.8291 0.31715 0.108528
634600 60.2883 171.763 55.8291 0.31725 0.0933192
634800 60.2883 171.776 55.8291 0.31735 0.063532
635000 60.2883 171.789 55.8291 0.31745 0.0334618
635200 60.2883 171.802 55.8291 0.31755 -0.00703654
635400 60.2883 171.815 55.8291 0.31765 -0.0774334
635600 60.2883 171.828 55.8291 0.31775 -0.0927657
635800 60.2883 171.841 55.8291 0.31785 -0.0956142
636000 60.2883 171.854 55.8291 0.31795 -0.119393
636200 60.2883 171.868 55.8291 0.31805 -0.108115
636400 60.2883 171.881 55.8291 0.31815 -0.120912
636600 60.2883 171.894 55.8291 0.31825 -0.0683386
636800 60.2883 171.907 55.8291 0.31835 -0.0371673
637000 60.2883 171.92 55.8291 0.31845 -0.00660161
637200 60.2883 171.933 55.8291 0.31855 0.0310364
637400 60.2883 171.946 55.8291 0.31865 0.0557642
637600 60.2883 171.959 55.8291 0.31875 0.0929328
637800 60.2883 171.972 55.8291 0.31885 0.119212
638000 60.2883 171.985 55.8291 0.31895 0.123671
638200 60.2883 171.998 55.8291 0.31905 0.123552
638400 60.2883 172.011 55.8291 0.31915 0.107775
638600 60.2883 172.024 55.8291 0.31925 0.0813618
638800 60.2883 172.037 55.8291 0.31935 0.0510433
639000 60.2883 172.05 55.8291 0.31945 0.0136668
639200 60.2883 172.063 55.8291 0.31955 -0.0432041
639400 60.2883 172.076 55.8291 0.31965 -0.0607366
639600 60.2883 172.089 55.8291 0.31975 -0.110705
639800 60.2883 172.102 55.8291 0.31985 -0.0961864
640000 60.2883 172.115 55.8291 0.31995 -0.110631
640200 60.2883 172.128 55.8291 0.32005 -0.0989333
640400 60.2883 172.141 55.8291 0.32015 -0.0861358
640600 60.2883 172.154 55.8291 0.32025 -0.0626796
640800 60.2883 172.167 55.8291 0.32035 -0.0472939
641000 60.2883 172.18 55.8291 0.32045 -0.00889753
641200 60.2883 172.194 55.8291 0.32055 0.0471658
641400 60.2883 172.207 55.8291 0.32065 0.0878807
641600 60.2883 172.22 55.8291 0.32075 0.0824111
641800 60.2883 172.233 55.8291 0.32085 0.10957
642000 60.2883 172.246 55.8291 0.32095 0.119725
642200 60.2883 172.259 55.8291 0.32105 0.118187
642400 60.2883 172.272 55.8291 0.32115 0.087342
642600 60.2883 172.285 55.8291 0.32125 0.0630343
642800 60.2883 172.298 55.8291 0.32135 0.0334802
643000 60.2883 172.311 55.8291 0.32145 0.00142112
643200 60.2883 172.324 55.8291 0.32155 -0.032728
643400 60.2883 172.337 55.8291 0.32165 -0.0515868
643600 60.2883 172.35 55.8291 0.32175 -0.118116
643800 60.2883 172.363 55.8291 0.32185 -0.0826962
644000 60.2883 172.376 55.8291 0.32195 -0.119189
644200 60.2883 172.389 55.8291 0.32205 -0.0983578
644400 60.2883 172.402 55.8291 0.32215 -0.0745472
644600 60.2883 172.415 55.8291 0.32225 -0.0358774
644800 60.2883 172.428 55.8291 0.32235 -0.020886
645000 60.2883 172.441 55.8291 0.32245 0.00434009
645200 60.2883 172.454 55.8291 0.32255 0.0328644
645400 60.2883 172.467 55.8291 0.32265 0.0901382
645600 60.2883 172.48 55.8291 0.32275 0.0919914
645800 60.2883 172.493 55.8291 0.32285 0.109947
646000 60.2883 172.506 55.8291 0.32295 0.115917
646200 60.2883 172.519 55.8291 0.32305 0.10365
646400 60.2883 172.533 55.8291 0.32315 0.0855168
646600 60.2883 172.546 55.8291 0.32325 0.0331872
646800 60.2883 172.559 55.8291 0.32335 0.0368289
647000 60.2883 172.572 55.8291 0.32345 0.00112437
647200 60.2883 172.585 55.8291 0.32355 -0.0768098
647400 60.2883 172.598 55.8291 0.32365 -0.0577474
647600 60.2883 172.611 55.8291 0.32375 -0.109007
647800 60.2883 172.624 55.8291 0.32385 -0.0906826
648000 60.2883 172.637 55.8291 0.32395 -0.120475
648200 60.2883 172.65 55.8291 0.32405 -0.0873249
648400 60.2883 172.663 55.8291 0.32415 -0.0714922
648600 60.2883 172.676 55.8291 0.32425 -0.0236467
648800 60.2883 172.689 55.8291 0.32435 -0.0121277
649000 60.2883 172.702 55.8291 0.32445 0.0199304
649200 60.2883 172.715 55.8291 0.32455 0.0643278
649400 60.2883 172.728 55.8291 0.32465 0.0860281
649600 60.2883 172.741 55.8291 0.32475 0.105694
649800 60.2883 172.754 55.8291 0.32485 0.127717
650000 60.2883 172.767 55.8291 0.32495 0.108418
650200 60.2883 172.78 55.8291 0.32505 0.0912153
650400 60.2883 172.793 55.8291 0.32515 0.0723991
650600 60.2883 172.806 55.8291 0.32525 0.0340141
650800 60.2883 172.819 55.8291 0.32535 0.00125059
651000 60.2883 172.832 55.8291 0.32545 -0.0236906
651200 60.2883 172.845 55.8291 0.32555 -0.0589889
651400 60.2883 172.859 55.8291 0.32565 -0.098903
651600 60.2883 172.872 55.8291 0.32575 -0.0896539
651800 60.2883 172.885 55.8291 0.32585 -0.107376
652000 60.2883 172.898 55.8291 0.32595 -0.0780961
652200 60.2883 172.911 55.8291 0.32605 -0.112045
652400 60.2883 172.924 55.8291 0.32615 -0.0580149
652600 60.2883 172.937 55.8291 0.32625 -0.0141373
652800 60.2883 172.95 55.8291 0.32635 0.0367652
653000 60.2883 172.963 55.8291 0.32645 0.0551558
653200 60.2883 172.976 55.8291 0.32655 0.0708306
653400 60.2883 172.989 55.8291 0.32665 0.0711834
653600 60.2883 173.002 55.8291 0.32675 0.10307
653800 60.2883 173.015 55.8291 0.32685 0.110372
654000 60.2883 173.028 55.8291 0.32695 0.0960011
654200 60.2883 173.041 55.8291 0.32705 0.0972218
654400 60.2883 173.054 55.8291 0.32715 0.0593271
654600 60.2883 173.067 55.8291 0.32725 -0.0105571
654800 60.2883 173.08 55.8291 0.32735 -0.0172511
655000 60.2883 173.093 55.8291 0.32745 -0.0527574
655200 60.2883 173.106 55.8291 0.32755 -0.06867
655400 60.2883 173.119 55.8291 0.32765 -0.0854517
655600 60.2883 173.132 55.8291 0.32775 -0.082721
655800 60.2883 173.145 55.8291 0.32785 -0.0934847
656000 60.2883 173.158 55.8291 0.32795 -0.0923246
656200 60.2883 173.171 55.8291 0.32805 -0.0827386
656400 60.2883 173.185 55.8291 0.32815 -0.031469
656600 60.2883 173.198 55.8291 0.32825 0.00873679
656800 60.2883 173.211 55.8291 0.32835 0.00619391
657000 60.2883 173.224 55.8291 0.32845 0.085342
657200 60.2883 173.237 55.8291 0.32855 0.0894408
657400 60.2883 173.25 55.8291 0.32865 0.0961145
657600 60.2883 173.263 55.8291 0.32875 0.11513
657800 60.2883 173.276 55.8291 0.32885 0.0979413
658000 60.2883 173.289 55.8291 0.32895 0.0774467
658200 60.2883 173.302 55.8291 0.32905 0.0790374
658400 60.2883 173.315 55.8291 0.32915 0.0345786
658600 60.2883 173.328 55.8291 0.32925 0.0109771
658800 60.2883 173.341 55.8291 0.32935 -0.0511143
659000 60.2883 173.354 55.8291 0.32945 -0.0637853
659200 60.2883 173.367 55.8291 0.32955 -0.0957416
659400 60.2883 173.38 55.8291 0.32965 -0.0833075
659600 60.2883 173.393 55.8291 0.32975 -0.0770694
659800 60.2883 173.406 55.8291 0.32985 -0.106573
660000 60.2883 173.419 55.8291 0.32995 -0.0868034
660200 60.2883 173.432 55.8291 0.33005 -0.0567543
660400 60.2883 173.445 55.8291 0.33015 -0.00925037
660600 60.2883 173.458 55.8291 0.33025 0.016712
660800 60.2883 173.471 55.8291 0.33035 0.0630709
661000 60.2883 173.484 55.8291 0.33045 0.0722935
661200 60.2883 173.497 55.8291 0.33055 0.0872461
661400 60.2883 173.511 55.8291 0.33065 0.102168
661600 60.2883 173.524 55.8291 0.33075 0.0855258
661800 60.2883 173.537 55.8291 0.33085 0.088344
662000 60.2883 173.55 55.8291 0.33095 0.0921874
662200 60.2883 173.563 55.8291 0.33105 0.0515723
662400 60.2883 173.576 55.8291 0.33115 0.0141482
662600 60.2883 173.589 55.8291 0.33125 -0.0203865
662800 60.2883 173.602 55.8291 0.33135 -0.0708747
663000 60.2883 173.615 55.8291 0.33145 -0.0516034
663200 60.2883 173.628 55.8291 0.33155 -0.0947039
663400 60.2883 173.641 55.8291 0.33165 -0.0904337
663600 60.2883 173.654 55.8291 0.33175 -0.0999232
663800 60.2883 173.667 55.8291 0.33185 -0.057258
664000 60.2883 173.68 55.8291 0.33195 -0.0717689
664200 60.2883 173.693 55.8291 0.33205 -0.0451992
664400 60.2883 173.706 55.8291 0.33215 -0.00477445
664600 60.2883 173.719 55.8291 0.33225 0.0409858
664800 60.2883 173.732 55.8291 0.33235 0.0672357
665000 60.2883 173.745 55.8291 0.33245 0.106888
665200 60.2883 173.758 55.8291 0.33255 0.0771392
665400 60.2883 173.771 55.8291 0.33265 0.108814
665600 60.2883 173.784 55.8291 0.33275 0.0917093
665800 60.2883 173.797 55.8291 0.33285 0.0684832
666000 60.2883 173.81 55.8291 0.33295 0.0757433
666200 60.2883 173.823 55.8291 0.33305 0.0419814
666400 60.2883 173.836 55.8291 0.33315 0.0154119
666600 60.2883 173.85 55.8291 0.33325 -0.0469808
666800 60.2883 173.863 55.8291 0.33335 -0.0472515
667000 60.2883 173.876 55.8291 0.33345 -0.0919542
667200 60.2883 173.889 55.8291 0.33355 -0.0970504
667400 60.2883 173.902 55.8291 0.33365 -0.0958563
667600 60.2883 173.915 55.8291 0.33375 -0.0954355
667800 60.2883 173.928 55.8291 0.33385 -0.0576619
668000 60.2883 173.941 55.8291 0.33395 -0.0530487
668200 60.2883 173.954 55.8291 0.33405 -0.0377389
668400 60.2883 173.967 55.8291 0.33415 0.0119308
668600 60.2883 173.98 55.8291 0.33425 0.0399291
668800 60.2883 173.993 55.8291 0.33435 0.0662397
669000 60.2883 174.006 55.8291 0.33445 0.112521
669200 60.2883 174.019 55.8291 0.33455 0.104192
669400 60.2883 174.032 55.8291 0.33465 0.0991643
669600 60.2883 174.045 55.8291 0.33475 0.0903562
669800 60.2883 174.058 55.8291 0.33485 0.0864641
670000 60.2883 174.071 55.8291 0.33495 0.0270981
670200 60.2883 174.084 55.8291 0.33505 0.013088
670400 60.2883 174.097 55.8291 0.33515 -0.0184693
670600 60.2883 174.11 55.8291 0.33525 -0.0303156
670800 60.2883 174.123 55.8291 0.33535 -0.0630309
671000 60.2883 174.136 55.8291 0.33545 -0.0911863
671200 60.2883 174.149 55.8291 0.33555 -0.0900285
671400 60.2883 174.162 55.8291 0.33565 -0.0996255
671600 60.2883 174.176 55.8291 0.33575 -0.081172
671800 60.2883 174.189 55.8291 0.33585 -0.0414595
672000 60.2883 174.202 55.8291 0.33595 -0.0450437
672200 60.2883 174.215 55.8291 0.33605 -0.00134392
672400 60.2883 174.228 55.8291 0.33615 0.0481465
672600 60.2883 174.241 55.8291 0.33625 0.0432726
672800 60.2883 174.254 55.8291 0.33635 0.0754076
673000 60.2883 174.267 55.8291 0.33645 0.109817
673200 60.2883 174.28 55.8291 0.33655 0.104919
673400 60.2883 174.293 55.8291 0.33665 0.085677
673600 60.2883 174.306 55.8291 0.33675 0.089967
673800 60.2883 174.319 55.8291 0.33685 0.0638984
674000 60.2883 174.332 55.8291 0.33695 0.0273814
674200 60.2883 174.345 55.8291 0.33705 0.00229159
674400 60.2883 174.358 55.8291 0.33715 -0.0653482
674600 60.2883 174.371 55.8291 0.33725 -0.0343766
674800 60.2883 174.384 55.8291 0.33735 -0.0831884
675000 60.2883 174.397 55.8291 0.33745 -0.091982
675200 60.2883 174.41 55.8291 0.33755 -0.10923
675400 60.2883 174.423 55.8291 0.33765 -0.0802914
675600 60.2883 174.436 55.8291 0.33775 -0.0734701
675800 60.2883 174.449 55.8291 0.33785 -0.0494886
676000 60.2883 174.462 55.8291 0.33795 -0.00701469
676200 60.2883 174.475 55.8291 0.33805 -0.000435991
676400 60.2883 174.488 55.8291 0.33815 0.0431444
676600 60.2883 174.502 55.8291 0.33825 0.0868086
676800 60.2883 174.515 55.8291 0.33835 0.0821377
677000 60.2883 174.528 55.8291 0.33845 0.10487
677200 60.2883 174.541 55.8291 0.33855 0.115648
677400 60.2883 174.554 55.8291 0.33865 0.105712
677600 60.2883 174.567 55.8291 0.33875 0.0778055
677800 60.2883 174.58 55.8291 0.33885 0.0289346
678000 60.2883 174.593 55.8291 0.33895 0.023156
678200 60.2883 174.606 55.8291 0.33905 -0.0216881
678400 60.2883 174.619 55.8291 0.33915 -0.0380208
678600 60.2883 174.632 55.8291 0.33925 -0.0582372
678800 60.2883 174.645 55.8291 0.33935 -0.0987253
679000 60.2883 174.658 55.8291 0.33945 -0.112569
679200 60.2883 174.671 55.8291 0.33955 -0.0909782
679400 60.2883 174.684 55.8291 0.33965 -0.0853428
679600 60.2883 174.697 55.8291 0.33975 -0.0861837
679800 60.2883 174.71 55.8291 0.33985 -0.0208601
680000 60.2883 174.723 55.8291 0.33995 -0.00765986
680200 60.2883 174.736 55.8291 0.34005 0.0439504
680400 60.2883 174.749 55.8291 0.34015 0.0652213
680600 60.2883 174.762 55.8291 0.34025 0.0840825
680800 60.2883 174.775 55.8291 0.34035 0.0832973
681000 60.2883 174.788 55.8291 0.34045 0.111143
681200 60.2883 174.801 55.8291 0.34055 0.1032
681400 60.2883 174.814 55.8291 0.34065 0.102265
681600 60.2883 174.827 55.8291 0.34075 0.0406104
681800 60.2883 174.841 55.8291 0.34085 0.0481718
682000 60.2883 174.854 55.8291 0.34095 0.000279092
682200 60.2883 174.867 55.8291 0.34105 -0.0449551
682400 60.2883 174.88 55.8291 0.34115 -0.0513093
682600 60.2883 174.893 55.8291 0.34125 -0.0790298
682800 60.2883 174.906 55.8291 0.34135 -0.0809862
683000 60.2883 174.919 55.8291 0.34145 -0.129699
683200 60.2883 174.932 55.8291 0.34155 -0.0692037
683400 60.2883 174.945 55.8291 0.34165 -0.0788836
683600 60.2883 174.958 55.8291 0.34175 -0.048817
683800 60.2883 174.971 55.8291 0.34185 -0.013654
684000 60.2883 174.984 55.8291 0.34195 -0.0122917
684200 60.2883 174.997 55.8291 0.34205 0.0598275
684400 60.2883 175.01 55.8291 0.34215 0.0580832
684600 60.2883 175.023 55.8291 0.34225 0.106111
684800 60.2883 175.036 55.8291 0.34235 0.1076
685000 60.2883 175.049 55.8291 0.34245 0.0933551
685200 60.2883 175.062 55.8291 0.34255 0.107727
685400 60.2883 175.075 55.8291 0.34265 0.0655503
685600 60.2883 175.088 55.8291 0.34275 0.0396171
685800 60.2883 175.101 55.8291 0.34285 0.0347608
686000 60.2883 175.114 55.8291 0.34295 0.0190971
686200 60.2883 175.127 55.8291 0.34305 -0.0495619
686400 60.2883 175.14 55.8291 0.34315 -0.0882762
686600 60.2883 175.153 55.8291 0.34325 -0.0756145
686800 60.2883 175.167 55.8291 0.34335 -0.122234
687000 60.2883 175.18 55.8291 0.34345 -0.0920638
687200 60.2883 175.193 55.8291 0.34355 -0.0845707
687400 60.2883 175.206 55.8291 0.34365 -0.0635511
687600 60.2883 175.219 55.8291 0.34375 -0.0523878
687800 60.2883 175.232 55.8291 0.34385 -0.0180739
688000 60.2883 175.245 55.8291 0.34395 0.00777358
688200 60.2883 175.258 55.8291 0.34405 0.0677771
688400 60.2883 175.271 55.8291 0.34415 0.104591
688600 60.2883 175.284 55.8291 0.34425 0.0811214
688800 60.2883 175.297 55.8291 0.34435 0.129494
689000 60.2883 175.31 55.8291 0.34445 0.119306
689200 60.2883 175.323 55.8291 0.34455 0.0705307
689400 60.2883 175.336 55.8291 0.34465 0.0649932
689600 60.2883 175.349 55.8291 0.34475 0.0384954
689800 60.2883 175.362 55.8291 0.34485 0.0387702
690000 60.2883 175.375 55.8291 0.34495 -0.0291966
690200 60.2883 175.388 55.8291 0.34505 -0.0734729
690400 60.2883 175.401 55.8291 0.34515 -0.0798517
690600 60.2883 175.414 55.8291 0.34525 -0.0932195
690800 60.2883 175.427 55.8291 0.34535 -0.103114
691000 60.2883 175.44 55.8291 0.34545 -0.0879254
691200 60.2883 175.453 55.8291 0.34555 -0.0863845
691400 60.2883 175.466 55.8291 0.34565 -0.0689206
691600 60.2883 175.479 55.8291 0.34575 -0.0206989
691800 60.2883 175.493 55.8291 0.34585 -0.00719704
692000 60.2883 175.506 55.8291 0.34595 0.0545337
692200 60.2883 175.519 55.8291 0.34605 0.051679
692400 60.2883 175.532 55.8291 0.34615 0.071206
692600 60.2883 175.545 55.8291 0.34625 0.129758
692800 60.2883 175.558 55.8291 0.34635 0.0969556
693000 60.2883 175.571 55.8291 0.34645 0.104982
693200 60.2883 175.584 55.8291 0.34655 0.109879
693400 60.2883 175.597 55.8291 0.34665 0.0626444
693600 60.2883 175.61 55.8291 0.34675 0.0284137
693800 60.2883 175.623 55.8291 0.34685 -0.00384049
694000 60.2883 175.636 55.8291 0.34695 -0.0547119
694200 60.2883 175.649 55.8291 0.34705 -0.0649437
694400 60.2883 175.662 55.8291 0.34715 -0.0953964
694600 60.2883 175.675 55.8291 0.34725 -0.0914473
694800 60.2883 175.688 55.8291 0.34735 -0.107539
695000 60.2883 175.701 55.8291 0.34745 -0.110244
695200 60.2883 175.714 55.8291 0.34755 -0.0593509
695400 60.2883 175.727 55.8291 0.34765 -0.0460388
695600 60.2883 175.74 55.8291 0.34775 -0.0257756
695800 60.2883 175.753 55.8291 0.34785 0.0138363
696000 60.2883 175.766 55.8291 0.34795 0.0579333
696200 60.2883 175.779 55.8291 0.34805 0.0846177
696400 60.2883 175.792 55.8291 0.34815 0.106546
696600 60.2883 175.805 55.8291 0.34825 0.115516
696800 60.2883 175.818 55.8291 0.34835 0.0975184
697000 60.2883 175.832 55.8291 0.34845 0.0799893
697200 60.2883 175.845 55.8291 0.34855 0.0892605
697400 60.2883 175.858 55.8291 0.34865 0.0456644
697600 60.2883 175.871 55.8291 0.34875 0.0137373
697800 60.2883 175.884 55.8291 0.34885 -0.0250741
698000 60.2883 175.897 55.8291 0.34895 -0.0415474
698200 60.2883 175.91 55.8291 0.34905 -0.0727022
698400 60.2883 175.923 55.8291 0.34915 -0.114319
698600 60.2883 175.936 55.8291 0.34925 -0.0902636
698800 60.2883 175.949 55.8291 0.34935 -0.0900884
699000 60.2883 175.962 55.8291 0.34945 -0.0723742
699200 60.2883 175.975 55.8291 0.34955 -0.0468939
699400 60.2883 175.988 55.8291 0.34965 -0.0314895
699600 60.2883 176.001 55.8291 0.34975 -0.00931391
699800 60.2883 176.014 55.8291 0.34985 0.02164
700000 60.2883 176.027 55.8291 0.34995 0.0641686
700200 60.2883 176.04 55.8291 0.35005 0.0795061
700400 60.2883 176.053 55.8291 0.35015 0.101971
700600 60.2883 176.066 55.8291 0.35025 0.0961855
700800 60.2883 176.079 55.8291 0.35035 0.085512
701000 60.2883 176.092 55.8291 0.35045 0.0812154
701200 60.2883 176.105 55.8291 0.35055 0.0375359
701400 60.2883 176.118 55.8291 0.35065 0.0331439
701600 60.2883 176.131 55.8291 0.35075 0.0102267
701800 60.2883 176.144 55.8291 0.35085 -0.0424722
702000 60.2883 176.158 55.8291 0.35095 -0.0398957
702200 60.2883 176.171 55.8291 0.35105 -0.062215
702400 60.2883 176.184 55.8291 0.35115 -0.0987508
702600 60.2883 176.197 55.8291 0.35125 -0.0935826
702800 60.2883 176.21 55.8291 0.35135 -0.0912058
703000 60.2883 176.223 55.8291 0.35145 -0.0499707
703200 60.2883 176.236 55.8291 0.35155 -0.0365751
703400 60.2883 176.249 55.8291 0.35165 -0.00880492
703600 60.2883 176.262 55.8291 0.35175 0.0370995
703800 60.2883 176.275 55.8291 0.35185 0.0348543
704000 60.2883 176.288 55.8291 0.35195 0.0467468
704200 60.2883 176.301 55.8291 0.35205 0.0689344
704400 60.2883 176.314 55.8291 0.35215 0.0901361
704600 60.2883 176.327 55.8291 0.35225 0.103326
704800 60.2883 176.34 55.8291 0.35235 0.0701966
705000 60.2883 176.353 55.8291 0.35245 0.0857897
705200 60.2883 176.366 55.8291 0.35255 0.0308225
705400 60.2883 176.379 55.8291 0.35265 -0.00880342
705600 60.2883 176.392 55.8291 0.35275 -0.0161157
705800 60.2883 176.405 55.8291 0.35285 -0.00919526
706000 60.2883 176.418 55.8291 0.35295 -0.0665128
706200 60.2883 176.431 55.8291 0.35305 -0.0859296
706400 60.2883 176.444 55.8291 0.35315 -0.0691759
706600 60.2883 176.457 55.8291 0.35325 -0.0773886
706800 60.2883 176.47 55.8291 0.35335 -0.0470077
707000 60.2883 176.484 55.8291 0.35345 -0.082397
707200 60.2883 176.497 55.8291 0.35355 -0.0357095
707400 60.2883 176.51 55.8291 0.35365 -0.00646647
707600 60.2883 176.523 55.8291 0.35375 0.0166488
707800 60.2883 176.536 55.8291 0.35385 0.0556134
708000 60.2883 176.549 55.8291 0.35395 0.066317
708200 60.2883 176.562 55.8291 0.35405 0.0823761
708400 60.2883 176.575 55.8291 0.35415 0.109219
708600 60.2883 176.588 55.8291 0.35425 0.075718
708800 60.2883 176.601 55.8291 0.35435 0.054686
709000 60.2883 176.614 55.8291 0.35445 0.053631
709200 60.2883 176.627 55.8291 0.35455 0.0464124
709400 60.2883 176.64 55.8291 0.35465 0.0200818
709600 60.2883 176.653 55.8291 0.35475 -0.0344462
709800 60.2883 176.666 55.8291 0.35485 -0.0500212
710000 60.2883 176.679 55.8291 0.35495 -0.0611511
710200 60.2883 176.692 55.8291 0.35505 -0.0862623
710400 60.2883 176.705 55.8291 0.35515 -0.0656643
710600 60.2883 176.718 55.8291 0.35525 -0.0585837
710800 60.2883 176.731 55.8291 0.35535 -0.0698755
711000 60.2883 176.744 55.8291 0.35545 -0.0545191
711200 60.2883 176.757 55.8291 0.35555 -0.0267714
711400 60.2883 176.77 55.8291 0.35565 0.0107074
711600 60.2883 176.783 55.8291 0.35575 0.0246724
711800 60.2883 176.796 55.8291 0.35585 0.0626372
712000 60.2883 176.81 55.8291 0.35595 0.0698627
712200 60.2883 176.823 55.8291 0.35605 0.090895
712400 60.2883 176.836 55.8291 0.35615 0.0864325
712600 60.2883 176.849 55.8291 0.35625 0.055778
712800 60.2883 176.862 55.8291 0.35635 0.0952138
713000 60.2883 176.875 55.8291 0.35645 0.0306086
713200 60.2883 176.888 55.8291 0.35655 0.0155193
713400 60.2883 176.901 55.8291 0.35665 0.0165047
713600 60.2883 176.914 55.8291 0.35675 -0.0264783
713800 60.2883 176.927 55.8291 0.35685 -0.0594888
714000 60.2883 176.94 55.8291 0.35695 -0.0749677
714200 60.2883 176.953 55.8291 0.35705 -0.0688144
714400 60.2883 176.966 55.8291 0.35715 -0.0967656
714600 60.2883 176.979 55.8291 0.35725 -0.0664642
714800 60.2883 176.992 55.8291 0.35735 -0.0515158
715000 60.2883 177.005 55.8291 0.35745 -0.0545203
715200 60.2883 177.018 55.8291 0.35755 -0.00325159
715400 60.2883 177.031 55.8291 0.35765 0.0322403
715600 60.2883 177.044 55.8291 0.35775 0.0295856
715800 60.2883 177.057 55.8291 0.35785 0.0669152
716000 60.2883 177.07 55.8291 0.35795 0.0647099
716200 60.2883 177.083 55.8291 0.35805 0.0877343
716400 60.2883 177.096 55.8291 0.35815 0.0888081
716600 60.2883 177.109 55.8291 0.35825 0.0790841
716800 60.2883 177.122 55.8291 0.35835 0.0562687
717000 60.2883 177.135 55.8291 0.35845 0.043374
717200 60.2883 177.149 55.8291 0.35855 0.00323666
717400 60.2883 177.162 55.8291 0.35865 -0.0230567
717600 60.2883 177.175 55.8291 0.35875 -0.0333989
717800 60.2883 177.188 55.8291 0.35885 -0.0525504
718000 60.2883 177.201 55.8291 0.35895 -0.0526813
718200 60.2883 177.214 55.8291 0.35905 -0.0856296
718400 60.2883 177.227 55.8291 0.35915 -0.0651409
718600 60.2883 177.24 55.8291 0.35925 -0.0698941
718800 60.2883 177.253 55.8291 0.35935 -0.047838
719000 60.2883 177.266 55.8291 0.35945 -0.0336444
719200 60.2883 177.279 55.8291 0.35955 0.00283948
719400 60.2883 177.292 55.8291 0.35965 0.0372494
719600 60.2883 177.305 55.8291 0.35975 0.0346551
719800 60.2883 177.318 55.8291 0.35985 0.0669653
720000 60.2883 177.331 55.8291 0.35995 0.0849786
720200 60.2883 177.344 55.8291 0.36005 0.0564777
720400 60.2883 177.357 55.8291 0.36015 0.0662461
720600 60.2883 177.37 55.8291 0.36025 0.0765249
720800 60.2883 177.383 55.8291 0.36035 0.0478137
721000 60.2883 177.396 55.8291 0.36045 0.0393741
721200 60.2883 177.409 55.8291 0.36055 -0.00441172
721400 60.2883 177.422 55.8291 0.36065 -0.0190499
721600 60.2883 177.435 55.8291 0.36075 -0.0320606
721800 60.2883 177.448 55.8291 0.36085 -0.0718871
722000 60.2883 177.461 55.8291 0.36095 -0.0636519
722200 60.2883 177.475 55.8291 0.36105 -0.075228
722400 60.2883 177.488 55.8291 0.36115 -0.0826304
722600 60.2883 177.501 55.8291 0.36125 -0.0477126
722800 60.2883 177.514 55.8291 0.36135 -0.0228597
723000 60.2883 177.527 55.8291 0.36145 -0.0137794
723200 60.2883 177.54 55.8291 0.36155 0.00756046
723400 60.2883 177.553 55.8291 0.36165 0.0347474
723600 60.2883 177.566 55.8291 0.36175 0.0289006
723800 60.2883 177.579 55.8291 0.36185 0.0778824
724000 60.2883 177.592 55.8291 0.36195 0.0747952
724200 60.2883 177.605 55.8291 0.36205 0.083152
724400 60.2883 177.618 55.8291 0.36215 0.0677033
724600 60.2883 177.631 55.8291 0.36225 0.0535513
724800 60.2883 177.644 55.8291 0.36235 0.0683505
725000 60.2883 177.657 55.8291 0.36245 0.0203246
725200 60.2883 177.67 55.8291 0.36255 -0.0120914
725400 60.2883 177.683 55.8291 0.36265 -0.0375663
725600 60.2883 177.696 55.8291 0.36275 -0.0450739
725800 60.2883 177.709 55.8291 0.36285 -0.0705034
726000 60.2883 177.722 55.8291 0.36295 -0.0783348
726200 60.2883 177.735 55.8291 0.36305 -0.0686914
726400 60.2883 177.748 55.8291 0.36315 -0.0690768
726600 60.2883 177.761 55.8291 0.36325 -0.0594098
726800 60.2883 177.774 55.8291 0.36335 -0.0299422
727000 60.2883 177.787 55.8291 0.36345 -0.00592629
727200 60.2883 177.801 55.8291 0.36355 0.0131672
727400 60.2883 177.814 55.8291 0.36365 0.0363218
727600 60.2883 177.827 55.8291 0.36375 0.0565063
727800 60.2883 177.84 55.8291 0.36385 0.0828592
728000 60.2883 177.853 55.8291 0.36395 0.0735538
728200 60.2883 177.866 55.8291 0.36405 0.0921925
728400 60.2883 177.879 55.8291 0.36415 0.0645206
728600 60.2883 177.892 55.8291 0.36425 0.0518446
728800 60.2883 177.905 55.8291 0.36435 0.0449748
729000 60.2883 177.918 55.8291 0.36445 0.00745018
729200 60.2883 177.931 55.8291 0.36455 -0.0207136
729400 60.2883 177.944 55.8291 0.36465 -0.0389232
729600 60.2883 177.957 55.8291 0.36475 -0.0401624
729800 60.2883 177.97 55.8291 0.36485 -0.0634192
730000 60.2883 177.983 55.8291 0.36495 -0.0782236
730200 60.2883 177.996 55.8291 0.36505 -0.0920997
730400 60.2883 178.009 55.8291 0.36515 -0.0599935
730600 60.2883 178.022 55.8291 0.36525 -0.0481828
730800 60.2883 178.035 55.8291 0.36535 -0.0304096
731000 60.2883 178.048 55.8291 0.36545 0.0137736
731200 60.2883 178.061 55.8291 0.36555 0.0287618
731400 60.2883 178.074 55.8291 0.36565 0.0550831
731600 60.2883 178.087 55.8291 0.36575 0.0576264
731800 60.2883 178.1 55.8291 0.36585 0.0725815
732000 60.2883 178.113 55.8291 0.36595 0.0950612
732200 60.2883 178.126 55.8291 0.36605 0.0961693
732400 60.2883 178.14 55.8291 0.36615 0.0760997
732600 60.2883 178.153 55.8291 0.36625 0.0330772
732800 60.2883 178.166 55.8291 0.36635 0.000306467
733000 60.2883 178.179 55.8291 0.36645 -0.000214824
733200 60.2883 178.192 55.8291 0.36655 -0.0184202
733400 60.2883 178.205 55.8291 0.36665 -0.0532463
733600 60.2883 178.218 55.8291 0.36675 -0.0451839
733800 60.2883 178.231 55.8291 0.36685 -0.0912975
734000 60.2883 178.244 55.8291 0.36695 -0.0808229
734200 60.2883 178.257 55.8291 0.36705 -0.0795998
734400 60.2883 178.27 55.8291 0.36715 -0.0724664
734600 60.2883 178.283 55.8291 0.36725 -0.0214185
734800 60.2883 178.296 55.8291 0.36735 -0.0236144
735000 60.2883 178.309 55.8291 0.36745 0.000890708
735200 60.2883 178.322 55.8291 0.36755 0.0497153
735400 60.2883 178.335 55.8291 0.36765 0.0622096
735600 60.2883 178.348 55.8291 0.36775 0.0671864
735800 60.2883 178.361 55.8291 0.36785 0.0818276
736000 60.2883 178.374 55.8291 0.36795 0.111092
736200 60.2883 178.387 55.8291 0.36805 0.0613014
736400 60.2883 178.4 55.8291 0.36815 0.077383
736600 60.2883 178.413 55.8291 0.36825 0.0424726
736800 60.2883 178.426 55.8291 0.36835 0.00962671
737000 60.2883 178.439 55.8291 0.36845 -0.00406576
737200 60.2883 178.452 55.8291 0.36855 -0.0381421
737400 60.2883 178.466 55.8291 0.36865 -0.041064
737600 60.2883 178.479 55.8291 0.36875 -0.0582535
737800 60.2883 178.492 55.8291 0.36885 -0.0964483
738000 60.2883 178.505 55.8291 0.36895 -0.0812376
738200 60.2883 178.518 55.8291 0.36905 -0.0693777
738400 60.2883 178.531 55.8291 0.36915 -0.0653092
738600 60.2883 178.544 55.8291 0.36925 -0.0315576
738800 60.2883 178.557 55.8291 0.36935 -0.0186673
739000 60.2883 178.57 55.8291 0.36945 0.00864123
739200 60.2883 178.583 55.8291 0.36955 0.0636514
739400 60.2883 178.596 55.8291 0.36965 0.0720669
739600 60.2883 178.609 55.8291 0.36975 0.0771297
739800 60.2883 178.622 55.8291 0.36985 0.0828002
740000 60.2883 178.635 55.8291 0.36995 0.0886696
740200 60.2883 178.648 55.8291 0.37005 0.0788727
740400 60.2883 178.661 55.8291 0.37015 0.0559233
740600 60.2883 178.674 55.8291 0.37025 0.0402817
740800 60.2883 178.687 55.8291 0.37035 0.0263505
741000 60.2883 178.7 55.8291 0.37045 -0.0314905
741200 60.2883 178.713 55.8291 0.37055 -0.0560655
741400 60.2883 178.726 55.8291 0.37065 -0.0697096
741600 60.2883 178.739 55.8291 0.37075 -0.076919
741800 60.2883 178.752 55.8291 0.37085 -0.0937504
742000 60.2883 178.765 55.8291 0.37095 -0.0786521
742200 60.2883 178.778 55.8291 0.37105 -0.058523
742400 60.2883 178.792 55.8291 0.37115 -0.0293429
742600 60.2883 178.805 55.8291 0.37125 -0.0189275
742800 60.2883 178.818 55.8291 0.37135 -0.00864921
743000 60.2883 178.831 55.8291 0.37145 0.0191011
743200 60.2883 178.844 55.8291 0.37155 0.060125
743400 60.2883 178.857 55.8291 0.37165 0.0808077
743600 60.2883 178.87 55.8291 0.37175 0.0856065
743800 60.2883 178.883 55.8291 0.37185 0.0859006
744000 60.2883 178.896 55.8291 0.37195 0.0903257
744200 60.2883 178.909 55.8291 0.37205 0.0771262
744400 60.2883 178.922 55.8291 0.37215 0.0642898
744600 60.2883 178.935 55.8291 0.37225 -0.000313896
744800 60.2883 178.948 55.8291 0.37235 -0.0012213
745000 60.2883 178.961 55.8291 0.37245 -0.0183854
745200 60.2883 178.974 55.8291 0.37255 -0.0555656
745400 60.2883 178.987 55.8291 0.37265 -0.0813669
745600 60.2883 179 55.8291 0.37275 -0.0956041
745800 60.2883 179.013 55.8291 0.37285 -0.0789864
746000 60.2883 179.026 55.8291 0.37295 -0.0665679
746200 60.2883 179.039 55.8291 0.37305 -0.0617032
746400 60.2883 179.052 55.8291 0.37315 -0.050089
746600 60.2883 179.065 55.8291 0.37325 -0.0090685
746800 60.2883 179.078 55.8291 0.37335 0.0158931
747000 60.2883 179.091 55.8291 0.37345 0.0217519
747200 60.2883 179.104 55.8291 0.37355 0.075762
747400 60.2883 179.117 55.8291 0.37365 0.0788969
747600 60.2883 179.131 55.8291 0.37375 0.107935
747800 60.2883 179.144 55.8291 0.37385 0.0779983
748000 60.2883 179.157 55.8291 0.37395 0.0848045
748200 60.2883 179.17 55.8291 0.37405 0.0676155
748400 60.2883 179.183 55.8291 0.37415 0.0340265
748600 60.2883 179.196 55.8291 0.37425 0.0167078
748800 60.2883 179.209 55.8291 0.37435 -0.00710915
749000 60.2883 179.222 55.8291 0.37445 -0.0484656
749200 60.2883 179.235 55.8291 0.37455 -0.058595
749400 60.2883 179.248 55.8291 0.37465 -0.079036
749600 60.2883 179.261 55.8291 0.37475 -0.0848748
749800 60.2883 179.274 55.8291 0.37485 -0.086865
750000 60.2883 179.287 55.8291 0.37495 -0.0811676
750200 60.2883 179.3 55.8291 0.37505 -0.050976
750400 60.2883 179.313 55.8291 0.37515 -0.0230229
750600 60.2883 179.326 55.8291 0.37525 0.0142435
750800 60.2883 179.339 55.8291 0.37535 0.0186645
751000 60.2883 179.352 55.8291 0.37545 0.0574281
751200 60.2883 179.365 55.8291 0.37555 0.0791827
751400 60.2883 179.378 55.8291 0.37565 0.0964515
751600 60.2883 179.391 55.8291 0.37575 0.087804
751800 60.2883 179.404 55.8291 0.37585 0.0888652
752000 60.2883 179.417 55.8291 0.37595 0.065551
752200 60.2883 179.43 55.8291 0.37605 0.0509303
752400 60.2883 179.443 55.8291 0.37615 0.0282618
752600 60.2883 179.457 55.8291 0.37625 -0.0349262
752800 60.2883 179.47 55.8291 0.37635 -0.0391703
753000 60.2883 179.483 55.8291 0.37645 -0.0485723
753200 60.2883 179.496 55.8291 0.37655 -0.0540675
753400 60.2883 179.509 55.8291 0.37665 -0.0554804
753600 60.2883 179.522 55.8291 0.37675 -0.0950124
753800 60.2883 179.535 55.8291 0.37685 -0.0853892
754000 60.2883 179.548 55.8291 0.37695 -0.0629697
754200 60.2883 179.561 55.8291 0.37705 -0.0366472
754400 60.2883 179.574 55.8291 0.37715 0.0104843
754600 60.2883 179.587 55.8291 0.37725 0.00710665
754800 60.2883 179.6 55.8291 0.37735 0.0223248
755000 60.2883 179.613 55.8291 0.37745 0.0603501
755200 60.2883 179.626 55.8291 0.37755 0.0455976
755400 60.2883 179.639 55.8291 0.37765 0.101644
755600 60.2883 179.652 55.8291 0.37775 0.0913865
755800 60.2883 179.665 55.8291 0.37785 0.076361
756000 60.2883 179.678 55.8291 0.37795 0.088789
756200 60.2883 179.691 55.8291 0.37805 0.0597531
756400 60.2883 179.704 55.8291 0.37815 -0.00782822
756600 60.2883 179.717 55.8291 0.37825 -0.00392553
756800 60.2883 179.73 55.8291 0.37835 -0.0389311
757000 60.2883 179.743 55.8291 0.37845 -0.0641425
757200 60.2883 179.756 55.8291 0.37855 -0.045744
757400 60.2883 179.769 55.8291 0.37865 -0.0733499
757600 60.2883 179.783 55.8291 0.37875 -0.0782409
757800 60.2883 179.796 55.8291 0.37885 -0.0940346
758000 60.2883 179.809 55.8291 0.37895 -0.0706316
758200 60.2883 179.822 55.8291 0.37905 -0.0453725
758400 60.2883 179.835 55.8291 0.37915 0.000180443
758600 60.2883 179.848 55.8291 0.37925 0.0218454
758800 60.2883 179.861 55.8291 0.37935 0.0590597
759000 60.2883 179.874 55.8291 0.37945 0.0595763
759200 60.2883 179.887 55.8291 0.37955 0.0759532
759400 60.2883 179.9 55.8291 0.37965 0.0782045
759600 60.2883 179.913 55.8291 0.37975 0.0791481
759800 60.2883 179.926 55.8291 0.37985 0.100489
760000 60.2883 179.939 55.8291 0.37995 0.0681115
760200 60.2883 179.952 55.8291 0.38005 0.0440998
760400 60.2883 179.965 55.8291 0.38015 0.0160573
760600 60.2883 179.978 55.8291 0.38025 -0.0390164
760800 60.2883 179.991 55.8291 0.38035 -0.0481378
761000 60.2883 180.004 55.8291 0.38045 -0.0687995
761200 60.2883 180.017 55.8291 0.38055 -0.0881011
761400 60.2883 180.03 55.8291 0.38065 -0.0688184
761600 60.2883 180.043 55.8291 0.38075 -0.0799839
761800 60.2883 180.056 55.8291 0.38085 -0.0743032
762000 60.2883 180.069 55.8291 0.38095 -0.0616885
762200 60.2883 180.082 55.8291 0.38105 -0.0269436
762400 60.2883 180.095 55.8291 0.38115 0.00811336
762600 60.2883 180.109 55.8291 0.38125 0.0389944
762800 60.2883 180.122 55.8291 0.38135 0.0658903
763000 60.2883 180.135 55.8291 0.38145 0.0749573
763200 60.2883 180.148 55.8291 0.38155 0.114519
763400 60.2883 180.161 55.8291 0.38165 0.0630641
763600 60.2883 180.174 55.8291 0.38175 0.0716501
763800 60.2883 180.187 55.8291 0.38185 0.0757367
764000 60.2883 180.2 55.8291 0.38195 0.0547088
764200 60.2883 180.213 55.8291 0.38205 0.0130615
764400 60.2883 180.226 55.8291 0.38215 0.00780315
764600 60.2883 180.239 55.8291 0.38225 -0.0254678
764800 60.2883 180.252 55.8291 0.38235 -0.0437438
765000 60.2883 180.265 55.8291 0.38245 -0.0826966
765200 60.2883 180.278 55.8291 0.38255 -0.108357
765400 60.2883 180.291 55.8291 0.38265 -0.0718358
765600 60.2883 180.304 55.8291 0.38275 -0.0618821
765800 60.2883 180.317 55.8291 0.38285 -0.0521025
766000 60.2883 180.33 55.8291 0.38295 -0.0420262
766200 60.2883 180.343 55.8291 0.38305 -0.0245887
766400 60.2883 180.356 55.8291 0.38315 0.0151092
766600 60.2883 180.369 55.8291 0.38325 0.0422436
766800 60.2883 180.382 55.8291 0.38335 0.0715845
767000 60.2883 180.395 55.8291 0.38345 0.0714016
767200 60.2883 180.408 55.8291 0.38355 0.0815684
767400 60.2883 180.421 55.8291 0.38365 0.107809
767600 60.2883 180.434 55.8291 0.38375 0.0593901
767800 60.2883 180.448 55.8291 0.38385 0.0616812
768000 60.2883 180.461 55.8291 0.38395 0.0227111
768200 60.2883 180.474 55.8291 0.38405 0.0165508
768400 60.2883 180.487 55.8291 0.38415 -0.00940837
768600 60.2883 180.5 55.8291 0.38425 -0.0294959
768800 60.2883 180.513 55.8291 0.38435 -0.0615606
769000 60.2883 180.526 55.8291 0.38445 -0.0748083
769200 60.2883 180.539 55.8291 0.38455 -0.0772989
769400 60.2883 180.552 55.8291 0.38465 -0.0729666
769600 60.2883 180.565 55.8291 0.38475 -0.0885047
769800 60.2883 180.578 55.8291 0.38485 -0.0508782
770000 60.2883 180.591 55.8291 0.38495 -0.00791057
770200 60.2883 180.604 55.8291 0.38505 -0.00967164
770400 60.2883 180.617 55.8291 0.38515 0.0411486
770600 60.2883 180.63 55.8291 0.38525 0.0359346
770800 60.2883 180.643 55.8291 0.38535 0.0725474
771000 60.2883 180.656 55.8291 0.38545 0.0809966
771200 60.2883 180.669 55.8291 0.38555 0.0921544
771400 60.2883 180.682 55.8291 0.38565 0.105843
771600 60.2883 180.695 55.8291 0.38575 0.0465996
771800 60.2883 180.708 55.8291 0.38585 0.0719675
772000 60.2883 180.721 55.8291 0.38595 0.035076
772200 60.2883 180.734 55.8291 0.38605 0.00347993
772400 60.2883 180.747 55.8291 0.38615 -0.0493852
772600 60.2883 180.76 55.8291 0.38625 -0.0492433
772800 60.2883 180.774 55.8291 0.38635 -0.0523443
773000 60.2883 180.787 55.8291 0.38645 -0.0837122
773200 60.2883 180.8 55.8291 0.38655 -0.094024
773400 60.2883 180.813 55.8291 0.38665 -0.0740415
773600 60.2883 180.826 55.8291 0.38675 -0.0752603
773800 60.2883 180.839 55.8291 0.38685 -0.0528882
774000 60.2883 180.852 55.8291 0.38695 -0.0247095
774200 60.2883 180.865 55.8291 0.38705 0.00760642
774400 60.2883 180.878 55.8291 0.38715 0.039597
774600 60.2883 180.891 55.8291 0.38725 0.0511745
774800 60.2883 180.904 55.8291 0.38735 0.0726531
775000 60.2883 180.917 55.8291 0.38745 0.106178
775200 60.2883 180.93 55.8291 0.38755 0.0835738
775400 60.2883 180.943 55.8291 0.38765 0.0746294
775600 60.2883 180.956 55.8291 0.38775 0.0931577
775800 60.2883 180.969 55.8291 0.38785 0.0507677
776000 60.2883 180.982 55.8291 0.38795 0.0275783
776200 60.2883 180.995 55.8291 0.38805 -0.0129903
776400 60.2883 181.008 55.8291 0.38815 -0.0284828
776600 60.2883 181.021 55.8291 0.38825 -0.0576101
776800 60.2883 181.034 55.8291 0.38835 -0.0621518
777000 60.2883 181.047 55.8291 0.38845 -0.0657329
777200 60.2883 181.06 55.8291 0.38855 -0.0838264
777400 60.2883 181.073 55.8291 0.38865 -0.0774305
777600 60.2883 181.086 55.8291 0.38875 -0.0684306
777800 60.2883 181.1 55.8291 0.38885 -0.0438982
778000 60.2883 181.113 55.8291 0.38895 -0.0212748
778200 60.2883 181.126 55.8291 0.38905 0.00470489
778400 60.2883 181.139 55.8291 0.38915 0.0371886
778600 60.2883 181.152 55.8291 0.38925 0.0825815
778800 60.2883 181.165 55.8291 0.38935 0.0695289
779000 60.2883 181.178 55.8291 0.38945 0.0702453
779200 60.2883 181.191 55.8291 0.38955 0.0873497
779400 60.2883 181.204 55.8291 0.38965 0.0803119
779600 60.2883 181.217 55.8291 0.38975 0.0493168
779800 60.2883 181.23 55.8291 0.38985 0.0636835
780000 60.2883 181.243 55.8291 0.38995 0.0214338
780200 60.2883 181.256 55.8291 0.39005 -0.00703373
780400 60.2883 181.269 55.8291 0.39015 -0.0382345
780600 60.2883 181.282 55.8291 0.39025 -0.0710437
780800 60.2883 181.295 55.8291 0.39035 -0.0727317
781000 60.2883 181.308 55.8291 0.39045 -0.0749352
781200 60.2883 181.321 55.8291 0.39055 -0.0662128
781400 60.2883 181.334 55.8291 0.39065 -0.0655437
781600 60.2883 181.347 55.8291 0.39075 -0.0755457
781800 60.2883 181.36 55.8291 0.39085 -0.0286231
782000 60.2883 181.373 55.8291 0.39095 -0.0115936
782200 60.2883 181.386 55.8291 0.39105 0.0198387
782400 60.2883 181.399 55.8291 0.39115 0.0452366
782600 60.2883 181.412 55.8291 0.39125 0.0753792
782800 60.2883 181.425 55.8291 0.39135 0.102911
783000 60.2883 181.439 55.8291 0.39145 0.0698549
783200 60.2883 181.452 55.8291 0.39155 0.085446
783400 60.2883 181.465 55.8291 0.39165 0.0634307
783600 60.2883 181.478 55.8291 0.39175 0.0667325
783800 60.2883 181.491 55.8291 0.39185 0.0373956
784000 60.2883 181.504 55.8291 0.39195 0.000771506
784200 60.2883 181.517 55.8291 0.39205 -0.0102313
784400 60.2883 181.53 55.8291 0.39215 -0.0501286
784600 60.2883 181.543 55.8291 0.39225 -0.0515617
784800 60.2883 181.556 55.8291 0.39235 -0.0873994
785000 60.2883 181.569 55.8291 0.39245 -0.0766587
785200 60.2883 181.582 55.8291 0.39255 -0.0709215
785400 60.2883 181.595 55.8291 0.39265 -0.0695773
785600 60.2883 181.608 55.8291 0.39275 -0.0467296
785800 60.2883 181.621 55.8291 0.39285 -0.0139758
786000 60.2883 181.634 55.8291 0.39295 -0.0159939
786200 60.2883 181.647 55.8291 0.39305 0.00364565
786400 60.2883 181.66 55.8291 0.39315 0.0562817
786600 60.2883 181.673 55.8291 0.39325 0.0964762
786800 60.2883 181.686 55.8291 0.39335 0.099536
787000 60.2883 181.699 55.8291 0.39345 0.0687473
787200 60.2883 181.712 55.8291 0.39355 0.0683851
787400 60.2883 181.725 55.8291 0.39365 0.0682668
787600 60.2883 181.738 55.8291 0.39375 0.0348229
787800 60.2883 181.751 55.8291 0.39385 0.0247856
788000 60.2883 181.765 55.8291 0.39395 0.00425934
788200 60.2883 181.778 55.8291 0.39405 -0.0170107
788400 60.2883 181.791 55.8291 0.39415 -0.0349052
788600 60.2883 181.804 55.8291 0.39425 -0.0884078
788800 60.2883 181.817 55.8291 0.39435 -0.0806766
789000 60.2883 181.83 55.8291 0.39445 -0.0721748
789200 60.2883 181.843 55.8291 0.39455 -0.0756942
789400 60.2883 181.856 55.8291 0.39465 -0.0634976
789600 60.2883 181.869 55.8291 0.39475 -0.00327461
789800 60.2883 181.882 55.8291 0.39485 -0.00518808
790000 60.2883 181.895 55.8291 0.39495 0.00383626
790200 60.2883 181.908 55.8291 0.39505 0.040949
790400 60.2883 181.921 55.8291 0.39515 0.0526926
790600 60.2883 181.934 55.8291 0.39525 0.0800343
790800 60.2883 181.947 55.8291 0.39535 0.0930415
791000 60.2883 181.96 55.8291 0.39545 0.0770335
791200 60.2883 181.973 55.8291 0.39555 0.0768382
791400 60.2883 181.986 55.8291 0.39565 0.0715317
791600 60.2883 181.999 55.8291 0.39575 0.0210193
791800 60.2883 182.012 55.8291 0.39585 -0.020719
792000 60.2883 182.025 55.8291 0.39595 -0.0100552
792200 60.2883 182.038 55.8291 0.39605 -0.0286611
792400 60.2883 182.051 55.8291 0.39615 -0.0613261
792600 60.2883 182.064 55.8291 0.39625 -0.05605
792800 60.2883 182.077 55.8291 0.39635 -0.0983863
793000 60.2883 182.091 55.8291 0.39645 -0.0691797
793200 60.2883 182.104 55.8291 0.39655 -0.0758818
793400 60.2883 182.117 55.8291 0.39665 -0.0463329
793600 60.2883 182.13 55.8291 0.39675 -0.00321562
793800 60.2883 182.143 55.8291 0.39685 -0.0070044
794000 60.2883 182.156 55.8291 0.39695 0.0257066
794200 60.2883 182.169 55.8291 0.39705 0.0540909
794400 60.2883 182.182 55.8291 0.39715 0.0516254
794600 60.2883 182.195 55.8291 0.39725 0.0882575
794800 60.2883 182.208 55.8291 0.39735 0.091098
795000 60.2883 182.221 55.8291 0.39745 0.062424
795200 60.2883 182.234 55.8291 0.39755 0.0751219
795400 60.2883 182.247 55.8291 0.39765 0.0460238
795600 60.2883 182.26 55.8291 0.39775 0.0313542
795800 60.2883 182.273 55.8291 0.39785 0.00132202
796000 60.2883 182.286 55.8291 0.39795 -0.0275453
796200 60.2883 182.299 55.8291 0.39805 -0.0370698
796400 60.2883 182.312 55.8291 0.39815 -0.0566181
796600 60.2883 182.325 55.8291 0.39825 -0.0702711
796800 60.2883 182.338 55.8291 0.39835 -0.0815274
797000 60.2883 182.351 55.8291 0.39845 -0.0880611
797200 60.2883 182.364 55.8291 0.39855 -0.0542832
797400 60.2883 182.377 55.8291 0.39865 -0.0521078
797600 60.2883 182.39 55.8291 0.39875 -0.017184
797800 60.2883 182.403 55.8291 0.39885 0.014812
798000 60.2883 182.417 55.8291 0.39895 0.0341007
798200 60.2883 182.43 55.8291 0.39905 0.0770354
798400 60.2883 182.443 55.8291 0.39915 0.0691107
798600 60.2883 182.456 55.8291 0.39925 0.0877281
798800 60.2883 182.469 55.8291 0.39935 0.0581899
799000 60.2883 182.482 55.8291 0.39945 0.0915981
799200 60.2883 182.495 55.8291 0.39955 0.0530463
799400 60.2883 182.508 55.8291 0.39965 0.0463209
799600 60.2883 182.521 55.8291 0.39975 0.0163332
799800 60.2883 182.534 55.8291 0.39985 -0.0104746
800000 60.2883 182.547 55.8291 0.39995 -0.0319786
800200 60.2883 182.56 55.8291 0.40005 -0.0512054
800400 60.2883 182.573 55.8291 0.40015 -0.0654089
800600 60.2883 182.586 55.8291 0.40025 -0.095723
800800 60.2883 182.599 55.8291 0.40035 -0.0801993
801000 60.2883 182.612 55.8291 0.40045 -0.0505887
801200 60.2883 182.625 55.8291 0.40055 -0.0663238
801400 60.2883 182.638 55.8291 0.40065 -0.0330205
801600 60.2883 182.651 55.8291 0.40075 -0.0165918
801800 60.2883 182.664 55.8291 0.40085 0.021427
802000 60.2883 182.677 55.8291 0.40095 0.0340195
802200 60.2883 182.69 55.8291 0.40105 0.0885698
802400 60.2883 182.703 55.8291 0.40115 0.0781553
802600 60.2883 182.716 55.8291 0.40125 0.0883433
802800 60.2883 182.729 55.8291 0.40135 0.121839
803000 60.2883 182.742 55.8291 0.40145 0.0518477
803200 60.2883 182.756 55.8291 0.40155 0.0684222
803400 60.2883 182.769 55.8291 0.40165 0.0201447
803600 60.2883 182.782 55.8291 0.40175 0.0161994
803800 60.2883 182.795 55.8291 0.40185 -0.014954
804000 60.2883 182.808 55.8291 0.40195 -0.040968
804200 60.2883 182.821 55.8291 0.40205 -0.0772144
804400 60.2883 182.834 55.8291 0.40215 -0.0865185
804600 60.2883 182.847 55.8291 0.40225 -0.0793392
804800 60.2883 182.86 55.8291 0.40235 -0.102686
805000 60.2883 182.873 55.8291 0.40245 -0.0487661
805200 60.2883 182.886 55.8291 0.40255 -0.0436607
805400 60.2883 182.899 55.8291 0.40265 -0.0475867
805600 60.2883 182.912 55.8291 0.40275 0.0265584
805800 60.2883 182.925 55.8291 0.40285 0.0119055
806000 60.2883 182.938 55.8291 0.40295 0.0662025
806200 60.2883 182.951 55.8291 0.40305 0.066234
806400 60.2883 182.964 55.8291 0.40315 0.0819885
806600 60.2883 182.977 55.8291 0.40325 0.0996986
806800 60.2883 182.99 55.8291 0.40335 0.0729442
807000 60.2883 183.003 55.8291 0.40345 0.0705689
807200 60.2883 183.016 55.8291 0.40355 0.0505645
807400 60.2883 183.029 55.8291 0.40365 0.0371382
807600 60.2883 183.042 55.8291 0.40375 0.00669514
807800 60.2883 183.055 55.8291 0.40385 -0.0534391
808000 60.2883 183.068 55.8291 0.40395 -0.0439285
808200 60.2883 183.082 55.8291 0.40405 -0.0640281
808400 60.2883 183.095 55.8291 0.40415 -0.071796
808600 60.2883 183.108 55.8291 0.40425 -0.0732749
808800 60.2883 183.121 55.8291 0.40435 -0.0926209
809000 60.2883 183.134 55.8291 0.40445 -0.0513508
809200 60.2883 183.147 55.8291 0.40455 -0.0517008
809400 60.2883 183.16 55.8291 0.40465 -0.00162313
809600 60.2883 183.173 55.8291 0.40475 0.00862842
809800 60.2883 183.186 55.8291 0.40485 0.0305005
810000 60.2883 183.199 55.8291 0.40495 0.0701324
810200 60.2883 183.212 55.8291 0.40505 0.060388
810400 60.2883 183.225 55.8291 0.40515 0.0883509
810600 60.2883 183.238 55.8291 0.40525 0.0959355
810800 60.2883 183.251 55.8291 0.40535 0.0629095
811000 60.2883 183.264 55.8291 0.40545 0.0644762
811200 60.2883 183.277 55.8291 0.40555 0.0500557
811400 60.2883 183.29 55.8291 0.40565 0.00343138
811600 60.2883 183.303 55.8291 0.40575 -0.0193474
811800 60.2883 183.316 55.8291 0.40585 -0.0300295
812000 60.2883 183.329 55.8291 0.40595 -0.0599687
812200 60.2883 183.342 55.8291 0.40605 -0.0597429
812400 60.2883 183.355 55.8291 0.40615 -0.0763277
812600 60.2883 183.368 55.8291 0.40625 -0.0710852
812800 60.2883 183.381 55.8291 0.40635 -0.0729819
813000 60.2883 183.394 55.8291 0.40645 -0.0676663
813200 60.2883 183.408 55.8291 0.40655 0.000763788
813400 60.2883 183.421 55.8291 0.40665 -0.00261869
813600 60.2883 183.434 55.8291 0.40675 0.0242606
813800 60.2883 183.447 55.8291 0.40685 0.0445597
814000 60.2883 183.46 55.8291 0.40695 0.0544608
814200 60.2883 183.473 55.8291 0.40705 0.0821342
814400 60.2883 183.486 55.8291 0.40715 0.0863184
814600 60.2883 183.499 55.8291 0.40725 0.0653499
814800 60.2883 183.512 55.8291 0.40735 0.072844
815000 60.2883 183.525 55.8291 0.40745 0.0437101
815200 60.2883 183.538 55.8291 0.40755 0.036599
815400 60.2883 183.551 55.8291 0.40765 -0.00638413
815600 60.2883 183.564 55.8291 0.40775 -0.0267855
815800 60.2883 183.577 55.8291 0.40785 -0.0406367
816000 60.2883 183.59 55.8291 0.40795 -0.0581541
816200 60.2883 183.603 55.8291 0.40805 -0.0841127
816400 60.2883 183.616 55.8291 0.40815 -0.0573804
816600 60.2883 183.629 55.8291 0.40825 -0.0586071
816800 60.2883 183.642 55.8291 0.40835 -0.0504301
817000 60.2883 183.655 55.8291 0.40845 -0.0475668
817200 60.2883 183.668 55.8291 0.40855 -0.0261976
817400 60.2883 183.681 55.8291 0.40865 0.00753659
817600 60.2883 183.694 55.8291 0.40875 0.039067
817800 60.2883 183.707 55.8291 0.40885 0.057001
818000 60.2883 183.72 55.8291 0.40895 0.0527892
818200 60.2883 183.733 55.8291 0.40905 0.0714855
818400 60.2883 183.747 55.8291 0.40915 0.0855561
818600 60.2883 183.76 55.8291 0.40925 0.0712683
818800 60.2883 183.773 55.8291 0.40935 0.0640602
819000 60.2883 183.786 55.8291 0.40945 0.0288215
819200 60.2883 183.799 55.8291 0.40955 0.0336543
819400 60.2883 183.812 55.8291 0.40965 -0.00583301
819600 60.2883 183.825 55.8291 0.40975 -0.0303368
819800 60.2883 183.838 55.8291 0.40985 -0.0619138
820000 60.2883 183.851 55.8291 0.40995 -0.0585317
820200 60.2883 183.864 55.8291 0.41005 -0.0733288
820400 60.2883 183.877 55.8291 0.41015 -0.0772268
820600 60.2883 183.89 55.8291 0.41025 -0.0630008
820800 60.2883 183.903 55.8291 0.41035 -0.0377221
821000 60.2883 183.916 55.8291 0.41045 -0.0436925
821200 60.2883 183.929 55.8291 0.41055 -0.0254156
821400 60.2883 183.942 55.8291 0.41065 0.0235116
821600 60.2883 183.955 55.8291 0.41075 0.0396952
821800 60.2883 183.968 55.8291 0.41085 0.088525
822000 60.2883 183.981 55.8291 0.41095 0.0515584
822200 60.2883 183.994 55.8291 0.41105 0.0959595
822400 60.2883 184.007 55.8291 0.41115 0.083753
822600 60.2883 184.02 55.8291 0.41125 0.0459705
822800 60.2883 184.033 55.8291 0.41135 0.0422212
823000 60.2883 184.046 55.8291 0.41145 0.0394455
823200 60.2883 184.059 55.8291 0.41155 0.0417918
823400 60.2883 184.073 55.8291 0.41165 -0.0314377
823600 60.2883 184.086 55.8291 0.41175 -0.0301766
823800 60.2883 184.099 55.8291 0.41185 -0.0567875
824000 60.2883 184.112 55.8291 0.41195 -0.0919997
824200 60.2883 184.125 55.8291 0.41205 -0.0815799
824400 60.2883 184.138 55.8291 0.41215 -0.0549162
824600 60.2883 184.151 55.8291 0.41225 -0.037479
824800 60.2883 184.164 55.8291 0.41235 -0.0411655
825000 60.2883 184.177 55.8291 0.41245 -0.0201663
825200 60.2883 184.19 55.8291 0.41255 -0.0129995
825400 60.2883 184.203 55.8291 0.41265 0.0211512
825600 60.2883 184.216 55.8291 0.41275 0.0344267
825800 60.2883 184.229 55.8291 0.41285 0.0639816
826000 60.2883 184.242 55.8291 0.41295 0.0873981
826200 60.2883 184.255 55.8291 0.41305 0.0640708
826400 60.2883 184.268 55.8291 0.41315 0.0635066
826600 60.2883 184.281 55.8291 0.41325 0.0617256
826800 60.2883 184.294 55.8291 0.41335 0.0390931
827000 60.2883 184.307 55.8291 0.41345 0.0237881
827200 60.2883 184.32 55.8291 0.41355 -0.00271692
827400 60.2883 184.333 55.8291 0.41365 -0.0200376
827600 60.2883 184.346 55.8291 0.41375 -0.0329898
827800 60.2883 184.359 55.8291 0.41385 -0.0563522
828000 60.2883 184.372 55.8291 0.41395 -0.0618713
828200 60.2883 184.385 55.8291 0.41405 -0.0775642
828400 60.2883 184.399 55.8291 0.41415 -0.0583297
828600 60.2883 184.412 55.8291 0.41425 -0.0349339
828800 60.2883 184.425 55.8291 0.41435 -0.0137864
829000 60.2883 184.438 55.8291 0.41445 -0.0148753
829200 60.2883 184.451 55.8291 0.41455 0.0042441
829400 60.2883 184.464 55.8291 0.41465 0.0142261
829600 60.2883 184.477 55.8291 0.41475 0.0338388
829800 60.2883 184.49 55.8291 0.41485 0.0655295
830000 60.2883 184.503 55.8291 0.41495 0.0856838
830200 60.2883 184.516 55.8291 0.41505 0.0748593
830400 60.2883 184.529 55.8291 0.41515 0.0585812
830600 60.2883 184.542 55.8291 0.41525 0.0427022
830800 60.2883 184.555 55.8291 0.41535 0.0166918
831000 60.2883 184.568 55.8291 0.41545 0.010312
831200 60.2883 184.581 55.8291 0.41555 0.00806631
831400 60.2883 184.594 55.8291 0.41565 -0.0055853
831600 60.2883 184.607 55.8291 0.41575 -0.0383554
831800 60.2883 184.62 55.8291 0.41585 -0.0417982
832000 60.2883 184.633 55.8291 0.41595 -0.0831802
832200 60.2883 184.646 55.8291 0.41605 -0.0645227
832400 60.2883 184.659 55.8291 0.41615 -0.0657854
832600 60.2883 184.672 55.8291 0.41625 -0.02995
832800 60.2883 184.685 55.8291 0.41635 -0.0252704
833000 60.2883 184.698 55.8291 0.41645 -0.00119293
833200 60.2883 184.711 55.8291 0.41655 0.0120041
833400 60.2883 184.724 55.8291 0.41665 0.0247948
833600 60.2883 184.738 55.8291 0.41675 0.0310704
833800 60.2883 184.751 55.8291 0.41685 0.0565318
834000 60.2883 184.764 55.8291 0.41695 0.0679435
834200 60.2883 184.777 55.8291 0.41705 0.0745517
834400 60.2883 184.79 55.8291 0.41715 0.0652114
834600 60.2883 184.803 55.8291 0.41725 0.0442859
834800 60.2883 184.816 55.8291 0.41735 0.0450806
835000 60.2883 184.829 55.8291 0.41745 -0.0219775
835200 60.2883 184.842 55.8291 0.41755 -0.0150998
835400 60.2883 184.855 55.8291 0.41765 -0.0195955
835600 60.2883 184.868 55.8291 0.41775 -0.0214284
835800 60.2883 184.881 55.8291 0.41785 -0.0611549
836000 60.2883 184.894 55.8291 0.41795 -0.0427234
836200 60.2883 184.907 55.8291 0.41805 -0.0576892
836400 60.2883 184.92 55.8291 0.41815 -0.077053
836600 60.2883 184.933 55.8291 0.41825 -0.0348831
836800 60.2883 184.946 55.8291 0.41835 -0.0130939
837000 60.2883 184.959 55.8291 0.41845 0.00736573
837200 60.2883 184.972 55.8291 0.41855 0.0236477
837400 60.2883 184.985 55.8291 0.41865 0.0349152
837600 60.2883 184.998 55.8291 0.41875 0.0344014
837800 60.2883 185.011 55.8291 0.41885 0.0598464
838000 60.2883 185.024 55.8291 0.41895 0.0505173
838200 60.2883 185.037 55.8291 0.41905 0.075103
838400 60.2883 185.05 55.8291 0.41915 0.0847158
838600 60.2883 185.064 55.8291 0.41925 0.0318092
838800 60.2883 185.077 55.8291 0.41935 0.0226847
839000 60.2883 185.09 55.8291 0.41945 0.00550545
839200 60.2883 185.103 55.8291 0.41955 -0.0174983
839400 60.2883 185.116 55.8291 0.41965 -0.0416147
839600 60.2883 185.129 55.8291 0.41975 -0.0505396
839800 60.2883 185.142 55.8291 0.41985 -0.0559081
840000 60.2883 185.155 55.8291 0.41995 -0.0631738
840200 60.2883 185.168 55.8291 0.42005 -0.0484152
840400 60.2883 185.181 55.8291 0.42015 -0.0698153
840600 60.2883 185.194 55.8291 0.42025 -0.0478155
840800 60.2883 185.207 55.8291 0.42035 -0.0180639
841000 60.2883 185.22 55.8291 0.42045 0.00213485
841200 60.2883 185.233 55.8291 0.42055 0.046001
841400 60.2883 185.246 55.8291 0.42065 0.0509022
841600 60.2883 185.259 55.8291 0.42075 0.0413812
841800 60.2883 185.272 55.8291 0.42085 0.0668032
842000 60.2883 185.285 55.8291 0.42095 0.0710597
842200 60.2883 185.298 55.8291 0.42105 0.0600149
842400 60.2883 185.311 55.8291 0.42115 0.057479
842600 60.2883 185.324 55.8291 0.42125 0.0677943
842800 60.2883 185.337 55.8291 0.42135 0.0342533
843000 60.2883 185.35 55.8291 0.42145 -0.00989159
843200 60.2883 185.363 55.8291 0.42155 -0.0299339
843400 60.2883 185.376 55.8291 0.42165 -0.0546757
843600 60.2883 185.39 55.8291 0.42175 -0.0651349
843800 60.2883 185.403 55.8291 0.42185 -0.0534213
844000 60.2883 185.416 55.8291 0.42195 -0.0656796
844200 60.2883 185.429 55.8291 0.42205 -0.0603313
844400 60.2883 185.442 55.8291 0.42215 -0.0411022
844600 60.2883 185.455 55.8291 0.42225 -0.041388
844800 60.2883 185.468 55.8291 0.42235 -0.0181328
845000 60.2883 185.481 55.8291 0.42245 0.0183665
845200 60.2883 185.494 55.8291 0.42255 0.0412351
845400 60.2883 185.507 55.8291 0.42265 0.0587507
845600 60.2883 185.52 55.8291 0.42275 0.0511655
845800 60.2883 185.533 55.8291 0.42285 0.0895626
846000 60.2883 185.546 55.8291 0.42295 0.0635251
846200 60.2883 185.559 55.8291 0.42305 0.0548443
846400 60.2883 185.572 55.8291 0.42315 0.0434512
846600 60.2883 185.585 55.8291 0.42325 0.0253207
846800 60.2883 185.598 55.8291 0.42335 0.0177031
847000 60.2883 185.611 55.8291 0.42345 -0.0195097
847200 60.2883 185.624 55.8291 0.42355 -0.0428287
847400 60.2883 185.637 55.8291 0.42365 -0.0322334
847600 60.2883 185.65 55.8291 0.42375 -0.0672564
847800 60.2883 185.663 55.8291 0.42385 -0.0599652
848000 60.2883 185.676 55.8291 0.42395 -0.0841794
848200 60.2883 185.689 55.8291 0.42405 -0.0377973
848400 60.2883 185.702 55.8291 0.42415 -0.037712
848600 60.2883 185.716 55.8291 0.42425 -0.0137916
848800 60.2883 185.729 55.8291 0.42435 0.0284877
849000 60.2883 185.742 55.8291 0.42445 0.0209775
849200 60.2883 185.755 55.8291 0.42455 0.0462459
849400 60.2883 185.768 55.8291 0.42465 0.0407424
849600 60.2883 185.781 55.8291 0.42475 0.0754636
849800 60.2883 185.794 55.8291 0.42485 0.0636775
850000 60.2883 185.807 55.8291 0.42495 0.0685197
850200 60.2883 185.82 55.8291 0.42505 0.0477502
850400 60.2883 185.833 55.8291 0.42515 0.0402901
850600 60.2883 185.846 55.8291 0.42525 0.00754394
850800 60.2883 185.859 55.8291 0.42535 -0.0112489
851000 60.2883 185.872 55.8291 0.42545 -0.0210871
851200 60.2883 185.885 55.8291 0.42555 -0.0209127
851400 60.2883 185.898 55.8291 0.42565 -0.0459599
851600 60.2883 185.911 55.8291 0.42575 -0.0557022
851800 60.2883 185.924 55.8291 0.42585 -0.0721585
852000 60.2883 185.937 55.8291 0.42595 -0.0682116
852200 60.2883 185.95 55.8291 0.42605 -0.0357428
852400 60.2883 185.963 55.8291 0.42615 -0.0322913
852600 60.2883 185.976 55.8291 0.42625 -0.00679102
852800 60.2883 185.989 55.8291 0.42635 0.0155911
853000 60.2883 186.002 55.8291 0.42645 0.0244627
853200 60.2883 186.015 55.8291 0.42655 0.0454542
853400 60.2883 186.028 55.8291 0.42665 0.0625101
853600 60.2883 186.041 55.8291 0.42675 0.0593557
853800 60.2883 186.055 55.8291 0.42685 0.0701257
854000 60.2883 186.068 55.8291 0.42695 0.0602361
854200 60.2883 186.081 55.8291 0.42705 0.0447906
854400 60.2883 186.094 55.8291 0.42715 0.0368195
854600 60.2883 186.107 55.8291 0.42725 0.00752243
854800 60.2883 186.12 55.8291 0.42735 -0.0206071
855000 60.2883 186.133 55.8291 0.42745 -0.0253313
855200 60.2883 186.146 55.8291 0.42755 -0.0395007
855400 60.2883 186.159 55.8291 0.42765 -0.0578642
855600 60.2883 186.172 55.8291 0.42775 -0.0788758
855800 60.2883 186.185 55.8291 0.42785 -0.0528546
856000 60.2883 186.198 55.8291 0.42795 -0.0416423
856200 60.2883 186.211 55.8291 0.42805 -0.0416734
856400 60.2883 186.224 55.8291 0.42815 -0.0197366
856600 60.2883 186.237 55.8291 0.42825 0.0113342
856800 60.2883 186.25 55.8291 0.42835 0.0167664
857000 60.2883 186.263 55.8291 0.42845 0.0704226
857200 60.2883 186.276 55.8291 0.42855 0.0563316
857400 60.2883 186.289 55.8291 0.42865 0.0433227
857600 60.2883 186.302 55.8291 0.42875 0.0750187
857800 60.2883 186.315 55.8291 0.42885 0.0612326
858000 60.2883 186.328 55.8291 0.42895 0.0377093
858200 60.2883 186.341 55.8291 0.42905 0.0522278
858400 60.2883 186.354 55.8291 0.42915 0.0183101
858600 60.2883 186.367 55.8291 0.42925 -0.0119484
858800 60.2883 186.381 55.8291 0.42935 -0.0162687
859000 60.2883 186.394 55.8291 0.42945 -0.0522937
859200 60.2883 186.407 55.8291 0.42955 -0.0508908
859400 60.2883 186.42 55.8291 0.42965 -0.0458966
859600 60.2883 186.433 55.8291 0.42975 -0.0790923
859800 60.2883 186.446 55.8291 0.42985 -0.0431775
860000 60.2883 186.459 55.8291 0.42995 -0.0456048
860200 60.2883 186.472 55.8291 0.43005 -0.0326272
860400 60.2883 186.485 55.8291 0.43015 -0.027702
860600 60.2883 186.498 55.8291 0.43025 0.0183641
860800 60.2883 186.511 55.8291 0.43035 0.0294846
861000 60.2883 186.524 55.8291 0.43045 0.055293
861200 60.2883 186.537 55.8291 0.43055 0.0721652
861400 60.2883 186.55 55.8291 0.43065 0.0516094
861600 60.2883 186.563 55.8291 0.43075 0.0689129
861800 60.2883 186.576 55.8291 0.43085 0.0562524
862000 60.2883 186.589 55.8291 0.43095 0.0356305
862200 60.2883 186.602 55.8291 0.43105 0.0410799
862400 60.2883 186.615 55.8291 0.43115 0.0196215
862600 60.2883 186.628 55.8291 0.43125 0.0167505
862800 60.2883 186.641 55.8291 0.43135 -0.0405918
863000 60.2883 186.654 55.8291 0.43145 -0.0387271
863200 60.2883 186.667 55.8291 0.43155 -0.043757
863400 60.2883 186.68 55.8291 0.43165 -0.0475744
863600 60.2883 186.693 55.8291 0.43175 -0.070286
863800 60.2883 186.707 55.8291 0.43185 -0.0581547
864000 60.2883 186.72 55.8291 0.43195 -0.0335527
864200 60.2883 186.733 55.8291 0.43205 -0.032694
864400 60.2883 186.746 55.8291 0.43215 -0.00655086
864600 60.2883 186.759 55.8291 0.43225 0.010991
864800 60.2883 186.772 55.8291 0.43235 0.0453713
865000 60.2883 186.785 55.8291 0.43245 0.033517
865200 60.2883 186.798 55.8291 0.43255 0.0550827
865400 60.2883 186.811 55.8291 0.43265 0.0444268
865600 60.2883 186.824 55.8291 0.43275 0.0641025
865800 60.2883 186.837 55.8291 0.43285 0.0706815
866000 60.2883 186.85 55.8291 0.43295 0.0506712
866200 60.2883 186.863 55.8291 0.43305 0.0398652
866400 60.2883 186.876 55.8291 0.43315 -0.00390148
866600 60.2883 186.889 55.8291 0.43325 -0.0281609
866800 60.2883 186.902 55.8291 0.43335 -0.0470446
867000 60.2883 186.915 55.8291 0.43345 -0.0366898
867200 60.2883 186.928 55.8291 0.43355 -0.0383261
867400 60.2883 186.941 55.8291 0.43365 -0.0312213
867600 60.2883 186.954 55.8291 0.43375 -0.0676913
867800 60.2883 186.967 55.8291 0.43385 -0.0548273
868000 60.2883 186.98 55.8291 0.43395 -0.0435363
868200 60.2883 186.993 55.8291 0.43405 -0.0258632
868400 60.2883 187.006 55.8291 0.43415 0.0279929
868600 60.2883 187.019 55.8291 0.43425 0.0218993
868800 60.2883 187.032 55.8291 0.43435 0.0376618
869000 60.2883 187.046 55.8291 0.43445 0.0695262
869200 60.2883 187.059 55.8291 0.43455 0.0494764
869400 60.2883 187.072 55.8291 0.43465 0.0516029
869600 60.2883 187.085 55.8291 0.43475 0.0701602
869800 60.2883 187.098 55.8291 0.43485 0.0497513
870000 60.2883 187.111 55.8291 0.43495 0.0388387
870200 60.2883 187.124 55.8291 0.43505 0.0264043
870400 60.2883 187.137 55.8291 0.43515 0.00194586
870600 60.2883 187.15 55.8291 0.43525 -0.05643
870800 60.2883 187.163 55.8291 0.43535 -0.0285558
871000 60.2883 187.176 55.8291 0.43545 -0.0547286
871200 60.2883 187.189 55.8291 0.43555 -0.0586424
871400 60.2883 187.202 55.8291 0.43565 -0.0478258
871600 60.2883 187.215 55.8291 0.43575 -0.049645
871800 60.2883 187.228 55.8291 0.43585 -0.0359492
872000 60.2883 187.241 55.8291 0.43595 -0.0322947
872200 60.2883 187.254 55.8291 0.43605 -0.0108445
872400 60.2883 187.267 55.8291 0.43615 0.0158446
872600 60.2883 187.28 55.8291 0.43625 0.0254377
872800 60.2883 187.293 55.8291 0.43635 0.0436815
873000 60.2883 187.306 55.8291 0.43645 0.05127
873200 60.2883 187.319 55.8291 0.43655 0.0724435
873400 60.2883 187.332 55.8291 0.43665 0.0742704
873600 60.2883 187.345 55.8291 0.43675 0.0540668
873800 60.2883 187.358 55.8291 0.43685 0.0428207
874000 60.2883 187.372 55.8291 0.43695 0.0284543
874200 60.2883 187.385 55.8291 0.43705 -0.00526088
874400 60.2883 187.398 55.8291 0.43715 -0.00922258
874600 60.2883 187.411 55.8291 0.43725 -0.0220526
874800 60.2883 187.424 55.8291 0.43735 -0.0342492
875000 60.2883 187.437 55.8291 0.43745 -0.0472629
875200 60.2883 187.45 55.8291 0.43755 -0.0585186
875400 60.2883 187.463 55.8291 0.43765 -0.0532994
875600 60.2883 187.476 55.8291 0.43775 -0.0692774
875800 60.2883 187.489 55.8291 0.43785 -0.0516622
876000 60.2883 187.502 55.8291 0.43795 0.0179281
876200 60.2883 187.515 55.8291 0.43805 0.0112917
876400 60.2883 187.528 55.8291 0.43815 0.00967877
876600 60.2883 187.541 55.8291 0.43825 0.032418
876800 60.2883 187.554 55.8291 0.43835 0.0466269
877000 60.2883 187.567 55.8291 0.43845 0.0404229
877200 60.2883 187.58 55.8291 0.43855 0.066736
877400 60.2883 187.593 55.8291 0.43865 0.0656005
877600 60.2883 187.606 55.8291 0.43875 0.0603343
877800 60.2883 187.619 55.8291 0.43885 0.0560135
878000 60.2883 187.632 55.8291 0.43895 0.021736
878200 60.2883 187.645 55.8291 0.43905 -0.0209041
878400 60.2883 187.658 55.8291 0.43915 -0.0288355
878600 60.2883 187.671 55.8291 0.43925 -0.0472691
878800 60.2883 187.684 55.8291 0.43935 -0.0454015
879000 60.2883 187.698 55.8291 0.43945 -0.0366178
879200 60.2883 187.711 55.8291 0.43955 -0.0464512
879400 60.2883 187.724 55.8291 0.43965 -0.0500488
879600 60.2883 187.737 55.8291 0.43975 -0.0433464
879800 60.2883 187.75 55.8291 0.43985 -0.0476816
880000 60.2883 187.763 55.8291 0.43995 -0.00982872
880200 60.2883 187.776 55.8291 0.44005 0.0015388
880400 60.2883 187.789 55.8291 0.44015 0.0516092
880600 60.2883 187.802 55.8291 0.44025 0.0496631
880800 60.2883 187.815 55.8291 0.44035 0.0609078
881000 60.2883 187.828 55.8291 0.44045 0.049846
881200 60.2883 187.841 55.8291 0.44055 0.059654
881400 60.2883 187.854 55.8291 0.44065 0.0376777
881600 60.2883 187.867 55.8291 0.44075 0.0371576
881800 60.2883 187.88 55.8291 0.44085 0.044404
882000 60.2883 187.893 55.8291 0.44095 0.0270308
882200 60.2883 187.906 55.8291 0.44105 -0.000852218
882400 60.2883 187.919 55.8291 0.44115 -0.0411434
882600 60.2883 187.932 55.8291 0.44125 -0.0485827
882800 60.2883 187.945 55.8291 0.44135 -0.0603522
883000 60.2883 187.958 55.8291 0.44145 -0.0540478
883200 60.2883 187.971 55.8291 0.44155 -0.0232241
883400 60.2883 187.984 55.8291 0.44165 -0.0427331
883600 60.2883 187.997 55.8291 0.44175 -0.0391061
883800 60.2883 188.01 55.8291 0.44185 -0.0279137
884000 60.2883 188.023 55.8291 0.44195 -0.0111215
884200 60.2883 188.037 55.8291 0.44205 0.0179152
884400 60.2883 188.05 55.8291 0.44215 0.0341853
884600 60.2883 188.063 55.8291 0.44225 0.0546846
884800 60.2883 188.076 55.8291 0.44235 0.0390902
885000 60.2883 188.089 55.8291 0.44245 0.0546456
885200 60.2883 188.102 55.8291 0.44255 0.0763442
885400 60.2883 188.115 55.8291 0.44265 0.0492776
885600 60.2883 188.128 55.8291 0.44275 0.0198688
885800 60.2883 188.141 55.8291 0.44285 0.036862
886000 60.2883 188.154 55.8291 0.44295 0.0151409
886200 60.2883 188.167 55.8291 0.44305 -0.0274468
886400 60.2883 188.18 55.8291 0.44315 -0.0419803
886600 60.2883 188.193 55.8291 0.44325 -0.0396564
886800 60.2883 188.206 55.8291 0.44335 -0.0462636
887000 60.2883 188.219 55.8291 0.44345 -0.0476572
887200 60.2883 188.232 55.8291 0.44355 -0.0497561
887400 60.2883 188.245 55.8291 0.44365 -0.0491976
887600 60.2883 188.258 55.8291 0.44375 -0.0451106
887800 60.2883 188.271 55.8291 0.44385 -0.0139316
888000 60.2883 188.284 55.8291 0.44395 -0.00685061
888200 60.2883 188.297 55.8291 0.44405 0.0376677
888400 60.2883 188.31 55.8291 0.44415 0.0470525
888600 60.2883 188.323 55.8291 0.44425 0.06194
888800 60.2883 188.336 55.8291 0.44435 0.0697032
889000 60.2883 188.349 55.8291 0.44445 0.0535008
889200 60.2883 188.363 55.8291 0.44455 0.0450234
889400 60.2883 188.376 55.8291 0.44465 0.0431541
889600 60.2883 188.389 55.8291 0.44475 0.051111
889800 60.2883 188.402 55.8291 0.44485 0.0326511
890000 60.2883 188.415 55.8291 0.44495 0.00418792
890200 60.2883 188.428 55.8291 0.44505 -0.0237185
890400 60.2883 188.441 55.8291 0.44515 -0.0386792
890600 60.2883 188.454 55.8291 0.44525 -0.0674585
890800 60.2883 188.467 55.8291 0.44535 -0.0562592
891000 60.2883 188.48 55.8291 0.44545 -0.0564705
891200 60.2883 188.493 55.8291 0.44555 -0.0449662
891400 60.2883 188.506 55.8291 0.44565 -0.0352749
891600 60.2883 188.519 55.8291 0.44575 -0.057328
891800 60.2883 188.532 55.8291 0.44585 -0.0254917
892000 60.2883 188.545 55.8291 0.44595 0.00528382
892200 60.2883 188.558 55.8291 0.44605 0.0407659
892400 60.2883 188.571 55.8291 0.44615 0.0597933
892600 60.2883 188.584 55.8291 0.44625 0.0521576
892800 60.2883 188.597 55.8291 0.44635 0.0795336
893000 60.2883 188.61 55.8291 0.44645 0.0574868
893200 60.2883 188.623 55.8291 0.44655 0.0612147
893400 60.2883 188.636 55.8291 0.44665 0.0465897
893600 60.2883 188.649 55.8291 0.44675 0.036133
893800 60.2883 188.662 55.8291 0.44685 0.0199657
894000 60.2883 188.675 55.8291 0.44695 -0.0146512
894200 60.2883 188.689 55.8291 0.44705 -0.0332515
894400 60.2883 188.702 55.8291 0.44715 -0.0636024
894600 60.2883 188.715 55.8291 0.44725 -0.0462426
894800 60.2883 188.728 55.8291 0.44735 -0.0535623
895000 60.2883 188.741 55.8291 0.44745 -0.0616183
895200 60.2883 188.754 55.8291 0.44755 -0.0489009
895400 60.2883 188.767 55.8291 0.44765 -0.0290219
895600 60.2883 188.78 55.8291 0.44775 -0.0216297
895800 60.2883 188.793 55.8291 0.44785 -0.00520527
896000 60.2883 188.806 55.8291 0.44795 0.0166249
896200 60.2883 188.819 55.8291 0.44805 0.0494883
896400 60.2883 188.832 55.8291 0.44815 0.0581475
896600 60.2883 188.845 55.8291 0.44825 0.0793675
896800 60.2883 188.858 55.8291 0.44835 0.0455858
897000 60.2883 188.871 55.8291 0.44845 0.0603984
897200 60.2883 188.884 55.8291 0.44855 0.0655922
897400 60.2883 188.897 55.8291 0.44865 0.023637
897600 60.2883 188.91 55.8291 0.44875 0.0341973
897800 60.2883 188.923 55.8291 0.44885 0.000555062
898000 60.2883 188.936 55.8291 0.44895 -0.0469477
898200 60.2883 188.949 55.8291 0.44905 -0.0329085
898400 60.2883 188.962 55.8291 0.44915 -0.0439389
898600 60.2883 188.975 55.8291 0.44925 -0.0656167
898800 60.2883 188.988 55.8291 0.44935 -0.0556084
899000 60.2883 189.001 55.8291 0.44945 -0.0497717
899200 60.2883 189.015 55.8291 0.44955 -0.0339651
899400 60.2883 189.028 55.8291 0.44965 -0.0311566
899600 60.2883 189.041 55.8291 0.44975 -0.0150748
899800 60.2883 189.054 55.8291 0.44985 -0.00680306
900000 60.2883 189.067 55.8291 0.44995 0.0340718
900200 60.2883 189.08 55.8291 0.45005 0.0534165
900400 60.2883 189.093 55.8291 0.45015 0.0659464
900600 60.2883 189.106 55.8291 0.45025 0.0656093
900800 60.2883 189.119 55.8291 0.45035 0.0657353
901000 60.2883 189.132 55.8291 0.45045 0.057504
901200 60.2883 189.145 55.8291 0.45055 0.0241482
901400 60.2883 189.158 55.8291 0.45065 0.0255628
901600 60.2883 189.171 55.8291 0.45075 0.0258605
901800 60.2883 189.184 55.8291 0.45085 0.00322412
902000 60.2883 189.197 55.8291 0.45095 -0.0230746
902200 60.2883 189.21 55.8291 0.45105 -0.0490131
902400 60.2883 189.223 55.8291 0.45115 -0.0694073
902600 60.2883 189.236 55.8291 0.45125 -0.0630609
902800 60.2883 189.249 55.8291 0.45135 -0.0647541
903000 60.2883 189.262 55.8291 0.45145 -0.0404424
903200 60.2883 189.275 55.8291 0.45155 -0.0268544
903400 60.2883 189.288 55.8291 0.45165 -0.011673
903600 60.2883 189.301 55.8291 0.45175 0.0118969
903800 60.2883 189.314 55.8291 0.45185 0.00832363
904000 60.2883 189.327 55.8291 0.45195 0.0344076
904200 60.2883 189.34 55.8291 0.45205 0.032426
904400 60.2883 189.354 55.8291 0.45215 0.0781864
904600 60.2883 189.367 55.8291 0.45225 0.0972828
904800 60.2883 189.38 55.8291 0.45235 0.0558881
905000 60.2883 189.393 55.8291 0.45245 0.0386261
905200 60.2883 189.406 55.8291 0.45255 0.0278664
905400 60.2883 189.419 55.8291 0.45265 0.00848275
905600 60.2883 189.432 55.8291 0.45275 -0.0322764
905800 60.2883 189.445 55.8291 0.45285 -0.00923985
906000 60.2883 189.458 55.8291 0.45295 -0.0356113
906200 60.2883 189.471 55.8291 0.45305 -0.0465586
906400 60.2883 189.484 55.8291 0.45315 -0.0379534
906600 60.2883 189.497 55.8291 0.45325 -0.0577359
906800 60.2883 189.51 55.8291 0.45335 -0.0662377
907000 60.2883 189.523 55.8291 0.45345 -0.0459699
907200 60.2883 189.536 55.8291 0.45355 -0.025722
907400 60.2883 189.549 55.8291 0.45365 0.0236653
907600 60.2883 189.562 55.8291 0.45375 0.0258027
907800 60.2883 189.575 55.8291 0.45385 0.0385401
908000 60.2883 189.588 55.8291 0.45395 0.0435335
908200 60.2883 189.601 55.8291 0.45405 0.0316566
908400 60.2883 189.614 55.8291 0.45415 0.0537266
908600 60.2883 189.627 55.8291 0.45425 0.0667031
908800 60.2883 189.64 55.8291 0.45435 0.0452887
909000 60.2883 189.653 55.8291 0.45445 0.0535758
909200 60.2883 189.666 55.8291 0.45455 0.0315934
909400 60.2883 189.68 55.8291 0.45465 2.92619e-05
909600 60.2883 189.693 55.8291 0.45475 -0.0072692
909800 60.2883 189.706 55.8291 0.45485 -0.0580524
910000 60.2883 189.719 55.8291 0.45495 -0.0445349
910200 60.2883 189.732 55.8291 0.45505 -0.0484563
910400 60.2883 189.745 55.8291 0.45515 -0.0392596
910600 60.2883 189.758 55.8291 0.45525 -0.0504545
910800 60.2883 189.771 55.8291 0.45535 -0.0386154
911000 60.2883 189.784 55.8291 0.45545 -0.0265196
911200 60.2883 189.797 55.8291 0.45555 -0.0303266
911400 60.2883 189.81 55.8291 0.45565 0.00973352
911600 60.2883 189.823 55.8291 0.45575 0.0293264
911800 60.2883 189.836 55.8291 0.45585 0.0322897
912000 60.2883 189.849 55.8291 0.45595 0.0661018
912200 60.2883 189.862 55.8291 0.45605 0.0553788
912400 60.2883 189.875 55.8291 0.45615 0.0350007
912600 60.2883 189.888 55.8291 0.45625 0.0588067
912800 60.2883 189.901 55.8291 0.45635 0.0416753
913000 60.2883 189.914 55.8291 0.45645 0.0436003
913200 60.2883 189.927 55.8291 0.45655 0.0277997
913400 60.2883 189.94 55.8291 0.45665 -0.00999888
913600 60.2883 189.953 55.8291 0.45675 -0.0187739
913800 60.2883 189.966 55.8291 0.45685 -0.0446207
914000 60.2883 189.979 55.8291 0.45695 -0.0590251
914200 60.2883 189.992 55.8291 0.45705 -0.0464552
914400 60.2883 190.006 55.8291 0.45715 -0.0604061
914600 60.2883 190.019 55.8291 0.45725 -0.046948
914800 60.2883 190.032 55.8291 0.45735 -0.0427918
915000 60.2883 190.045 55.8291 0.45745 -0.0141459
915200 60.2883 190.058 55.8291 0.45755 -0.0146531
915400 60.2883 190.071 55.8291 0.45765 0.0226705
915600 60.2883 190.084 55.8291 0.45775 0.0366374
915800 60.2883 190.097 55.8291 0.45785 0.0569684
916000 60.2883 190.11 55.8291 0.45795 0.0666517
916200 60.2883 190.123 55.8291 0.45805 0.0644475
916400 60.2883 190.136 55.8291 0.45815 0.0470208
916600 60.2883 190.149 55.8291 0.45825 0.0587236
916800 60.2883 190.162 55.8291 0.45835 0.0421611
917000 60.2883 190.175 55.8291 0.45845 0.0404098
917200 60.2883 190.188 55.8291 0.45855 -0.00173818
917400 60.2883 190.201 55.8291 0.45865 -0.0279344
917600 60.2883 190.214 55.8291 0.45875 -0.0438162
917800 60.2883 190.227 55.8291 0.45885 -0.0564757
918000 60.2883 190.24 55.8291 0.45895 -0.0664778
918200 60.2883 190.253 55.8291 0.45905 -0.0459476
918400 60.2883 190.266 55.8291 0.45915 -0.0377269
918600 60.2883 190.279 55.8291 0.45925 -0.0442623
918800 60.2883 190.292 55.8291 0.45935 -0.0405433
919000 60.2883 190.305 55.8291 0.45945 -0.0241952
919200 60.2883 190.318 55.8291 0.45955 0.00804639
919400 60.2883 190.331 55.8291 0.45965 0.033866
919600 60.2883 190.345 55.8291 0.45975 0.0454095
919800 60.2883 190.358 55.8291 0.45985 0.0772131
920000 60.2883 190.371 55.8291 0.45995 0.0654845
920200 60.2883 190.384 55.8291 0.46005 0.0310171
920400 60.2883 190.397 55.8291 0.46015 0.0733909
920600 60.2883 190.41 55.8291 0.46025 0.0336832
920800 60.2883 190.423 55.8291 0.46035 0.0228969
921000 60.2883 190.436 55.8291 0.46045 0.0252564
921200 60.2883 190.449 55.8291 0.46055 0.00403252
921400 60.2883 190.462 55.8291 0.46065 -0.0206973
921600 60.2883 190.475 55.8291 0.46075 -0.0502463
921800 60.2883 190.488 55.8291 0.46085 -0.0480057
922000 60.2883 190.501 55.8291 0.46095 -0.0739314
922200 60.2883 190.514 55.8291 0.46105 -0.0363431
922400 60.2883 190.527 55.8291 0.46115 -0.0545311
922600 60.2883 190.54 55.8291 0.46125 -0.0369134
922800 60.2883 190.553 55.8291 0.46135 -0.032985
923000 60.2883 190.566 55.8291 0.46145 -0.00296835
923200 60.2883 190.579 55.8291 0.46155 0.0247295
923400 60.2883 190.592 55.8291 0.46165 0.0373972
923600 60.2883 190.605 55.8291 0.46175 0.0499418
923800 60.2883 190.618 55.8291 0.46185 0.0486066
924000 60.2883 190.631 55.8291 0.46195 0.0715535
924200 60.2883 190.644 55.8291 0.46205 0.064459
924400 60.2883 190.657 55.8291 0.46215 0.0626716
924600 60.2883 190.671 55.8291 0.46225 0.0473731
924800 60.2883 190.684 55.8291 0.46235 0.0282886
925000 60.2883 190.697 55.8291 0.46245 -0.00919461
925200 60.2883 190.71 55.8291 0.46255 -0.0349664
925400 60.2883 190.723 55.8291 0.46265 -0.0297863
925600 60.2883 190.736 55.8291 0.46275 -0.0516949
925800 60.2883 190.749 55.8291 0.46285 -0.0630243
926000 60.2883 190.762 55.8291 0.46295 -0.039745
926200 60.2883 190.775 55.8291 0.46305 -0.0562598
926400 60.2883 190.788 55.8291 0.46315 -0.0417726
926600 60.2883 190.801 55.8291 0.46325 -0.0445261
926800 60.2883 190.814 55.8291 0.46335 0.0035486
927000 60.2883 190.827 55.8291 0.46345 0.0126319
927200 60.2883 190.84 55.8291 0.46355 0.00691761
927400 60.2883 190.853 55.8291 0.46365 0.0498127
927600 60.2883 190.866 55.8291 0.46375 0.0737594
927800 60.2883 190.879 55.8291 0.46385 0.0546756
928000 60.2883 190.892 55.8291 0.46395 0.0574241
928200 60.2883 190.905 55.8291 0.46405 0.0416273
928400 60.2883 190.918 55.8291 0.46415 0.0534425
928600 60.2883 190.931 55.8291 0.46425 0.0361567
928800 60.2883 190.944 55.8291 0.46435 0.0162959
929000 60.2883 190.957 55.8291 0.46445 -0.00196667
929200 60.2883 190.97 55.8291 0.46455 -0.0243898
929400 60.2883 190.983 55.8291 0.46465 -0.0535406
929600 60.2883 190.997 55.8291 0.46475 -0.069961
929800 60.2883 191.01 55.8291 0.46485 -0.0537945
930000 60.2883 191.023 55.8291 0.46495 -0.0525339
930200 60.2883 191.036 55.8291 0.46505 -0.0362771
930400 60.2883 191.049 55.8291 0.46515 -0.035014
930600 60.2883 191.062 55.8291 0.46525 -0.01676
930800 60.2883 191.075 55.8291 0.46535 0.0170089
931000 60.2883 191.088 55.8291 0.46545 0.0231954
931200 60.2883 191.101 55.8291 0.46555 0.0295468
931400 60.2883 191.114 55.8291 0.46565 0.0443072
931600 60.2883 191.127 55.8291 0.46575 0.049917
931800 60.2883 191.14 55.8291 0.46585 0.0709596
932000 60.2883 191.153 55.8291 0.46595 0.0721298
932200 60.2883 191.166 55.8291 0.46605 0.0245839
932400 60.2883 191.179 55.8291 0.46615 0.0400825
932600 60.2883 191.192 55.8291 0.46625 0.00876868
932800 60.2883 191.205 55.8291 0.46635 -0.0118663
933000 60.2883 191.218 55.8291 0.46645 -0.0263238
933200 60.2883 191.231 55.8291 0.46655 -0.0182768
933400 60.2883 191.244 55.8291 0.46665 -0.0430262
933600 60.2883 191.257 55.8291 0.46675 -0.0443923
933800 60.2883 191.27 55.8291 0.46685 -0.0422327
934000 60.2883 191.283 55.8291 0.46695 -0.0567626
934200 60.2883 191.296 55.8291 0.46705 -0.0533236
934400 60.2883 191.309 55.8291 0.46715 -0.0224834
934600 60.2883 191.322 55.8291 0.46725 -0.0163963
934800 60.2883 191.336 55.8291 0.46735 0.0256719
935000 60.2883 191.349 55.8291 0.46745 0.0421728
935200 60.2883 191.362 55.8291 0.46755 0.0358071
935400 60.2883 191.375 55.8291 0.46765 0.064818
935600 60.2883 191.388 55.8291 0.46775 0.0491923
935800 60.2883 191.401 55.8291 0.46785 0.0426167
936000 60.2883 191.414 55.8291 0.46795 0.0505135
936200 60.2883 191.427 55.8291 0.46805 0.0444435
936400 60.2883 191.44 55.8291 0.46815 0.0372267
936600 60.2883 191.453 55.8291 0.46825 0.0147555
936800 60.2883 191.466 55.8291 0.46835 -0.0254329
937000 60.2883 191.479 55.8291 0.46845 -0.019929
937200 60.2883 191.492 55.8291 0.46855 -0.0616922
937400 60.2883 191.505 55.8291 0.46865 -0.0217785
937600 60.2883 191.518 55.8291 0.46875 -0.0420522
937800 60.2883 191.531 55.8291 0.46885 -0.0424325
938000 60.2883 191.544 55.8291 0.46895 -0.0387224
938200 60.2883 191.557 55.8291 0.46905 -0.0451069
938400 60.2883 191.57 55.8291 0.46915 -0.0175685
938600 60.2883 191.583 55.8291 0.46925 -0.00331594
938800 60.2883 191.596 55.8291 0.46935 0.00219509
939000 60.2883 191.609 55.8291 0.46945 0.0373793
939200 60.2883 191.622 55.8291 0.46955 0.03789
939400 60.2883 191.635 55.8291 0.46965 0.0554033
939600 60.2883 191.648 55.8291 0.46975 0.0590832
939800 60.2883 191.662 55.8291 0.46985 0.0417653
940000 60.2883 191.675 55.8291 0.46995 0.0447163
940200 60.2883 191.688 55.8291 0.47005 0.029721
940400 60.2883 191.701 55.8291 0.47015 0.035698
940600 60.2883 191.714 55.8291 0.47025 0.00406812
940800 60.2883 191.727 55.8291 0.47035 -0.00988301
941000 60.2883 191.74 55.8291 0.47045 -0.0161161
941200 60.2883 191.753 55.8291 0.47055 -0.0440457
941400 60.2883 191.766 55.8291 0.47065 -0.0516903
941600 60.2883 191.779 55.8291 0.47075 -0.0394513
941800 60.2883 191.792 55.8291 0.47085 -0.050901
942000 60.2883 191.805 55.8291 0.47095 -0.0325101
942200 60.2883 191.818 55.8291 0.47105 -0.0132114
942400 60.2883 191.831 55.8291 0.47115 -0.0153437
942600 60.2883 191.844 55.8291 0.47125 -0.00342326
942800 60.2883 191.857 55.8291 0.47135 0.0152231
943000 60.2883 191.87 55.8291 0.47145 0.0239636
943200 60.2883 191.883 55.8291 0.47155 0.0542097
943400 60.2883 191.896 55.8291 0.47165 0.0469315
943600 60.2883 191.909 55.8291 0.47175 0.0629393
943800 60.2883 191.922 55.8291 0.47185 0.0577429
944000 60.2883 191.935 55.8291 0.47195 0.0337728
944200 60.2883 191.948 55.8291 0.47205 0.016487
944400 60.2883 191.961 55.8291 0.47215 0.00980607
944600 60.2883 191.974 55.8291 0.47225 -0.00241284
944800 60.2883 191.988 55.8291 0.47235 -0.0226103
945000 60.2883 192.001 55.8291 0.47245 -0.0089375
945200 60.2883 192.014 55.8291 0.47255 -0.0585364
945400 60.2883 192.027 55.8291 0.47265 -0.0418298
945600 60.2883 192.04 55.8291 0.47275 -0.046006
945800 60.2883 192.053 55.8291 0.47285 -0.042283
946000 60.2883 192.066 55.8291 0.47295 -0.02735
946200 60.2883 192.079 55.8291 0.47305 -0.0107003
946400 60.2883 192.092 55.8291 0.47315 -0.00283363
946600 60.2883 192.105 55.8291 0.47325 0.0105879
946800 60.2883 192.118 55.8291 0.47335 0.0313526
947000 60.2883 192.131 55.8291 0.47345 0.0493507
947200 60.2883 192.144 55.8291 0.47355 0.0370269
947400 60.2883 192.157 55.8291 0.47365 0.0476718
947600 60.2883 192.17 55.8291 0.47375 0.0487859
947800 60.2883 192.183 55.8291 0.47385 0.0241181
948000 60.2883 192.196 55.8291 0.47395 0.0467256
948200 60.2883 192.209 55.8291 0.47405 0.0138097
948400 60.2883 192.222 55.8291 0.47415 0.0176413
948600 60.2883 192.235 55.8291 0.47425 -0.0198064
948800 60.2883 192.248 55.8291 0.47435 -0.0401194
949000 60.2883 192.261 55.8291 0.47445 -0.0357861
949200 60.2883 192.274 55.8291 0.47455 -0.0258549
949400 60.2883 192.287 55.8291 0.47465 -0.0234169
949600 60.2883 192.3 55.8291 0.47475 -0.0353936
949800 60.2883 192.314 55.8291 0.47485 -0.0423037
950000 60.2883 192.327 55.8291 0.47495 -0.0163451
950200 60.2883 192.34 55.8291 0.47505 -0.00720863
950400 60.2883 192.353 55.8291 0.47515 0.00211465
950600 60.2883 192.366 55.8291 0.47525 -0.000328734
950800 60.2883 192.379 55.8291 0.47535 0.0456786
951000 60.2883 192.392 55.8291 0.47545 0.0388528
951200 60.2883 192.405 55.8291 0.47555 0.0439941
951400 60.2883 192.418 55.8291 0.47565 0.0383288
951600 60.2883 192.431 55.8291 0.47575 0.0411878
951800 60.2883 192.444 55.8291 0.47585 0.0387212
952000 60.2883 192.457 55.8291 0.47595 0.0233861
952200 60.2883 192.47 55.8291 0.47605 0.00961469
952400 60.2883 192.483 55.8291 0.47615 -0.000202808
952600 60.2883 192.496 55.8291 0.47625 -0.0232421
952800 60.2883 192.509 55.8291 0.47635 -0.0410145
953000 60.2883 192.522 55.8291 0.47645 -0.0265595
953200 60.2883 192.535 55.8291 0.47655 -0.0278042
953400 60.2883 192.548 55.8291 0.47665 -0.031966
953600 60.2883 192.561 55.8291 0.47675 -0.0462922
953800 60.2883 192.574 55.8291 0.47685 -0.0346803
954000 60.2883 192.587 55.8291 0.47695 -0.00232789
954200 60.2883 192.6 55.8291 0.47705 -0.00314302
954400 60.2883 192.613 55.8291 0.47715 0.0138262
954600 60.2883 192.626 55.8291 0.47725 0.0345135
954800 60.2883 192.639 55.8291 0.47735 0.0444763
955000 60.2883 192.653 55.8291 0.47745 0.0189108
955200 60.2883 192.666 55.8291 0.47755 0.0424024
955400 60.2883 192.679 55.8291 0.47765 0.0386297
955600 60.2883 192.692 55.8291 0.47775 0.0510705
955800 60.2883 192.705 55.8291 0.47785 0.0255466
956000 60.2883 192.718 55.8291 0.47795 0.0324821
956200 60.2883 192.731 55.8291 0.47805 0.0118009
956400 60.2883 192.744 55.8291 0.47815 -0.0278228
956600 60.2883 192.757 55.8291 0.47825 -0.0227328
956800 60.2883 192.77 55.8291 0.47835 -0.0258099
957000 60.2883 192.783 55.8291 0.47845 -0.0266405
957200 60.2883 192.796 55.8291 0.47855 -0.0552416
957400 60.2883 192.809 55.8291 0.47865 -0.0337961
957600 60.2883 192.822 55.8291 0.47875 -0.0313576
957800 60.2883 192.835 55.8291 0.47885 -0.0215033
958000 60.2883 192.848 55.8291 0.47895 -0.0156779
958200 60.2883 192.861 55.8291 0.47905 0.0206282
958400 60.2883 192.874 55.8291 0.47915 0.0162524
958600 60.2883 192.887 55.8291 0.47925 0.0173832
958800 60.2883 192.9 55.8291 0.47935 0.0354896
959000 60.2883 192.913 55.8291 0.47945 0.0322358
959200 60.2883 192.926 55.8291 0.47955 0.0528968
959400 60.2883 192.939 55.8291 0.47965 0.0407142
959600 60.2883 192.952 55.8291 0.47975 0.0276755
959800 60.2883 192.965 55.8291 0.47985 0.0343794
960000 60.2883 192.979 55.8291 0.47995 0.0247272
960200 60.2883 192.992 55.8291 0.48005 0.00218791
960400 60.2883 193.005 55.8291 0.48015 -0.0216822
960600 60.2883 193.018 55.8291 0.48025 -0.0157639
960800 60.2883 193.031 55.8291 0.48035 -0.0482426
961000 60.2883 193.044 55.8291 0.48045 -0.0315001
961200 60.2883 193.057 55.8291 0.48055 -0.0273514
961400 60.2883 193.07 55.8291 0.48065 -0.0407443
961600 60.2883 193.083 55.8291 0.48075 -0.0404265
961800 60.2883 193.096 55.8291 0.48085 -0.0181204
962000 60.2883 193.109 55.8291 0.48095 0.0096149
962200 60.2883 193.122 55.8291 0.48105 -0.00408321
962400 60.2883 193.135 55.8291 0.48115 0.0267158
962600 60.2883 193.148 55.8291 0.48125 0.0384981
962800 60.2883 193.161 55.8291 0.48135 0.0335807
963000 60.2883 193.174 55.8291 0.48145 0.0527873
963200 60.2883 193.187 55.8291 0.48155 0.0403917
963400 60.2883 193.2 55.8291 0.48165 0.0288268
963600 60.2883 193.213 55.8291 0.48175 0.0512591
963800 60.2883 193.226 55.8291 0.48185 0.0163965
964000 60.2883 193.239 55.8291 0.48195 0.00121618
964200 60.2883 193.252 55.8291 0.48205 -0.00958891
964400 60.2883 193.265 55.8291 0.48215 -0.0136331
964600 60.2883 193.278 55.8291 0.48225 -0.0291302
964800 60.2883 193.291 55.8291 0.48235 -0.0282157
965000 60.2883 193.305 55.8291 0.48245 -0.0367766
965200 60.2883 193.318 55.8291 0.48255 -0.0402035
965400 60.2883 193.331 55.8291 0.48265 -0.0517723
965600 60.2883 193.344 55.8291 0.48275 -0.0327258
965800 60.2883 193.357 55.8291 0.48285 -0.00492299
966000 60.2883 193.37 55.8291 0.48295 0.0014292
966200 60.2883 193.383 55.8291 0.48305 0.0201964
966400 60.2883 193.396 55.8291 0.48315 0.0290947
966600 60.2883 193.409 55.8291 0.48325 0.0421481
966800 60.2883 193.422 55.8291 0.48335 0.0175108
967000 60.2883 193.435 55.8291 0.48345 0.0561624
967200 60.2883 193.448 55.8291 0.48355 0.0436962
967400 60.2883 193.461 55.8291 0.48365 0.049474
967600 60.2883 193.474 55.8291 0.48375 0.0411155
967800 60.2883 193.487 55.8291 0.48385 0.0375252
968000 60.2883 193.5 55.8291 0.48395 -0.0238118
968200 60.2883 193.513 55.8291 0.48405 -0.0100421
968400 60.2883 193.526 55.8291 0.48415 -0.0349544
968600 60.2883 193.539 55.8291 0.48425 -0.0508414
968800 60.2883 193.552 55.8291 0.48435 -0.0105352
969000 60.2883 193.565 55.8291 0.48445 -0.0339432
969200 60.2883 193.578 55.8291 0.48455 -0.0507108
969400 60.2883 193.591 55.8291 0.48465 -0.0299973
969600 60.2883 193.604 55.8291 0.48475 -0.0379812
969800 60.2883 193.617 55.8291 0.48485 -0.0214536
970000 60.2883 193.63 55.8291 0.48495 0.0132757
970200 60.2883 193.644 55.8291 0.48505 0.0324222
970400 60.2883 193.657 55.8291 0.48515 0.038421
970600 60.2883 193.67 55.8291 0.48525 0.0542937
970800 60.2883 193.683 55.8291 0.48535 0.0516858
971000 60.2883 193.696 55.8291 0.48545 0.0339571
971200 60.2883 193.709 55.8291 0.48555 0.0398454
971400 60.2883 193.722 55.8291 0.48565 0.0476429
971600 60.2883 193.735 55.8291 0.48575 0.0131519
971800 60.2883 193.748 55.8291 0.48585 0.0215322
972000 60.2883 193.761 55.8291 0.48595 -0.00631045
972200 60.2883 193.774 55.8291 0.48605 -0.0225029
972400 60.2883 193.787 55.8291 0.48615 -0.0414729
972600 60.2883 193.8 55.8291 0.48625 -0.0471852
972800 60.2883 193.813 55.8291 0.48635 -0.0465754
973000 60.2883 193.826 55.8291 0.48645 -0.0395382
973200 60.2883 193.839 55.8291 0.48655 -0.0443928
973400 60.2883 193.852 55.8291 0.48665 -0.0333348
973600 60.2883 193.865 55.8291 0.48675 -0.00296221
973800 60.2883 193.878 55.8291 0.48685 0.00282325
974000 60.2883 193.891 55.8291 0.48695 0.0100706
974200 60.2883 193.904 55.8291 0.48705 0.0232231
974400 60.2883 193.917 55.8291 0.48715 0.0425723
974600 60.2883 193.93 55.8291 0.48725 0.063021
974800 60.2883 193.943 55.8291 0.48735 0.0753012
975000 60.2883 193.956 55.8291 0.48745 0.0549849
975200 60.2883 193.97 55.8291 0.48755 0.0499087
975400 60.2883 193.983 55.8291 0.48765 0.0317444
975600 60.2883 193.996 55.8291 0.48775 -0.00306362
975800 60.2883 194.009 55.8291 0.48785 0.000914853
976000 60.2883 194.022 55.8291 0.48795 -0.0154529
976200 60.2883 194.035 55.8291 0.48805 -0.0228769
976400 60.2883 194.048 55.8291 0.48815 -0.026602
976600 60.2883 194.061 55.8291 0.48825 -0.0692058
976800 60.2883 194.074 55.8291 0.48835 -0.0603506
977000 60.2883 194.087 55.8291 0.48845 -0.064677
977200 60.2883 194.1 55.8291 0.48855 -0.0409247
977400 60.2883 194.113 55.8291 0.48865 -0.0151428
977600 60.2883 194.126 55.8291 0.48875 -0.00697594
977800 60.2883 194.139 55.8291 0.48885 0.01535
978000 60.2883 194.152 55.8291 0.48895 0.0337783
978200 60.2883 194.165 55.8291 0.48905 0.0274767
978400 60.2883 194.178 55.8291 0.48915 0.0771829
978600 60.2883 194.191 55.8291 0.48925 0.0487135
978800 60.2883 194.204 55.8291 0.48935 0.057816
979000 60.2883 194.217 55.8291 0.48945 0.0657957
979200 60.2883 194.23 55.8291 0.48955 0.0309199
979400 60.2883 194.243 55.8291 0.48965 0.0198858
979600 60.2883 194.256 55.8291 0.48975 0.00590792
979800 60.2883 194.269 55.8291 0.48985 -0.0130858
980000 60.2883 194.282 55.8291 0.48995 -0.0301012
980200 60.2883 194.296 55.8291 0.49005 -0.0356452
980400 60.2883 194.309 55.8291 0.49015 -0.0342806
980600 60.2883 194.322 55.8291 0.49025 -0.036941
980800 60.2883 194.335 55.8291 0.49035 -0.076699
981000 60.2883 194.348 55.8291 0.49045 -0.0420104
981200 60.2883 194.361 55.8291 0.49055 -0.0445088
981400 60.2883 194.374 55.8291 0.49065 -0.0190397
981600 60.2883 194.387 55.8291 0.49075 0.0090778
981800 60.2883 194.4 55.8291 0.49085 0.0188689
982000 60.2883 194.413 55.8291 0.49095 0.0287873
982200 60.2883 194.426 55.8291 0.49105 0.0576706
982400 60.2883 194.439 55.8291 0.49115 0.0566105
982600 60.2883 194.452 55.8291 0.49125 0.0531988
982800 60.2883 194.465 55.8291 0.49135 0.0726997
983000 60.2883 194.478 55.8291 0.49145 0.0532166
983200 60.2883 194.491 55.8291 0.49155 0.0373347
983400 60.2883 194.504 55.8291 0.49165 -0.00450371
983600 60.2883 194.517 55.8291 0.49175 -0.00577317
983800 60.2883 194.53 55.8291 0.49185 -0.00739429
984000 60.2883 194.543 55.8291 0.49195 -0.00977372
984200 60.2883 194.556 55.8291 0.49205 -0.0429615
984400 60.2883 194.569 55.8291 0.49215 -0.0627515
984600 60.2883 194.582 55.8291 0.49225 -0.0608827
984800 60.2883 194.595 55.8291 0.49235 -0.0644905
985000 60.2883 194.608 55.8291 0.49245 -0.0382554
985200 60.2883 194.621 55.8291 0.49255 -0.00847173
985400 60.2883 194.635 55.8291 0.49265 -0.0275328
985600 60.2883 194.648 55.8291 0.49275 0.0196869
985800 60.2883 194.661 55.8291 0.49285 0.0330146
986000 60.2883 194.674 55.8291 0.49295 0.0301415
986200 60.2883 194.687 55.8291 0.49305 0.0482412
986400 60.2883 194.7 55.8291 0.49315 0.0508244
986600 60.2883 194.713 55.8291 0.49325 0.0705922
986800 60.2883 194.726 55.8291 0.49335 0.0544534
987000 60.2883 194.739 55.8291 0.49345 0.0510208
987200 60.2883 194.752 55.8291 0.49355 0.02853
987400 60.2883 194.765 55.8291 0.49365 0.0169649
987600 60.2883 194.778 55.8291 0.49375 -0.00515625
987800 60.2883 194.791 55.8291 0.49385 -0.0454393
988000 60.2883 194.804 55.8291 0.49395 -0.0406277
988200 60.2883 194.817 55.8291 0.49405 -0.0336187
988400 60.2883 194.83 55.8291 0.49415 -0.0347687
988600 60.2883 194.843 55.8291 0.49425 -0.060591
988800 60.2883 194.856 55.8291 0.49435 -0.0548317
989000 60.2883 194.869 55.8291 0.49445 -0.0493321
989200 60.2883 194.882 55.8291 0.49455 -0.0379228
989400 60.2883 194.895 55.8291 0.49465 -0.004386
989600 60.2883 194.908 55.8291 0.49475 0.0425616
989800 60.2883 194.921 55.8291 0.49485 0.0442482
990000 60.2883 194.934 55.8291 0.49495 0.0545205
990200 60.2883 194.947 55.8291 0.49505 0.0457712
990400 60.2883 194.961 55.8291 0.49515 0.0538995
990600 60.2883 194.974 55.8291 0.49525 0.058542
990800 60.2883 194.987 55.8291 0.49535 0.0569587
991000 60.2883 195 55.8291 0.49545 0.0547507
991200 60.2883 195.013 55.8291 0.49555 0.00535496
991400 60.2883 195.026 55.8291 0.49565 0.0101823
991600 60.2883 195.039 55.8291 0.49575 -0.0190236
991800 60.2883 195.052 55.8291 0.49585 -0.0357579
992000 60.2883 195.065 55.8291 0.49595 -0.0501892
992200 60.2883 195.078 55.8291 0.49605 -0.0586219
992400 60.2883 195.091 55.8291 0.49615 -0.0414182
992600 60.2883 195.104 55.8291 0.49625 -0.0702507
992800 60.2883 195.117 55.8291 0.49635 -0.0454897
993000 60.2883 195.13 55.8291 0.49645 -0.0313819
993200 60.2883 195.143 55.8291 0.49655 -0.0151209
993400 60.2883 195.156 55.8291 0.49665 0.0148655
993600 60.2883 195.169 55.8291 0.49675 0.0272988
993800 60.2883 195.182 55.8291 0.49685 0.0432762
994000 60.2883 195.195 55.8291 0.49695 0.0550132
994200 60.2883 195.208 55.8291 0.49705 0.0730126
994400 60.2883 195.221 55.8291 0.49715 0.0645809
994600 60.2883 195.234 55.8291 0.49725 0.0675682
994800 60.2883 195.247 55.8291 0.49735 0.0484269
995000 60.2883 195.26 55.8291 0.49745 0.0292765
995200 60.2883 195.273 55.8291 0.49755 0.019452
995400 60.2883 195.287 55.8291 0.49765 -0.00754565
995600 60.2883 195.3 55.8291 0.49775 -0.0406879
995800 60.2883 195.313 55.8291 0.49785 -0.0372913
996000 60.2883 195.326 55.8291 0.49795 -0.0675771
996200 60.2883 195.339 55.8291 0.49805 -0.0404769
996400 60.2883 195.352 55.8291 0.49815 -0.070798
996600 60.2883 195.365 55.8291 0.49825 -0.0394622
996800 60.2883 195.378 55.8291 0.49835 -0.0311784
997000 60.2883 195.391 55.8291 0.49845 -0.0341905
997200 60.2883 195.404 55.8291 0.49855 -0.00626349
997400 60.2883 195.417 55.8291 0.49865 0.0227745
997600 60.2883 195.43 55.8291 0.49875 0.0240073
997800 60.2883 195.443 55.8291 0.49885 0.0708936
998000 60.2883 195.456 55.8291 0.49895 0.0478033
998200 60.2883 195.469 55.8291 0.49905 0.0633651
998400 60.2883 195.482 55.8291 0.49915 0.0429946
998600 60.2883 195.495 55.8291 0.49925 0.0541744
998800 60.2883 195.508 55.8291 0.49935 0.0585972
999000 60.2883 195.521 55.8291 0.49945 0.0132603
999200 60.2883 195.534 55.8291 0.49955 0.018916
999400 60.2883 195.547 55.8291 0.49965 -0.0250063
999600 60.2883 195.56 55.8291 0.49975 -0.0272333
999800 60.2883 195.573 55.8291 0.49985 -0.0519655
1000000 60.2883 195.586 55.8291 0.49995 -0.0465544
1000200 60.2883 195.599 55.8291 0.50005 -0.0487492
1000400 60.2883 195.613 55.8291 0.50015 -0.0347426
1000600 60.2883 195.626 55.8291 0.50025 -0.0426102
1000800 60.2883 195.639 55.8291 0.50035 -0.0535001
1001000 60.2883 195.652 55.8291 0.50045 -0.0289632
1001200 60.2883 195.665 55.8291 0.50055 0.00629993
1001400 60.2883 195.678 55.8291 0.50065 0.0189143
1001600 60.2883 195.691 55.8291 0.50075 0.0524593
1001800 60.2883 195.704 55.8291 0.50085 0.0552214
1002000 60.2883 195.717 55.8291 0.50095 0.0510276
1002200 60.2883 195.73 55.8291 0.50105 0.0471984
1002400 60.2883 195.743 55.8291 0.50115 0.0617955
1002600 60.2883 195.756 55.8291 0.50125 0.0713664
1002800 60.2883 195.769 55.8291 0.50135 0.041603
1003000 60.2883 195.782 55.8291 0.50145 0.0134337
1003200 60.2883 195.795 55.8291 0.50155 0.00120477
1003400 60.2883 195.808 55.8291 0.50165 -0.0289098
1003600 60.2883 195.821 55.8291 0.50175 -0.02987
1003800 60.2883 195.834 55.8291 0.50185 -0.0653039
1004000 60.2883 195.847 55.8291 0.50195 -0.065734
1004200 60.2883 195.86 55.8291 0.50205 -0.043784
1004400 60.2883 195.873 55.8291 0.50215 -0.0540106
1004600 60.2883 195.886 55.8291 0.50225 -0.0174215
1004800 60.2883 195.899 55.8291 0.50235 -0.0408942
1005000 60.2883 195.912 55.8291 0.50245 -0.00389051
1005200 60.2883 195.925 55.8291 0.50255 0.0125243
1005400 60.2883 195.938 55.8291 0.50265 0.0293402
1005600 60.2883 195.952 55.8291 0.50275 0.038855
1005800 60.2883 195.965 55.8291 0.50285 0.0690663
1006000 60.2883 195.978 55.8291 0.50295 0.0535561
1006200 60.2883 195.991 55.8291 0.50305 0.0727247
1006400 60.2883 196.004 55.8291 0.50315 0.0637608
1006600 60.2883 196.017 55.8291 0.50325 0.0271439
1006800 60.2883 196.03 55.8291 0.50335 0.0142377
1007000 60.2883 196.043 55.8291 0.50345 0.00572034
1007200 60.2883 196.056 55.8291 0.50355 0.00606147
1007400 60.2883 196.069 55.8291 0.50365 -0.0276199
1007600 60.2883 196.082 55.8291 0.50375 -0.0406207
1007800 60.2883 196.095 55.8291 0.50385 -0.0629699
1008000 60.2883 196.108 55.8291 0.50395 -0.0612428
1008200 60.2883 196.121 55.8291 0.50405 -0.0570116
1008400 60.2883 196.134 55.8291 0.50415 -0.0412656
1008600 60.2883 196.147 55.8291 0.50425 -0.0280872
1008800 60.2883 196.16 55.8291 0.50435 -0.00867202
1009000 60.2883 196.173 55.8291 0.50445 4.87995e-06
1009200 60.2883 196.186 55.8291 0.50455 0.0274933
1009400 60.2883 196.199 55.8291 0.50465 0.0300202
1009600 60.2883 196.212 55.8291 0.50475 0.0516125
1009800 60.2883 196.225 55.8291 0.50485 0.0708291
1010000 60.2883 196.238 55.8291 0.50495 0.0655861
1010200 60.2883 196.251 55.8291 0.50505 0.0722458
1010400 60.2883 196.264 55.8291 0.50515 0.0337802
1010600 60.2883 196.278 55.8291 0.50525 0.0282024
1010800 60.2883 196.291 55.8291 0.50535 0.005098
1011000 60.2883 196.304 55.8291 0.50545 -0.0103773
1011200 60.2883 196.317 55.8291 0.50555 -0.0139073
1011400 60.2883 196.33 55.8291 0.50565 -0.0274888
1011600 60.2883 196.343 55.8291 0.50575 -0.0401945
1011800 60.2883 196.356 55.8291 0.50585 -0.0593286
1012000 60.2883 196.369 55.8291 0.50595 -0.0732161
1012200 60.2883 196.382 55.8291 0.50605 -0.0483463
1012400 60.2883 196.395 55.8291 0.50615 -0.0674496
1012600 60.2883 196.408 55.8291 0.50625 -0.0022381
1012800 60.2883 196.421 55.8291 0.50635 0.008192
1013000 60.2883 196.434 55.8291 0.50645 0.0156087
1013200 60.2883 196.447 55.8291 0.50655 0.0280255
1013400 60.2883 196.46 55.8291 0.50665 0.0461986
1013600 60.2883 196.473 55.8291 0.50675 0.0484731
1013800 60.2883 196.486 55.8291 0.50685 0.0642849
1014000 60.2883 196.499 55.8291 0.50695 0.0791891
1014200 60.2883 196.512 55.8291 0.50705 0.0447207
1014400 60.2883 196.525 55.8291 0.50715 0.0595514
1014600 60.2883 196.538 55.8291 0.50725 0.0232225
1014800 60.2883 196.551 55.8291 0.50735 0.0131496
1015000 60.2883 196.564 55.8291 0.50745 -0.0229742
1015200 60.2883 196.577 55.8291 0.50755 -0.0432451
1015400 60.2883 196.59 55.8291 0.50765 -0.0245895
1015600 60.2883 196.604 55.8291 0.50775 -0.0658899
1015800 60.2883 196.617 55.8291 0.50785 -0.0646266
1016000 60.2883 196.63 55.8291 0.50795 -0.0503051
1016200 60.2883 196.643 55.8291 0.50805 -0.0438789
1016400 60.2883 196.656 55.8291 0.50815 -0.0470854
1016600 60.2883 196.669 55.8291 0.50825 -0.00895287
1016800 60.2883 196.682 55.8291 0.50835 0.00429454
1017000 60.2883 196.695 55.8291 0.50845 0.0306011
1017200 60.2883 196.708 55.8291 0.50855 0.0555165
1017400 60.2883 196.721 55.8291 0.50865 0.0647657
1017600 60.2883 196.734 55.8291 0.50875 0.0538902
1017800 60.2883 196.747 55.8291 0.50885 0.0458471
1018000 60.2883 196.76 55.8291 0.50895 0.0610669
1018200 60.2883 196.773 55.8291 0.50905 0.0526195
1018400 60.2883 196.786 55.8291 0.50915 0.0404467
1018600 60.2883 196.799 55.8291 0.50925 0.0115533
1018800 60.2883 196.812 55.8291 0.50935 -0.0199441
1019000 60.2883 196.825 55.8291 0.50945 -0.019775
1019200 60.2883 196.838 55.8291 0.50955 -0.0314385
1019400 60.2883 196.851 55.8291 0.50965 -0.0669558
1019600 60.2883 196.864 55.8291 0.50975 -0.0526616
1019800 60.2883 196.877 55.8291 0.50985 -0.0458184
1020000 60.2883 196.89 55.8291 0.50995 -0.048908
1020200 60.2883 196.903 55.8291 0.51005 -0.0520596
1020400 60.2883 196.916 55.8291 0.51015 -0.0207908
1020600 60.2883 196.929 55.8291 0.51025 0.000196254
1020800 60.2883 196.943 55.8291 0.51035 0.0175731
1021000 60.2883 196.956 55.8291 0.51045 0.045796
1021200 60.2883 196.969 55.8291 0.51055 0.0603551
1021400 60.2883 196.982 55.8291 0.51065 0.0515426
1021600 60.2883 196.995 55.8291 0.51075 0.0539448
1021800 60.2883 197.008 55.8291 0.51085 0.0605593
1022000 60.2883 197.021 55.8291 0.51095 0.0635908
1022200 60.2883 197.034 55.8291 0.51105 0.0336752
1022400 60.2883 197.047 55.8291 0.51115 0.0386351
1022600 60.2883 197.06 55.8291 0.51125 -0.00681075
1022800 60.2883 197.073 55.8291 0.51135 -0.00580068
1023000 60.2883 197.086 55.8291 0.51145 -0.0525829
1023200 60.2883 197.099 55.8291 0.51155 -0.0319319
1023400 60.2883 197.112 55.8291 0.51165 -0.0486676
1023600 60.2883 197.125 55.8291 0.51175 -0.0764313
1023800 60.2883 197.138 55.8291 0.51185 -0.0600262
1024000 60.2883 197.151 55.8291 0.51195 -0.0330058
1024200 60.2883 197.164 55.8291 0.51205 -0.0369834
1024400 60.2883 197.177 55.8291 0.51215 -0.0148751
1024600 60.2883 197.19 55.8291 0.51225 0.0164663
1024800 60.2883 197.203 55.8291 0.51235 0.0196197
1025000 60.2883 197.216 55.8291 0.51245 0.0482398
1025200 60.2883 197.229 55.8291 0.51255 0.0499105
1025400 60.2883 197.242 55.8291 0.51265 0.068218
1025600 60.2883 197.255 55.8291 0.51275 0.0505877
1025800 60.2883 197.269 55.8291 0.51285 0.0712939
1026000 60.2883 197.282 55.8291 0.51295 0.0535022
1026200 60.2883 197.295 55.8291 0.51305 0.0207948
1026400 60.2883 197.308 55.8291 0.51315 0.0257747
1026600 60.2883 197.321 55.8291 0.51325 -0.0307211
1026800 60.2883 197.334 55.8291 0.51335 -0.0187973
1027000 60.2883 197.347 55.8291 0.51345 -0.0456441
1027200 60.2883 197.36 55.8291 0.51355 -0.0334597
1027400 60.2883 197.373 55.8291 0.51365 -0.0485249
1027600 60.2883 197.386 55.8291 0.51375 -0.0372945
1027800 60.2883 197.399 55.8291 0.51385 -0.0480201
1028000 60.2883 197.412 55.8291 0.51395 -0.0477703
1028200 60.2883 197.425 55.8291 0.51405 -0.00590091
1028400 60.2883 197.438 55.8291 0.51415 -0.00896174
1028600 60.2883 197.451 55.8291 0.51425 0.0102427
1028800 60.2883 197.464 55.8291 0.51435 0.0263899
1029000 60.2883 197.477 55.8291 0.51445 0.0502978
1029200 60.2883 197.49 55.8291 0.51455 0.0546695
1029400 60.2883 197.503 55.8291 0.51465 0.0541954
1029600 60.2883 197.516 55.8291 0.51475 0.0532052
1029800 60.2883 197.529 55.8291 0.51485 0.046065
1030000 60.2883 197.542 55.8291 0.51495 0.029713
1030200 60.2883 197.555 55.8291 0.51505 0.0312994
1030400 60.2883 197.568 55.8291 0.51515 0.00830161
1030600 60.2883 197.581 55.8291 0.51525 -0.0268538
1030800 60.2883 197.595 55.8291 0.51535 -0.0294661
1031000 60.2883 197.608 55.8291 0.51545 -0.0426396
1031200 60.2883 197.621 55.8291 0.51555 -0.048341
1031400 60.2883 197.634 55.8291 0.51565 -0.0345726
1031600 60.2883 197.647 55.8291 0.51575 -0.0437197
1031800 60.2883 197.66 55.8291 0.51585 -0.0404096
1032000 60.2883 197.673 55.8291 0.51595 -0.0190662
1032200 60.2883 197.686 55.8291 0.51605 -0.0257241
1032400 60.2883 197.699 55.8291 0.51615 0.00543665
1032600 60.2883 197.712 55.8291 0.51625 0.0245347
1032800 60.2883 197.725 55.8291 0.51635 0.0401879
1033000 60.2883 197.738 55.8291 0.51645 0.0552252
1033200 60.2883 197.751 55.8291 0.51655 0.075499
1033400 60.2883 197.764 55.8291 0.51665 0.0373815
1033600 60.2883 197.777 55.8291 0.51675 0.0390361
1033800 60.2883 197.79 55.8291 0.51685 0.0566204
1034000 60.2883 197.803 55.8291 0.51695 0.00517752
1034200 60.2883 197.816 55.8291 0.51705 0.0216834
1034400 60.2883 197.829 55.8291 0.51715 0.0054102
1034600 60.2883 197.842 55.8291 0.51725 -0.0289108
1034800 60.2883 197.855 55.8291 0.51735 -0.0243733
1035000 60.2883 197.868 55.8291 0.51745 -0.0724916
1035200 60.2883 197.881 55.8291 0.51755 -0.0425036
1035400 60.2883 197.894 55.8291 0.51765 -0.0184606
1035600 60.2883 197.907 55.8291 0.51775 -0.0537298
1035800 60.2883 197.92 55.8291 0.51785 -0.0312032
1036000 60.2883 197.934 55.8291 0.51795 -0.0117911
1036200 60.2883 197.947 55.8291 0.51805 -0.00362574
1036400 60.2883 197.96 55.8291 0.51815 -8.39239e-05
1036600 60.2883 197.973 55.8291 0.51825 0.0224715
1036800 60.2883 197.986 55.8291 0.51835 0.0523658
1037000 60.2883 197.999 55.8291 0.51845 0.0601331
1037200 60.2883 198.012 55.8291 0.51855 0.0675548
1037400 60.2883 198.025 55.8291 0.51865 0.0298811
1037600 60.2883 198.038 55.8291 0.51875 0.0379192
1037800 60.2883 198.051 55.8291 0.51885 0.0224657
1038000 60.2883 198.064 55.8291 0.51895 0.0446575
1038200 60.2883 198.077 55.8291 0.51905 -0.00173046
1038400 60.2883 198.09 55.8291 0.51915 5.2463e-05
1038600 60.2883 198.103 55.8291 0.51925 -0.033808
1038800 60.2883 198.116 55.8291 0.51935 -0.0282473
1039000 60.2883 198.129 55.8291 0.51945 -0.0586624
1039200 60.2883 198.142 55.8291 0.51955 -0.0487966
1039400 60.2883 198.155 55.8291 0.51965 -0.0209068
1039600 60.2883 198.168 55.8291 0.51975 -0.0428052
1039800 60.2883 198.181 55.8291 0.51985 -0.0326672
1040000 60.2883 198.194 55.8291 0.51995 -0.0187964
1040200 60.2883 198.207 55.8291 0.52005 0.00438887
1040400 60.2883 198.22 55.8291 0.52015 0.0176745
1040600 60.2883 198.233 55.8291 0.52025 0.0315618
1040800 60.2883 198.246 55.8291 0.52035 0.0563766
1041000 60.2883 198.26 55.8291 0.52045 0.058229
1041200 60.2883 198.273 55.8291 0.52055 0.0483187
1041400 60.2883 198.286 55.8291 0.52065 0.0434137
1041600 60.2883 198.299 55.8291 0.52075 0.0520048
1041800 60.2883 198.312 55.8291 0.52085 0.0273545
1042000 60.2883 198.325 55.8291 0.52095 0.0346638
1042200 60.2883 198.338 55.8291 0.52105 -0.00172087
1042400 60.2883 198.351 55.8291 0.52115 -0.0279561
1042600 60.2883 198.364 55.8291 0.52125 -0.0460721
1042800 60.2883 198.377 55.8291 0.52135 -0.0495641
1043000 60.2883 198.39 55.8291 0.52145 -0.039645
1043200 60.2883 198.403 55.8291 0.52155 -0.0527592
1043400 60.2883 198.416 55.8291 0.52165 -0.0343696
1043600 60.2883 198.429 55.8291 0.52175 -0.0490431
1043800 60.2883 198.442 55.8291 0.52185 -0.00237429
1044000 60.2883 198.455 55.8291 0.52195 -0.0280338
1044200 60.2883 198.468 55.8291 0.52205 0.0216797
1044400 60.2883 198.481 55.8291 0.52215 0.0384523
1044600 60.2883 198.494 55.8291 0.52225 0.0221541
1044800 60.2883 198.507 55.8291 0.52235 0.0644699
1045000 60.2883 198.52 55.8291 0.52245 0.0711635
1045200 60.2883 198.533 55.8291 0.52255 0.0415521
1045400 60.2883 198.546 55.8291 0.52265 0.0585154
1045600 60.2883 198.559 55.8291 0.52275 0.0251654
1045800 60.2883 198.572 55.8291 0.52285 0.0344014
1046000 60.2883 198.586 55.8291 0.52295 0.014141
1046200 60.2883 198.599 55.8291 0.52305 -0.0311075
1046400 60.2883 198.612 55.8291 0.52315 -0.00831726
1046600 60.2883 198.625 55.8291 0.52325 -0.0518688
1046800 60.2883 198.638 55.8291 0.52335 -0.0445161
1047000 60.2883 198.651 55.8291 0.52345 -0.0456273
1047200 60.2883 198.664 55.8291 0.52355 -0.0545006
1047400 60.2883 198.677 55.8291 0.52365 -0.0294929
1047600 60.2883 198.69 55.8291 0.52375 -0.023594
1047800 60.2883 198.703 55.8291 0.52385 -0.0434466
1048000 60.2883 198.716 55.8291 0.52395 0.00194914
1048200 60.2883 198.729 55.8291 0.52405 0.0334471
1048400 60.2883 198.742 55.8291 0.52415 0.0413481
1048600 60.2883 198.755 55.8291 0.52425 0.0515518
1048800 60.2883 198.768 55.8291 0.52435 0.0602981
1049000 60.2883 198.781 55.8291 0.52445 0.0534269
1049200 60.2883 198.794 55.8291 0.52455 0.0393539
1049400 60.2883 198.807 55.8291 0.52465 0.0329687
1049600 60.2883 198.82 55.8291 0.52475 0.0502259
1049800 60.2883 198.833 55.8291 0.52485 0.0215241
1050000 60.2883 198.846 55.8291 0.52495 0.00555836
1050200 60.2883 198.859 55.8291 0.52505 -0.00886783
1050400 60.2883 198.872 55.8291 0.52515 -0.0493187
1050600 60.2883 198.885 55.8291 0.52525 -0.0537063
1050800 60.2883 198.898 55.8291 0.52535 -0.0436556
1051000 60.2883 198.912 55.8291 0.52545 -0.051485
1051200 60.2883 198.925 55.8291 0.52555 -0.0473462
1051400 60.2883 198.938 55.8291 0.52565 -0.0272913
1051600 60.2883 198.951 55.8291 0.52575 -0.0305058
1051800 60.2883 198.964 55.8291 0.52585 -0.0125852
1052000 60.2883 198.977 55.8291 0.52595 0.016307
1052200 60.2883 198.99 55.8291 0.52605 0.0177908
1052400 60.2883 199.003 55.8291 0.52615 0.050198
1052600 60.2883 199.016 55.8291 0.52625 0.0639259
1052800 60.2883 199.029 55.8291 0.52635 0.056043
1053000 60.2883 199.042 55.8291 0.52645 0.0413517
1053200 60.2883 199.055 55.8291 0.52655 0.0553236
1053400 60.2883 199.068 55.8291 0.52665 0.024697
1053600 60.2883 199.081 55.8291 0.52675 0.0272439
1053800 60.2883 199.094 55.8291 0.52685 0.0231655
1054000 60.2883 199.107 55.8291 0.52695 0.00481879
1054200 60.2883 199.12 55.8291 0.52705 -0.0320104
1054400 60.2883 199.133 55.8291 0.52715 -0.0347244
1054600 60.2883 199.146 55.8291 0.52725 -0.0514067
1054800 60.2883 199.159 55.8291 0.52735 -0.0567687
1055000 60.2883 199.172 55.8291 0.52745 -0.0465732
1055200 60.2883 199.185 55.8291 0.52755 -0.0334266
1055400 60.2883 199.198 55.8291 0.52765 -0.0341794
1055600 60.2883 199.211 55.8291 0.52775 -0.0240903
1055800 60.2883 199.224 55.8291 0.52785 0.000605544
1056000 60.2883 199.237 55.8291 0.52795 0.00530481
1056200 60.2883 199.251 55.8291 0.52805 0.0392321
1056400 60.2883 199.264 55.8291 0.52815 0.0674879
1056600 60.2883 199.277 55.8291 0.52825 0.0496076
1056800 60.2883 199.29 55.8291 0.52835 0.0734121
1057000 60.2883 199.303 55.8291 0.52845 0.0445264
1057200 60.2883 199.316 55.8291 0.52855 0.0475506
1057400 60.2883 199.329 55.8291 0.52865 0.0342304
1057600 60.2883 199.342 55.8291 0.52875 -0.00514538
1057800 60.2883 199.355 55.8291 0.52885 0.0103887
1058000 60.2883 199.368 55.8291 0.52895 -0.0136012
1058200 60.2883 199.381 55.8291 0.52905 -0.043217
1058400 60.2883 199.394 55.8291 0.52915 -0.0320596
1058600 60.2883 199.407 55.8291 0.52925 -0.0603297
1058800 60.2883 199.42 55.8291 0.52935 -0.0620932
1059000 60.2883 199.433 55.8291 0.52945 -0.0477279
1059200 60.2883 199.446 55.8291 0.52955 -0.0134919
1059400 60.2883 199.459 55.8291 0.52965 -0.0124882
1059600 60.2883 199.472 55.8291 0.52975 -0.0140689
1059800 60.2883 199.485 55.8291 0.52985 -0.0022861
1060000 60.2883 199.498 55.8291 0.52995 0.0220949
1060200 60.2883 199.511 55.8291 0.53005 0.0413191
1060400 60.2883 199.524 55.8291 0.53015 0.0656038
1060600 60.2883 199.537 55.8291 0.53025 0.060436
1060800 60.2883 199.55 55.8291 0.53035 0.0552689
1061000 60.2883 199.563 55.8291 0.53045 0.056614
1061200 60.2883 199.577 55.8291 0.53055 0.0297367
1061400 60.2883 199.59 55.8291 0.53065 0.0224587
1061600 60.2883 199.603 55.8291 0.53075 0.00100976
1061800 60.2883 199.616 55.8291 0.53085 0.01108
1062000 60.2883 199.629 55.8291 0.53095 -0.034686
1062200 60.2883 199.642 55.8291 0.53105 -0.0352911
1062400 60.2883 199.655 55.8291 0.53115 -0.041988
1062600 60.2883 199.668 55.8291 0.53125 -0.046738
1062800 60.2883 199.681 55.8291 0.53135 -0.0546526
1063000 60.2883 199.694 55.8291 0.53145 -0.0499553
1063200 60.2883 199.707 55.8291 0.53155 -0.0225439
1063400 60.2883 199.72 55.8291 0.53165 -0.0194795
1063600 60.2883 199.733 55.8291 0.53175 0.0109532
1063800 60.2883 199.746 55.8291 0.53185 0.00982481
1064000 60.2883 199.759 55.8291 0.53195 0.0527554
1064200 60.2883 199.772 55.8291 0.53205 0.0366604
1064400 60.2883 199.785 55.8291 0.53215 0.0486834
1064600 60.2883 199.798 55.8291 0.53225 0.0513419
1064800 60.2883 199.811 55.8291 0.53235 0.0544491
1065000 60.2883 199.824 55.8291 0.53245 0.038942
1065200 60.2883 199.837 55.8291 0.53255 0.0340954
1065400 60.2883 199.85 55.8291 0.53265 -0.00344102
1065600 60.2883 199.863 55.8291 0.53275 0.0174423
1065800 60.2883 199.876 55.8291 0.53285 -0.0350475
1066000 60.2883 199.889 55.8291 0.53295 -0.031181
1066200 60.2883 199.903 55.8291 0.53305 -0.0232117
1066400 60.2883 199.916 55.8291 0.53315 -0.0386047
1066600 60.2883 199.929 55.8291 0.53325 -0.0491895
1066800 60.2883 199.942 55.8291 0.53335 -0.0399638
1067000 60.2883 199.955 55.8291 0.53345 -0.0328704
1067200 60.2883 199.968 55.8291 0.53355 -0.0312252
1067400 60.2883 199.981 55.8291 0.53365 0.000538003
1067600 60.2883 199.994 55.8291 0.53375 0.025119
1067800 60.2883 200.007 55.8291 0.53385 0.0279987
1068000 60.2883 200.02 55.8291 0.53395 0.0348419
1068200 60.2883 200.033 55.8291 0.53405 0.0403359
1068400 60.2883 200.046 55.8291 0.53415 0.0430557
1068600 60.2883 200.059 55.8291 0.53425 0.0408068
1068800 60.2883 200.072 55.8291 0.53435 0.0452295
1069000 60.2883 200.085 55.8291 0.53445 0.0469069
1069200 60.2883 200.098 55.8291 0.53455 0.0298564
1069400 60.2883 200.111 55.8291 0.53465 0.0144228
1069600 60.2883 200.124 55.8291 0.53475 -0.028739
1069800 60.2883 200.137 55.8291 0.53485 -0.0262363
1070000 60.2883 200.15 55.8291 0.53495 -0.0177429
1070200 60.2883 200.163 55.8291 0.53505 -0.0300312
1070400 60.2883 200.176 55.8291 0.53515 -0.0357189
1070600 60.2883 200.189 55.8291 0.53525 -0.0332749
1070800 60.2883 200.202 55.8291 0.53535 -0.0504824
1071000 60.2883 200.215 55.8291 0.53545 -0.0431544
1071200 60.2883 200.228 55.8291 0.53555 -0.0339114
1071400 60.2883 200.242 55.8291 0.53565 -0.0152015
1071600 60.2883 200.255 55.8291 0.53575 0.040413
1071800 60.2883 200.268 55.8291 0.53585 0.049511
1072000 60.2883 200.281 55.8291 0.53595 0.0412132
1072200 60.2883 200.294 55.8291 0.53605 0.0397753
1072400 60.2883 200.307 55.8291 0.53615 0.0459313
1072600 60.2883 200.32 55.8291 0.53625 0.044093
1072800 60.2883 200.333 55.8291 0.53635 0.0476514
1073000 60.2883 200.346 55.8291 0.53645 0.0346306
1073200 60.2883 200.359 55.8291 0.53655 0.0319857
1073400 60.2883 200.372 55.8291 0.53665 -0.00421392
1073600 60.2883 200.385 55.8291 0.53675 -0.0132823
1073800 60.2883 200.398 55.8291 0.53685 -0.043575
1074000 60.2883 200.411 55.8291 0.53695 -0.0430316
1074200 60.2883 200.424 55.8291 0.53705 -0.0343781
1074400 60.2883 200.437 55.8291 0.53715 -0.0384122
1074600 60.2883 200.45 55.8291 0.53725 -0.0258878
1074800 60.2883 200.463 55.8291 0.53735 -0.0492719
1075000 60.2883 200.476 55.8291 0.53745 -0.0269286
1075200 60.2883 200.489 55.8291 0.53755 -0.00759035
1075400 60.2883 200.502 55.8291 0.53765 0.014246
1075600 60.2883 200.515 55.8291 0.53775 0.0343911
1075800 60.2883 200.528 55.8291 0.53785 0.0487354
1076000 60.2883 200.541 55.8291 0.53795 0.0613058
1076200 60.2883 200.554 55.8291 0.53805 0.0221258
1076400 60.2883 200.568 55.8291 0.53815 0.0477871
1076600 60.2883 200.581 55.8291 0.53825 0.0265644
1076800 60.2883 200.594 55.8291 0.53835 0.0593431
1077000 60.2883 200.607 55.8291 0.53845 0.0145786
1077200 60.2883 200.62 55.8291 0.53855 0.00649787
1077400 60.2883 200.633 55.8291 0.53865 -0.00497219
1077600 60.2883 200.646 55.8291 0.53875 -0.0334445
1077800 60.2883 200.659 55.8291 0.53885 -0.0442327
1078000 60.2883 200.672 55.8291 0.53895 -0.0489405
1078200 60.2883 200.685 55.8291 0.53905 -0.0274898
1078400 60.2883 200.698 55.8291 0.53915 -0.0331801
1078600 60.2883 200.711 55.8291 0.53925 -0.0146837
1078800 60.2883 200.724 55.8291 0.53935 -0.015323
1079000 60.2883 200.737 55.8291 0.53945 -0.0366239
1079200 60.2883 200.75 55.8291 0.53955 -0.000321245
1079400 60.2883 200.763 55.8291 0.53965 0.0219568
1079600 60.2883 200.776 55.8291 0.53975 0.0169558
1079800 60.2883 200.789 55.8291 0.53985 0.0477587
1080000 60.2883 200.802 55.8291 0.53995 0.0472671
1080200 60.2883 200.815 55.8291 0.54005 0.0465501
1080400 60.2883 200.828 55.8291 0.54015 0.0324109
1080600 60.2883 200.841 55.8291 0.54025 0.0319557
1080800 60.2883 200.854 55.8291 0.54035 0.0408113
1081000 60.2883 200.867 55.8291 0.54045 0.0120021
1081200 60.2883 200.88 55.8291 0.54055 0.031362
1081400 60.2883 200.894 55.8291 0.54065 0.00527266
1081600 60.2883 200.907 55.8291 0.54075 -0.0390287
1081800 60.2883 200.92 55.8291 0.54085 -0.0385584
1082000 60.2883 200.933 55.8291 0.54095 -0.0319223
1082200 60.2883 200.946 55.8291 0.54105 -0.0440974
1082400 60.2883 200.959 55.8291 0.54115 -0.0391188
1082600 60.2883 200.972 55.8291 0.54125 -0.0365526
1082800 60.2883 200.985 55.8291 0.54135 -0.0235271
1083000 60.2883 200.998 55.8291 0.54145 -0.023111
1083200 60.2883 201.011 55.8291 0.54155 -0.00477144
1083400 60.2883 201.024 55.8291 0.54165 0.0254767
1083600 60.2883 201.037 55.8291 0.54175 0.0166683
1083800 60.2883 201.05 55.8291 0.54185 0.0507329
1084000 60.2883 201.063 55.8291 0.54195 0.0499908
1084200 60.2883 201.076 55.8291 0.54205 0.0446473
1084400 60.2883 201.089 55.8291 0.54215 0.0524923
1084600 60.2883 201.102 55.8291 0.54225 0.0326827
1084800 60.2883 201.115 55.8291 0.54235 0.0381517
1085000 60.2883 201.128 55.8291 0.54245 0.00851489
1085200 60.2883 201.141 55.8291 0.54255 0.00513933
1085400 60.2883 201.154 55.8291 0.54265 -0.0122196
1085600 60.2883 201.167 55.8291 0.54275 -0.0023615
1085800 60.2883 201.18 55.8291 0.54285 -0.0104084
1086000 60.2883 201.193 55.8291 0.54295 -0.0757563
1086200 60.2883 201.206 55.8291 0.54305 -0.042444
1086400 60.2883 201.219 55.8291 0.54315 -0.0532026
1086600 60.2883 201.233 55.8291 0.54325 -0.029498
1086800 60.2883 201.246 55.8291 0.54335 -0.0256234
1087000 60.2883 201.259 55.8291 0.54345 0.010487
1087200 60.2883 201.272 55.8291 0.54355 0.000526014
1087400 60.2883 201.285 55.8291 0.54365 0.00217112
1087600 60.2883 201.298 55.8291 0.54375 0.0405169
1087800 60.2883 201.311 55.8291 0.54385 0.0523789
1088000 60.2883 201.324 55.8291 0.54395 0.023269
1088200 60.2883 201.337 55.8291 0.54405 0.0708845
1088400 60.2883 201.35 55.8291 0.54415 0.0438601
1088600 60.2883 201.363 55.8291 0.54425 0.0344415
1088800 60.2883 201.376 55.8291 0.54435 0.0275518
1089000 60.2883 201.389 55.8291 0.54445 0.0203341
1089200 60.2883 201.402 55.8291 0.54455 0.005944
1089400 60.2883 201.415 55.8291 0.54465 -0.026722
1089600 60.2883 201.428 55.8291 0.54475 -0.0350911
1089800 60.2883 201.441 55.8291 0.54485 -0.0216548
1090000 60.2883 201.454 55.8291 0.54495 -0.0309508
1090200 60.2883 201.467 55.8291 0.54505 -0.0458274
1090400 60.2883 201.48 55.8291 0.54515 -0.0484381
1090600 60.2883 201.493 55.8291 0.54525 -0.0328832
1090800 60.2883 201.506 55.8291 0.54535 -0.0270074
1091000 60.2883 201.519 55.8291 0.54545 0.000474976
1091200 60.2883 201.532 55.8291 0.54555 0.0160305
1091400 60.2883 201.545 55.8291 0.54565 0.00594084
1091600 60.2883 201.559 55.8291 0.54575 0.0391372
1091800 60.2883 201.572 55.8291 0.54585 0.0429652
1092000 60.2883 201.585 55.8291 0.54595 0.0531075
1092200 60.2883 201.598 55.8291 0.54605 0.0419477
1092400 60.2883 201.611 55.8291 0.54615 0.0544893
1092600 60.2883 201.624 55.8291 0.54625 0.0350525
1092800 60.2883 201.637 55.8291 0.54635 0.0180151
1093000 60.2883 201.65 55.8291 0.54645 0.0192562
1093200 60.2883 201.663 55.8291 0.54655 -0.000806806
1093400 60.2883 201.676 55.8291 0.54665 -0.0266569
1093600 60.2883 201.689 55.8291 0.54675 -0.0343773
1093800 60.2883 201.702 55.8291 0.54685 -0.0369697
1094000 60.2883 201.715 55.8291 0.54695 -0.0294794
1094200 60.2883 201.728 55.8291 0.54705 -0.0399708
1094400 60.2883 201.741 55.8291 0.54715 -0.0436038
1094600 60.2883 201.754 55.8291 0.54725 -0.0140822
1094800 60.2883 201.767 55.8291 0.54735 -0.0300871
1095000 60.2883 201.78 55.8291 0.54745 0.00344058
1095200 60.2883 201.793 55.8291 0.54755 0.0214341
1095400 60.2883 201.806 55.8291 0.54765 0.0288741
1095600 60.2883 201.819 55.8291 0.54775 0.0385359
1095800 60.2883 201.832 55.8291 0.54785 0.0278977
1096000 60.2883 201.845 55.8291 0.54795 0.0464397
1096200 60.2883 201.858 55.8291 0.54805 0.0409563
1096400 60.2883 201.871 55.8291 0.54815 0.0391459
1096600 60.2883 201.885 55.8291 0.54825 0.045446
1096800 60.2883 201.898 55.8291 0.54835 0.0248447
1097000 60.2883 201.911 55.8291 0.54845 0.00318246
1097200 60.2883 201.924 55.8291 0.54855 -0.015676
1097400 60.2883 201.937 55.8291 0.54865 -0.0422455
1097600 60.2883 201.95 55.8291 0.54875 -0.0276895
1097800 60.2883 201.963 55.8291 0.54885 -0.045171
1098000 60.2883 201.976 55.8291 0.54895 -0.015316
1098200 60.2883 201.989 55.8291 0.54905 -0.0507038
1098400 60.2883 202.002 55.8291 0.54915 -0.0346798
1098600 60.2883 202.015 55.8291 0.54925 0.000239886
1098800 60.2883 202.028 55.8291 0.54935 -0.0176414
1099000 60.2883 202.041 55.8291 0.54945 -0.00239665
1099200 60.2883 202.054 55.8291 0.54955 0.0282095
1099400 60.2883 202.067 55.8291 0.54965 0.0501245
1099600 60.2883 202.08 55.8291 0.54975 0.0260426
1099800 60.2883 202.093 55.8291 0.54985 0.0442487
1100000 60.2883 202.106 55.8291 0.54995 0.053767
1100200 60.2883 202.119 55.8291 0.55005 0.0261451
1100400 60.2883 202.132 55.8291 0.55015 0.0571874
1100600 60.2883 202.145 55.8291 0.55025 0.012083
1100800 60.2883 202.158 55.8291 0.55035 0.0114309
1101000 60.2883 202.171 55.8291 0.55045 -0.00972914
1101200 60.2883 202.184 55.8291 0.55055 -0.0239807
1101400 60.2883 202.197 55.8291 0.55065 -0.0178841
1101600 60.2883 202.211 55.8291 0.55075 -0.0319354
1101800 60.2883 202.224 55.8291 0.55085 -0.0493691
1102000 60.2883 202.237 55.8291 0.55095 -0.026376
1102200 60.2883 202.25 55.8291 0.55105 -0.0343049
1102400 60.2883 202.263 55.8291 0.55115 -0.0342707
1102600 60.2883 202.276 55.8291 0.55125 -0.00941696
1102800 60.2883 202.289 55.8291 0.55135 0.00459768
1103000 60.2883 202.302 55.8291 0.55145 0.0112962
1103200 60.2883 202.315 55.8291 0.55155 0.0203369
1103400 60.2883 202.328 55.8291 0.55165 0.0293147
1103600 60.2883 202.341 55.8291 0.55175 0.0553732
1103800 60.2883 202.354 55.8291 0.55185 0.0449119
1104000 60.2883 202.367 55.8291 0.55195 0.041894
1104200 60.2883 202.38 55.8291 0.55205 0.0422483
1104400 60.2883 202.393 55.8291 0.55215 0.012774
1104600 60.2883 202.406 55.8291 0.55225 0.0135763
1104800 60.2883 202.419 55.8291 0.55235 0.00505893
1105000 60.2883 202.432 55.8291 0.55245 -0.0165091
1105200 60.2883 202.445 55.8291 0.55255 -0.00746119
1105400 60.2883 202.458 55.8291 0.55265 -0.0291951
1105600 60.2883 202.471 55.8291 0.55275 -0.0241094
1105800 60.2883 202.484 55.8291 0.55285 -0.0429769
1106000 60.2883 202.497 55.8291 0.55295 -0.0340021
1106200 60.2883 202.51 55.8291 0.55305 -0.0506639
1106400 60.2883 202.523 55.8291 0.55315 -0.00788715
1106600 60.2883 202.536 55.8291 0.55325 -0.000817897
1106800 60.2883 202.55 55.8291 0.55335 0.0207527
1107000 60.2883 202.563 55.8291 0.55345 0.020459
1107200 60.2883 202.576 55.8291 0.55355 0.0114332
1107400 60.2883 202.589 55.8291 0.55365 0.0356992
1107600 60.2883 202.602 55.8291 0.55375 0.0526022
1107800 60.2883 202.615 55.8291 0.55385 0.0318849
1108000 60.2883 202.628 55.8291 0.55395 0.0496413
1108200 60.2883 202.641 55.8291 0.55405 0.0373087
1108400 60.2883 202.654 55.8291 0.55415 0.0292999
1108600 60.2883 202.667 55.8291 0.55425 -0.0109671
1108800 60.2883 202.68 55.8291 0.55435 -0.00609486
1109000 60.2883 202.693 55.8291 0.55445 -0.0273124
1109200 60.2883 202.706 55.8291 0.55455 -0.00434318
1109400 60.2883 202.719 55.8291 0.55465 -0.0259376
1109600 60.2883 202.732 55.8291 0.55475 -0.0273081
1109800 60.2883 202.745 55.8291 0.55485 -0.0252314
1110000 60.2883 202.758 55.8291 0.55495 -0.0438249
1110200 60.2883 202.771 55.8291 0.55505 -0.0404704
1110400 60.2883 202.784 55.8291 0.55515 -0.010589
1110600 60.2883 202.797 55.8291 0.55525 0.0035449
1110800 60.2883 202.81 55.8291 0.55535 0.0180444
1111000 60.2883 202.823 55.8291 0.55545 0.0227341
1111200 60.2883 202.836 55.8291 0.55555 0.03328
1111400 60.2883 202.849 55.8291 0.55565 0.0222165
1111600 60.2883 202.862 55.8291 0.55575 0.0361142
1111800 60.2883 202.876 55.8291 0.55585 0.026824
1112000 60.2883 202.889 55.8291 0.55595 0.0415471
1112200 60.2883 202.902 55.8291 0.55605 0.0426474
1112400 60.2883 202.915 55.8291 0.55615 0.0103698
1112600 60.2883 202.928 55.8291 0.55625 0.0147255
1112800 60.2883 202.941 55.8291 0.55635 0.00807212
1113000 60.2883 202.954 55.8291 0.55645 -0.03355
1113200 60.2883 202.967 55.8291 0.55655 -0.0221898
1113400 60.2883 202.98 55.8291 0.55665 -0.0184531
1113600 60.2883 202.993 55.8291 0.55675 -0.0281319
1113800 60.2883 203.006 55.8291 0.55685 -0.0312969
1114000 60.2883 203.019 55.8291 0.55695 -0.0248912
1114200 60.2883 203.032 55.8291 0.55705 -0.0286059
1114400 60.2883 203.045 55.8291 0.55715 -0.0136832
1114600 60.2883 203.058 55.8291 0.55725 -0.00769901
1114800 60.2883 203.071 55.8291 0.55735 0.0213261
1115000 60.2883 203.084 55.8291 0.55745 0.0243955
1115200 60.2883 203.097 55.8291 0.55755 0.0248807
1115400 60.2883 203.11 55.8291 0.55765 0.0370774
1115600 60.2883 203.123 55.8291 0.55775 0.0511933
1115800 60.2883 203.136 55.8291 0.55785 0.0202681
1116000 60.2883 203.149 55.8291 0.55795 0.019186
1116200 60.2883 203.162 55.8291 0.55805 0.0471283
1116400 60.2883 203.175 55.8291 0.55815 0.0145554
1116600 60.2883 203.188 55.8291 0.55825 0.00755317
1116800 60.2883 203.202 55.8291 0.55835 0.00616979
1117000 60.2883 203.215 55.8291 0.55845 -0.0230046
1117200 60.2883 203.228 55.8291 0.55855 -0.0389654
1117400 60.2883 203.241 55.8291 0.55865 -0.0353215
1117600 60.2883 203.254 55.8291 0.55875 -0.0231787
1117800 60.2883 203.267 55.8291 0.55885 -0.0311763
1118000 60.2883 203.28 55.8291 0.55895 -0.012792
1118200 60.2883 203.293 55.8291 0.55905 -0.0247523
1118400 60.2883 203.306 55.8291 0.55915 -0.0101999
1118600 60.2883 203.319 55.8291 0.55925 -0.000503003
1118800 60.2883 203.332 55.8291 0.55935 0.00238904
1119000 60.2883 203.345 55.8291 0.55945 0.0209844
1119200 60.2883 203.358 55.8291 0.55955 0.0449032
1119400 60.2883 203.371 55.8291 0.55965 0.0504555
1119600 60.2883 203.384 55.8291 0.55975 0.0318237
1119800 60.2883 203.397 55.8291 0.55985 0.0306233
1120000 60.2883 203.41 55.8291 0.55995 0.0192549
1120200 60.2883 203.423 55.8291 0.56005 0.0277884
1120400 60.2883 203.436 55.8291 0.56015 0.0146879
1120600 60.2883 203.449 55.8291 0.56025 0.00844348
1120800 60.2883 203.462 55.8291 0.56035 -0.00540528
1121000 60.2883 203.475 55.8291 0.56045 -0.0217783
1121200 60.2883 203.488 55.8291 0.56055 -0.0170742
1121400 60.2883 203.501 55.8291 0.56065 -0.0302899
1121600 60.2883 203.514 55.8291 0.56075 -0.0457536
1121800 60.2883 203.527 55.8291 0.56085 -0.028633
1122000 60.2883 203.541 55.8291 0.56095 -0.00733293
1122200 60.2883 203.554 55.8291 0.56105 -0.00351595
1122400 60.2883 203.567 55.8291 0.56115 -0.0138157
1122600 60.2883 203.58 55.8291 0.56125 -0.0087026
1122800 60.2883 203.593 55.8291 0.56135 0.037063
1123000 60.2883 203.606 55.8291 0.56145 0.038519
1123200 60.2883 203.619 55.8291 0.56155 0.0241698
1123400 60.2883 203.632 55.8291 0.56165 0.0326992
1123600 60.2883 203.645 55.8291 0.56175 0.024237
1123800 60.2883 203.658 55.8291 0.56185 0.0431532
1124000 60.2883 203.671 55.8291 0.56195 0.0189641
1124200 60.2883 203.684 55.8291 0.56205 0.0177698
1124400 60.2883 203.697 55.8291 0.56215 -0.0122309
1124600 60.2883 203.71 55.8291 0.56225 -0.00690871
1124800 60.2883 203.723 55.8291 0.56235 -0.0108384
1125000 60.2883 203.736 55.8291 0.56245 0.00479715
1125200 60.2883 203.749 55.8291 0.56255 -0.0262884
1125400 60.2883 203.762 55.8291 0.56265 -0.0448957
1125600 60.2883 203.775 55.8291 0.56275 -0.0211794
1125800 60.2883 203.788 55.8291 0.56285 -0.0189025
1126000 60.2883 203.801 55.8291 0.56295 -0.0161081
1126200 60.2883 203.814 55.8291 0.56305 -0.0216665
1126400 60.2883 203.827 55.8291 0.56315 0.0262403
1126600 60.2883 203.84 55.8291 0.56325 0.0140796
1126800 60.2883 203.853 55.8291 0.56335 0.00507179
1127000 60.2883 203.867 55.8291 0.56345 0.0183269
1127200 60.2883 203.88 55.8291 0.56355 0.029715
1127400 60.2883 203.893 55.8291 0.56365 0.0382472
1127600 60.2883 203.906 55.8291 0.56375 0.0461715
1127800 60.2883 203.919 55.8291 0.56385 0.0464359
1128000 60.2883 203.932 55.8291 0.56395 0.0185579
1128200 60.2883 203.945 55.8291 0.56405 0.00192911
1128400 60.2883 203.958 55.8291 0.56415 -0.00128243
1128600 60.2883 203.971 55.8291 0.56425 -0.0099448
1128800 60.2883 203.984 55.8291 0.56435 -0.0101036
1129000 60.2883 203.997 55.8291 0.56445 -0.00745832
1129200 60.2883 204.01 55.8291 0.56455 -0.0407084
1129400 60.2883 204.023 55.8291 0.56465 -0.0365947
1129600 60.2883 204.036 55.8291 0.56475 -0.0347788
1129800 60.2883 204.049 55.8291 0.56485 -0.0220375
1130000 60.2883 204.062 55.8291 0.56495 -0.0153106
1130200 60.2883 204.075 55.8291 0.56505 0.000194601
1130400 60.2883 204.088 55.8291 0.56515 0.016897
1130600 60.2883 204.101 55.8291 0.56525 0.0175607
1130800 60.2883 204.114 55.8291 0.56535 -0.00343893
1131000 60.2883 204.127 55.8291 0.56545 0.0456896
1131200 60.2883 204.14 55.8291 0.56555 0.0371147
1131400 60.2883 204.153 55.8291 0.56565 0.0309699
1131600 60.2883 204.166 55.8291 0.56575 0.0492789
1131800 60.2883 204.179 55.8291 0.56585 0.0342602
1132000 60.2883 204.193 55.8291 0.56595 0.00523151
1132200 60.2883 204.206 55.8291 0.56605 0.0114216
1132400 60.2883 204.219 55.8291 0.56615 0.00583634
1132600 60.2883 204.232 55.8291 0.56625 -0.0236947
1132800 60.2883 204.245 55.8291 0.56635 -0.022577
1133000 60.2883 204.258 55.8291 0.56645 -0.0106122
1133200 60.2883 204.271 55.8291 0.56655 -0.020365
1133400 60.2883 204.284 55.8291 0.56665 -0.0604701
1133600 60.2883 204.297 55.8291 0.56675 -0.00756743
1133800 60.2883 204.31 55.8291 0.56685 -0.0131947
1134000 60.2883 204.323 55.8291 0.56695 -0.019464
1134200 60.2883 204.336 55.8291 0.56705 -4.00869e-05
1134400 60.2883 204.349 55.8291 0.56715 0.0129235
1134600 60.2883 204.362 55.8291 0.56725 0.00730981
1134800 60.2883 204.375 55.8291 0.56735 0.0352239
1135000 60.2883 204.388 55.8291 0.56745 0.0337648
1135200 60.2883 204.401 55.8291 0.56755 0.0263965
1135400 60.2883 204.414 55.8291 0.56765 0.0304025
1135600 60.2883 204.427 55.8291 0.56775 0.0450689
1135800 60.2883 204.44 55.8291 0.56785 0.0327902
1136000 60.2883 204.453 55.8291 0.56795 0.0172845
1136200 60.2883 204.466 55.8291 0.56805 -0.00043019
1136400 60.2883 204.479 55.8291 0.56815 -0.00336312
1136600 60.2883 204.492 55.8291 0.56825 -0.0117423
1136800 60.2883 204.505 55.8291 0.56835 -0.0114509
1137000 60.2883 204.518 55.8291 0.56845 -0.0381673
1137200 60.2883 204.532 55.8291 0.56855 -0.0321813
1137400 60.2883 204.545 55.8291 0.56865 -0.035887
1137600 60.2883 204.558 55.8291 0.56875 -0.0204356
1137800 60.2883 204.571 55.8291 0.56885 -0.0348251
1138000 60.2883 204.584 55.8291 0.56895 0.00111492
1138200 60.2883 204.597 55.8291 0.56905 0.0103117
1138400 60.2883 204.61 55.8291 0.56915 0.00729758
1138600 60.2883 204.623 55.8291 0.56925 0.0213359
1138800 60.2883 204.636 55.8291 0.56935 0.0324314
1139000 60.2883 204.649 55.8291 0.56945 0.0487894
1139200 60.2883 204.662 55.8291 0.56955 0.0420292
1139400 60.2883 204.675 55.8291 0.56965 0.0438549
1139600 60.2883 204.688 55.8291 0.56975 0.0240592
1139800 60.2883 204.701 55.8291 0.56985 0.0209895
1140000 60.2883 204.714 55.8291 0.56995 0.0199465
1140200 60.2883 204.727 55.8291 0.57005 -0.00372226
1140400 60.2883 204.74 55.8291 0.57015 -0.0224314
1140600 60.2883 204.753 55.8291 0.57025 -0.0039492
1140800 60.2883 204.766 55.8291 0.57035 -0.0324572
1141000 60.2883 204.779 55.8291 0.57045 -0.0354327
1141200 60.2883 204.792 55.8291 0.57055 -0.0386331
1141400 60.2883 204.805 55.8291 0.57065 -0.0315766
1141600 60.2883 204.818 55.8291 0.57075 -0.0101205
1141800 60.2883 204.831 55.8291 0.57085 -0.0260087
1142000 60.2883 204.844 55.8291 0.57095 0.00931136
1142200 60.2883 204.858 55.8291 0.57105 0.0130909
1142400 60.2883 204.871 55.8291 0.57115 0.00705573
1142600 60.2883 204.884 55.8291 0.57125 0.0200079
1142800 60.2883 204.897 55.8291 0.57135 0.0435489
1143000 60.2883 204.91 55.8291 0.57145 0.031617
1143200 60.2883 204.923 55.8291 0.57155 0.0567172
1143400 60.2883 204.936 55.8291 0.57165 0.0372345
1143600 60.2883 204.949 55.8291 0.57175 0.0284635
1143800 60.2883 204.962 55.8291 0.57185 -0.00328603
1144000 60.2883 204.975 55.8291 0.57195 0.00978287
1144200 60.2883 204.988 55.8291 0.57205 -0.00239297
1144400 60.2883 205.001 55.8291 0.57215 -0.0202293
1144600 60.2883 205.014 55.8291 0.57225 -0.0301992
1144800 60.2883 205.027 55.8291 0.57235 -0.0294296
1145000 60.2883 205.04 55.8291 0.57245 -0.0202519
1145200 60.2883 205.053 55.8291 0.57255 -0.0226232
1145400 60.2883 205.066 55.8291 0.57265 -0.0382826
1145600 60.2883 205.079 55.8291 0.57275 -0.017424
1145800 60.2883 205.092 55.8291 0.57285 0.0132546
1146000 60.2883 205.105 55.8291 0.57295 0.0121506
1146200 60.2883 205.118 55.8291 0.57305 0.0196026
1146400 60.2883 205.131 55.8291 0.57315 0.0244648
1146600 60.2883 205.144 55.8291 0.57325 0.0151122
1146800 60.2883 205.157 55.8291 0.57335 0.022749
1147000 60.2883 205.17 55.8291 0.57345 0.0349328
1147200 60.2883 205.184 55.8291 0.57355 0.0560074
1147400 60.2883 205.197 55.8291 0.57365 0.016049
1147600 60.2883 205.21 55.8291 0.57375 0.028272
1147800 60.2883 205.223 55.8291 0.57385 0.00923551
1148000 60.2883 205.236 55.8291 0.57395 -0.000485533
1148200 60.2883 205.249 55.8291 0.57405 -0.0214491
1148400 60.2883 205.262 55.8291 0.57415 0.00169886
1148600 60.2883 205.275 55.8291 0.57425 -0.0336416
1148800 60.2883 205.288 55.8291 0.57435 -0.0308476
1149000 60.2883 205.301 55.8291 0.57445 -0.0385695
1149200 60.2883 205.314 55.8291 0.57455 -0.0157189
1149400 60.2883 205.327 55.8291 0.57465 -0.0148352
1149600 60.2883 205.34 55.8291 0.57475 -0.0207412
1149800 60.2883 205.353 55.8291 0.57485 0.0181019
1150000 60.2883 205.366 55.8291 0.57495 0.00499198
1150200 60.2883 205.379 55.8291 0.57505 0.0148025
1150400 60.2883 205.392 55.8291 0.57515 -0.00110889
1150600 60.2883 205.405 55.8291 0.57525 0.0624456
1150800 60.2883 205.418 55.8291 0.57535 0.0156142
1151000 60.2883 205.431 55.8291 0.57545 0.0526144
1151200 60.2883 205.444 55.8291 0.57555 0.0345421
1151400 60.2883 205.457 55.8291 0.57565 0.0368775
1151600 60.2883 205.47 55.8291 0.57575 -0.0103545
1151800 60.2883 205.483 55.8291 0.57585 0.0115937
1152000 60.2883 205.496 55.8291 0.57595 -0.00537995
1152200 60.2883 205.51 55.8291 0.57605 -0.000933812
1152400 60.2883 205.523 55.8291 0.57615 -0.0249659
1152600 60.2883 205.536 55.8291 0.57625 -0.0296957
1152800 60.2883 205.549 55.8291 0.57635 -0.0355186
1153000 60.2883 205.562 55.8291 0.57645 -0.0333542
1153200 60.2883 205.575 55.8291 0.57655 -0.0332363
1153400 60.2883 205.588 55.8291 0.57665 -0.00294437
1153600 60.2883 205.601 55.8291 0.57675 0.0104085
1153800 60.2883 205.614 55.8291 0.57685 0.00828073
1154000 60.2883 205.627 55.8291 0.57695 0.00374156
1154200 60.2883 205.64 55.8291 0.57705 0.0229238
1154400 60.2883 205.653 55.8291 0.57715 0.0189751
1154600 60.2883 205.666 55.8291 0.57725 0.0421232
1154800 60.2883 205.679 55.8291 0.57735 0.0316368
1155000 60.2883 205.692 55.8291 0.57745 0.0213551
1155200 60.2883 205.705 55.8291 0.57755 0.0461679
1155400 60.2883 205.718 55.8291 0.57765 0.0228997
1155600 60.2883 205.731 55.8291 0.57775 -0.00351739
1155800 60.2883 205.744 55.8291 0.57785 0.0127196
1156000 60.2883 205.757 55.8291 0.57795 -0.0178249
1156200 60.2883 205.77 55.8291 0.57805 -0.00139622
1156400 60.2883 205.783 55.8291 0.57815 -0.0126488
1156600 60.2883 205.796 55.8291 0.57825 -0.0446463
1156800 60.2883 205.809 55.8291 0.57835 -0.0187189
1157000 60.2883 205.822 55.8291 0.57845 -0.0201998
1157200 60.2883 205.835 55.8291 0.57855 -0.0403258
1157400 60.2883 205.849 55.8291 0.57865 -0.00571922
1157600 60.2883 205.862 55.8291 0.57875 -0.00938571
1157800 60.2883 205.875 55.8291 0.57885 0.0130797
1158000 60.2883 205.888 55.8291 0.57895 0.00069264
1158200 60.2883 205.901 55.8291 0.57905 0.0269175
1158400 60.2883 205.914 55.8291 0.57915 0.0350896
1158600 60.2883 205.927 55.8291 0.57925 0.0281125
1158800 60.2883 205.94 55.8291 0.57935 0.033076
1159000 60.2883 205.953 55.8291 0.57945 0.0381904
1159200 60.2883 205.966 55.8291 0.57955 0.025666
1159400 60.2883 205.979 55.8291 0.57965 0.0281646
1159600 60.2883 205.992 55.8291 0.57975 0.00477799
1159800 60.2883 206.005 55.8291 0.57985 -4.78303e-05
1160000 60.2883 206.018 55.8291 0.57995 -0.0105344
1160200 60.2883 206.031 55.8291 0.58005 -0.020001
1160400 60.2883 206.044 55.8291 0.58015 -0.0127067
1160600 60.2883 206.057 55.8291 0.58025 -0.0273263
1160800 60.2883 206.07 55.8291 0.58035 -0.0266876
1161000 60.2883 206.083 55.8291 0.58045 -0.018272
1161200 60.2883 206.096 55.8291 0.58055 -0.0166589
1161400 60.2883 206.109 55.8291 0.58065 -0.014626
1161600 60.2883 206.122 55.8291 0.58075 -0.0181223
1161800 60.2883 206.135 55.8291 0.58085 0.0139017
1162000 60.2883 206.148 55.8291 0.58095 0.025596
1162200 60.2883 206.161 55.8291 0.58105 0.0201011
1162400 60.2883 206.175 55.8291 0.58115 0.0204367
1162600 60.2883 206.188 55.8291 0.58125 0.0441741
1162800 60.2883 206.201 55.8291 0.58135 0.0386993
1163000 60.2883 206.214 55.8291 0.58145 0.0394374
1163200 60.2883 206.227 55.8291 0.58155 0.0231136
1163400 60.2883 206.24 55.8291 0.58165 0.0281796
1163600 60.2883 206.253 55.8291 0.58175 -0.0126737
1163800 60.2883 206.266 55.8291 0.58185 -0.0130649
1164000 60.2883 206.279 55.8291 0.58195 -6.68688e-05
1164200 60.2883 206.292 55.8291 0.58205 -0.0271307
1164400 60.2883 206.305 55.8291 0.58215 -0.00152736
1164600 60.2883 206.318 55.8291 0.58225 -0.0467026
1164800 60.2883 206.331 55.8291 0.58235 -0.0393733
1165000 60.2883 206.344 55.8291 0.58245 -0.0251387
1165200 60.2883 206.357 55.8291 0.58255 -0.0234062
1165400 60.2883 206.37 55.8291 0.58265 -0.00511149
1165600 60.2883 206.383 55.8291 0.58275 0.0130949
1165800 60.2883 206.396 55.8291 0.58285 0.0327416
1166000 60.2883 206.409 55.8291 0.58295 0.00980187
1166200 60.2883 206.422 55.8291 0.58305 0.0349011
1166400 60.2883 206.435 55.8291 0.58315 0.0228865
1166600 60.2883 206.448 55.8291 0.58325 0.0242355
1166800 60.2883 206.461 55.8291 0.58335 0.055335
1167000 60.2883 206.474 55.8291 0.58345 0.0258528
1167200 60.2883 206.487 55.8291 0.58355 0.031186
1167400 60.2883 206.501 55.8291 0.58365 0.0276099
1167600 60.2883 206.514 55.8291 0.58375 -0.011433
1167800 60.2883 206.527 55.8291 0.58385 -0.0137263
1168000 60.2883 206.54 55.8291 0.58395 -0.0136243
1168200 60.2883 206.553 55.8291 0.58405 -0.02572
1168400 60.2883 206.566 55.8291 0.58415 -0.0323239
1168600 60.2883 206.579 55.8291 0.58425 -0.0278116
1168800 60.2883 206.592 55.8291 0.58435 -0.0282016
1169000 60.2883 206.605 55.8291 0.58445 -0.0318448
1169200 60.2883 206.618 55.8291 0.58455 -0.0264738
1169400 60.2883 206.631 55.8291 0.58465 0.000396508
1169600 60.2883 206.644 55.8291 0.58475 0.00115503
1169800 60.2883 206.657 55.8291 0.58485 0.0142184
1170000 60.2883 206.67 55.8291 0.58495 0.0199395
1170200 60.2883 206.683 55.8291 0.58505 0.0262174
1170400 60.2883 206.696 55.8291 0.58515 0.0594054
1170600 60.2883 206.709 55.8291 0.58525 0.0624231
1170800 60.2883 206.722 55.8291 0.58535 0.0307494
1171000 60.2883 206.735 55.8291 0.58545 0.0269232
1171200 60.2883 206.748 55.8291 0.58555 0.0256542
1171400 60.2883 206.761 55.8291 0.58565 0.0106599
1171600 60.2883 206.774 55.8291 0.58575 0.00962812
1171800 60.2883 206.787 55.8291 0.58585 -0.017709
1172000 60.2883 206.8 55.8291 0.58595 -0.0393669
1172200 60.2883 206.813 55.8291 0.58605 -0.0247256
1172400 60.2883 206.826 55.8291 0.58615 -0.0380595
1172600 60.2883 206.84 55.8291 0.58625 -0.0464224
1172800 60.2883 206.853 55.8291 0.58635 -0.0168995
1173000 60.2883 206.866 55.8291 0.58645 -0.0326738
1173200 60.2883 206.879 55.8291 0.58655 0.00613855
1173400 60.2883 206.892 55.8291 0.58665 -0.00931886
1173600 60.2883 206.905 55.8291 0.58675 0.00771433
1173800 60.2883 206.918 55.8291 0.58685 0.043208
1174000 60.2883 206.931 55.8291 0.58695 0.014413
1174200 60.2883 206.944 55.8291 0.58705 0.0503884
1174400 60.2883 206.957 55.8291 0.58715 0.050736
1174600 60.2883 206.97 55.8291 0.58725 0.021347
1174800 60.2883 206.983 55.8291 0.58735 0.0483263
1175000 60.2883 206.996 55.8291 0.58745 0.0234269
1175200 60.2883 207.009 55.8291 0.58755 0.0158835
1175400 60.2883 207.022 55.8291 0.58765 -0.00797952
1175600 60.2883 207.035 55.8291 0.58775 -0.00990946
1175800 60.2883 207.048 55.8291 0.58785 -0.0159821
1176000 60.2883 207.061 55.8291 0.58795 -0.0298184
1176200 60.2883 207.074 55.8291 0.58805 -0.027465
1176400 60.2883 207.087 55.8291 0.58815 -0.0457059
1176600 60.2883 207.1 55.8291 0.58825 -0.0290608
1176800 60.2883 207.113 55.8291 0.58835 -0.0340518
1177000 60.2883 207.126 55.8291 0.58845 0.0033755
1177200 60.2883 207.139 55.8291 0.58855 0.0043695
1177400 60.2883 207.152 55.8291 0.58865 0.00011663
1177600 60.2883 207.166 55.8291 0.58875 0.0132395
1177800 60.2883 207.179 55.8291 0.58885 0.0401791
1178000 60.2883 207.192 55.8291 0.58895 0.0172359
1178200 60.2883 207.205 55.8291 0.58905 0.0520177
1178400 60.2883 207.218 55.8291 0.58915 0.0395013
1178600 60.2883 207.231 55.8291 0.58925 0.0435223
1178800 60.2883 207.244 55.8291 0.58935 0.0227764
1179000 60.2883 207.257 55.8291 0.58945 0.0205899
1179200 60.2883 207.27 55.8291 0.58955 -0.00487176
1179400 60.2883 207.283 55.8291 0.58965 0.0020001
1179600 60.2883 207.296 55.8291 0.58975 -0.0120413
1179800 60.2883 207.309 55.8291 0.58985 -0.0163699
1180000 60.2883 207.322 55.8291 0.58995 -0.0236205
1180200 60.2883 207.335 55.8291 0.59005 -0.0417834
1180400 60.2883 207.348 55.8291 0.59015 -0.0232323
1180600 60.2883 207.361 55.8291 0.59025 -0.0330999
1180800 60.2883 207.374 55.8291 0.59035 -0.0153725
1181000 60.2883 207.387 55.8291 0.59045 -0.0196315
1181200 60.2883 207.4 55.8291 0.59055 0.0112367
1181400 60.2883 207.413 55.8291 0.59065 0.0210301
1181600 60.2883 207.426 55.8291 0.59075 0.0169301
1181800 60.2883 207.439 55.8291 0.59085 0.024125
1182000 60.2883 207.452 55.8291 0.59095 0.0289782
1182200 60.2883 207.465 55.8291 0.59105 0.0243181
1182400 60.2883 207.478 55.8291 0.59115 0.0536978
1182600 60.2883 207.492 55.8291 0.59125 0.0446766
1182800 60.2883 207.505 55.8291 0.59135 0.017299
1183000 60.2883 207.518 55.8291 0.59145 0.00324832
1183200 60.2883 207.531 55.8291 0.59155 -0.00376806
1183400 60.2883 207.544 55.8291 0.59165 -0.00272891
1183600 60.2883 207.557 55.8291 0.59175 -0.0238267
1183800 60.2883 207.57 55.8291 0.59185 -0.012526
1184000 60.2883 207.583 55.8291 0.59195 -0.0220823
1184200 60.2883 207.596 55.8291 0.59205 -0.0201711
1184400 60.2883 207.609 55.8291 0.59215 -0.0247862
1184600 60.2883 207.622 55.8291 0.59225 -0.0545752
1184800 60.2883 207.635 55.8291 0.59235 -0.0135199
1185000 60.2883 207.648 55.8291 0.59245 -0.00863566
1185200 60.2883 207.661 55.8291 0.59255 0.00431733
1185400 60.2883 207.674 55.8291 0.59265 0.0338459
1185600 60.2883 207.687 55.8291 0.59275 0.0223639
1185800 60.2883 207.7 55.8291 0.59285 0.0338621
1186000 60.2883 207.713 55.8291 0.59295 0.0273453
1186200 60.2883 207.726 55.8291 0.59305 0.0277812
1186400 60.2883 207.739 55.8291 0.59315 0.0465826
1186600 60.2883 207.752 55.8291 0.59325 0.0384052
1186800 60.2883 207.765 55.8291 0.59335 0.0462396
1187000 60.2883 207.778 55.8291 0.59345 0.00729661
1187200 60.2883 207.791 55.8291 0.59355 -0.00692863
1187400 60.2883 207.804 55.8291 0.59365 -0.0320002
1187600 60.2883 207.817 55.8291 0.59375 -0.0266759
1187800 60.2883 207.831 55.8291 0.59385 -0.0291251
1188000 60.2883 207.844 55.8291 0.59395 -0.0154302
1188200 60.2883 207.857 55.8291 0.59405 -0.0169787
1188400 60.2883 207.87 55.8291 0.59415 -0.0180176
1188600 60.2883 207.883 55.8291 0.59425 -0.0244171
1188800 60.2883 207.896 55.8291 0.59435 -0.0448707
1189000 60.2883 207.909 55.8291 0.59445 -0.00583754
1189200 60.2883 207.922 55.8291 0.59455 0.00420238
1189400 60.2883 207.935 55.8291 0.59465 0.0271033
1189600 60.2883 207.948 55.8291 0.59475 0.0382686
1189800 60.2883 207.961 55.8291 0.59485 0.052041
1190000 60.2883 207.974 55.8291 0.59495 0.0210927
1190200 60.2883 207.987 55.8291 0.59505 0.0342941
1190400 60.2883 208 55.8291 0.59515 0.016449
1190600 60.2883 208.013 55.8291 0.59525 0.0210101
1190800 60.2883 208.026 55.8291 0.59535 0.0253205
1191000 60.2883 208.039 55.8291 0.59545 0.03151
1191200 60.2883 208.052 55.8291 0.59555 0.00656487
1191400 60.2883 208.065 55.8291 0.59565 -0.018328
1191600 60.2883 208.078 55.8291 0.59575 -0.0312289
1191800 60.2883 208.091 55.8291 0.59585 -0.0421329
1192000 60.2883 208.104 55.8291 0.59595 -0.0371451
1192200 60.2883 208.117 55.8291 0.59605 -0.0221263
1192400 60.2883 208.13 55.8291 0.59615 -0.0114612
1192600 60.2883 208.143 55.8291 0.59625 0.00586061
1192800 60.2883 208.157 55.8291 0.59635 -0.0297061
1193000 60.2883 208.17 55.8291 0.59645 -0.0162176
1193200 60.2883 208.183 55.8291 0.59655 0.0132394
1193400 60.2883 208.196 55.8291 0.59665 0.0172354
1193600 60.2883 208.209 55.8291 0.59675 0.0334224
1193800 60.2883 208.222 55.8291 0.59685 0.0547789
1194000 60.2883 208.235 55.8291 0.59695 0.0582384
1194200 60.2883 208.248 55.8291 0.59705 0.0286442
1194400 60.2883 208.261 55.8291 0.59715 0.0224531
1194600 60.2883 208.274 55.8291 0.59725 0.0066035
1194800 60.2883 208.287 55.8291 0.59735 0.0183754
1195000 60.2883 208.3 55.8291 0.59745 0.0112283
1195200 60.2883 208.313 55.8291 0.59755 -0.0189937
1195400 60.2883 208.326 55.8291 0.59765 -0.0107526
1195600 60.2883 208.339 55.8291 0.59775 -0.0143242
1195800 60.2883 208.352 55.8291 0.59785 -0.0534806
1196000 60.2883 208.365 55.8291 0.59795 -0.058635
1196200 60.2883 208.378 55.8291 0.59805 -0.00942235
1196400 60.2883 208.391 55.8291 0.59815 -0.0190115
1196600 60.2883 208.404 55.8291 0.59825 -0.0120622
1196800 60.2883 208.417 55.8291 0.59835 0.0108412
1197000 60.2883 208.43 55.8291 0.59845 -0.00619512
1197200 60.2883 208.443 55.8291 0.59855 0.0181934
1197400 60.2883 208.456 55.8291 0.59865 0.0422157
1197600 60.2883 208.469 55.8291 0.59875 0.0272773
1197800 60.2883 208.483 55.8291 0.59885 0.0303237
1198000 60.2883 208.496 55.8291 0.59895 0.0476076
1198200 60.2883 208.509 55.8291 0.59905 0.0228666
1198400 60.2883 208.522 55.8291 0.59915 0.0334784
1198600 60.2883 208.535 55.8291 0.59925 0.0142745
1198800 60.2883 208.548 55.8291 0.59935 0.0271916
1199000 60.2883 208.561 55.8291 0.59945 -0.0199853
1199200 60.2883 208.574 55.8291 0.59955 -0.013241
1199400 60.2883 208.587 55.8291 0.59965 -0.0232709
1199600 60.2883 208.6 55.8291 0.59975 -0.0310819
1199800 60.2883 208.613 55.8291 0.59985 -0.0161441
1200000 60.2883 208.626 55.8291 0.59995 -0.0246753
1200200 60.2883 208.639 55.8291 0.60005 -0.0215727
1200400 60.2883 208.652 55.8291 0.60015 -0.0222862
1200600 60.2883 208.665 55.8291 0.60025 0.00125424
1200800 60.2883 208.678 55.8291 0.60035 -0.00881621
1201000 60.2883 208.691 55.8291 0.60045 0.00190497
1201200 60.2883 208.704 55.8291 0.60055 0.0258961
1201400 60.2883 208.717 55.8291 0.60065 0.0295566
1201600 60.2883 208.73 55.8291 0.60075 0.0372024
1201800 60.2883 208.743 55.8291 0.60085 0.0346752
1202000 60.2883 208.756 55.8291 0.60095 0.0218368
1202200 60.2883 208.769 55.8291 0.60105 0.0237387
1202400 60.2883 208.782 55.8291 0.60115 0.0245059
1202600 60.2883 208.795 55.8291 0.60125 0.0294129
1202800 60.2883 208.809 55.8291 0.60135 0.00476885
1203000 60.2883 208.822 55.8291 0.60145 -0.000999556
1203200 60.2883 208.835 55.8291 0.60155 -0.0269258
1203400 60.2883 208.848 55.8291 0.60165 -0.0303956
1203600 60.2883 208.861 55.8291 0.60175 -0.0374489
1203800 60.2883 208.874 55.8291 0.60185 -0.0313811
1204000 60.2883 208.887 55.8291 0.60195 -0.0114887
1204200 60.2883 208.9 55.8291 0.60205 -0.00648685
1204400 60.2883 208.913 55.8291 0.60215 -0.0149272
1204600 60.2883 208.926 55.8291 0.60225 -0.00803511
1204800 60.2883 208.939 55.8291 0.60235 -0.0090679
1205000 60.2883 208.952 55.8291 0.60245 0.0328948
1205200 60.2883 208.965 55.8291 0.60255 0.0364893
1205400 60.2883 208.978 55.8291 0.60265 0.0132813
1205600 60.2883 208.991 55.8291 0.60275 0.0433693
1205800 60.2883 209.004 55.8291 0.60285 0.0357082
1206000 60.2883 209.017 55.8291 0.60295 0.0132749
1206200 60.2883 209.03 55.8291 0.60305 0.0281139
1206400 60.2883 209.043 55.8291 0.60315 0.0106384
1206600 60.2883 209.056 55.8291 0.60325 0.0350804
1206800 60.2883 209.069 55.8291 0.60335 -0.0156765
1207000 60.2883 209.082 55.8291 0.60345 -0.0135301
1207200 60.2883 209.095 55.8291 0.60355 -0.0342655
1207400 60.2883 209.108 55.8291 0.60365 -0.00773377
1207600 60.2883 209.121 55.8291 0.60375 -0.0279788
1207800 60.2883 209.134 55.8291 0.60385 -0.0214576
1208000 60.2883 209.148 55.8291 0.60395 -0.0261062
1208200 60.2883 209.161 55.8291 0.60405 0.0044446
1208400 60.2883 209.174 55.8291 0.60415 -0.0119701
1208600 60.2883 209.187 55.8291 0.60425 -0.00462438
1208800 60.2883 209.2 55.8291 0.60435 0.00515636
1209000 60.2883 209.213 55.8291 0.60445 0.0253202
1209200 60.2883 209.226 55.8291 0.60455 0.015641
1209400 60.2883 209.239 55.8291 0.60465 0.0313394
1209600 60.2883 209.252 55.8291 0.60475 0.0320735
1209800 60.2883 209.265 55.8291 0.60485 0.0281127
1210000 60.2883 209.278 55.8291 0.60495 0.016559
1210200 60.2883 209.291 55.8291 0.60505 0.0120193
1210400 60.2883 209.304 55.8291 0.60515 0.0185341
1210600 60.2883 209.317 55.8291 0.60525 0.001395
1210800 60.2883 209.33 55.8291 0.60535 0.021601
1211000 60.2883 209.343 55.8291 0.60545 -0.0121156
1211200 60.2883 209.356 55.8291 0.60555 -0.0125942
1211400 60.2883 209.369 55.8291 0.60565 -0.0273975
1211600 60.2883 209.382 55.8291 0.60575 -0.00744552
1211800 60.2883 209.395 55.8291 0.60585 -0.0428659
1212000 60.2883 209.408 55.8291 0.60595 0.0015878
1212200 60.2883 209.421 55.8291 0.60605 -0.0253804
1212400 60.2883 209.434 55.8291 0.60615 0.00534154
1212600 60.2883 209.447 55.8291 0.60625 0.000510967
1212800 60.2883 209.46 55.8291 0.60635 -0.00423438
1213000 60.2883 209.474 55.8291 0.60645 0.00963279
1213200 60.2883 209.487 55.8291 0.60655 0.0379075
1213400 60.2883 209.5 55.8291 0.60665 0.0197332
1213600 60.2883 209.513 55.8291 0.60675 0.0111482
1213800 60.2883 209.526 55.8291 0.60685 0.0466752
1214000 60.2883 209.539 55.8291 0.60695 0.0216094
1214200 60.2883 209.552 55.8291 0.60705 0.024473
1214400 60.2883 209.565 55.8291 0.60715 0.0114949
1214600 60.2883 209.578 55.8291 0.60725 -0.00167765
1214800 60.2883 209.591 55.8291 0.60735 -0.000613202
1215000 60.2883 209.604 55.8291 0.60745 -0.0211308
1215200 60.2883 209.617 55.8291 0.60755 -8.8618e-05
1215400 60.2883 209.63 55.8291 0.60765 -0.011864
1215600 60.2883 209.643 55.8291 0.60775 -0.0157059
1215800 60.2883 209.656 55.8291 0.60785 -0.0356018
1216000 60.2883 209.669 55.8291 0.60795 -0.0112053
1216200 60.2883 209.682 55.8291 0.60805 -0.0289427
1216400 60.2883 209.695 55.8291 0.60815 -0.00243206
1216600 60.2883 209.708 55.8291 0.60825 0.0088985
1216800 60.2883 209.721 55.8291 0.60835 0.00284031
1217000 60.2883 209.734 55.8291 0.60845 0.0253379
1217200 60.2883 209.747 55.8291 0.60855 0.0271348
1217400 60.2883 209.76 55.8291 0.60865 0.0229749
1217600 60.2883 209.773 55.8291 0.60875 0.0209811
1217800 60.2883 209.786 55.8291 0.60885 0.0519364
1218000 60.2883 209.8 55.8291 0.60895 0.0270216
1218200 60.2883 209.813 55.8291 0.60905 0.00994909
1218400 60.2883 209.826 55.8291 0.60915 0.0082405
1218600 60.2883 209.839 55.8291 0.60925 0.00783081
1218800 60.2883 209.852 55.8291 0.60935 -0.0173666
1219000 60.2883 209.865 55.8291 0.60945 -0.017872
1219200 60.2883 209.878 55.8291 0.60955 -0.0202381
1219400 60.2883 209.891 55.8291 0.60965 -0.0115815
1219600 60.2883 209.904 55.8291 0.60975 -0.0296917
1219800 60.2883 209.917 55.8291 0.60985 -0.023072
1220000 60.2883 209.93 55.8291 0.60995 -0.0228029
1220200 60.2883 209.943 55.8291 0.61005 -0.00530932
1220400 60.2883 209.956 55.8291 0.61015 0.00806836
1220600 60.2883 209.969 55.8291 0.61025 0.00131828
1220800 60.2883 209.982 55.8291 0.61035 0.0238089
1221000 60.2883 209.995 55.8291 0.61045 0.0379389
1221200 60.2883 210.008 55.8291 0.61055 0.0365217
1221400 60.2883 210.021 55.8291 0.61065 0.0248854
1221600 60.2883 210.034 55.8291 0.61075 0.0149389
1221800 60.2883 210.047 55.8291 0.61085 0.0257703
1222000 60.2883 210.06 55.8291 0.61095 0.0129529
1222200 60.2883 210.073 55.8291 0.61105 0.0161113
1222400 60.2883 210.086 55.8291 0.61115 0.0112593
1222600 60.2883 210.099 55.8291 0.61125 -0.0169781
1222800 60.2883 210.112 55.8291 0.61135 -0.0245995
1223000 60.2883 210.125 55.8291 0.61145 -0.006993
1223200 60.2883 210.139 55.8291 0.61155 -0.0279125
1223400 60.2883 210.152 55.8291 0.61165 -0.00740594
1223600 60.2883 210.165 55.8291 0.61175 -0.015807
1223800 60.2883 210.178 55.8291 0.61185 -0.0198776
1224000 60.2883 210.191 55.8291 0.61195 -0.00263998
1224200 60.2883 210.204 55.8291 0.61205 0.00704651
1224400 60.2883 210.217 55.8291 0.61215 0.00204448
1224600 60.2883 210.23 55.8291 0.61225 9.34219e-05
1224800 60.2883 210.243 55.8291 0.61235 0.0236517
1225000 60.2883 210.256 55.8291 0.61245 0.0267172
1225200 60.2883 210.269 55.8291 0.61255 0.0225064
1225400 60.2883 210.282 55.8291 0.61265 0.0283692
1225600 60.2883 210.295 55.8291 0.61275 0.0266699
1225800 60.2883 210.308 55.8291 0.61285 0.0153966
1226000 60.2883 210.321 55.8291 0.61295 0.011587
1226200 60.2883 210.334 55.8291 0.61305 0.00496488
1226400 60.2883 210.347 55.8291 0.61315 0.00861563
1226600 60.2883 210.36 55.8291 0.61325 0.011414
1226800 60.2883 210.373 55.8291 0.61335 -0.013961
1227000 60.2883 210.386 55.8291 0.61345 -0.0233443
1227200 60.2883 210.399 55.8291 0.61355 -0.0295262
1227400 60.2883 210.412 55.8291 0.61365 -0.0171339
1227600 60.2883 210.425 55.8291 0.61375 -0.0146984
1227800 60.2883 210.438 55.8291 0.61385 -0.0131157
1228000 60.2883 210.451 55.8291 0.61395 0.00873506
1228200 60.2883 210.465 55.8291 0.61405 -0.0193603
1228400 60.2883 210.478 55.8291 0.61415 0.0107029
1228600 60.2883 210.491 55.8291 0.61425 0.0106629
1228800 60.2883 210.504 55.8291 0.61435 0.00825608
1229000 60.2883 210.517 55.8291 0.61445 0.0451275
1229200 60.2883 210.53 55.8291 0.61455 0.0305407
1229400 60.2883 210.543 55.8291 0.61465 0.0277957
1229600 60.2883 210.556 55.8291 0.61475 0.0325589
1229800 60.2883 210.569 55.8291 0.61485 0.00478436
1230000 60.2883 210.582 55.8291 0.61495 -0.00439759
1230200 60.2883 210.595 55.8291 0.61505 0.0121884
1230400 60.2883 210.608 55.8291 0.61515 0.0120192
1230600 60.2883 210.621 55.8291 0.61525 -0.0246976
1230800 60.2883 210.634 55.8291 0.61535 -0.00674468
1231000 60.2883 210.647 55.8291 0.61545 -0.020786
1231200 60.2883 210.66 55.8291 0.61555 -0.0131882
1231400 60.2883 210.673 55.8291 0.61565 -0.028986
1231600 60.2883 210.686 55.8291 0.61575 -0.0127335
1231800 60.2883 210.699 55.8291 0.61585 -0.00335557
1232000 60.2883 210.712 55.8291 0.61595 0.0039597
1232200 60.2883 210.725 55.8291 0.61605 0.0110869
1232400 60.2883 210.738 55.8291 0.61615 -0.0103341
1232600 60.2883 210.751 55.8291 0.61625 0.0197509
1232800 60.2883 210.764 55.8291 0.61635 0.0186137
1233000 60.2883 210.777 55.8291 0.61645 0.0254236
1233200 60.2883 210.791 55.8291 0.61655 0.0247461
1233400 60.2883 210.804 55.8291 0.61665 0.0510509
1233600 60.2883 210.817 55.8291 0.61675 0.0441307
1233800 60.2883 210.83 55.8291 0.61685 -0.0063953
1234000 60.2883 210.843 55.8291 0.61695 0.000665526
1234200 60.2883 210.856 55.8291 0.61705 0.0145862
1234400 60.2883 210.869 55.8291 0.61715 -0.0211861
1234600 60.2883 210.882 55.8291 0.61725 0.0112797
1234800 60.2883 210.895 55.8291 0.61735 -0.0279243
1235000 60.2883 210.908 55.8291 0.61745 -0.0260955
1235200 60.2883 210.921 55.8291 0.61755 -0.0241821
1235400 60.2883 210.934 55.8291 0.61765 -0.0333512
1235600 60.2883 210.947 55.8291 0.61775 -0.0190082
1235800 60.2883 210.96 55.8291 0.61785 -0.00300724
1236000 60.2883 210.973 55.8291 0.61795 0.0106427
1236200 60.2883 210.986 55.8291 0.61805 0.0171095
1236400 60.2883 210.999 55.8291 0.61815 0.00627443
1236600 60.2883 211.012 55.8291 0.61825 0.00773865
1236800 60.2883 211.025 55.8291 0.61835 0.0129201
1237000 60.2883 211.038 55.8291 0.61845 0.0526533
1237200 60.2883 211.051 55.8291 0.61855 0.0424698
1237400 60.2883 211.064 55.8291 0.61865 0.0228054
1237600 60.2883 211.077 55.8291 0.61875 0.0335981
1237800 60.2883 211.09 55.8291 0.61885 0.0112985
1238000 60.2883 211.103 55.8291 0.61895 -0.00251605
1238200 60.2883 211.116 55.8291 0.61905 -0.0293997
1238400 60.2883 211.13 55.8291 0.61915 -0.002417
1238600 60.2883 211.143 55.8291 0.61925 0.0155495
1238800 60.2883 211.156 55.8291 0.61935 -0.0193391
1239000 60.2883 211.169 55.8291 0.61945 -0.0221442
1239200 60.2883 211.182 55.8291 0.61955 -0.0338901
1239400 60.2883 211.195 55.8291 0.61965 -0.0416545
1239600 60.2883 211.208 55.8291 0.61975 -0.0278163
1239800 60.2883 211.221 55.8291 0.61985 0.00803855
1240000 60.2883 211.234 55.8291 0.61995 0.032797
1240200 60.2883 211.247 55.8291 0.62005 0.0234611
1240400 60.2883 211.26 55.8291 0.62015 0.0111054
1240600 60.2883 211.273 55.8291 0.62025 -0.000831238
1240800 60.2883 211.286 55.8291 0.62035 0.0393073
1241000 60.2883 211.299 55.8291 0.62045 0.023896
1241200 60.2883 211.312 55.8291 0.62055 0.0360458
1241400 60.2883 211.325 55.8291 0.62065 0.0335691
1241600 60.2883 211.338 55.8291 0.62075 0.0295244
1241800 60.2883 211.351 55.8291 0.62085 0.00618181
1242000 60.2883 211.364 55.8291 0.62095 -0.00261808
1242200 60.2883 211.377 55.8291 0.62105 -0.0120804
1242400 60.2883 211.39 55.8291 0.62115 -0.0237609
1242600 60.2883 211.403 55.8291 0.62125 -0.00727396
1242800 60.2883 211.416 55.8291 0.62135 -0.0165038
1243000 60.2883 211.429 55.8291 0.62145 -0.0188388
1243200 60.2883 211.442 55.8291 0.62155 -0.0320049
1243400 60.2883 211.456 55.8291 0.62165 -0.0220582
1243600 60.2883 211.469 55.8291 0.62175 -0.0201054
1243800 60.2883 211.482 55.8291 0.62185 -0.00334809
1244000 60.2883 211.495 55.8291 0.62195 0.020876
1244200 60.2883 211.508 55.8291 0.62205 0.0131111
1244400 60.2883 211.521 55.8291 0.62215 0.0245498
1244600 60.2883 211.534 55.8291 0.62225 0.0219196
1244800 60.2883 211.547 55.8291 0.62235 0.0248505
1245000 60.2883 211.56 55.8291 0.62245 0.0284921
1245200 60.2883 211.573 55.8291 0.62255 0.0410163
1245400 60.2883 211.586 55.8291 0.62265 0.0326742
1245600 60.2883 211.599 55.8291 0.62275 0.0138852
1245800 60.2883 211.612 55.8291 0.62285 0.0152725
1246000 60.2883 211.625 55.8291 0.62295 0.00783954
1246200 60.2883 211.638 55.8291 0.62305 -0.0339885
1246400 60.2883 211.651 55.8291 0.62315 -0.0158975
1246600 60.2883 211.664 55.8291 0.62325 -0.0221989
1246800 60.2883 211.677 55.8291 0.62335 -0.0171935
1247000 60.2883 211.69 55.8291 0.62345 -0.0117063
1247200 60.2883 211.703 55.8291 0.62355 -0.0147762
1247400 60.2883 211.716 55.8291 0.62365 -0.0110884
1247600 60.2883 211.729 55.8291 0.62375 -0.0163077
1247800 60.2883 211.742 55.8291 0.62385 0.00228467
1248000 60.2883 211.755 55.8291 0.62395 0.0119159
1248200 60.2883 211.768 55.8291 0.62405 0.0173987
1248400 60.2883 211.782 55.8291 0.62415 0.0231152
1248600 60.2883 211.795 55.8291 0.62425 0.0266401
1248800 60.2883 211.808 55.8291 0.62435 0.0138096
1249000 60.2883 211.821 55.8291 0.62445 0.0310327
1249200 60.2883 211.834 55.8291 0.62455 0.031556
1249400 60.2883 211.847 55.8291 0.62465 0.0223824
1249600 60.2883 211.86 55.8291 0.62475 0.017025
1249800 60.2883 211.873 55.8291 0.62485 -0.00156453
1250000 60.2883 211.886 55.8291 0.62495 -0.0146209
1250200 60.2883 211.899 55.8291 0.62505 -0.0021299
1250400 60.2883 211.912 55.8291 0.62515 -0.0258628
1250600 60.2883 211.925 55.8291 0.62525 -0.00664238
1250800 60.2883 211.938 55.8291 0.62535 -0.00999534
1251000 60.2883 211.951 55.8291 0.62545 -0.0259926
1251200 60.2883 211.964 55.8291 0.62555 -0.0157943
1251400 60.2883 211.977 55.8291 0.62565 -0.0214634
1251600 60.2883 211.99 55.8291 0.62575 -0.00194133
1251800 60.2883 212.003 55.8291 0.62585 0.00746977
1252000 60.2883 212.016 55.8291 0.62595 0.0172037
1252200 60.2883 212.029 55.8291 0.62605 0.0320296
1252400 60.2883 212.042 55.8291 0.62615 0.00219209
1252600 60.2883 212.055 55.8291 0.62625 0.0326771
1252800 60.2883 212.068 55.8291 0.62635 0.0220955
1253000 60.2883 212.081 55.8291 0.62645 0.0355349
1253200 60.2883 212.094 55.8291 0.62655 0.0134247
1253400 60.2883 212.108 55.8291 0.62665 0.028769
1253600 60.2883 212.121 55.8291 0.62675 0.00738302
1253800 60.2883 212.134 55.8291 0.62685 -0.00560019
1254000 60.2883 212.147 55.8291 0.62695 -0.000366736
1254200 60.2883 212.16 55.8291 0.62705 -0.0123556
1254400 60.2883 212.173 55.8291 0.62715 0.00171615
1254600 60.2883 212.186 55.8291 0.62725 -0.0334578
1254800 60.2883 212.199 55.8291 0.62735 -0.0197181
1255000 60.2883 212.212 55.8291 0.62745 -0.0198479
1255200 60.2883 212.225 55.8291 0.62755 -0.0203866
1255400 60.2883 212.238 55.8291 0.62765 -0.00918205
1255600 60.2883 212.251 55.8291 0.62775 0.006491
1255800 60.2883 212.264 55.8291 0.62785 0.0185686
1256000 60.2883 212.277 55.8291 0.62795 0.00271525
1256200 60.2883 212.29 55.8291 0.62805 0.0104249
1256400 60.2883 212.303 55.8291 0.62815 0.0350991
1256600 60.2883 212.316 55.8291 0.62825 0.0164185
1256800 60.2883 212.329 55.8291 0.62835 0.0459506
1257000 60.2883 212.342 55.8291 0.62845 0.0159762
1257200 60.2883 212.355 55.8291 0.62855 0.043836
1257400 60.2883 212.368 55.8291 0.62865 0.00115255
1257600 60.2883 212.381 55.8291 0.62875 0.00241356
1257800 60.2883 212.394 55.8291 0.62885 -0.0105163
1258000 60.2883 212.407 55.8291 0.62895 -0.0072781
1258200 60.2883 212.42 55.8291 0.62905 -0.00370094
1258400 60.2883 212.433 55.8291 0.62915 -0.0114551
1258600 60.2883 212.447 55.8291 0.62925 -0.02158
1258800 60.2883 212.46 55.8291 0.62935 -0.0406257
1259000 60.2883 212.473 55.8291 0.62945 -0.0193994
1259200 60.2883 212.486 55.8291 0.62955 -0.00740391
1259400 60.2883 212.499 55.8291 0.62965 0.00573371
1259600 60.2883 212.512 55.8291 0.62975 0.011364
1259800 60.2883 212.525 55.8291 0.62985 0.0279417
1260000 60.2883 212.538 55.8291 0.62995 0.00990493
1260200 60.2883 212.551 55.8291 0.63005 0.0259985
1260400 60.2883 212.564 55.8291 0.63015 -0.00052972
1260600 60.2883 212.577 55.8291 0.63025 0.0367553
1260800 60.2883 212.59 55.8291 0.63035 0.0256698
1261000 60.2883 212.603 55.8291 0.63045 0.0283533
1261200 60.2883 212.616 55.8291 0.63055 0.0251509
1261400 60.2883 212.629 55.8291 0.63065 0.0120295
1261600 60.2883 212.642 55.8291 0.63075 -0.00610909
1261800 60.2883 212.655 55.8291 0.63085 -0.042665
1262000 60.2883 212.668 55.8291 0.63095 -0.000116354
1262200 60.2883 212.681 55.8291 0.63105 -0.000446736
1262400 60.2883 212.694 55.8291 0.63115 -0.00938095
1262600 60.2883 212.707 55.8291 0.63125 -0.0137597
1262800 60.2883 212.72 55.8291 0.63135 -0.0188151
1263000 60.2883 212.733 55.8291 0.63145 -0.0342671
1263200 60.2883 212.746 55.8291 0.63155 -0.0116535
1263400 60.2883 212.759 55.8291 0.63165 0.000908429
1263600 60.2883 212.773 55.8291 0.63175 0.0228416
1263800 60.2883 212.786 55.8291 0.63185 0.0162502
1264000 60.2883 212.799 55.8291 0.63195 0.0254586
1264200 60.2883 212.812 55.8291 0.63205 0.0171523
1264400 60.2883 212.825 55.8291 0.63215 0.00975993
1264600 60.2883 212.838 55.8291 0.63225 0.0242801
1264800 60.2883 212.851 55.8291 0.63235 0.0272704
1265000 60.2883 212.864 55.8291 0.63245 0.0332657
1265200 60.2883 212.877 55.8291 0.63255 0.0328131
1265400 60.2883 212.89 55.8291 0.63265 0.0123804
1265600 60.2883 212.903 55.8291 0.63275 0.00331908
1265800 60.2883 212.916 55.8291 0.63285 -0.0296914
1266000 60.2883 212.929 55.8291 0.63295 -0.0114339
1266200 60.2883 212.942 55.8291 0.63305 -0.00135139
1266400 60.2883 212.955 55.8291 0.63315 -0.0129825
1266600 60.2883 212.968 55.8291 0.63325 -0.0131062
1266800 60.2883 212.981 55.8291 0.63335 -0.0126069
1267000 60.2883 212.994 55.8291 0.63345 -0.0174174
1267200 60.2883 213.007 55.8291 0.63355 -0.0265351
1267400 60.2883 213.02 55.8291 0.63365 -0.0139657
1267600 60.2883 213.033 55.8291 0.63375 0.00537827
1267800 60.2883 213.046 55.8291 0.63385 0.0126403
1268000 60.2883 213.059 55.8291 0.63395 0.0206597
1268200 60.2883 213.072 55.8291 0.63405 0.0391382
1268400 60.2883 213.085 55.8291 0.63415 0.0267762
1268600 60.2883 213.099 55.8291 0.63425 0.00842365
1268800 60.2883 213.112 55.8291 0.63435 0.0192801
1269000 60.2883 213.125 55.8291 0.63445 0.0163929
1269200 60.2883 213.138 55.8291 0.63455 0.0257283
1269400 60.2883 213.151 55.8291 0.63465 0.0240044
1269600 60.2883 213.164 55.8291 0.63475 0.0133573
1269800 60.2883 213.177 55.8291 0.63485 -0.00859063
1270000 60.2883 213.19 55.8291 0.63495 -0.0123773
1270200 60.2883 213.203 55.8291 0.63505 -0.0292312
1270400 60.2883 213.216 55.8291 0.63515 -0.0204021
1270600 60.2883 213.229 55.8291 0.63525 -0.00388854
1270800 60.2883 213.242 55.8291 0.63535 -0.010747
1271000 60.2883 213.255 55.8291 0.63545 -0.000259889
1271200 60.2883 213.268 55.8291 0.63555 -0.0147287
1271400 60.2883 213.281 55.8291 0.63565 -0.00862132
1271600 60.2883 213.294 55.8291 0.63575 -0.000146907
1271800 60.2883 213.307 55.8291 0.63585 -0.00212186
1272000 60.2883 213.32 55.8291 0.63595 0.0262999
1272200 60.2883 213.333 55.8291 0.63605 0.0299373
1272400 60.2883 213.346 55.8291 0.63615 0.0170487
1272600 60.2883 213.359 55.8291 0.63625 0.0189337
1272800 60.2883 213.372 55.8291 0.63635 0.0269986
1273000 60.2883 213.385 55.8291 0.63645 0.0167511
1273200 60.2883 213.398 55.8291 0.63655 0.0113788
1273400 60.2883 213.411 55.8291 0.63665 0.0211737
1273600 60.2883 213.424 55.8291 0.63675 0.0220348
1273800 60.2883 213.438 55.8291 0.63685 0.0255308
1274000 60.2883 213.451 55.8291 0.63695 -0.0336038
1274200 60.2883 213.464 55.8291 0.63705 -0.0176965
1274400 60.2883 213.477 55.8291 0.63715 -0.0245053
1274600 60.2883 213.49 55.8291 0.63725 -0.010322
1274800 60.2883 213.503 55.8291 0.63735 -0.0288996
1275000 60.2883 213.516 55.8291 0.63745 -0.0108682
1275200 60.2883 213.529 55.8291 0.63755 0.0031984
1275400 60.2883 213.542 55.8291 0.63765 0.00799067
1275600 60.2883 213.555 55.8291 0.63775 -0.0177238
1275800 60.2883 213.568 55.8291 0.63785 0.00118978
1276000 60.2883 213.581 55.8291 0.63795 0.00670839
1276200 60.2883 213.594 55.8291 0.63805 0.0182612
1276400 60.2883 213.607 55.8291 0.63815 0.0373013
1276600 60.2883 213.62 55.8291 0.63825 0.0357193
1276800 60.2883 213.633 55.8291 0.63835 0.0445165
1277000 60.2883 213.646 55.8291 0.63845 0.0166319
1277200 60.2883 213.659 55.8291 0.63855 -0.00804917
1277400 60.2883 213.672 55.8291 0.63865 0.00911585
1277600 60.2883 213.685 55.8291 0.63875 0.0256262
1277800 60.2883 213.698 55.8291 0.63885 -0.00728151
1278000 60.2883 213.711 55.8291 0.63895 0.0131738
1278200 60.2883 213.724 55.8291 0.63905 -0.0225767
1278400 60.2883 213.737 55.8291 0.63915 -0.0318602
1278600 60.2883 213.75 55.8291 0.63925 -0.0357045
1278800 60.2883 213.764 55.8291 0.63935 -0.010386
1279000 60.2883 213.777 55.8291 0.63945 -0.0141175
1279200 60.2883 213.79 55.8291 0.63955 -0.0035265
1279400 60.2883 213.803 55.8291 0.63965 0.00366789
1279600 60.2883 213.816 55.8291 0.63975 0.00128084
1279800 60.2883 213.829 55.8291 0.63985 0.00789805
1280000 60.2883 213.842 55.8291 0.63995 0.00789961
1280200 60.2883 213.855 55.8291 0.64005 0.0353501
1280400 60.2883 213.868 55.8291 0.64015 0.0433223
1280600 60.2883 213.881 55.8291 0.64025 0.0393624
1280800 60.2883 213.894 55.8291 0.64035 0.0259981
1281000 60.2883 213.907 55.8291 0.64045 0.0303357
1281200 60.2883 213.92 55.8291 0.64055 -0.00282246
1281400 60.2883 213.933 55.8291 0.64065 0.00614659
1281600 60.2883 213.946 55.8291 0.64075 0.0053338
1281800 60.2883 213.959 55.8291 0.64085 -0.0174984
1282000 60.2883 213.972 55.8291 0.64095 -0.0108366
1282200 60.2883 213.985 55.8291 0.64105 -0.00939365
1282400 60.2883 213.998 55.8291 0.64115 -0.0242277
1282600 60.2883 214.011 55.8291 0.64125 -0.0428313
1282800 60.2883 214.024 55.8291 0.64135 -0.0193136
1283000 60.2883 214.037 55.8291 0.64145 -0.0324081
1283200 60.2883 214.05 55.8291 0.64155 0.00277915
1283400 60.2883 214.063 55.8291 0.64165 0.0163123
1283600 60.2883 214.076 55.8291 0.64175 0.00790158
1283800 60.2883 214.09 55.8291 0.64185 0.0398818
1284000 60.2883 214.103 55.8291 0.64195 0.0104098
1284200 60.2883 214.116 55.8291 0.64205 0.0249799
1284400 60.2883 214.129 55.8291 0.64215 0.0410713
1284600 60.2883 214.142 55.8291 0.64225 0.0290137
1284800 60.2883 214.155 55.8291 0.64235 0.0253724
1285000 60.2883 214.168 55.8291 0.64245 0.0348315
1285200 60.2883 214.181 55.8291 0.64255 0.0238248
1285400 60.2883 214.194 55.8291 0.64265 0.00620568
1285600 60.2883 214.207 55.8291 0.64275 -0.00149497
1285800 60.2883 214.22 55.8291 0.64285 -0.0355711
1286000 60.2883 214.233 55.8291 0.64295 -0.0079395
1286200 60.2883 214.246 55.8291 0.64305 -0.0259222
1286400 60.2883 214.259 55.8291 0.64315 -0.0355235
1286600 60.2883 214.272 55.8291 0.64325 -0.0211485
1286800 60.2883 214.285 55.8291 0.64335 -0.035195
1287000 60.2883 214.298 55.8291 0.64345 -0.00735004
1287200 60.2883 214.311 55.8291 0.64355 -0.00511779
1287400 60.2883 214.324 55.8291 0.64365 0.00661727
1287600 60.2883 214.337 55.8291 0.64375 0.0211435
1287800 60.2883 214.35 55.8291 0.64385 0.0291545
1288000 60.2883 214.363 55.8291 0.64395 0.0345633
1288200 60.2883 214.376 55.8291 0.64405 0.044873
1288400 60.2883 214.389 55.8291 0.64415 0.0388304
1288600 60.2883 214.402 55.8291 0.64425 0.0482214
1288800 60.2883 214.416 55.8291 0.64435 0.0157122
1289000 60.2883 214.429 55.8291 0.64445 0.0114712
1289200 60.2883 214.442 55.8291 0.64455 -0.00961742
1289400 60.2883 214.455 55.8291 0.64465 0.00186374
1289600 60.2883 214.468 55.8291 0.64475 -0.01438
1289800 60.2883 214.481 55.8291 0.64485 -0.0186612
1290000 60.2883 214.494 55.8291 0.64495 -0.0325207
1290200 60.2883 214.507 55.8291 0.64505 -0.03562
1290400 60.2883 214.52 55.8291 0.64515 -0.0315137
1290600 60.2883 214.533 55.8291 0.64525 -0.021376
1290800 60.2883 214.546 55.8291 0.64535 -0.00367353
1291000 60.2883 214.559 55.8291 0.64545 -0.00374212
1291200 60.2883 214.572 55.8291 0.64555 0.0149072
1291400 60.2883 214.585 55.8291 0.64565 0.0154413
1291600 60.2883 214.598 55.8291 0.64575 0.0324938
1291800 60.2883 214.611 55.8291 0.64585 0.0254206
1292000 60.2883 214.624 55.8291 0.64595 0.0403102
1292200 60.2883 214.637 55.8291 0.64605 0.0385052
1292400 60.2883 214.65 55.8291 0.64615 0.0426787
1292600 60.2883 214.663 55.8291 0.64625 0.0134723
1292800 60.2883 214.676 55.8291 0.64635 0.00512155
1293000 60.2883 214.689 55.8291 0.64645 0.00847868
1293200 60.2883 214.702 55.8291 0.64655 -0.000952147
1293400 60.2883 214.715 55.8291 0.64665 -0.0120583
1293600 60.2883 214.728 55.8291 0.64675 -0.0196949
1293800 60.2883 214.741 55.8291 0.64685 -0.0265584
1294000 60.2883 214.755 55.8291 0.64695 -0.0192737
1294200 60.2883 214.768 55.8291 0.64705 -0.0267067
1294400 60.2883 214.781 55.8291 0.64715 -0.0150766
1294600 60.2883 214.794 55.8291 0.64725 -0.00058175
1294800 60.2883 214.807 55.8291 0.64735 -0.0106242
1295000 60.2883 214.82 55.8291 0.64745 -0.00530882
1295200 60.2883 214.833 55.8291 0.64755 0.00437218
1295400 60.2883 214.846 55.8291 0.64765 0.0207788
1295600 60.2883 214.859 55.8291 0.64775 0.0266562
1295800 60.2883 214.872 55.8291 0.64785 0.0446258
1296000 60.2883 214.885 55.8291 0.64795 0.0284799
1296200 60.2883 214.898 55.8291 0.64805 0.0413786
1296400 60.2883 214.911 55.8291 0.64815 0.0115036
1296600 60.2883 214.924 55.8291 0.64825 0.0153267
1296800 60.2883 214.937 55.8291 0.64835 0.0144314
1297000 60.2883 214.95 55.8291 0.64845 0.0131336
1297200 60.2883 214.963 55.8291 0.64855 -0.00987462
1297400 60.2883 214.976 55.8291 0.64865 0.00802286
1297600 60.2883 214.989 55.8291 0.64875 -0.0380476
1297800 60.2883 215.002 55.8291 0.64885 -0.0207462
1298000 60.2883 215.015 55.8291 0.64895 -0.0317309
1298200 60.2883 215.028 55.8291 0.64905 -0.0255409
1298400 60.2883 215.041 55.8291 0.64915 -0.0106808
1298600 60.2883 215.054 55.8291 0.64925 -0.00318844
1298800 60.2883 215.067 55.8291 0.64935 0.00823435
1299000 60.2883 215.081 55.8291 0.64945 -0.00641418
1299200 60.2883 215.094 55.8291 0.64955 0.0217358
1299400 60.2883 215.107 55.8291 0.64965 0.0218223
1299600 60.2883 215.12 55.8291 0.64975 0.0145352
1299800 60.2883 215.133 55.8291 0.64985 0.042428
1300000 60.2883 215.146 55.8291 0.64995 0.0446824
1300200 60.2883 215.159 55.8291 0.65005 0.0376684
1300400 60.2883 215.172 55.8291 0.65015 0.014054
1300600 60.2883 215.185 55.8291 0.65025 0.00866095
1300800 60.2883 215.198 55.8291 0.65035 -0.000211665
1301000 60.2883 215.211 55.8291 0.65045 0.00257158
1301200 60.2883 215.224 55.8291 0.65055 -0.0236504
1301400 60.2883 215.237 55.8291 0.65065 -0.00481755
1301600 60.2883 215.25 55.8291 0.65075 -0.0155071
1301800 60.2883 215.263 55.8291 0.65085 -0.0227878
1302000 60.2883 215.276 55.8291 0.65095 -0.0328426
1302200 60.2883 215.289 55.8291 0.65105 -0.0308565
1302400 60.2883 215.302 55.8291 0.65115 -0.0149621
1302600 60.2883 215.315 55.8291 0.65125 -0.00719739
1302800 60.2883 215.328 55.8291 0.65135 0.0152085
1303000 60.2883 215.341 55.8291 0.65145 0.010631
1303200 60.2883 215.354 55.8291 0.65155 0.024888
1303400 60.2883 215.367 55.8291 0.65165 0.0412195
1303600 60.2883 215.38 55.8291 0.65175 0.0231572
1303800 60.2883 215.393 55.8291 0.65185 0.0199898
1304000 60.2883 215.407 55.8291 0.65195 0.0319975
1304200 60.2883 215.42 55.8291 0.65205 0.0354721
1304400 60.2883 215.433 55.8291 0.65215 0.0268858
1304600 60.2883 215.446 55.8291 0.65225 0.0371353
1304800 60.2883 215.459 55.8291 0.65235 -0.0138046
1305000 60.2883 215.472 55.8291 0.65245 -0.0110104
1305200 60.2883 215.485 55.8291 0.65255 -0.0065242
1305400 60.2883 215.498 55.8291 0.65265 -0.0392036
1305600 60.2883 215.511 55.8291 0.65275 -0.0317407
1305800 60.2883 215.524 55.8291 0.65285 -0.00511628
1306000 60.2883 215.537 55.8291 0.65295 -0.0203027
1306200 60.2883 215.55 55.8291 0.65305 -0.0248498
1306400 60.2883 215.563 55.8291 0.65315 -0.0280426
1306600 60.2883 215.576 55.8291 0.65325 -0.00704019
1306800 60.2883 215.589 55.8291 0.65335 0.0197284
1307000 60.2883 215.602 55.8291 0.65345 0.0156637
1307200 60.2883 215.615 55.8291 0.65355 0.0303286
1307400 60.2883 215.628 55.8291 0.65365 0.0292319
1307600 60.2883 215.641 55.8291 0.65375 0.0616882
1307800 60.2883 215.654 55.8291 0.65385 0.0139816
1308000 60.2883 215.667 55.8291 0.65395 0.0298164
1308200 60.2883 215.68 55.8291 0.65405 0.0205113
1308400 60.2883 215.693 55.8291 0.65415 0.0186175
1308600 60.2883 215.706 55.8291 0.65425 0.004348
1308800 60.2883 215.719 55.8291 0.65435 0.0119589
1309000 60.2883 215.732 55.8291 0.65445 -0.0155728
1309200 60.2883 215.746 55.8291 0.65455 -0.0291183
1309400 60.2883 215.759 55.8291 0.65465 -0.0207832
1309600 60.2883 215.772 55.8291 0.65475 -0.0145044
1309800 60.2883 215.785 55.8291 0.65485 -0.0288815
1310000 60.2883 215.798 55.8291 0.65495 -0.0339732
1310200 60.2883 215.811 55.8291 0.65505 -0.0296395
1310400 60.2883 215.824 55.8291 0.65515 0.0102259
1310600 60.2883 215.837 55.8291 0.65525 0.00372335
1310800 60.2883 215.85 55.8291 0.65535 0.0208751
1311000 60.2883 215.863 55.8291 0.65545 0.0150341
1311200 60.2883 215.876 55.8291 0.65555 0.0271097
1311400 60.2883 215.889 55.8291 0.65565 0.034559
1311600 60.2883 215.902 55.8291 0.65575 0.0255671
1311800 60.2883 215.915 55.8291 0.65585 0.038337
1312000 60.2883 215.928 55.8291 0.65595 0.0400241
1312200 60.2883 215.941 55.8291 0.65605 0.0222518
1312400 60.2883 215.954 55.8291 0.65615 0.00782319
1312600 60.2883 215.967 55.8291 0.65625 -0.00131377
1312800 60.2883 215.98 55.8291 0.65635 -0.00558974
1313000 60.2883 215.993 55.8291 0.65645 -0.0129705
1313200 60.2883 216.006 55.8291 0.65655 -0.0194699
1313400 60.2883 216.019 55.8291 0.65665 -0.00743715
1313600 60.2883 216.032 55.8291 0.65675 -0.00897647
1313800 60.2883 216.045 55.8291 0.65685 -0.0272586
1314000 60.2883 216.058 55.8291 0.65695 -0.0298376
1314200 60.2883 216.072 55.8291 0.65705 -0.018438
1314400 60.2883 216.085 55.8291 0.65715 -0.0226363
1314600 60.2883 216.098 55.8291 0.65725 0.00190352
1314800 60.2883 216.111 55.8291 0.65735 0.0235774
1315000 60.2883 216.124 55.8291 0.65745 0.0194308
1315200 60.2883 216.137 55.8291 0.65755 0.0295178
1315400 60.2883 216.15 55.8291 0.65765 0.0302273
1315600 60.2883 216.163 55.8291 0.65775 0.0129226
1315800 60.2883 216.176 55.8291 0.65785 0.0346788
1316000 60.2883 216.189 55.8291 0.65795 0.0381249
1316200 60.2883 216.202 55.8291 0.65805 0.0181676
1316400 60.2883 216.215 55.8291 0.65815 0.0334053
1316600 60.2883 216.228 55.8291 0.65825 0.0023681
1316800 60.2883 216.241 55.8291 0.65835 0.00226497
1317000 60.2883 216.254 55.8291 0.65845 -0.031396
1317200 60.2883 216.267 55.8291 0.65855 -0.019735
1317400 60.2883 216.28 55.8291 0.65865 -0.0249314
1317600 60.2883 216.293 55.8291 0.65875 -0.00984223
1317800 60.2883 216.306 55.8291 0.65885 -0.0269631
1318000 60.2883 216.319 55.8291 0.65895 -0.0194043
1318200 60.2883 216.332 55.8291 0.65905 -0.024739
1318400 60.2883 216.345 55.8291 0.65915 -0.00142113
1318600 60.2883 216.358 55.8291 0.65925 0.000190229
1318800 60.2883 216.371 55.8291 0.65935 0.0161319
1319000 60.2883 216.384 55.8291 0.65945 0.0433682
1319200 60.2883 216.398 55.8291 0.65955 0.0375556
1319400 60.2883 216.411 55.8291 0.65965 0.00942873
1319600 60.2883 216.424 55.8291 0.65975 0.0329318
1319800 60.2883 216.437 55.8291 0.65985 0.0147108
1320000 60.2883 216.45 55.8291 0.65995 0.0210206
1320200 60.2883 216.463 55.8291 0.66005 0.0514537
1320400 60.2883 216.476 55.8291 0.66015 0.000688389
1320600 60.2883 216.489 55.8291 0.66025 5.86927e-06
1320800 60.2883 216.502 55.8291 0.66035 0.0102857
1321000 60.2883 216.515 55.8291 0.66045 -0.0189808
1321200 60.2883 216.528 55.8291 0.66055 -0.0338558
1321400 60.2883 216.541 55.8291 0.66065 -0.0170663
1321600 60.2883 216.554 55.8291 0.66075 -0.0338505
1321800 60.2883 216.567 55.8291 0.66085 -0.00902486
1322000 60.2883 216.58 55.8291 0.66095 -0.0239852
1322200 60.2883 216.593 55.8291 0.66105 -0.00914145
1322400 60.2883 216.606 55.8291 0.66115 -0.0109487
1322600 60.2883 216.619 55.8291 0.66125 0.00784671
1322800 60.2883 216.632 55.8291 0.66135 0.0123576
1323000 60.2883 216.645 55.8291 0.66145 0.0464178
1323200 60.2883 216.658 55.8291 0.66155 0.018386
1323400 60.2883 216.671 55.8291 0.66165 0.0369138
1323600 60.2883 216.684 55.8291 0.66175 0.0222247
1323800 60.2883 216.697 55.8291 0.66185 0.041168
1324000 60.2883 216.71 55.8291 0.66195 0.0292891
1324200 60.2883 216.723 55.8291 0.66205 0.00979665
1324400 60.2883 216.737 55.8291 0.66215 0.0118961
1324600 60.2883 216.75 55.8291 0.66225 0.000198508
1324800 60.2883 216.763 55.8291 0.66235 -0.0151773
1325000 60.2883 216.776 55.8291 0.66245 -0.0186509
1325200 60.2883 216.789 55.8291 0.66255 -0.0147515
1325400 60.2883 216.802 55.8291 0.66265 -0.021919
1325600 60.2883 216.815 55.8291 0.66275 -0.0409247
1325800 60.2883 216.828 55.8291 0.66285 -0.0243328
1326000 60.2883 216.841 55.8291 0.66295 -0.00990917
1326200 60.2883 216.854 55.8291 0.66305 -0.00430075
1326400 60.2883 216.867 55.8291 0.66315 0.00780551
1326600 60.2883 216.88 55.8291 0.66325 0.00627857
1326800 60.2883 216.893 55.8291 0.66335 0.0148148
1327000 60.2883 216.906 55.8291 0.66345 0.028852
1327200 60.2883 216.919 55.8291 0.66355 0.0301436
1327400 60.2883 216.932 55.8291 0.66365 0.0303786
1327600 60.2883 216.945 55.8291 0.66375 0.034624
1327800 60.2883 216.958 55.8291 0.66385 0.0272486
1328000 60.2883 216.971 55.8291 0.66395 0.0288084
1328200 60.2883 216.984 55.8291 0.66405 0.0146403
1328400 60.2883 216.997 55.8291 0.66415 0.00310474
1328600 60.2883 217.01 55.8291 0.66425 0.00600864
1328800 60.2883 217.023 55.8291 0.66435 -0.00601054
1329000 60.2883 217.036 55.8291 0.66445 -0.0267697
1329200 60.2883 217.049 55.8291 0.66455 -0.035093
1329400 60.2883 217.063 55.8291 0.66465 -0.0139682
1329600 60.2883 217.076 55.8291 0.66475 -0.0311665
1329800 60.2883 217.089 55.8291 0.66485 -0.0196815
1330000 60.2883 217.102 55.8291 0.66495 -0.0160741
1330200 60.2883 217.115 55.8291 0.66505 0.00781188
1330400 60.2883 217.128 55.8291 0.66515 -0.0146443
1330600 60.2883 217.141 55.8291 0.66525 0.00699992
1330800 60.2883 217.154 55.8291 0.66535 0.0279764
1331000 60.2883 217.167 55.8291 0.66545 0.0212882
1331200 60.2883 217.18 55.8291 0.66555 0.0399392
1331400 60.2883 217.193 55.8291 0.66565 0.0210244
1331600 60.2883 217.206 55.8291 0.66575 0.0416417
1331800 60.2883 217.219 55.8291 0.66585 0.0412933
1332000 60.2883 217.232 55.8291 0.66595 0.0173686
1332200 60.2883 217.245 55.8291 0.66605 0.0166943
1332400 60.2883 217.258 55.8291 0.66615 -0.00726641
1332600 60.2883 217.271 55.8291 0.66625 0.00641573
1332800 60.2883 217.284 55.8291 0.66635 -0.00156083
1333000 60.2883 217.297 55.8291 0.66645 -0.0132066
1333200 60.2883 217.31 55.8291 0.66655 -0.0360159
1333400 60.2883 217.323 55.8291 0.66665 -0.0169719
1333600 60.2883 217.336 55.8291 0.66675 -0.0250428
1333800 60.2883 217.349 55.8291 0.66685 -0.0378192
1334000 60.2883 217.362 55.8291 0.66695 -0.00412401
1334200 60.2883 217.375 55.8291 0.66705 -0.0107408
1334400 60.2883 217.389 55.8291 0.66715 0.00609318
1334600 60.2883 217.402 55.8291 0.66725 0.0136497
1334800 60.2883 217.415 55.8291 0.66735 0.000197121
1335000 60.2883 217.428 55.8291 0.66745 0.0365072
1335200 60.2883 217.441 55.8291 0.66755 0.0240045
1335400 60.2883 217.454 55.8291 0.66765 0.0237076
1335600 60.2883 217.467 55.8291 0.66775 0.0486891
1335800 60.2883 217.48 55.8291 0.66785 0.0352371
1336000 60.2883 217.493 55.8291 0.66795 0.00835394
1336200 60.2883 217.506 55.8291 0.66805 0.021019
1336400 60.2883 217.519 55.8291 0.66815 0.00431245
1336600 60.2883 217.532 55.8291 0.66825 0.00362771
1336800 60.2883 217.545 55.8291 0.66835 -0.0123678
1337000 60.2883 217.558 55.8291 0.66845 -0.019547
1337200 60.2883 217.571 55.8291 0.66855 -0.0245718
1337400 60.2883 217.584 55.8291 0.66865 -0.0286557
1337600 60.2883 217.597 55.8291 0.66875 -0.0224797
1337800 60.2883 217.61 55.8291 0.66885 -0.0094883
1338000 60.2883 217.623 55.8291 0.66895 -0.0153798
1338200 60.2883 217.636 55.8291 0.66905 -0.00882576
1338400 60.2883 217.649 55.8291 0.66915 0.00842706
1338600 60.2883 217.662 55.8291 0.66925 0.00863086
1338800 60.2883 217.675 55.8291 0.66935 0.0159228
1339000 60.2883 217.688 55.8291 0.66945 0.022353
1339200 60.2883 217.701 55.8291 0.66955 0.0505971
1339400 60.2883 217.715 55.8291 0.66965 0.0274028
1339600 60.2883 217.728 55.8291 0.66975 0.0268144
1339800 60.2883 217.741 55.8291 0.66985 0.0337147
1340000 60.2883 217.754 55.8291 0.66995 0.0232624
1340200 60.2883 217.767 55.8291 0.67005 0.023931
1340400 60.2883 217.78 55.8291 0.67015 -0.00313237
1340600 60.2883 217.793 55.8291 0.67025 -0.0145419
1340800 60.2883 217.806 55.8291 0.67035 -0.0224818
1341000 60.2883 217.819 55.8291 0.67045 -0.0185451
1341200 60.2883 217.832 55.8291 0.67055 -0.0247137
1341400 60.2883 217.845 55.8291 0.67065 -0.0303724
1341600 60.2883 217.858 55.8291 0.67075 -0.0279713
1341800 60.2883 217.871 55.8291 0.67085 -0.0126023
1342000 60.2883 217.884 55.8291 0.67095 -0.00788998
1342200 60.2883 217.897 55.8291 0.67105 -0.00382145
1342400 60.2883 217.91 55.8291 0.67115 0.0130497
1342600 60.2883 217.923 55.8291 0.67125 0.00801821
1342800 60.2883 217.936 55.8291 0.67135 0.0357323
1343000 60.2883 217.949 55.8291 0.67145 0.0365831
1343200 60.2883 217.962 55.8291 0.67155 0.0195804
1343400 60.2883 217.975 55.8291 0.67165 0.043548
1343600 60.2883 217.988 55.8291 0.67175 0.0445384
1343800 60.2883 218.001 55.8291 0.67185 0.00274757
1344000 60.2883 218.014 55.8291 0.67195 0.0175327
1344200 60.2883 218.027 55.8291 0.67205 -0.00655284
1344400 60.2883 218.04 55.8291 0.67215 0.0190861
1344600 60.2883 218.054 55.8291 0.67225 -0.0105996
1344800 60.2883 218.067 55.8291 0.67235 -0.00947997
1345000 60.2883 218.08 55.8291 0.67245 -0.0407133
1345200 60.2883 218.093 55.8291 0.67255 -0.0179304
1345400 60.2883 218.106 55.8291 0.67265 -0.0184085
1345600 60.2883 218.119 55.8291 0.67275 -0.0335699
1345800 60.2883 218.132 55.8291 0.67285 -0.000680359
1346000 60.2883 218.145 55.8291 0.67295 0.00097349
1346200 60.2883 218.158 55.8291 0.67305 -0.00400899
1346400 60.2883 218.171 55.8291 0.67315 0.0101348
1346600 60.2883 218.184 55.8291 0.67325 0.0114982
1346800 60.2883 218.197 55.8291 0.67335 0.0204131
1347000 60.2883 218.21 55.8291 0.67345 0.0394855
1347200 60.2883 218.223 55.8291 0.67355 0.030578
1347400 60.2883 218.236 55.8291 0.67365 0.0286931
1347600 60.2883 218.249 55.8291 0.67375 0.0360644
1347800 60.2883 218.262 55.8291 0.67385 0.0165339
1348000 60.2883 218.275 55.8291 0.67395 0.028972
1348200 60.2883 218.288 55.8291 0.67405 -0.0187792
1348400 60.2883 218.301 55.8291 0.67415 -0.0106644
1348600 60.2883 218.314 55.8291 0.67425 -0.00550016
1348800 60.2883 218.327 55.8291 0.67435 -0.0083745
1349000 60.2883 218.34 55.8291 0.67445 -0.0235858
1349200 60.2883 218.353 55.8291 0.67455 -0.028819
1349400 60.2883 218.366 55.8291 0.67465 -0.028641
1349600 60.2883 218.38 55.8291 0.67475 -0.00695824
1349800 60.2883 218.393 55.8291 0.67485 0.000858076
1350000 60.2883 218.406 55.8291 0.67495 -0.0090032
1350200 60.2883 218.419 55.8291 0.67505 0.0126988
1350400 60.2883 218.432 55.8291 0.67515 0.00210294
1350600 60.2883 218.445 55.8291 0.67525 0.0250633
1350800 60.2883 218.458 55.8291 0.67535 0.0232846
1351000 60.2883 218.471 55.8291 0.67545 0.0332092
1351200 60.2883 218.484 55.8291 0.67555 0.0467617
1351400 60.2883 218.497 55.8291 0.67565 0.0144843
1351600 60.2883 218.51 55.8291 0.67575 0.0120043
1351800 60.2883 218.523 55.8291 0.67585 0.0224311
1352000 60.2883 218.536 55.8291 0.67595 -0.000266001
1352200 60.2883 218.549 55.8291 0.67605 -0.00259304
1352400 60.2883 218.562 55.8291 0.67615 -0.000905805
1352600 60.2883 218.575 55.8291 0.67625 -0.00858664
1352800 60.2883 218.588 55.8291 0.67635 -0.0206281
1353000 60.2883 218.601 55.8291 0.67645 -0.02407
1353200 60.2883 218.614 55.8291 0.67655 -0.00188704
1353400 60.2883 218.627 55.8291 0.67665 -0.0466654
1353600 60.2883 218.64 55.8291 0.67675 0.0105705
1353800 60.2883 218.653 55.8291 0.67685 -0.00656424
1354000 60.2883 218.666 55.8291 0.67695 0.0175597
1354200 60.2883 218.679 55.8291 0.67705 0.0120305
1354400 60.2883 218.692 55.8291 0.67715 0.00505206
1354600 60.2883 218.706 55.8291 0.67725 0.00713613
1354800 60.2883 218.719 55.8291 0.67735 0.0302301
1355000 60.2883 218.732 55.8291 0.67745 0.0321955
1355200 60.2883 218.745 55.8291 0.67755 0.0293741
1355400 60.2883 218.758 55.8291 0.67765 0.01662
1355600 60.2883 218.771 55.8291 0.67775 0.0127038
1355800 60.2883 218.784 55.8291 0.67785 0.0119708
1356000 60.2883 218.797 55.8291 0.67795 -0.0173284
1356200 60.2883 218.81 55.8291 0.67805 0.000492114
1356400 60.2883 218.823 55.8291 0.67815 0.00708186
1356600 60.2883 218.836 55.8291 0.67825 0.00329505
1356800 60.2883 218.849 55.8291 0.67835 -0.0250616
1357000 60.2883 218.862 55.8291 0.67845 -0.0156681
1357200 60.2883 218.875 55.8291 0.67855 -0.0278263
1357400 60.2883 218.888 55.8291 0.67865 -0.0105428
1357600 60.2883 218.901 55.8291 0.67875 -0.00880703
1357800 60.2883 218.914 55.8291 0.67885 0.0104101
1358000 60.2883 218.927 55.8291 0.67895 0.0257647
1358200 60.2883 218.94 55.8291 0.67905 0.000957783
1358400 60.2883 218.953 55.8291 0.67915 0.0117832
1358600 60.2883 218.966 55.8291 0.67925 0.02034
1358800 60.2883 218.979 55.8291 0.67935 0.0246751
1359000 60.2883 218.992 55.8291 0.67945 0.0144295
1359200 60.2883 219.005 55.8291 0.67955 0.0281472
1359400 60.2883 219.018 55.8291 0.67965 0.0211197
1359600 60.2883 219.031 55.8291 0.67975 0.026513
1359800 60.2883 219.045 55.8291 0.67985 0.00236767
1360000 60.2883 219.058 55.8291 0.67995 -0.007946
1360200 60.2883 219.071 55.8291 0.68005 -0.0191757
1360400 60.2883 219.084 55.8291 0.68015 0.00447558
1360600 60.2883 219.097 55.8291 0.68025 -0.0176001
1360800 60.2883 219.11 55.8291 0.68035 0.00575904
1361000 60.2883 219.123 55.8291 0.68045 -0.0228466
1361200 60.2883 219.136 55.8291 0.68055 -0.0276448
1361400 60.2883 219.149 55.8291 0.68065 0.0110701
1361600 60.2883 219.162 55.8291 0.68075 -0.0099996
1361800 60.2883 219.175 55.8291 0.68085 -0.00684476
1362000 60.2883 219.188 55.8291 0.68095 0.0140743
1362200 60.2883 219.201 55.8291 0.68105 0.000908136
1362400 60.2883 219.214 55.8291 0.68115 0.0290573
1362600 60.2883 219.227 55.8291 0.68125 0.0255621
1362800 60.2883 219.24 55.8291 0.68135 0.0182634
1363000 60.2883 219.253 55.8291 0.68145 0.0234623
1363200 60.2883 219.266 55.8291 0.68155 0.0133136
1363400 60.2883 219.279 55.8291 0.68165 0.0116826
1363600 60.2883 219.292 55.8291 0.68175 0.0250224
1363800 60.2883 219.305 55.8291 0.68185 0.00331504
1364000 60.2883 219.318 55.8291 0.68195 0.00985761
1364200 60.2883 219.331 55.8291 0.68205 -0.00948658
1364400 60.2883 219.344 55.8291 0.68215 0.000786427
1364600 60.2883 219.357 55.8291 0.68225 -0.0134338
1364800 60.2883 219.371 55.8291 0.68235 -0.0185072
1365000 60.2883 219.384 55.8291 0.68245 -0.0174869
1365200 60.2883 219.397 55.8291 0.68255 -0.0263904
1365400 60.2883 219.41 55.8291 0.68265 -0.0156758
1365600 60.2883 219.423 55.8291 0.68275 0.0103191
1365800 60.2883 219.436 55.8291 0.68285 0.0100164
1366000 60.2883 219.449 55.8291 0.68295 0.00506697
1366200 60.2883 219.462 55.8291 0.68305 0.00700486
1366400 60.2883 219.475 55.8291 0.68315 0.0199549
1366600 60.2883 219.488 55.8291 0.68325 0.00905363
1366800 60.2883 219.501 55.8291 0.68335 0.0370901
1367000 60.2883 219.514 55.8291 0.68345 0.0274995
1367200 60.2883 219.527 55.8291 0.68355 0.0258086
1367400 60.2883 219.54 55.8291 0.68365 0.020552
1367600 60.2883 219.553 55.8291 0.68375 0.0265892
1367800 60.2883 219.566 55.8291 0.68385 -0.00230759
1368000 60.2883 219.579 55.8291 0.68395 -0.0160562
1368200 60.2883 219.592 55.8291 0.68405 -0.019634
1368400 60.2883 219.605 55.8291 0.68415 -0.0039956
1368600 60.2883 219.618 55.8291 0.68425 -0.0111115
1368800 60.2883 219.631 55.8291 0.68435 -0.00395752
1369000 60.2883 219.644 55.8291 0.68445 -0.00855715
1369200 60.2883 219.657 55.8291 0.68455 -0.038344
1369400 60.2883 219.67 55.8291 0.68465 -0.0250799
1369600 60.2883 219.683 55.8291 0.68475 0.0178437
1369800 60.2883 219.697 55.8291 0.68485 0.00702572
1370000 60.2883 219.71 55.8291 0.68495 0.00395775
1370200 60.2883 219.723 55.8291 0.68505 0.0310147
1370400 60.2883 219.736 55.8291 0.68515 0.0376337
1370600 60.2883 219.749 55.8291 0.68525 0.012981
1370800 60.2883 219.762 55.8291 0.68535 0.0333595
1371000 60.2883 219.775 55.8291 0.68545 0.00779984
1371200 60.2883 219.788 55.8291 0.68555 0.013847
1371400 60.2883 219.801 55.8291 0.68565 0.0184772
1371600 60.2883 219.814 55.8291 0.68575 0.00689348
1371800 60.2883 219.827 55.8291 0.68585 0.00859416
1372000 60.2883 219.84 55.8291 0.68595 -0.00234409
1372200 60.2883 219.853 55.8291 0.68605 -0.00626548
1372400 60.2883 219.866 55.8291 0.68615 -0.0287358
1372600 60.2883 219.879 55.8291 0.68625 -0.0200397
1372800 60.2883 219.892 55.8291 0.68635 -0.012131
1373000 60.2883 219.905 55.8291 0.68645 -0.00697103
1373200 60.2883 219.918 55.8291 0.68655 0.00012423
1373400 60.2883 219.931 55.8291 0.68665 0.00362715
1373600 60.2883 219.944 55.8291 0.68675 0.00694276
1373800 60.2883 219.957 55.8291 0.68685 -0.0107801
1374000 60.2883 219.97 55.8291 0.68695 0.0140525
1374200 60.2883 219.983 55.8291 0.68705 0.0251382
1374400 60.2883 219.996 55.8291 0.68715 0.025466
1374600 60.2883 220.009 55.8291 0.68725 0.0129192
1374800 60.2883 220.022 55.8291 0.68735 0.0278937
1375000 60.2883 220.036 55.8291 0.68745 0.0206917
1375200 60.2883 220.049 55.8291 0.68755 0.00780948
1375400 60.2883 220.062 55.8291 0.68765 0.00763099
1375600 60.2883 220.075 55.8291 0.68775 0.00935525
1375800 60.2883 220.088 55.8291 0.68785 0.0131383
1376000 60.2883 220.101 55.8291 0.68795 -0.000839978
1376200 60.2883 220.114 55.8291 0.68805 -0.0192091
1376400 60.2883 220.127 55.8291 0.68815 -0.0150221
1376600 60.2883 220.14 55.8291 0.68825 -0.0187726
1376800 60.2883 220.153 55.8291 0.68835 -0.0134889
1377000 60.2883 220.166 55.8291 0.68845 -0.0121476
1377200 60.2883 220.179 55.8291 0.68855 -0.00169104
1377400 60.2883 220.192 55.8291 0.68865 0.00324763
1377600 60.2883 220.205 55.8291 0.68875 0.00168271
1377800 60.2883 220.218 55.8291 0.68885 -0.002529
1378000 60.2883 220.231 55.8291 0.68895 0.0103445
1378200 60.2883 220.244 55.8291 0.68905 0.0165909
1378400 60.2883 220.257 55.8291 0.68915 0.0252793
1378600 60.2883 220.27 55.8291 0.68925 0.0247046
1378800 60.2883 220.283 55.8291 0.68935 0.0413227
1379000 60.2883 220.296 55.8291 0.68945 0.0199993
1379200 60.2883 220.309 55.8291 0.68955 -0.000575373
1379400 60.2883 220.322 55.8291 0.68965 0.00854125
1379600 60.2883 220.335 55.8291 0.68975 0.0288559
1379800 60.2883 220.348 55.8291 0.68985 -0.0197808
1380000 60.2883 220.362 55.8291 0.68995 0.00571261
1380200 60.2883 220.375 55.8291 0.69005 -0.00968456
1380400 60.2883 220.388 55.8291 0.69015 -0.00701821
1380600 60.2883 220.401 55.8291 0.69025 -0.0130296
1380800 60.2883 220.414 55.8291 0.69035 -0.0244037
1381000 60.2883 220.427 55.8291 0.69045 -0.00907161
1381200 60.2883 220.44 55.8291 0.69055 -0.0174702
1381400 60.2883 220.453 55.8291 0.69065 0.000277141
1381600 60.2883 220.466 55.8291 0.69075 0.00965786
1381800 60.2883 220.479 55.8291 0.69085 0.007746
1382000 60.2883 220.492 55.8291 0.69095 0.016396
1382200 60.2883 220.505 55.8291 0.69105 0.00962005
1382400 60.2883 220.518 55.8291 0.69115 0.0264578
1382600 60.2883 220.531 55.8291 0.69125 0.0169813
1382800 60.2883 220.544 55.8291 0.69135 0.0236749
1383000 60.2883 220.557 55.8291 0.69145 0.0341595
1383200 60.2883 220.57 55.8291 0.69155 0.0247677
1383400 60.2883 220.583 55.8291 0.69165 -0.0088913
1383600 60.2883 220.596 55.8291 0.69175 0.00912884
1383800 60.2883 220.609 55.8291 0.69185 0.010975
1384000 60.2883 220.622 55.8291 0.69195 -0.00760007
1384200 60.2883 220.635 55.8291 0.69205 -0.0225724
1384400 60.2883 220.648 55.8291 0.69215 -0.0175926
1384600 60.2883 220.661 55.8291 0.69225 -0.010954
1384800 60.2883 220.674 55.8291 0.69235 -0.020128
1385000 60.2883 220.688 55.8291 0.69245 -0.0136553
1385200 60.2883 220.701 55.8291 0.69255 0.000778117
1385400 60.2883 220.714 55.8291 0.69265 -0.00548256
1385600 60.2883 220.727 55.8291 0.69275 0.0136586
1385800 60.2883 220.74 55.8291 0.69285 0.0144447
1386000 60.2883 220.753 55.8291 0.69295 0.00918456
1386200 60.2883 220.766 55.8291 0.69305 0.0387312
1386400 60.2883 220.779 55.8291 0.69315 0.00569968
1386600 60.2883 220.792 55.8291 0.69325 0.0423206
1386800 60.2883 220.805 55.8291 0.69335 0.00582843
1387000 60.2883 220.818 55.8291 0.69345 0.0288064
1387200 60.2883 220.831 55.8291 0.69355 0.0194185
1387400 60.2883 220.844 55.8291 0.69365 -0.00770142
1387600 60.2883 220.857 55.8291 0.69375 5.43847e-05
1387800 60.2883 220.87 55.8291 0.69385 -0.00107065
1388000 60.2883 220.883 55.8291 0.69395 -0.00110301
1388200 60.2883 220.896 55.8291 0.69405 -0.00904681
1388400 60.2883 220.909 55.8291 0.69415 -0.0166067
1388600 60.2883 220.922 55.8291 0.69425 -0.0201731
1388800 60.2883 220.935 55.8291 0.69435 -0.0208117
1389000 60.2883 220.948 55.8291 0.69445 -0.0160209
1389200 60.2883 220.961 55.8291 0.69455 -0.00638132
1389400 60.2883 220.974 55.8291 0.69465 0.00659721
1389600 60.2883 220.987 55.8291 0.69475 0.0220234
1389800 60.2883 221 55.8291 0.69485 0.0168616
1390000 60.2883 221.014 55.8291 0.69495 0.0119831
1390200 60.2883 221.027 55.8291 0.69505 0.0218917
1390400 60.2883 221.04 55.8291 0.69515 0.0183188
1390600 60.2883 221.053 55.8291 0.69525 0.0293414
1390800 60.2883 221.066 55.8291 0.69535 0.0196009
1391000 60.2883 221.079 55.8291 0.69545 0.0318999
1391200 60.2883 221.092 55.8291 0.69555 0.0093947
1391400 60.2883 221.105 55.8291 0.69565 -0.0013903
1391600 60.2883 221.118 55.8291 0.69575 -0.00114027
1391800 60.2883 221.131 55.8291 0.69585 -0.0215861
1392000 60.2883 221.144 55.8291 0.69595 -0.00451806
1392200 60.2883 221.157 55.8291 0.69605 -0.00660855
1392400 60.2883 221.17 55.8291 0.69615 -0.0169975
1392600 60.2883 221.183 55.8291 0.69625 -0.0116557
1392800 60.2883 221.196 55.8291 0.69635 -0.011562
1393000 60.2883 221.209 55.8291 0.69645 -0.0171549
1393200 60.2883 221.222 55.8291 0.69655 -0.0158987
1393400 60.2883 221.235 55.8291 0.69665 0.0128336
1393600 60.2883 221.248 55.8291 0.69675 0.0407185
1393800 60.2883 221.261 55.8291 0.69685 0.0193162
1394000 60.2883 221.274 55.8291 0.69695 0.0243639
1394200 60.2883 221.287 55.8291 0.69705 0.00741773
1394400 60.2883 221.3 55.8291 0.69715 0.0257235
1394600 60.2883 221.313 55.8291 0.69725 0.0147279
1394800 60.2883 221.326 55.8291 0.69735 0.0158254
1395000 60.2883 221.339 55.8291 0.69745 0.0174346
1395200 60.2883 221.353 55.8291 0.69755 0.0174025
1395400 60.2883 221.366 55.8291 0.69765 0.00287816
1395600 60.2883 221.379 55.8291 0.69775 -0.0283441
1395800 60.2883 221.392 55.8291 0.69785 -0.0111979
1396000 60.2883 221.405 55.8291 0.69795 -0.00382323
1396200 60.2883 221.418 55.8291 0.69805 -0.0087394
1396400 60.2883 221.431 55.8291 0.69815 -0.0151432
1396600 60.2883 221.444 55.8291 0.69825 -0.00684392
1396800 60.2883 221.457 55.8291 0.69835 -0.00161559
1397000 60.2883 221.47 55.8291 0.69845 -0.00902571
1397200 60.2883 221.483 55.8291 0.69855 -0.00122722
1397400 60.2883 221.496 55.8291 0.69865 0.0160188
1397600 60.2883 221.509 55.8291 0.69875 0.0268607
1397800 60.2883 221.522 55.8291 0.69885 0.0211506
1398000 60.2883 221.535 55.8291 0.69895 0.00763802
1398200 60.2883 221.548 55.8291 0.69905 0.00828853
1398400 60.2883 221.561 55.8291 0.69915 0.0280263
1398600 60.2883 221.574 55.8291 0.69925 0.0168452
1398800 60.2883 221.587 55.8291 0.69935 0.0116384
1399000 60.2883 221.6 55.8291 0.69945 0.00884834
1399200 60.2883 221.613 55.8291 0.69955 0.0172545
1399400 60.2883 221.626 55.8291 0.69965 0.00206492
1399600 60.2883 221.639 55.8291 0.69975 -0.00907709
1399800 60.2883 221.652 55.8291 0.69985 -0.0200553
1400000 60.2883 221.665 55.8291 0.69995 -0.0127597
1400200 60.2883 221.679 55.8291 0.70005 -0.00480967
1400400 60.2883 221.692 55.8291 0.70015 0.00123717
1400600 60.2883 221.705 55.8291 0.70025 -0.017719
1400800 60.2883 221.718 55.8291 0.70035 0.0092454
1401000 60.2883 221.731 55.8291 0.70045 0.00643466
1401200 60.2883 221.744 55.8291 0.70055 -0.00325351
1401400 60.2883 221.757 55.8291 0.70065 0.020669
1401600 60.2883 221.77 55.8291 0.70075 0.00696546
1401800 60.2883 221.783 55.8291 0.70085 0.0111492
1402000 60.2883 221.796 55.8291 0.70095 0.00289337
1402200 60.2883 221.809 55.8291 0.70105 0.022533
1402400 60.2883 221.822 55.8291 0.70115 0.00719555
1402600 60.2883 221.835 55.8291 0.70125 0.00722806
1402800 60.2883 221.848 55.8291 0.70135 0.00726615
1403000 60.2883 221.861 55.8291 0.70145 0.00852318
1403200 60.2883 221.874 55.8291 0.70155 0.00371161
1403400 60.2883 221.887 55.8291 0.70165 0.0185329
1403600 60.2883 221.9 55.8291 0.70175 -0.00757208
1403800 60.2883 221.913 55.8291 0.70185 0.0141343
1404000 60.2883 221.926 55.8291 0.70195 -0.0137869
1404200 60.2883 221.939 55.8291 0.70205 -0.00795943
1404400 60.2883 221.952 55.8291 0.70215 -0.00885977
1404600 60.2883 221.965 55.8291 0.70225 0.00801181
1404800 60.2883 221.978 55.8291 0.70235 -0.0118567
1405000 60.2883 221.991 55.8291 0.70245 0.0114863
1405200 60.2883 222.005 55.8291 0.70255 0.0124513
1405400 60.2883 222.018 55.8291 0.70265 5.37415e-05
1405600 60.2883 222.031 55.8291 0.70275 0.00433985
1405800 60.2883 222.044 55.8291 0.70285 0.0106543
1406000 60.2883 222.057 55.8291 0.70295 0.00702614
1406200 60.2883 222.07 55.8291 0.70305 0.016026
1406400 60.2883 222.083 55.8291 0.70315 0.0249311
1406600 60.2883 222.096 55.8291 0.70325 0.00467809
1406800 60.2883 222.109 55.8291 0.70335 0.00465591
1407000 60.2883 222.122 55.8291 0.70345 0.0111324
1407200 60.2883 222.135 55.8291 0.70355 0.00976305
1407400 60.2883 222.148 55.8291 0.70365 -0.00306238
1407600 60.2883 222.161 55.8291 0.70375 -0.00880812
1407800 60.2883 222.174 55.8291 0.70385 0.00271789
1408000 60.2883 222.187 55.8291 0.70395 -0.0114251
1408200 60.2883 222.2 55.8291 0.70405 -0.00240826
1408400 60.2883 222.213 55.8291 0.70415 -0.0162229
1408600 60.2883 222.226 55.8291 0.70425 0.0136507
1408800 60.2883 222.239 55.8291 0.70435 0.000640196
1409000 60.2883 222.252 55.8291 0.70445 0.00216817
1409200 60.2883 222.265 55.8291 0.70455 0.0124559
1409400 60.2883 222.278 55.8291 0.70465 0.00260361
1409600 60.2883 222.291 55.8291 0.70475 0.0026126
1409800 60.2883 222.304 55.8291 0.70485 0.0214728
1410000 60.2883 222.317 55.8291 0.70495 0.024604
1410200 60.2883 222.33 55.8291 0.70505 0.00744108
1410400 60.2883 222.344 55.8291 0.70515 0.00662015
1410600 60.2883 222.357 55.8291 0.70525 0.00347951
1410800 60.2883 222.37 55.8291 0.70535 0.0308731
1411000 60.2883 222.383 55.8291 0.70545 -0.00449118
1411200 60.2883 222.396 55.8291 0.70555 -0.0108586
1411400 60.2883 222.409 55.8291 0.70565 0.00218492
1411600 60.2883 222.422 55.8291 0.70575 0.00254922
1411800 60.2883 222.435 55.8291 0.70585 -0.00294711
1412000 60.2883 222.448 55.8291 0.70595 -0.0207111
1412200 60.2883 222.461 55.8291 0.70605 0.00788033
1412400 60.2883 222.474 55.8291 0.70615 -0.00538211
1412600 60.2883 222.487 55.8291 0.70625 0.00355378
1412800 60.2883 222.5 55.8291 0.70635 -0.000274731
1413000 60.2883 222.513 55.8291 0.70645 0.00173991
1413200 60.2883 222.526 55.8291 0.70655 0.0136953
1413400 60.2883 222.539 55.8291 0.70665 0.010862
1413600 60.2883 222.552 55.8291 0.70675 0.00896068
1413800 60.2883 222.565 55.8291 0.70685 0.0187486
1414000 60.2883 222.578 55.8291 0.70695 0.0209685
1414200 60.2883 222.591 55.8291 0.70705 0.0126082
1414400 60.2883 222.604 55.8291 0.70715 0.0185309
1414600 60.2883 222.617 55.8291 0.70725 0.00823673
1414800 60.2883 222.63 55.8291 0.70735 0.00461029
1415000 60.2883 222.643 55.8291 0.70745 -0.00345751
1415200 60.2883 222.656 55.8291 0.70755 -0.00715345
1415400 60.2883 222.67 55.8291 0.70765 -0.00249321
1415600 60.2883 222.683 55.8291 0.70775 -0.0120233
1415800 60.2883 222.696 55.8291 0.70785 -0.013882
1416000 60.2883 222.709 55.8291 0.70795 0.000915539
1416200 60.2883 222.722 55.8291 0.70805 -0.00234536
1416400 60.2883 222.735 55.8291 0.70815 0.00434794
1416600 60.2883 222.748 55.8291 0.70825 -0.00250325
1416800 60.2883 222.761 55.8291 0.70835 0.00364544
1417000 60.2883 222.774 55.8291 0.70845 0.00418612
1417200 60.2883 222.787 55.8291 0.70855 0.0201519
1417400 60.2883 222.8 55.8291 0.70865 0.0149062
1417600 60.2883 222.813 55.8291 0.70875 0.019726
1417800 60.2883 222.826 55.8291 0.70885 0.0219408
1418000 60.2883 222.839 55.8291 0.70895 0.0115867
1418200 60.2883 222.852 55.8291 0.70905 0.0130774
1418400 60.2883 222.865 55.8291 0.70915 0.00264419
1418600 60.2883 222.878 55.8291 0.70925 0.00423407
1418800 60.2883 222.891 55.8291 0.70935 0.000146267
1419000 60.2883 222.904 55.8291 0.70945 -0.00891587
1419200 60.2883 222.917 55.8291 0.70955 -0.00388017
1419400 60.2883 222.93 55.8291 0.70965 0.00448849
1419600 60.2883 222.943 55.8291 0.70975 -0.0148603
1419800 60.2883 222.956 55.8291 0.70985 -0.00383691
1420000 60.2883 222.969 55.8291 0.70995 0.0125993
1420200 60.2883 222.982 55.8291 0.71005 -0.0278707
1420400 60.2883 222.996 55.8291 0.71015 0.0132931
1420600 60.2883 223.009 55.8291 0.71025 0.0122497
1420800 60.2883 223.022 55.8291 0.71035 0.00740449
1421000 60.2883 223.035 55.8291 0.71045 0.0181151
1421200 60.2883 223.048 55.8291 0.71055 -0.00199055
1421400 60.2883 223.061 55.8291 0.71065 0.00659522
1421600 60.2883 223.074 55.8291 0.71075 0.0200581
1421800 60.2883 223.087 55.8291 0.71085 0.0136202
1422000 60.2883 223.1 55.8291 0.71095 0.0272913
1422200 60.2883 223.113 55.8291 0.71105 0.00491463
1422400 60.2883 223.126 55.8291 0.71115 0.00999379
1422600 60.2883 223.139 55.8291 0.71125 -0.00399546
1422800 60.2883 223.152 55.8291 0.71135 -0.0113423
1423000 60.2883 223.165 55.8291 0.71145 0.000831466
1423200 60.2883 223.178 55.8291 0.71155 -0.00334632
1423400 60.2883 223.191 55.8291 0.71165 0.00150652
1423600 60.2883 223.204 55.8291 0.71175 0.00579982
1423800 60.2883 223.217 55.8291 0.71185 -0.00719928
1424000 60.2883 223.23 55.8291 0.71195 -0.0095985
1424200 60.2883 223.243 55.8291 0.71205 0.00546245
1424400 60.2883 223.256 55.8291 0.71215 -0.00140078
1424600 60.2883 223.269 55.8291 0.71225 0.00594776
1424800 60.2883 223.282 55.8291 0.71235 0.00641812
1425000 60.2883 223.295 55.8291 0.71245 0.0174989
1425200 60.2883 223.308 55.8291 0.71255 0.0187555
1425400 60.2883 223.321 55.8291 0.71265 0.015836
1425600 60.2883 223.335 55.8291 0.71275 -0.0102123
1425800 60.2883 223.348 55.8291 0.71285 0.0233921
1426000 60.2883 223.361 55.8291 0.71295 0.0266992
1426200 60.2883 223.374 55.8291 0.71305 0.011261
1426400 60.2883 223.387 55.8291 0.71315 -0.00643824
1426600 60.2883 223.4 55.8291 0.71325 -0.0025903
1426800 60.2883 223.413 55.8291 0.71335 -0.00296985
1427000 60.2883 223.426 55.8291 0.71345 -0.0160448
1427200 60.2883 223.439 55.8291 0.71355 0.018116
1427400 60.2883 223.452 55.8291 0.71365 -0.000644962
1427600 60.2883 223.465 55.8291 0.71375 -0.00592846
1427800 60.2883 223.478 55.8291 0.71385 -0.0201669
1428000 60.2883 223.491 55.8291 0.71395 -0.0032733
1428200 60.2883 223.504 55.8291 0.71405 -0.00132014
1428400 60.2883 223.517 55.8291 0.71415 0.0155976
1428600 60.2883 223.53 55.8291 0.71425 0.0120159
1428800 60.2883 223.543 55.8291 0.71435 0.0112978
1429000 60.2883 223.556 55.8291 0.71445 0.0169023
1429200 60.2883 223.569 55.8291 0.71455 0.00846038
1429400 60.2883 223.582 55.8291 0.71465 0.00258616
1429600 60.2883 223.595 55.8291 0.71475 0.000521466
1429800 60.2883 223.608 55.8291 0.71485 0.026384
1430000 60.2883 223.621 55.8291 0.71495 0.0334941
1430200 60.2883 223.634 55.8291 0.71505 -0.00786389
1430400 60.2883 223.647 55.8291 0.71515 0.0235224
1430600 60.2883 223.661 55.8291 0.71525 -0.00745289
1430800 60.2883 223.674 55.8291 0.71535 -0.0115562
1431000 60.2883 223.687 55.8291 0.71545 -0.0114449
1431200 60.2883 223.7 55.8291 0.71555 -0.00692088
1431400 60.2883 223.713 55.8291 0.71565 -0.00277129
1431600 60.2883 223.726 55.8291 0.71575 0.00221039
1431800 60.2883 223.739 55.8291 0.71585 -0.00763317
1432000 60.2883 223.752 55.8291 0.71595 -0.00742552
1432200 60.2883 223.765 55.8291 0.71605 0.00428281
1432400 60.2883 223.778 55.8291 0.71615 0.0031886
1432600 60.2883 223.791 55.8291 0.71625 0.0240716
1432800 60.2883 223.804 55.8291 0.71635 -0.00267992
1433000 60.2883 223.817 55.8291 0.71645 0.00866082
1433200 60.2883 223.83 55.8291 0.71655 0.0203515
1433400 60.2883 223.843 55.8291 0.71665 0.011932
1433600 60.2883 223.856 55.8291 0.71675 0.030335
1433800 60.2883 223.869 55.8291 0.71685 -0.00131544
1434000 60.2883 223.882 55.8291 0.71695 0.0155627
1434200 60.2883 223.895 55.8291 0.71705 0.00704127
1434400 60.2883 223.908 55.8291 0.71715 0.00977555
1434600 60.2883 223.921 55.8291 0.71725 -0.0130475
1434800 60.2883 223.934 55.8291 0.71735 -0.00494995
1435000 60.2883 223.947 55.8291 0.71745 -0.00620562
1435200 60.2883 223.96 55.8291 0.71755 0.00043303
1435400 60.2883 223.973 55.8291 0.71765 -0.00720072
1435600 60.2883 223.987 55.8291 0.71775 -0.013558
1435800 60.2883 224 55.8291 0.71785 -0.0020041
1436000 60.2883 224.013 55.8291 0.71795 0.00409416
1436200 60.2883 224.026 55.8291 0.71805 -0.00182365
1436400 60.2883 224.039 55.8291 0.71815 0.0195721
1436600 60.2883 224.052 55.8291 0.71825 0.0103619
1436800 60.2883 224.065 55.8291 0.71835 0.0150842
1437000 60.2883 224.078 55.8291 0.71845 0.0145347
1437200 60.2883 224.091 55.8291 0.71855 0.00341305
1437400 60.2883 224.104 55.8291 0.71865 0.0150432
1437600 60.2883 224.117 55.8291 0.71875 0.0149193
1437800 60.2883 224.13 55.8291 0.71885 0.0219715
1438000 60.2883 224.143 55.8291 0.71895 0.0054156
1438200 60.2883 224.156 55.8291 0.71905 0.00149661
1438400 60.2883 224.169 55.8291 0.71915 0.000173373
1438600 60.2883 224.182 55.8291 0.71925 -0.00340763
1438800 60.2883 224.195 55.8291 0.71935 0.00100968
1439000 60.2883 224.208 55.8291 0.71945 0.00318331
1439200 60.2883 224.221 55.8291 0.71955 -0.0128995
1439400 60.2883 224.234 55.8291 0.71965 0.00788293
1439600 60.2883 224.247 55.8291 0.71975 -0.0112349
1439800 60.2883 224.26 55.8291 0.71985 -0.00883061
1440000 60.2883 224.273 55.8291 0.71995 -0.0101973
1440200 60.2883 224.286 55.8291 0.72005 -0.000690102
1440400 60.2883 224.299 55.8291 0.72015 0.0176845
1440600 60.2883 224.313 55.8291 0.72025 0.0231443
1440800 60.2883 224.326 55.8291 0.72035 0.000379797
1441000 60.2883 224.339 55.8291 0.72045 0.0171645
1441200 60.2883 224.352 55.8291 0.72055 0.00490608
1441400 60.2883 224.365 55.8291 0.72065 0.0146112
1441600 60.2883 224.378 55.8291 0.72075 0.0151522
1441800 60.2883 224.391 55.8291 0.72085 0.00946499
1442000 60.2883 224.404 55.8291 0.72095 0.0213616
1442200 60.2883 224.417 55.8291 0.72105 0.00224023
1442400 60.2883 224.43 55.8291 0.72115 -0.000980054
1442600 60.2883 224.443 55.8291 0.72125 -0.00831079
1442800 60.2883 224.456 55.8291 0.72135 0.00159055
1443000 60.2883 224.469 55.8291 0.72145 0.00768081
1443200 60.2883 224.482 55.8291 0.72155 -0.020457
1443400 60.2883 224.495 55.8291 0.72165 -0.000876685
1443600 60.2883 224.508 55.8291 0.72175 0.00470165
1443800 60.2883 224.521 55.8291 0.72185 -0.00895381
1444000 60.2883 224.534 55.8291 0.72195 -0.000516915
1444200 60.2883 224.547 55.8291 0.72205 0.00264727
1444400 60.2883 224.56 55.8291 0.72215 0.0129683
1444600 60.2883 224.573 55.8291 0.72225 0.0157589
1444800 60.2883 224.586 55.8291 0.72235 0.00744803
1445000 60.2883 224.599 55.8291 0.72245 0.0215112
1445200 60.2883 224.612 55.8291 0.72255 0.0176168
1445400 60.2883 224.625 55.8291 0.72265 0.00276397
1445600 60.2883 224.638 55.8291 0.72275 0.00798884
1445800 60.2883 224.652 55.8291 0.72285 0.0152176
1446000 60.2883 224.665 55.8291 0.72295 0.00255748
1446200 60.2883 224.678 55.8291 0.72305 0.000211805
1446400 60.2883 224.691 55.8291 0.72315 0.00881087
1446600 60.2883 224.704 55.8291 0.72325 -0.0158842
1446800 60.2883 224.717 55.8291 0.72335 0.0118195
1447000 60.2883 224.73 55.8291 0.72345 -0.00435044
1447200 60.2883 224.743 55.8291 0.72355 -0.0167243
1447400 60.2883 224.756 55.8291 0.72365 -0.0052198
1447600 60.2883 224.769 55.8291 0.72375 0.00477073
1447800 60.2883 224.782 55.8291 0.72385 0.0020384
1448000 60.2883 224.795 55.8291 0.72395 0.0123353
1448200 60.2883 224.808 55.8291 0.72405 -0.000673802
1448400 60.2883 224.821 55.8291 0.72415 0.0162261
1448600 60.2883 224.834 55.8291 0.72425 0.01515
1448800 60.2883 224.847 55.8291 0.72435 0.0128776
1449000 60.2883 224.86 55.8291 0.72445 0.00915626
1449200 60.2883 224.873 55.8291 0.72455 0.0101248
1449400 60.2883 224.886 55.8291 0.72465 0.0154215
1449600 60.2883 224.899 55.8291 0.72475 -0.00543805
1449800 60.2883 224.912 55.8291 0.72485 0.0102752
1450000 60.2883 224.925 55.8291 0.72495 -0.00730216
1450200 60.2883 224.938 55.8291 0.72505 0.00457033
1450400 60.2883 224.951 55.8291 0.72515 -0.0138593
1450600 60.2883 224.964 55.8291 0.72525 -0.00112918
1450800 60.2883 224.978 55.8291 0.72535 0.00942689
1451000 60.2883 224.991 55.8291 0.72545 0.00428511
1451200 60.2883 225.004 55.8291 0.72555 0.00973052
1451400 60.2883 225.017 55.8291 0.72565 0.00565112
1451600 60.2883 225.03 55.8291 0.72575 -0.00811424
1451800 60.2883 225.043 55.8291 0.72585 -4.36697e-06
1452000 60.2883 225.056 55.8291 0.72595 0.00741607
1452200 60.2883 225.069 55.8291 0.72605 0.0198475
1452400 60.2883 225.082 55.8291 0.72615 0.00820545
1452600 60.2883 225.095 55.8291 0.72625 0.000886936
1452800 60.2883 225.108 55.8291 0.72635 0.00945657
1453000 60.2883 225.121 55.8291 0.72645 0.0069647
1453200 60.2883 225.134 55.8291 0.72655 0.0164587
1453400 60.2883 225.147 55.8291 0.72665 0.0131231
1453600 60.2883 225.16 55.8291 0.72675 0.0120248
1453800 60.2883 225.173 55.8291 0.72685 -0.0085911
1454000 60.2883 225.186 55.8291 0.72695 0.00803734
1454200 60.2883 225.199 55.8291 0.72705 -0.00277063
1454400 60.2883 225.212 55.8291 0.72715 -0.00122093
1454600 60.2883 225.225 55.8291 0.72725 -0.0121455
1454800 60.2883 225.238 55.8291 0.72735 -0.0113669
1455000 60.2883 225.251 55.8291 0.72745 0.0129449
1455200 60.2883 225.264 55.8291 0.72755 -0.0166766
1455400 60.2883 225.277 55.8291 0.72765 -0.000169666
1455600 60.2883 225.29 55.8291 0.72775 0.00892131
1455800 60.2883 225.304 55.8291 0.72785 0.0116481
1456000 60.2883 225.317 55.8291 0.72795 0.0109029
1456200 60.2883 225.33 55.8291 0.72805 0.00497619
1456400 60.2883 225.343 55.8291 0.72815 0.00875543
1456600 60.2883 225.356 55.8291 0.72825 0.0338755
1456800 60.2883 225.369 55.8291 0.72835 0.0168832
1457000 60.2883 225.382 55.8291 0.72845 0.0362276
1457200 60.2883 225.395 55.8291 0.72855 -0.00066163
1457400 60.2883 225.408 55.8291 0.72865 -0.0188435
1457600 60.2883 225.421 55.8291 0.72875 0.0173085
1457800 60.2883 225.434 55.8291 0.72885 0.0159627
1458000 60.2883 225.447 55.8291 0.72895 -0.00847732
1458200 60.2883 225.46 55.8291 0.72905 -0.0122886
1458400 60.2883 225.473 55.8291 0.72915 -0.0122482
1458600 60.2883 225.486 55.8291 0.72925 0.00622121
1458800 60.2883 225.499 55.8291 0.72935 -0.0326675
1459000 60.2883 225.512 55.8291 0.72945 -0.0100922
1459200 60.2883 225.525 55.8291 0.72955 0.015506
1459400 60.2883 225.538 55.8291 0.72965 -0.00669921
1459600 60.2883 225.551 55.8291 0.72975 0.000468004
1459800 60.2883 225.564 55.8291 0.72985 0.0162587
1460000 60.2883 225.577 55.8291 0.72995 0.00661751
1460200 60.2883 225.59 55.8291 0.73005 0.0225572
1460400 60.2883 225.603 55.8291 0.73015 0.0143013
1460600 60.2883 225.616 55.8291 0.73025 0.0163705
1460800 60.2883 225.629 55.8291 0.73035 0.0244628
1461000 60.2883 225.643 55.8291 0.73045 0.0209566
1461200 60.2883 225.656 55.8291 0.73055 0.011003
1461400 60.2883 225.669 55.8291 0.73065 0.0150122
1461600 60.2883 225.682 55.8291 0.73075 -0.0144352
1461800 60.2883 225.695 55.8291 0.73085 0.00866101
1462000 60.2883 225.708 55.8291 0.73095 0.000671591
1462200 60.2883 225.721 55.8291 0.73105 -0.0164742
1462400 60.2883 225.734 55.8291 0.73115 -0.00423433
1462600 60.2883 225.747 55.8291 0.73125 -0.00887201
1462800 60.2883 225.76 55.8291 0.73135 -0.0230744
1463000 60.2883 225.773 55.8291 0.73145 -0.00699124
1463200 60.2883 225.786 55.8291 0.73155 -0.00540355
1463400 60.2883 225.799 55.8291 0.73165 0.0153896
1463600 60.2883 225.812 55.8291 0.73175 0.00840757
1463800 60.2883 225.825 55.8291 0.73185 0.0180511
1464000 60.2883 225.838 55.8291 0.73195 -0.0113399
1464200 60.2883 225.851 55.8291 0.73205 0.013945
1464400 60.2883 225.864 55.8291 0.73215 0.0334531
1464600 60.2883 225.877 55.8291 0.73225 0.0346308
1464800 60.2883 225.89 55.8291 0.73235 0.00859231
1465000 60.2883 225.903 55.8291 0.73245 0.0282033
1465200 60.2883 225.916 55.8291 0.73255 0.00670746
1465400 60.2883 225.929 55.8291 0.73265 0.00584748
1465600 60.2883 225.942 55.8291 0.73275 0.00213005
1465800 60.2883 225.955 55.8291 0.73285 -0.0291269
1466000 60.2883 225.969 55.8291 0.73295 -0.0121753
1466200 60.2883 225.982 55.8291 0.73305 0.000605428
1466400 60.2883 225.995 55.8291 0.73315 0.0149154
1466600 60.2883 226.008 55.8291 0.73325 -0.00616697
1466800 60.2883 226.021 55.8291 0.73335 -0.0331806
1467000 60.2883 226.034 55.8291 0.73345 -0.00993847
1467200 60.2883 226.047 55.8291 0.73355 -0.00212555
1467400 60.2883 226.06 55.8291 0.73365 0.0279543
1467600 60.2883 226.073 55.8291 0.73375 0.00352863
1467800 60.2883 226.086 55.8291 0.73385 0.0200041
1468000 60.2883 226.099 55.8291 0.73395 0.02336
1468200 60.2883 226.112 55.8291 0.73405 0.0110454
1468400 60.2883 226.125 55.8291 0.73415 0.0107269
1468600 60.2883 226.138 55.8291 0.73425 0.00975839
1468800 60.2883 226.151 55.8291 0.73435 0.0027246
1469000 60.2883 226.164 55.8291 0.73445 0.0168032
1469200 60.2883 226.177 55.8291 0.73455 0.0123593
1469400 60.2883 226.19 55.8291 0.73465 0.0133208
1469600 60.2883 226.203 55.8291 0.73475 0.00852032
1469800 60.2883 226.216 55.8291 0.73485 -0.00198336
1470000 60.2883 226.229 55.8291 0.73495 -0.00783862
1470200 60.2883 226.242 55.8291 0.73505 -0.0166159
1470400 60.2883 226.255 55.8291 0.73515 -0.0141134
1470600 60.2883 226.268 55.8291 0.73525 -0.008685
1470800 60.2883 226.281 55.8291 0.73535 0.0137444
1471000 60.2883 226.295 55.8291 0.73545 -0.00573199
1471200 60.2883 226.308 55.8291 0.73555 0.00359641
1471400 60.2883 226.321 55.8291 0.73565 -0.00473734
1471600 60.2883 226.334 55.8291 0.73575 -0.00281715
1471800 60.2883 226.347 55.8291 0.73585 0.0202662
1472000 60.2883 226.36 55.8291 0.73595 0.00797507
1472200 60.2883 226.373 55.8291 0.73605 0.0173699
1472400 60.2883 226.386 55.8291 0.73615 0.0328185
1472600 60.2883 226.399 55.8291 0.73625 0.0302044
1472800 60.2883 226.412 55.8291 0.73635 -0.000455868
1473000 60.2883 226.425 55.8291 0.73645 0.00763889
1473200 60.2883 226.438 55.8291 0.73655 -0.00317689
1473400 60.2883 226.451 55.8291 0.73665 0.00441279
1473600 60.2883 226.464 55.8291 0.73675 0.00644386
1473800 60.2883 226.477 55.8291 0.73685 0.009417
1474000 60.2883 226.49 55.8291 0.73695 -0.0148417
1474200 60.2883 226.503 55.8291 0.73705 0.00393023
1474400 60.2883 226.516 55.8291 0.73715 -0.0136557
1474600 60.2883 226.529 55.8291 0.73725 -0.0299487
1474800 60.2883 226.542 55.8291 0.73735 0.00888078
1475000 60.2883 226.555 55.8291 0.73745 0.00549055
1475200 60.2883 226.568 55.8291 0.73755 -0.00841611
1475400 60.2883 226.581 55.8291 0.73765 0.0160184
1475600 60.2883 226.594 55.8291 0.73775 0.00179344
1475800 60.2883 226.607 55.8291 0.73785 0.00943061
1476000 60.2883 226.62 55.8291 0.73795 -0.00925343
1476200 60.2883 226.634 55.8291 0.73805 0.0257421
1476400 60.2883 226.647 55.8291 0.73815 0.0305405
1476600 60.2883 226.66 55.8291 0.73825 0.0238761
1476800 60.2883 226.673 55.8291 0.73835 0.0104331
1477000 60.2883 226.686 55.8291 0.73845 0.0189178
1477200 60.2883 226.699 55.8291 0.73855 0.0156463
1477400 60.2883 226.712 55.8291 0.73865 0.0111487
1477600 60.2883 226.725 55.8291 0.73875 -0.00336684
1477800 60.2883 226.738 55.8291 0.73885 -0.00607572
1478000 60.2883 226.751 55.8291 0.73895 -0.0167087
1478200 60.2883 226.764 55.8291 0.73905 0.00142589
1478400 60.2883 226.777 55.8291 0.73915 -0.0134353
1478600 60.2883 226.79 55.8291 0.73925 -0.0211852
1478800 60.2883 226.803 55.8291 0.73935 0.00335437
1479000 60.2883 226.816 55.8291 0.73945 -0.00916812
1479200 60.2883 226.829 55.8291 0.73955 -0.0113548
1479400 60.2883 226.842 55.8291 0.73965 0.00504985
1479600 60.2883 226.855 55.8291 0.73975 0.00728025
1479800 60.2883 226.868 55.8291 0.73985 0.0175369
1480000 60.2883 226.881 55.8291 0.73995 0.0190207
1480200 60.2883 226.894 55.8291 0.74005 0.0201917
1480400 60.2883 226.907 55.8291 0.74015 0.0310367
1480600 60.2883 226.92 55.8291 0.74025 0.0193855
1480800 60.2883 226.933 55.8291 0.74035 0.00316299
1481000 60.2883 226.946 55.8291 0.74045 0.017955
1481200 60.2883 226.96 55.8291 0.74055 0.0210668
1481400 60.2883 226.973 55.8291 0.74065 0.0158427
1481600 60.2883 226.986 55.8291 0.74075 -0.00539144
1481800 60.2883 226.999 55.8291 0.74085 -0.00494495
1482000 60.2883 227.012 55.8291 0.74095 -0.00682901
1482200 60.2883 227.025 55.8291 0.74105 -0.024857
1482400 60.2883 227.038 55.8291 0.74115 -0.00602352
1482600 60.2883 227.051 55.8291 0.74125 -0.00857497
1482800 60.2883 227.064 55.8291 0.74135 -0.0170808
1483000 60.2883 227.077 55.8291 0.74145 -0.0100064
1483200 60.2883 227.09 55.8291 0.74155 -0.00364686
1483400 60.2883 227.103 55.8291 0.74165 -0.00665102
1483600 60.2883 227.116 55.8291 0.74175 0.00649013
1483800 60.2883 227.129 55.8291 0.74185 0.00988939
1484000 60.2883 227.142 55.8291 0.74195 0.0344382
1484200 60.2883 227.155 55.8291 0.74205 0.0208342
1484400 60.2883 227.168 55.8291 0.74215 0.0288833
1484600 60.2883 227.181 55.8291 0.74225 0.0329428
1484800 60.2883 227.194 55.8291 0.74235 0.037258
1485000 60.2883 227.207 55.8291 0.74245 0.00605843
1485200 60.2883 227.22 55.8291 0.74255 -0.0120835
1485400 60.2883 227.233 55.8291 0.74265 0.0175958
1485600 60.2883 227.246 55.8291 0.74275 0.00910781
1485800 60.2883 227.259 55.8291 0.74285 -0.0136453
1486000 60.2883 227.272 55.8291 0.74295 -0.0173841
1486200 60.2883 227.286 55.8291 0.74305 -0.0249379
1486400 60.2883 227.299 55.8291 0.74315 -0.019742
1486600 60.2883 227.312 55.8291 0.74325 -0.0125641
1486800 60.2883 227.325 55.8291 0.74335 -0.0246695
1487000 60.2883 227.338 55.8291 0.74345 0.000539876
1487200 60.2883 227.351 55.8291 0.74355 0.00736439
1487400 60.2883 227.364 55.8291 0.74365 0.00212431
1487600 60.2883 227.377 55.8291 0.74375 0.019997
1487800 60.2883 227.39 55.8291 0.74385 0.0124565
1488000 60.2883 227.403 55.8291 0.74395 0.030975
1488200 60.2883 227.416 55.8291 0.74405 0.0355344
1488400 60.2883 227.429 55.8291 0.74415 0.0337814
1488600 60.2883 227.442 55.8291 0.74425 0.0109407
1488800 60.2883 227.455 55.8291 0.74435 0.0171402
1489000 60.2883 227.468 55.8291 0.74445 0.0271731
1489200 60.2883 227.481 55.8291 0.74455 0.00851053
1489400 60.2883 227.494 55.8291 0.74465 -0.00176964
1489600 60.2883 227.507 55.8291 0.74475 -0.0123565
1489800 60.2883 227.52 55.8291 0.74485 -0.0168973
1490000 60.2883 227.533 55.8291 0.74495 -0.0124724
1490200 60.2883 227.546 55.8291 0.74505 -0.014724
1490400 60.2883 227.559 55.8291 0.74515 -0.0145346
1490600 60.2883 227.572 55.8291 0.74525 -0.0170873
1490800 60.2883 227.585 55.8291 0.74535 -0.0158268
1491000 60.2883 227.598 55.8291 0.74545 0.00817997
1491200 60.2883 227.612 55.8291 0.74555 -0.0028255
1491400 60.2883 227.625 55.8291 0.74565 0.00319479
1491600 60.2883 227.638 55.8291 0.74575 0.0177474
1491800 60.2883 227.651 55.8291 0.74585 0.0303492
1492000 60.2883 227.664 55.8291 0.74595 0.025496
1492200 60.2883 227.677 55.8291 0.74605 0.0242114
1492400 60.2883 227.69 55.8291 0.74615 0.0122079
1492600 60.2883 227.703 55.8291 0.74625 0.0254467
1492800 60.2883 227.716 55.8291 0.74635 0.00571845
1493000 60.2883 227.729 55.8291 0.74645 0.0139146
1493200 60.2883 227.742 55.8291 0.74655 0.0233125
1493400 60.2883 227.755 55.8291 0.74665 -0.0031354
1493600 60.2883 227.768 55.8291 0.74675 -0.00880203
1493800 60.2883 227.781 55.8291 0.74685 -0.0232665
1494000 60.2883 227.794 55.8291 0.74695 -0.0314386
1494200 60.2883 227.807 55.8291 0.74705 -0.00520024
1494400 60.2883 227.82 55.8291 0.74715 -0.00266675
1494600 60.2883 227.833 55.8291 0.74725 -0.00465752
1494800 60.2883 227.846 55.8291 0.74735 -0.00137454
1495000 60.2883 227.859 55.8291 0.74745 -0.0111112
1495200 60.2883 227.872 55.8291 0.74755 0.00726939
1495400 60.2883 227.885 55.8291 0.74765 0.00130861
1495600 60.2883 227.898 55.8291 0.74775 0.0150871
1495800 60.2883 227.911 55.8291 0.74785 0.0211629
1496000 60.2883 227.924 55.8291 0.74795 0.050618
1496200 60.2883 227.937 55.8291 0.74805 0.027208
1496400 60.2883 227.951 55.8291 0.74815 0.0119643
1496600 60.2883 227.964 55.8291 0.74825 0.0104894
1496800 60.2883 227.977 55.8291 0.74835 0.0100405
1497000 60.2883 227.99 55.8291 0.74845 0.00582998
1497200 60.2883 228.003 55.8291 0.74855 0.0251779
1497400 60.2883 228.016 55.8291 0.74865 -1.33748e-05
1497600 60.2883 228.029 55.8291 0.74875 -0.0206996
1497800 60.2883 228.042 55.8291 0.74885 -0.0123185
1498000 60.2883 228.055 55.8291 0.74895 -0.0311792
1498200 60.2883 228.068 55.8291 0.74905 -0.0273743
1498400 60.2883 228.081 55.8291 0.74915 0.000325397
1498600 60.2883 228.094 55.8291 0.74925 -0.00393599
1498800 60.2883 228.107 55.8291 0.74935 -0.00507123
1499000 60.2883 228.12 55.8291 0.74945 0.0142269
1499200 60.2883 228.133 55.8291 0.74955 -0.0041639
1499400 60.2883 228.146 55.8291 0.74965 0.0225366
1499600 60.2883 228.159 55.8291 0.74975 0.0130039
1499800 60.2883 228.172 55.8291 0.74985 0.0187415
1500000 60.2883 228.185 55.8291 0.74995 0.0362868
1500200 60.2883 228.198 55.8291 0.75005 0.0272031
1500400 60.2883 228.211 55.8291 0.75015 0.0250583
1500600 60.2883 228.224 55.8291 0.75025 0.00360513
1500800 60.2883 228.237 55.8291 0.75035 0.0025243
1501000 60.2883 228.25 55.8291 0.75045 0.0216772
1501200 60.2883 228.263 55.8291 0.75055 -0.00407616
1501400 60.2883 228.277 55.8291 0.75065 -0.00532602
1501600 60.2883 228.29 55.8291 0.75075 -0.00846486
1501800 60.2883 228.303 55.8291 0.75085 -0.0118638
1502000 60.2883 228.316 55.8291 0.75095 -0.0168931
1502200 60.2883 228.329 55.8291 0.75105 -0.0171038
1502400 60.2883 228.342 55.8291 0.75115 -0.00879033
1502600 60.2883 228.355 55.8291 0.75125 -0.0126249
1502800 60.2883 228.368 55.8291 0.75135 0.00392567
1503000 60.2883 228.381 55.8291 0.75145 0.00959964
1503200 60.2883 228.394 55.8291 0.75155 0.00346502
1503400 60.2883 228.407 55.8291 0.75165 -0.00368989
1503600 60.2883 228.42 55.8291 0.75175 0.0204612
1503800 60.2883 228.433 55.8291 0.75185 0.0313246
1504000 60.2883 228.446 55.8291 0.75195 0.0326291
1504200 60.2883 228.459 55.8291 0.75205 0.021765
1504400 60.2883 228.472 55.8291 0.75215 0.0333778
1504600 60.2883 228.485 55.8291 0.75225 0.0189016
1504800 60.2883 228.498 55.8291 0.75235 -0.000814085
1505000 60.2883 228.511 55.8291 0.75245 0.0125033
1505200 60.2883 228.524 55.8291 0.75255 -0.00316469
1505400 60.2883 228.537 55.8291 0.75265 -0.00170012
1505600 60.2883 228.55 55.8291 0.75275 -0.0249347
1505800 60.2883 228.563 55.8291 0.75285 -0.00104804
1506000 60.2883 228.576 55.8291 0.75295 -0.0332237
1506200 60.2883 228.589 55.8291 0.75305 -0.00917225
1506400 60.2883 228.603 55.8291 0.75315 -0.0319478
1506600 60.2883 228.616 55.8291 0.75325 -0.004338
1506800 60.2883 228.629 55.8291 0.75335 0.00220733
1507000 60.2883 228.642 55.8291 0.75345 0.0222823
1507200 60.2883 228.655 55.8291 0.75355 0.0133645
1507400 60.2883 228.668 55.8291 0.75365 0.00156645
1507600 60.2883 228.681 55.8291 0.75375 0.0259834
1507800 60.2883 228.694 55.8291 0.75385 0.0177339
1508000 60.2883 228.707 55.8291 0.75395 0.0283504
1508200 60.2883 228.72 55.8291 0.75405 0.033065
1508400 60.2883 228.733 55.8291 0.75415 0.0198671
1508600 60.2883 228.746 55.8291 0.75425 0.0246088
1508800 60.2883 228.759 55.8291 0.75435 0.000835609
1509000 60.2883 228.772 55.8291 0.75445 0.00148273
1509200 60.2883 228.785 55.8291 0.75455 -0.00805308
1509400 60.2883 228.798 55.8291 0.75465 -0.0156267
1509600 60.2883 228.811 55.8291 0.75475 0.0101932
1509800 60.2883 228.824 55.8291 0.75485 0.000495256
1510000 60.2883 228.837 55.8291 0.75495 -0.0114643
1510200 60.2883 228.85 55.8291 0.75505 -0.0300332
1510400 60.2883 228.863 55.8291 0.75515 -0.0150287
1510600 60.2883 228.876 55.8291 0.75525 -0.024743
1510800 60.2883 228.889 55.8291 0.75535 -0.00866798
1511000 60.2883 228.902 55.8291 0.75545 0.00521194
1511200 60.2883 228.915 55.8291 0.75555 0.0270142
1511400 60.2883 228.928 55.8291 0.75565 0.0176595
1511600 60.2883 228.942 55.8291 0.75575 0.0252741
1511800 60.2883 228.955 55.8291 0.75585 0.0187886
1512000 60.2883 228.968 55.8291 0.75595 0.0244506
1512200 60.2883 228.981 55.8291 0.75605 0.0308035
1512400 60.2883 228.994 55.8291 0.75615 0.0233681
1512600 60.2883 229.007 55.8291 0.75625 0.0179766
1512800 60.2883 229.02 55.8291 0.75635 0.0287916
1513000 60.2883 229.033 55.8291 0.75645 -0.00938092
1513200 60.2883 229.046 55.8291 0.75655 -0.00777537
1513400 60.2883 229.059 55.8291 0.75665 -0.0214057
1513600 60.2883 229.072 55.8291 0.75675 -0.0180109
1513800 60.2883 229.085 55.8291 0.75685 -0.010649
1514000 60.2883 229.098 55.8291 0.75695 -0.00319935
1514200 60.2883 229.111 55.8291 0.75705 -0.0252907
1514400 60.2883 229.124 55.8291 0.75715 -0.0191357
1514600 60.2883 229.137 55.8291 0.75725 -0.0176744
1514800 60.2883 229.15 55.8291 0.75735 -0.00220994
1515000 60.2883 229.163 55.8291 0.75745 0.0198512
1515200 60.2883 229.176 55.8291 0.75755 0.0135568
1515400 60.2883 229.189 55.8291 0.75765 0.0229435
1515600 60.2883 229.202 55.8291 0.75775 0.0381607
1515800 60.2883 229.215 55.8291 0.75785 0.0239638
1516000 60.2883 229.228 55.8291 0.75795 0.0186821
1516200 60.2883 229.241 55.8291 0.75805 0.0184209
1516400 60.2883 229.254 55.8291 0.75815 0.0351841
1516600 60.2883 229.268 55.8291 0.75825 0.0374794
1516800 60.2883 229.281 55.8291 0.75835 0.00556187
1517000 60.2883 229.294 55.8291 0.75845 -0.00684297
1517200 60.2883 229.307 55.8291 0.75855 -0.0119027
1517400 60.2883 229.32 55.8291 0.75865 -0.0136229
1517600 60.2883 229.333 55.8291 0.75875 -0.0243018
1517800 60.2883 229.346 55.8291 0.75885 -0.0243395
1518000 60.2883 229.359 55.8291 0.75895 -0.0112316
1518200 60.2883 229.372 55.8291 0.75905 -0.0172825
1518400 60.2883 229.385 55.8291 0.75915 -0.0107987
1518600 60.2883 229.398 55.8291 0.75925 -0.00481783
1518800 60.2883 229.411 55.8291 0.75935 -0.0142279
1519000 60.2883 229.424 55.8291 0.75945 0.00236488
1519200 60.2883 229.437 55.8291 0.75955 0.00682621
1519400 60.2883 229.45 55.8291 0.75965 0.0322196
1519600 60.2883 229.463 55.8291 0.75975 0.0300596
1519800 60.2883 229.476 55.8291 0.75985 0.0476671
1520000 60.2883 229.489 55.8291 0.75995 0.0204147
1520200 60.2883 229.502 55.8291 0.76005 0.0144541
1520400 60.2883 229.515 55.8291 0.76015 0.0233167
1520600 60.2883 229.528 55.8291 0.76025 0.0189607
1520800 60.2883 229.541 55.8291 0.76035 0.0169302
1521000 60.2883 229.554 55.8291 0.76045 0.0151931
1521200 60.2883 229.567 55.8291 0.76055 -0.0150819
1521400 60.2883 229.58 55.8291 0.76065 -0.0097899
1521600 60.2883 229.594 55.8291 0.76075 -0.0172902
1521800 60.2883 229.607 55.8291 0.76085 -0.0148954
1522000 60.2883 229.62 55.8291 0.76095 -0.0203838
1522200 60.2883 229.633 55.8291 0.76105 -0.0294631
1522400 60.2883 229.646 55.8291 0.76115 -0.00875655
1522600 60.2883 229.659 55.8291 0.76125 -0.0180295
1522800 60.2883 229.672 55.8291 0.76135 0.00258833
1523000 60.2883 229.685 55.8291 0.76145 -0.00107752
1523200 60.2883 229.698 55.8291 0.76155 0.0179285
1523400 60.2883 229.711 55.8291 0.76165 0.0261523
1523600 60.2883 229.724 55.8291 0.76175 0.0238938
1523800 60.2883 229.737 55.8291 0.76185 0.0237979
1524000 60.2883 229.75 55.8291 0.76195 0.0262615
1524200 60.2883 229.763 55.8291 0.76205 0.0373541
1524400 60.2883 229.776 55.8291 0.76215 0.0390669
1524600 60.2883 229.789 55.8291 0.76225 0.00814254
1524800 60.2883 229.802 55.8291 0.76235 0.00965047
1525000 60.2883 229.815 55.8291 0.76245 -0.00216481
1525200 60.2883 229.828 55.8291 0.76255 -0.00564078
1525400 60.2883 229.841 55.8291 0.76265 -0.0101381
1525600 60.2883 229.854 55.8291 0.76275 -0.00906842
1525800 60.2883 229.867 55.8291 0.76285 -0.0172119
1526000 60.2883 229.88 55.8291 0.76295 -0.0258624
1526200 60.2883 229.893 55.8291 0.76305 -0.0156653
1526400 60.2883 229.906 55.8291 0.76315 -0.0165277
1526600 60.2883 229.919 55.8291 0.76325 -0.00816276
1526800 60.2883 229.933 55.8291 0.76335 -0.0110934
1527000 60.2883 229.946 55.8291 0.76345 0.0103092
1527200 60.2883 229.959 55.8291 0.76355 0.0229715
1527400 60.2883 229.972 55.8291 0.76365 0.0106883
1527600 60.2883 229.985 55.8291 0.76375 0.0313287
1527800 60.2883 229.998 55.8291 0.76385 0.0227054
1528000 60.2883 230.011 55.8291 0.76395 0.0329763
1528200 60.2883 230.024 55.8291 0.76405 0.0244683
1528400 60.2883 230.037 55.8291 0.76415 0.0376453
1528600 60.2883 230.05 55.8291 0.76425 -0.00775395
1528800 60.2883 230.063 55.8291 0.76435 0.0335836
1529000 60.2883 230.076 55.8291 0.76445 -0.010607
1529200 60.2883 230.089 55.8291 0.76455 -0.011498
1529400 60.2883 230.102 55.8291 0.76465 -0.012547
1529600 60.2883 230.115 55.8291 0.76475 -0.00306084
1529800 60.2883 230.128 55.8291 0.76485 -0.0117252
1530000 60.2883 230.141 55.8291 0.76495 -0.016728
1530200 60.2883 230.154 55.8291 0.76505 -0.010597
1530400 60.2883 230.167 55.8291 0.76515 -0.0368804
1530600 60.2883 230.18 55.8291 0.76525 -0.0174225
1530800 60.2883 230.193 55.8291 0.76535 0.000832798
1531000 60.2883 230.206 55.8291 0.76545 0.00844064
1531200 60.2883 230.219 55.8291 0.76555 0.0141614
1531400 60.2883 230.232 55.8291 0.76565 0.0188076
1531600 60.2883 230.245 55.8291 0.76575 0.0352047
1531800 60.2883 230.259 55.8291 0.76585 0.0321323
1532000 60.2883 230.272 55.8291 0.76595 0.0210343
1532200 60.2883 230.285 55.8291 0.76605 0.0198206
1532400 60.2883 230.298 55.8291 0.76615 0.0272666
1532600 60.2883 230.311 55.8291 0.76625 0.0191475
1532800 60.2883 230.324 55.8291 0.76635 0.00814213
1533000 60.2883 230.337 55.8291 0.76645 0.0147015
1533200 60.2883 230.35 55.8291 0.76655 -0.00825194
1533400 60.2883 230.363 55.8291 0.76665 -0.0182966
1533600 60.2883 230.376 55.8291 0.76675 -0.0185641
1533800 60.2883 230.389 55.8291 0.76685 -0.0288284
1534000 60.2883 230.402 55.8291 0.76695 -5.15581e-05
1534200 60.2883 230.415 55.8291 0.76705 -0.0220025
1534400 60.2883 230.428 55.8291 0.76715 -0.0115814
1534600 60.2883 230.441 55.8291 0.76725 0.000341573
1534800 60.2883 230.454 55.8291 0.76735 0.000267191
1535000 60.2883 230.467 55.8291 0.76745 -0.00401036
1535200 60.2883 230.48 55.8291 0.76755 0.0234162
1535400 60.2883 230.493 55.8291 0.76765 0.0164183
1535600 60.2883 230.506 55.8291 0.76775 0.0282787
1535800 60.2883 230.519 55.8291 0.76785 0.0143959
1536000 60.2883 230.532 55.8291 0.76795 0.0383634
1536200 60.2883 230.545 55.8291 0.76805 0.0203842
1536400 60.2883 230.558 55.8291 0.76815 0.030512
1536600 60.2883 230.571 55.8291 0.76825 0.015774
1536800 60.2883 230.585 55.8291 0.76835 0.00171073
1537000 60.2883 230.598 55.8291 0.76845 0.00171912
1537200 60.2883 230.611 55.8291 0.76855 -0.00504713
1537400 60.2883 230.624 55.8291 0.76865 -0.015501
1537600 60.2883 230.637 55.8291 0.76875 -0.0138755
1537800 60.2883 230.65 55.8291 0.76885 -0.027135
1538000 60.2883 230.663 55.8291 0.76895 -0.0237879
1538200 60.2883 230.676 55.8291 0.76905 -0.00709129
1538400 60.2883 230.689 55.8291 0.76915 -0.0119553
1538600 60.2883 230.702 55.8291 0.76925 -0.00701172
1538800 60.2883 230.715 55.8291 0.76935 0.0084849
1539000 60.2883 230.728 55.8291 0.76945 0.00391742
1539200 60.2883 230.741 55.8291 0.76955 0.0169553
1539400 60.2883 230.754 55.8291 0.76965 0.0386804
1539600 60.2883 230.767 55.8291 0.76975 0.0223699
1539800 60.2883 230.78 55.8291 0.76985 0.0183558
1540000 60.2883 230.793 55.8291 0.76995 0.0275196
1540200 60.2883 230.806 55.8291 0.77005 0.0256445
1540400 60.2883 230.819 55.8291 0.77015 0.0125806
1540600 60.2883 230.832 55.8291 0.77025 0.0229452
1540800 60.2883 230.845 55.8291 0.77035 0.00536253
1541000 60.2883 230.858 55.8291 0.77045 -0.00766072
1541200 60.2883 230.871 55.8291 0.77055 0.000197528
1541400 60.2883 230.884 55.8291 0.77065 -0.0107508
1541600 60.2883 230.897 55.8291 0.77075 -0.0394588
1541800 60.2883 230.911 55.8291 0.77085 -0.0238793
1542000 60.2883 230.924 55.8291 0.77095 -0.0145036
1542200 60.2883 230.937 55.8291 0.77105 -0.0129816
1542400 60.2883 230.95 55.8291 0.77115 -0.0163893
1542600 60.2883 230.963 55.8291 0.77125 -0.000645873
1542800 60.2883 230.976 55.8291 0.77135 0.00807446
1543000 60.2883 230.989 55.8291 0.77145 0.0193108
1543200 60.2883 231.002 55.8291 0.77155 0.0262171
1543400 60.2883 231.015 55.8291 0.77165 0.0252898
1543600 60.2883 231.028 55.8291 0.77175 0.0364899
1543800 60.2883 231.041 55.8291 0.77185 0.0318826
1544000 60.2883 231.054 55.8291 0.77195 0.0277963
1544200 60.2883 231.067 55.8291 0.77205 0.0210142
1544400 60.2883 231.08 55.8291 0.77215 0.0252527
1544600 60.2883 231.093 55.8291 0.77225 -0.0120054
1544800 60.2883 231.106 55.8291 0.77235 0.0197526
1545000 60.2883 231.119 55.8291 0.77245 -0.0111304
1545200 60.2883 231.132 55.8291 0.77255 -0.0144878
1545400 60.2883 231.145 55.8291 0.77265 -0.0219478
1545600 60.2883 231.158 55.8291 0.77275 -0.0355169
1545800 60.2883 231.171 55.8291 0.77285 -0.0274028
1546000 60.2883 231.184 55.8291 0.77295 -0.0165645
1546200 60.2883 231.197 55.8291 0.77305 0.000712275
1546400 60.2883 231.21 55.8291 0.77315 -0.0151889
1546600 60.2883 231.223 55.8291 0.77325 0.00353624
1546800 60.2883 231.236 55.8291 0.77335 -0.0020457
1547000 60.2883 231.25 55.8291 0.77345 0.0174076
1547200 60.2883 231.263 55.8291 0.77355 0.0255887
1547400 60.2883 231.276 55.8291 0.77365 0.0467196
1547600 60.2883 231.289 55.8291 0.77375 0.0318746
1547800 60.2883 231.302 55.8291 0.77385 0.0420737
1548000 60.2883 231.315 55.8291 0.77395 0.0204213
1548200 60.2883 231.328 55.8291 0.77405 0.0227191
1548400 60.2883 231.341 55.8291 0.77415 0.0178776
1548600 60.2883 231.354 55.8291 0.77425 0.000980897
1548800 60.2883 231.367 55.8291 0.77435 -0.00318641
1549000 60.2883 231.38 55.8291 0.77445 -0.0257288
1549200 60.2883 231.393 55.8291 0.77455 0.00316873
1549400 60.2883 231.406 55.8291 0.77465 -0.0190954
1549600 60.2883 231.419 55.8291 0.77475 -0.0381779
1549800 60.2883 231.432 55.8291 0.77485 -0.0294653
1550000 60.2883 231.445 55.8291 0.77495 -0.035489
1550200 60.2883 231.458 55.8291 0.77505 0.00483004
1550400 60.2883 231.471 55.8291 0.77515 -0.00150018
1550600 60.2883 231.484 55.8291 0.77525 -0.00370835
1550800 60.2883 231.497 55.8291 0.77535 0.00401359
1551000 60.2883 231.51 55.8291 0.77545 0.0491897
1551200 60.2883 231.523 55.8291 0.77555 0.0370009
1551400 60.2883 231.536 55.8291 0.77565 0.0333281
1551600 60.2883 231.549 55.8291 0.77575 0.0219621
1551800 60.2883 231.562 55.8291 0.77585 0.0426863
1552000 60.2883 231.576 55.8291 0.77595 0.0200438
1552200 60.2883 231.589 55.8291 0.77605 0.0174686
1552400 60.2883 231.602 55.8291 0.77615 0.0159456
1552600 60.2883 231.615 55.8291 0.77625 -0.000483183
1552800 60.2883 231.628 55.8291 0.77635 -0.0140645
1553000 60.2883 231.641 55.8291 0.77645 -0.0193015
1553200 60.2883 231.654 55.8291 0.77655 -0.0149285
1553400 60.2883 231.667 55.8291 0.77665 -0.0502573
1553600 60.2883 231.68 55.8291 0.77675 -0.0203182
1553800 60.2883 231.693 55.8291 0.77685 -0.0299454
1554000 60.2883 231.706 55.8291 0.77695 -0.00945228
1554200 60.2883 231.719 55.8291 0.77705 -0.00460119
1554400 60.2883 231.732 55.8291 0.77715 0.00521722
1554600 60.2883 231.745 55.8291 0.77725 0.00970401
1554800 60.2883 231.758 55.8291 0.77735 0.0233603
1555000 60.2883 231.771 55.8291 0.77745 0.0233797
1555200 60.2883 231.784 55.8291 0.77755 0.0399733
1555400 60.2883 231.797 55.8291 0.77765 0.0335048
1555600 60.2883 231.81 55.8291 0.77775 0.0407853
1555800 60.2883 231.823 55.8291 0.77785 0.0446457
1556000 60.2883 231.836 55.8291 0.77795 0.0235218
1556200 60.2883 231.849 55.8291 0.77805 0.0101099
1556400 60.2883 231.862 55.8291 0.77815 -0.0120404
1556600 60.2883 231.875 55.8291 0.77825 0.00596162
1556800 60.2883 231.888 55.8291 0.77835 -0.024668
1557000 60.2883 231.902 55.8291 0.77845 -0.0210381
1557200 60.2883 231.915 55.8291 0.77855 -0.0355063
1557400 60.2883 231.928 55.8291 0.77865 -0.0296753
1557600 60.2883 231.941 55.8291 0.77875 -0.0180651
1557800 60.2883 231.954 55.8291 0.77885 -0.00889486
1558000 60.2883 231.967 55.8291 0.77895 -0.0144192
1558200 60.2883 231.98 55.8291 0.77905 -0.0186318
1558400 60.2883 231.993 55.8291 0.77915 0.0297485
1558600 60.2883 232.006 55.8291 0.77925 0.0169106
1558800 60.2883 232.019 55.8291 0.77935 0.0188045
1559000 60.2883 232.032 55.8291 0.77945 0.0250086
1559200 60.2883 232.045 55.8291 0.77955 0.0330706
1559400 60.2883 232.058 55.8291 0.77965 0.0298613
1559600 60.2883 232.071 55.8291 0.77975 0.0372768
1559800 60.2883 232.084 55.8291 0.77985 0.017129
1560000 60.2883 232.097 55.8291 0.77995 0.017448
1560200 60.2883 232.11 55.8291 0.78005 0.0185951
1560400 60.2883 232.123 55.8291 0.78015 -0.00186918
1560600 60.2883 232.136 55.8291 0.78025 -0.00699767
1560800 60.2883 232.149 55.8291 0.78035 -0.0180912
1561000 60.2883 232.162 55.8291 0.78045 -0.0222753
1561200 60.2883 232.175 55.8291 0.78055 -0.0276662
1561400 60.2883 232.188 55.8291 0.78065 -0.0331971
1561600 60.2883 232.201 55.8291 0.78075 -0.0137272
1561800 60.2883 232.214 55.8291 0.78085 0.000815974
1562000 60.2883 232.227 55.8291 0.78095 -0.00899311
1562200 60.2883 232.241 55.8291 0.78105 -0.000951374
1562400 60.2883 232.254 55.8291 0.78115 -0.00307995
1562600 60.2883 232.267 55.8291 0.78125 0.0186241
1562800 60.2883 232.28 55.8291 0.78135 0.0207857
1563000 60.2883 232.293 55.8291 0.78145 0.0381481
1563200 60.2883 232.306 55.8291 0.78155 0.0324853
1563400 60.2883 232.319 55.8291 0.78165 0.0271569
1563600 60.2883 232.332 55.8291 0.78175 0.0235707
1563800 60.2883 232.345 55.8291 0.78185 0.0344745
1564000 60.2883 232.358 55.8291 0.78195 0.0101097
1564200 60.2883 232.371 55.8291 0.78205 -0.00304685
1564400 60.2883 232.384 55.8291 0.78215 0.00912458
1564600 60.2883 232.397 55.8291 0.78225 -0.00804197
1564800 60.2883 232.41 55.8291 0.78235 -0.0119254
1565000 60.2883 232.423 55.8291 0.78245 -0.0101446
1565200 60.2883 232.436 55.8291 0.78255 -0.041267
1565400 60.2883 232.449 55.8291 0.78265 -0.0244869
1565600 60.2883 232.462 55.8291 0.78275 -0.0243662
1565800 60.2883 232.475 55.8291 0.78285 -0.0160209
1566000 60.2883 232.488 55.8291 0.78295 0.000847438
1566200 60.2883 232.501 55.8291 0.78305 0.0295896
1566400 60.2883 232.514 55.8291 0.78315 -0.0110395
1566600 60.2883 232.527 55.8291 0.78325 0.0100392
1566800 60.2883 232.54 55.8291 0.78335 0.014996
1567000 60.2883 232.553 55.8291 0.78345 0.0424297
1567200 60.2883 232.567 55.8291 0.78355 0.0322236
1567400 60.2883 232.58 55.8291 0.78365 0.0368439
1567600 60.2883 232.593 55.8291 0.78375 0.0395642
1567800 60.2883 232.606 55.8291 0.78385 0.00267786
1568000 60.2883 232.619 55.8291 0.78395 0.010782
1568200 60.2883 232.632 55.8291 0.78405 0.000257754
1568400 60.2883 232.645 55.8291 0.78415 0.0213113
1568600 60.2883 232.658 55.8291 0.78425 -0.0198634
1568800 60.2883 232.671 55.8291 0.78435 -0.000786155
1569000 60.2883 232.684 55.8291 0.78445 -0.030073
1569200 60.2883 232.697 55.8291 0.78455 -0.0261597
1569400 60.2883 232.71 55.8291 0.78465 -0.0303649
1569600 60.2883 232.723 55.8291 0.78475 -0.0200156
1569800 60.2883 232.736 55.8291 0.78485 -0.0264893
1570000 60.2883 232.749 55.8291 0.78495 -0.000356325
1570200 60.2883 232.762 55.8291 0.78505 0.0202061
1570400 60.2883 232.775 55.8291 0.78515 0.00872242
1570600 60.2883 232.788 55.8291 0.78525 0.0100825
1570800 60.2883 232.801 55.8291 0.78535 0.0207226
1571000 60.2883 232.814 55.8291 0.78545 0.0306258
1571200 60.2883 232.827 55.8291 0.78555 0.0406632
1571400 60.2883 232.84 55.8291 0.78565 0.0358454
1571600 60.2883 232.853 55.8291 0.78575 0.0291432
1571800 60.2883 232.866 55.8291 0.78585 0.017369
1572000 60.2883 232.879 55.8291 0.78595 0.0155182
1572200 60.2883 232.893 55.8291 0.78605 0.0123867
1572400 60.2883 232.906 55.8291 0.78615 -0.0176492
1572600 60.2883 232.919 55.8291 0.78625 -0.00823147
1572800 60.2883 232.932 55.8291 0.78635 -0.0205475
1573000 60.2883 232.945 55.8291 0.78645 -0.0205048
1573200 60.2883 232.958 55.8291 0.78655 -0.0303554
1573400 60.2883 232.971 55.8291 0.78665 -0.0360048
1573600 60.2883 232.984 55.8291 0.78675 -0.0217531
1573800 60.2883 232.997 55.8291 0.78685 0.00262368
1574000 60.2883 233.01 55.8291 0.78695 0.00658431
1574200 60.2883 233.023 55.8291 0.78705 -0.0026311
1574400 60.2883 233.036 55.8291 0.78715 0.00935872
1574600 60.2883 233.049 55.8291 0.78725 0.029388
1574800 60.2883 233.062 55.8291 0.78735 0.0237984
1575000 60.2883 233.075 55.8291 0.78745 0.0410836
1575200 60.2883 233.088 55.8291 0.78755 0.0331006
1575400 60.2883 233.101 55.8291 0.78765 0.0304476
1575600 60.2883 233.114 55.8291 0.78775 0.0252606
1575800 60.2883 233.127 55.8291 0.78785 0.0128645
1576000 60.2883 233.14 55.8291 0.78795 0.00331182
1576200 60.2883 233.153 55.8291 0.78805 0.00621636
1576400 60.2883 233.166 55.8291 0.78815 0.00469957
1576600 60.2883 233.179 55.8291 0.78825 -0.0321972
1576800 60.2883 233.192 55.8291 0.78835 -0.0212509
1577000 60.2883 233.205 55.8291 0.78845 -0.00975738
1577200 60.2883 233.218 55.8291 0.78855 -0.0298767
1577400 60.2883 233.232 55.8291 0.78865 -0.0323977
1577600 60.2883 233.245 55.8291 0.78875 -0.0136106
1577800 60.2883 233.258 55.8291 0.78885 0.00178411
1578000 60.2883 233.271 55.8291 0.78895 -0.0140343
1578200 60.2883 233.284 55.8291 0.78905 0.0151758
1578400 60.2883 233.297 55.8291 0.78915 0.0293362
1578600 60.2883 233.31 55.8291 0.78925 0.0168712
1578800 60.2883 233.323 55.8291 0.78935 0.0297376
1579000 60.2883 233.336 55.8291 0.78945 0.0404938
1579200 60.2883 233.349 55.8291 0.78955 0.0299371
1579400 60.2883 233.362 55.8291 0.78965 0.0155451
1579600 60.2883 233.375 55.8291 0.78975 0.0196681
1579800 60.2883 233.388 55.8291 0.78985 0.0177779
1580000 60.2883 233.401 55.8291 0.78995 0.00537906
1580200 60.2883 233.414 55.8291 0.79005 0.00257151
1580400 60.2883 233.427 55.8291 0.79015 -0.00665814
1580600 60.2883 233.44 55.8291 0.79025 -0.00814672
1580800 60.2883 233.453 55.8291 0.79035 -0.0354302
1581000 60.2883 233.466 55.8291 0.79045 -0.0216885
1581200 60.2883 233.479 55.8291 0.79055 -0.0199139
1581400 60.2883 233.492 55.8291 0.79065 -0.0263251
1581600 60.2883 233.505 55.8291 0.79075 -0.00738337
1581800 60.2883 233.518 55.8291 0.79085 -0.00717054
1582000 60.2883 233.531 55.8291 0.79095 0.000469589
1582200 60.2883 233.544 55.8291 0.79105 0.00412033
1582400 60.2883 233.558 55.8291 0.79115 0.0245785
1582600 60.2883 233.571 55.8291 0.79125 0.0265346
1582800 60.2883 233.584 55.8291 0.79135 0.0296512
1583000 60.2883 233.597 55.8291 0.79145 0.0452742
1583200 60.2883 233.61 55.8291 0.79155 0.0343595
1583400 60.2883 233.623 55.8291 0.79165 0.0164832
1583600 60.2883 233.636 55.8291 0.79175 0.0201305
1583800 60.2883 233.649 55.8291 0.79185 0.016768
1584000 60.2883 233.662 55.8291 0.79195 -0.0100399
1584200 60.2883 233.675 55.8291 0.79205 -0.00115894
1584400 60.2883 233.688 55.8291 0.79215 -0.00691668
1584600 60.2883 233.701 55.8291 0.79225 -0.0180662
1584800 60.2883 233.714 55.8291 0.79235 -0.0250924
1585000 60.2883 233.727 55.8291 0.79245 -0.0188257
1585200 60.2883 233.74 55.8291 0.79255 -0.025294
1585400 60.2883 233.753 55.8291 0.79265 -0.0290902
1585600 60.2883 233.766 55.8291 0.79275 0.000868384
1585800 60.2883 233.779 55.8291 0.79285 -0.0154862
1586000 60.2883 233.792 55.8291 0.79295 0.0106595
1586200 60.2883 233.805 55.8291 0.79305 0.0148274
1586400 60.2883 233.818 55.8291 0.79315 0.0262977
1586600 60.2883 233.831 55.8291 0.79325 0.01731
1586800 60.2883 233.844 55.8291 0.79335 0.0275551
1587000 60.2883 233.857 55.8291 0.79345 0.0437525
1587200 60.2883 233.87 55.8291 0.79355 0.0310071
1587400 60.2883 233.884 55.8291 0.79365 0.0271586
1587600 60.2883 233.897 55.8291 0.79375 0.0155183
1587800 60.2883 233.91 55.8291 0.79385 0.0113685
1588000 60.2883 233.923 55.8291 0.79395 0.0117048
1588200 60.2883 233.936 55.8291 0.79405 -0.0195083
1588400 60.2883 233.949 55.8291 0.79415 -0.0150521
1588600 60.2883 233.962 55.8291 0.79425 -0.0118221
1588800 60.2883 233.975 55.8291 0.79435 -0.0196099
1589000 60.2883 233.988 55.8291 0.79445 -0.0400609
1589200 60.2883 234.001 55.8291 0.79455 -0.00983605
1589400 60.2883 234.014 55.8291 0.79465 -0.0150783
1589600 60.2883 234.027 55.8291 0.79475 -0.0214469
1589800 60.2883 234.04 55.8291 0.79485 -0.00306597
1590000 60.2883 234.053 55.8291 0.79495 0.0157797
1590200 60.2883 234.066 55.8291 0.79505 0.0120763
1590400 60.2883 234.079 55.8291 0.79515 0.0247755
1590600 60.2883 234.092 55.8291 0.79525 0.0230601
1590800 60.2883 234.105 55.8291 0.79535 0.0428383
1591000 60.2883 234.118 55.8291 0.79545 0.0319788
1591200 60.2883 234.131 55.8291 0.79555 0.020378
1591400 60.2883 234.144 55.8291 0.79565 0.0199382
1591600 60.2883 234.157 55.8291 0.79575 0.0204165
1591800 60.2883 234.17 55.8291 0.79585 0.00580806
1592000 60.2883 234.183 55.8291 0.79595 -0.00238657
1592200 60.2883 234.196 55.8291 0.79605 -0.00386919
1592400 60.2883 234.21 55.8291 0.79615 -0.0216425
1592600 60.2883 234.223 55.8291 0.79625 -0.0289988
1592800 60.2883 234.236 55.8291 0.79635 -0.00929792
1593000 60.2883 234.249 55.8291 0.79645 -0.0282497
1593200 60.2883 234.262 55.8291 0.79655 -0.0181747
1593400 60.2883 234.275 55.8291 0.79665 -0.0133001
1593600 60.2883 234.288 55.8291 0.79675 0.00401878
1593800 60.2883 234.301 55.8291 0.79685 0.00281963
1594000 60.2883 234.314 55.8291 0.79695 -0.00430455
1594200 60.2883 234.327 55.8291 0.79705 0.0342606
1594400 60.2883 234.34 55.8291 0.79715 0.025561
1594600 60.2883 234.353 55.8291 0.79725 0.0345961
1594800 60.2883 234.366 55.8291 0.79735 0.0188942
1595000 60.2883 234.379 55.8291 0.79745 0.0222092
1595200 60.2883 234.392 55.8291 0.79755 0.0244251
1595400 60.2883 234.405 55.8291 0.79765 0.0272013
1595600 60.2883 234.418 55.8291 0.79775 0.013865
1595800 60.2883 234.431 55.8291 0.79785 -0.00432148
1596000 60.2883 234.444 55.8291 0.79795 -0.00758858
1596200 60.2883 234.457 55.8291 0.79805 -0.0170901
1596400 60.2883 234.47 55.8291 0.79815 -0.0168267
1596600 60.2883 234.483 55.8291 0.79825 -0.0194288
1596800 60.2883 234.496 55.8291 0.79835 -0.0078228
1597000 60.2883 234.509 55.8291 0.79845 -0.0207952
1597200 60.2883 234.522 55.8291 0.79855 0.00226885
1597400 60.2883 234.535 55.8291 0.79865 -0.024475
1597600 60.2883 234.549 55.8291 0.79875 -0.0141174
1597800 60.2883 234.562 55.8291 0.79885 0.00247191
1598000 60.2883 234.575 55.8291 0.79895 0.0159855
1598200 60.2883 234.588 55.8291 0.79905 0.0350087
1598400 60.2883 234.601 55.8291 0.79915 0.033869
1598600 60.2883 234.614 55.8291 0.79925 0.00111291
1598800 60.2883 234.627 55.8291 0.79935 0.0348168
1599000 60.2883 234.64 55.8291 0.79945 0.0143857
1599200 60.2883 234.653 55.8291 0.79955 0.0325097
1599400 60.2883 234.666 55.8291 0.79965 0.0220685
1599600 60.2883 234.679 55.8291 0.79975 0.00948213
1599800 60.2883 234.692 55.8291 0.79985 0.00867564
1600000 60.2883 234.705 55.8291 0.79995 -0.0148774
1600200 60.2883 234.718 55.8291 0.80005 -0.0202413
1600400 60.2883 234.731 55.8291 0.80015 -0.0138224
1600600 60.2883 234.744 55.8291 0.80025 -0.0153761
1600800 60.2883 234.757 55.8291 0.80035 -0.00855718
1601000 60.2883 234.77 55.8291 0.80045 -0.0136003
1601200 60.2883 234.783 55.8291 0.80055 -0.00807757
1601400 60.2883 234.796 55.8291 0.80065 -0.0239935
1601600 60.2883 234.809 55.8291 0.80075 -0.00823708
1601800 60.2883 234.822 55.8291 0.80085 0.0111273
1602000 60.2883 234.835 55.8291 0.80095 0.0109824
1602200 60.2883 234.848 55.8291 0.80105 0.0303079
1602400 60.2883 234.861 55.8291 0.80115 0.0155709
1602600 60.2883 234.875 55.8291 0.80125 0.0358956
1602800 60.2883 234.888 55.8291 0.80135 0.0290069
1603000 60.2883 234.901 55.8291 0.80145 0.0159449
1603200 60.2883 234.914 55.8291 0.80155 0.0220003
1603400 60.2883 234.927 55.8291 0.80165 0.0224268
1603600 60.2883 234.94 55.8291 0.80175 0.0083399
1603800 60.2883 234.953 55.8291 0.80185 -0.00599087
1604000 60.2883 234.966 55.8291 0.80195 -0.00153817
1604200 60.2883 234.979 55.8291 0.80205 -0.0116412
1604400 60.2883 234.992 55.8291 0.80215 -0.0201339
1604600 60.2883 235.005 55.8291 0.80225 -0.0243712
1604800 60.2883 235.018 55.8291 0.80235 -0.0190742
1605000 60.2883 235.031 55.8291 0.80245 -0.0143681
1605200 60.2883 235.044 55.8291 0.80255 0.000425706
1605400 60.2883 235.057 55.8291 0.80265 -0.0192098
1605600 60.2883 235.07 55.8291 0.80275 0.000735429
1605800 60.2883 235.083 55.8291 0.80285 0.0088519
1606000 60.2883 235.096 55.8291 0.80295 0.0140241
1606200 60.2883 235.109 55.8291 0.80305 0.0144224
1606400 60.2883 235.122 55.8291 0.80315 0.045922
1606600 60.2883 235.135 55.8291 0.80325 0.0219805
1606800 60.2883 235.148 55.8291 0.80335 0.0265111
1607000 60.2883 235.161 55.8291 0.80345 0.0130328
1607200 60.2883 235.174 55.8291 0.80355 0.0186996
1607400 60.2883 235.187 55.8291 0.80365 0.0182894
1607600 60.2883 235.201 55.8291 0.80375 0.0143609
1607800 60.2883 235.214 55.8291 0.80385 -0.00315285
1608000 60.2883 235.227 55.8291 0.80395 -0.011281
1608200 60.2883 235.24 55.8291 0.80405 -0.0248685
1608400 60.2883 235.253 55.8291 0.80415 -0.0276813
1608600 60.2883 235.266 55.8291 0.80425 -0.0215683
1608800 60.2883 235.279 55.8291 0.80435 -0.0281573
1609000 60.2883 235.292 55.8291 0.80445 -0.00272543
1609200 60.2883 235.305 55.8291 0.80455 0.00557401
1609400 60.2883 235.318 55.8291 0.80465 0.00782977
1609600 60.2883 235.331 55.8291 0.80475 0.00421276
1609800 60.2883 235.344 55.8291 0.80485 0.012265
1610000 60.2883 235.357 55.8291 0.80495 0.0247168
1610200 60.2883 235.37 55.8291 0.80505 0.0335051
1610400 60.2883 235.383 55.8291 0.80515 0.0212155
1610600 60.2883 235.396 55.8291 0.80525 0.0294455
1610800 60.2883 235.409 55.8291 0.80535 0.0239926
1611000 60.2883 235.422 55.8291 0.80545 0.0152617
1611200 60.2883 235.435 55.8291 0.80555 0.0108001
1611400 60.2883 235.448 55.8291 0.80565 -0.0216704
1611600 60.2883 235.461 55.8291 0.80575 0.00318753
1611800 60.2883 235.474 55.8291 0.80585 -0.0104747
1612000 60.2883 235.487 55.8291 0.80595 -0.0124049
1612200 60.2883 235.5 55.8291 0.80605 -0.0184864
1612400 60.2883 235.513 55.8291 0.80615 -0.0281413
1612600 60.2883 235.526 55.8291 0.80625 -0.00389323
1612800 60.2883 235.54 55.8291 0.80635 -0.0171774
1613000 60.2883 235.553 55.8291 0.80645 -0.00388494
1613200 60.2883 235.566 55.8291 0.80655 0.0128653
1613400 60.2883 235.579 55.8291 0.80665 0.0138203
1613600 60.2883 235.592 55.8291 0.80675 0.00561858
1613800 60.2883 235.605 55.8291 0.80685 0.0226532
1614000 60.2883 235.618 55.8291 0.80695 0.0382136
1614200 60.2883 235.631 55.8291 0.80705 0.0202425
1614400 60.2883 235.644 55.8291 0.80715 0.0221317
1614600 60.2883 235.657 55.8291 0.80725 0.0257768
1614800 60.2883 235.67 55.8291 0.80735 -0.00148451
1615000 60.2883 235.683 55.8291 0.80745 0.015889
1615200 60.2883 235.696 55.8291 0.80755 0.0131726
1615400 60.2883 235.709 55.8291 0.80765 -0.00233951
1615600 60.2883 235.722 55.8291 0.80775 -0.00962589
1615800 60.2883 235.735 55.8291 0.80785 -0.020992
1616000 60.2883 235.748 55.8291 0.80795 -0.00696882
1616200 60.2883 235.761 55.8291 0.80805 -0.0222132
1616400 60.2883 235.774 55.8291 0.80815 -0.0249065
1616600 60.2883 235.787 55.8291 0.80825 0.00671522
1616800 60.2883 235.8 55.8291 0.80835 -0.00677253
1617000 60.2883 235.813 55.8291 0.80845 -0.00593875
1617200 60.2883 235.826 55.8291 0.80855 0.00514926
1617400 60.2883 235.839 55.8291 0.80865 0.010435
1617600 60.2883 235.852 55.8291 0.80875 0.0117265
1617800 60.2883 235.866 55.8291 0.80885 0.00733249
1618000 60.2883 235.879 55.8291 0.80895 0.0536709
1618200 60.2883 235.892 55.8291 0.80905 0.0201393
1618400 60.2883 235.905 55.8291 0.80915 0.0149071
1618600 60.2883 235.918 55.8291 0.80925 0.00768368
1618800 60.2883 235.931 55.8291 0.80935 0.018832
1619000 60.2883 235.944 55.8291 0.80945 0.00684778
1619200 60.2883 235.957 55.8291 0.80955 0.0138599
1619400 60.2883 235.97 55.8291 0.80965 -0.00595124
1619600 60.2883 235.983 55.8291 0.80975 -0.0101183
1619800 60.2883 235.996 55.8291 0.80985 -0.0182719
1620000 60.2883 236.009 55.8291 0.80995 -0.0147514
1620200 60.2883 236.022 55.8291 0.81005 -0.000268444
1620400 60.2883 236.035 55.8291 0.81015 -0.0251936
1620600 60.2883 236.048 55.8291 0.81025 -0.00444958
1620800 60.2883 236.061 55.8291 0.81035 -0.0124146
1621000 60.2883 236.074 55.8291 0.81045 0.00490464
1621200 60.2883 236.087 55.8291 0.81055 0.0011946
1621400 60.2883 236.1 55.8291 0.81065 0.0320661
1621600 60.2883 236.113 55.8291 0.81075 0.00128536
1621800 60.2883 236.126 55.8291 0.81085 0.0423613
1622000 60.2883 236.139 55.8291 0.81095 0.0196094
1622200 60.2883 236.152 55.8291 0.81105 0.0150098
1622400 60.2883 236.165 55.8291 0.81115 0.0143146
1622600 60.2883 236.178 55.8291 0.81125 0.0149448
1622800 60.2883 236.192 55.8291 0.81135 0.0197256
1623000 60.2883 236.205 55.8291 0.81145 0.0023148
1623200 60.2883 236.218 55.8291 0.81155 -0.00318723
1623400 60.2883 236.231 55.8291 0.81165 -0.00827287
1623600 60.2883 236.244 55.8291 0.81175 -0.0106191
1623800 60.2883 236.257 55.8291 0.81185 -0.0164871
1624000 60.2883 236.27 55.8291 0.81195 -0.0222035
1624200 60.2883 236.283 55.8291 0.81205 0.00171221
1624400 60.2883 236.296 55.8291 0.81215 -0.00542415
1624600 60.2883 236.309 55.8291 0.81225 0.000183954
1624800 60.2883 236.322 55.8291 0.81235 -0.00970407
1625000 60.2883 236.335 55.8291 0.81245 0.00441258
1625200 60.2883 236.348 55.8291 0.81255 0.00376594
1625400 60.2883 236.361 55.8291 0.81265 0.0098988
1625600 60.2883 236.374 55.8291 0.81275 0.0181746
1625800 60.2883 236.387 55.8291 0.81285 0.0310882
1626000 60.2883 236.4 55.8291 0.81295 0.0340386
1626200 60.2883 236.413 55.8291 0.81305 0.0191769
1626400 60.2883 236.426 55.8291 0.81315 0.00742968
1626600 60.2883 236.439 55.8291 0.81325 0.014981
1626800 60.2883 236.452 55.8291 0.81335 -9.23783e-05
1627000 60.2883 236.465 55.8291 0.81345 0.00881186
1627200 60.2883 236.478 55.8291 0.81355 0.00630493
1627400 60.2883 236.491 55.8291 0.81365 -0.020521
1627600 60.2883 236.504 55.8291 0.81375 -0.00700763
1627800 60.2883 236.517 55.8291 0.81385 -0.0200167
1628000 60.2883 236.531 55.8291 0.81395 -0.0154848
1628200 60.2883 236.544 55.8291 0.81405 -0.0124026
1628400 60.2883 236.557 55.8291 0.81415 -0.0028551
1628600 60.2883 236.57 55.8291 0.81425 0.00967718
1628800 60.2883 236.583 55.8291 0.81435 0.00976563
1629000 60.2883 236.596 55.8291 0.81445 0.0208168
1629200 60.2883 236.609 55.8291 0.81455 -0.0067528
1629400 60.2883 236.622 55.8291 0.81465 0.0119584
1629600 60.2883 236.635 55.8291 0.81475 0.0163746
1629800 60.2883 236.648 55.8291 0.81485 0.024497
1630000 60.2883 236.661 55.8291 0.81495 0.0230652
1630200 60.2883 236.674 55.8291 0.81505 0.0110158
1630400 60.2883 236.687 55.8291 0.81515 0.02211
1630600 60.2883 236.7 55.8291 0.81525 0.00180911
1630800 60.2883 236.713 55.8291 0.81535 -0.00476185
1631000 60.2883 236.726 55.8291 0.81545 -0.00864959
1631200 60.2883 236.739 55.8291 0.81555 -0.0112968
1631400 60.2883 236.752 55.8291 0.81565 -0.0124171
1631600 60.2883 236.765 55.8291 0.81575 -0.00748608
1631800 60.2883 236.778 55.8291 0.81585 0.0165861
1632000 60.2883 236.791 55.8291 0.81595 -0.00280409
1632200 60.2883 236.804 55.8291 0.81605 -0.00278813
1632400 60.2883 236.817 55.8291 0.81615 -0.0127518
1632600 60.2883 236.83 55.8291 0.81625 -0.00121601
1632800 60.2883 236.843 55.8291 0.81635 0.00740671
1633000 60.2883 236.857 55.8291 0.81645 0.0258937
1633200 60.2883 236.87 55.8291 0.81655 0.0192397
1633400 60.2883 236.883 55.8291 0.81665 0.0156839
1633600 60.2883 236.896 55.8291 0.81675 0.0260193
1633800 60.2883 236.909 55.8291 0.81685 -0.002432
1634000 60.2883 236.922 55.8291 0.81695 0.00828708
1634200 60.2883 236.935 55.8291 0.81705 -0.000323101
1634400 60.2883 236.948 55.8291 0.81715 0.00452661
1634600 60.2883 236.961 55.8291 0.81725 0.0160649
1634800 60.2883 236.974 55.8291 0.81735 0.00553773
1635000 60.2883 236.987 55.8291 0.81745 -0.00273927
1635200 60.2883 237 55.8291 0.81755 -0.0269791
1635400 60.2883 237.013 55.8291 0.81765 -0.0193483
1635600 60.2883 237.026 55.8291 0.81775 -0.00241531
1635800 60.2883 237.039 55.8291 0.81785 0.017524
1636000 60.2883 237.052 55.8291 0.81795 -0.0126631
1636200 60.2883 237.065 55.8291 0.81805 0.0266074
1636400 60.2883 237.078 55.8291 0.81815 0.00635811
1636600 60.2883 237.091 55.8291 0.81825 -0.0103416
1636800 60.2883 237.104 55.8291 0.81835 -0.00167503
1637000 60.2883 237.117 55.8291 0.81845 0.0126175
1637200 60.2883 237.13 55.8291 0.81855 0.023612
1637400 60.2883 237.143 55.8291 0.81865 0.0317941
1637600 60.2883 237.156 55.8291 0.81875 0.0135435
1637800 60.2883 237.169 55.8291 0.81885 0.000752239
1638000 60.2883 237.183 55.8291 0.81895 0.00962427
1638200 60.2883 237.196 55.8291 0.81905 0.00110856
1638400 60.2883 237.209 55.8291 0.81915 -0.00324725
1638600 60.2883 237.222 55.8291 0.81925 0.00645515
1638800 60.2883 237.235 55.8291 0.81935 0.012679
1639000 60.2883 237.248 55.8291 0.81945 -0.00413947
1639200 60.2883 237.261 55.8291 0.81955 -0.00739679
1639400 60.2883 237.274 55.8291 0.81965 -0.0282775
1639600 60.2883 237.287 55.8291 0.81975 -0.0154756
1639800 60.2883 237.3 55.8291 0.81985 0.00521278
1640000 60.2883 237.313 55.8291 0.81995 -0.00036603
1640200 60.2883 237.326 55.8291 0.82005 -0.00445974
1640400 60.2883 237.339 55.8291 0.82015 0.0065212
1640600 60.2883 237.352 55.8291 0.82025 0.0123611
1640800 60.2883 237.365 55.8291 0.82035 0.0295263
1641000 60.2883 237.378 55.8291 0.82045 0.00446965
1641200 60.2883 237.391 55.8291 0.82055 0.0136218
1641400 60.2883 237.404 55.8291 0.82065 0.0283473
1641600 60.2883 237.417 55.8291 0.82075 0.0207525
1641800 60.2883 237.43 55.8291 0.82085 0.0171635
1642000 60.2883 237.443 55.8291 0.82095 0.00829218
1642200 60.2883 237.456 55.8291 0.82105 0.0122544
1642400 60.2883 237.469 55.8291 0.82115 -0.00326464
1642600 60.2883 237.482 55.8291 0.82125 -0.000804277
1642800 60.2883 237.495 55.8291 0.82135 -0.00701568
1643000 60.2883 237.509 55.8291 0.82145 -0.0199012
1643200 60.2883 237.522 55.8291 0.82155 -0.00969138
1643400 60.2883 237.535 55.8291 0.82165 -0.0143616
1643600 60.2883 237.548 55.8291 0.82175 -0.0186404
1643800 60.2883 237.561 55.8291 0.82185 0.00028462
1644000 60.2883 237.574 55.8291 0.82195 -0.00454423
1644200 60.2883 237.587 55.8291 0.82205 0.0158747
1644400 60.2883 237.6 55.8291 0.82215 0.0036406
1644600 60.2883 237.613 55.8291 0.82225 0.020247
1644800 60.2883 237.626 55.8291 0.82235 0.0144272
1645000 60.2883 237.639 55.8291 0.82245 0.00988817
1645200 60.2883 237.652 55.8291 0.82255 0.021825
1645400 60.2883 237.665 55.8291 0.82265 0.0163616
1645600 60.2883 237.678 55.8291 0.82275 0.0256857
1645800 60.2883 237.691 55.8291 0.82285 0.0232929
1646000 60.2883 237.704 55.8291 0.82295 0.0136181
1646200 60.2883 237.717 55.8291 0.82305 0.00131874
1646400 60.2883 237.73 55.8291 0.82315 -0.0108533
1646600 60.2883 237.743 55.8291 0.82325 -0.00389539
1646800 60.2883 237.756 55.8291 0.82335 -0.0233923
1647000 60.2883 237.769 55.8291 0.82345 -0.0226769
1647200 60.2883 237.782 55.8291 0.82355 0.00269084
1647400 60.2883 237.795 55.8291 0.82365 -0.00929266
1647600 60.2883 237.808 55.8291 0.82375 -0.016199
1647800 60.2883 237.821 55.8291 0.82385 0.00920937
1648000 60.2883 237.834 55.8291 0.82395 -0.00514382
1648200 60.2883 237.848 55.8291 0.82405 0.000932153
1648400 60.2883 237.861 55.8291 0.82415 0.0309432
1648600 60.2883 237.874 55.8291 0.82425 0.0283985
1648800 60.2883 237.887 55.8291 0.82435 0.032089
1649000 60.2883 237.9 55.8291 0.82445 0.0154962
1649200 60.2883 237.913 55.8291 0.82455 0.00569904
1649400 60.2883 237.926 55.8291 0.82465 0.0206978
1649600 60.2883 237.939 55.8291 0.82475 -0.00136662
1649800 60.2883 237.952 55.8291 0.82485 0.0209346
1650000 60.2883 237.965 55.8291 0.82495 0.0112938
1650200 60.2883 237.978 55.8291 0.82505 -0.00357196
1650400 60.2883 237.991 55.8291 0.82515 -0.0214081
1650600 60.2883 238.004 55.8291 0.82525 -0.0155306
1650800 60.2883 238.017 55.8291 0.82535 -0.0284058
1651000 60.2883 238.03 55.8291 0.82545 -0.0106664
1651200 60.2883 238.043 55.8291 0.82555 -0.00195234
1651400 60.2883 238.056 55.8291 0.82565 -0.00213693
1651600 60.2883 238.069 55.8291 0.82575 0.00551697
1651800 60.2883 238.082 55.8291 0.82585 -0.0119851
1652000 60.2883 238.095 55.8291 0.82595 0.0154452
1652200 60.2883 238.108 55.8291 0.82605 0.0131724
1652400 60.2883 238.121 55.8291 0.82615 0.0255608
1652600 60.2883 238.134 55.8291 0.82625 0.0143336
1652800 60.2883 238.147 55.8291 0.82635 0.0270334
1653000 60.2883 238.16 55.8291 0.82645 0.0205803
1653200 60.2883 238.174 55.8291 0.82655 0.0296246
1653400 60.2883 238.187 55.8291 0.82665 0.000681878
1653600 60.2883 238.2 55.8291 0.82675 0.000851295
1653800 60.2883 238.213 55.8291 0.82685 0.0164546
1654000 60.2883 238.226 55.8291 0.82695 -0.00494183
1654200 60.2883 238.239 55.8291 0.82705 -0.00341373
1654400 60.2883 238.252 55.8291 0.82715 -0.00838495
1654600 60.2883 238.265 55.8291 0.82725 -0.0236213
1654800 60.2883 238.278 55.8291 0.82735 -0.0148558
1655000 60.2883 238.291 55.8291 0.82745 0.00823948
1655200 60.2883 238.304 55.8291 0.82755 -0.0161677
1655400 60.2883 238.317 55.8291 0.82765 -0.0138829
1655600 60.2883 238.33 55.8291 0.82775 0.00596312
1655800 60.2883 238.343 55.8291 0.82785 0.0134111
1656000 60.2883 238.356 55.8291 0.82795 -0.00375609
1656200 60.2883 238.369 55.8291 0.82805 0.00836769
1656400 60.2883 238.382 55.8291 0.82815 0.0207766
1656600 60.2883 238.395 55.8291 0.82825 0.0352121
1656800 60.2883 238.408 55.8291 0.82835 0.00467443
1657000 60.2883 238.421 55.8291 0.82845 0.022705
1657200 60.2883 238.434 55.8291 0.82855 0.0180343
1657400 60.2883 238.447 55.8291 0.82865 0.0214761
1657600 60.2883 238.46 55.8291 0.82875 0.0168831
1657800 60.2883 238.473 55.8291 0.82885 -0.00530345
1658000 60.2883 238.486 55.8291 0.82895 0.00172823
1658200 60.2883 238.5 55.8291 0.82905 -0.00140654
1658400 60.2883 238.513 55.8291 0.82915 -0.0275226
1658600 60.2883 238.526 55.8291 0.82925 -0.00810639
1658800 60.2883 238.539 55.8291 0.82935 -0.011538
1659000 60.2883 238.552 55.8291 0.82945 -0.00446474
1659200 60.2883 238.565 55.8291 0.82955 -0.0157111
1659400 60.2883 238.578 55.8291 0.82965 -0.00958016
1659600 60.2883 238.591 55.8291 0.82975 -0.00912705
1659800 60.2883 238.604 55.8291 0.82985 0.00158404
1660000 60.2883 238.617 55.8291 0.82995 0.0149185
1660200 60.2883 238.63 55.8291 0.83005 0.0149599
1660400 60.2883 238.643 55.8291 0.83015 0.0238058
1660600 60.2883 238.656 55.8291 0.83025 0.0112242
1660800 60.2883 238.669 55.8291 0.83035 0.0138757
1661000 60.2883 238.682 55.8291 0.83045 0.0220733
1661200 60.2883 238.695 55.8291 0.83055 0.0161871
1661400 60.2883 238.708 55.8291 0.83065 0.0309172
1661600 60.2883 238.721 55.8291 0.83075 0.00617425
1661800 60.2883 238.734 55.8291 0.83085 0.019547
1662000 60.2883 238.747 55.8291 0.83095 0.0090894
1662200 60.2883 238.76 55.8291 0.83105 -0.0226352
1662400 60.2883 238.773 55.8291 0.83115 -0.00673608
1662600 60.2883 238.786 55.8291 0.83125 -0.00469093
1662800 60.2883 238.799 55.8291 0.83135 0.000164007
1663000 60.2883 238.812 55.8291 0.83145 -0.021518
1663200 60.2883 238.825 55.8291 0.83155 -0.0178872
1663400 60.2883 238.839 55.8291 0.83165 -0.00450114
1663600 60.2883 238.852 55.8291 0.83175 -0.0207534
1663800 60.2883 238.865 55.8291 0.83185 -0.00355482
1664000 60.2883 238.878 55.8291 0.83195 0.0101346
1664200 60.2883 238.891 55.8291 0.83205 0.0137614
1664400 60.2883 238.904 55.8291 0.83215 0.0154194
1664600 60.2883 238.917 55.8291 0.83225 0.0303729
1664800 60.2883 238.93 55.8291 0.83235 0.019677
1665000 60.2883 238.943 55.8291 0.83245 0.022354
1665200 60.2883 238.956 55.8291 0.83255 0.0244817
1665400 60.2883 238.969 55.8291 0.83265 0.018257
1665600 60.2883 238.982 55.8291 0.83275 0.00561927
1665800 60.2883 238.995 55.8291 0.83285 0.0168344
1666000 60.2883 239.008 55.8291 0.83295 0.00594532
1666200 60.2883 239.021 55.8291 0.83305 -0.0156103
1666400 60.2883 239.034 55.8291 0.83315 -0.0108132
1666600 60.2883 239.047 55.8291 0.83325 -0.027064
1666800 60.2883 239.06 55.8291 0.83335 -0.0126213
1667000 60.2883 239.073 55.8291 0.83345 -0.0114923
1667200 60.2883 239.086 55.8291 0.83355 -0.0169515
1667400 60.2883 239.099 55.8291 0.83365 -0.00557204
1667600 60.2883 239.112 55.8291 0.83375 -0.00988966
1667800 60.2883 239.125 55.8291 0.83385 0.00639111
1668000 60.2883 239.138 55.8291 0.83395 0.0140051
1668200 60.2883 239.151 55.8291 0.83405 0.0243686
1668400 60.2883 239.165 55.8291 0.83415 0.0180247
1668600 60.2883 239.178 55.8291 0.83425 0.0243861
1668800 60.2883 239.191 55.8291 0.83435 0.0252139
1669000 60.2883 239.204 55.8291 0.83445 0.0277717
1669200 60.2883 239.217 55.8291 0.83455 0.0138857
1669400 60.2883 239.23 55.8291 0.83465 0.0239998
1669600 60.2883 239.243 55.8291 0.83475 0.00625252
1669800 60.2883 239.256 55.8291 0.83485 0.000499467
1670000 60.2883 239.269 55.8291 0.83495 -0.0217604
1670200 60.2883 239.282 55.8291 0.83505 -0.00696497
1670400 60.2883 239.295 55.8291 0.83515 -0.00598483
1670600 60.2883 239.308 55.8291 0.83525 -0.026667
1670800 60.2883 239.321 55.8291 0.83535 -0.0219654
1671000 60.2883 239.334 55.8291 0.83545 -0.0221001
1671200 60.2883 239.347 55.8291 0.83555 -0.00167223
1671400 60.2883 239.36 55.8291 0.83565 -0.00385639
1671600 60.2883 239.373 55.8291 0.83575 0.00554174
1671800 60.2883 239.386 55.8291 0.83585 0.0158802
1672000 60.2883 239.399 55.8291 0.83595 0.0147885
1672200 60.2883 239.412 55.8291 0.83605 0.0256477
1672400 60.2883 239.425 55.8291 0.83615 0.0242893
1672600 60.2883 239.438 55.8291 0.83625 0.0135522
1672800 60.2883 239.451 55.8291 0.83635 0.0383834
1673000 60.2883 239.464 55.8291 0.83645 0.0246157
1673200 60.2883 239.477 55.8291 0.83655 0.0233756
1673400 60.2883 239.491 55.8291 0.83665 0.00234712
1673600 60.2883 239.504 55.8291 0.83675 -0.0171363
1673800 60.2883 239.517 55.8291 0.83685 -0.00667175
1674000 60.2883 239.53 55.8291 0.83695 -0.00550608
1674200 60.2883 239.543 55.8291 0.83705 -0.010119
1674400 60.2883 239.556 55.8291 0.83715 -0.0428043
1674600 60.2883 239.569 55.8291 0.83725 -0.0189683
1674800 60.2883 239.582 55.8291 0.83735 0.00143345
1675000 60.2883 239.595 55.8291 0.83745 -0.0192791
1675200 60.2883 239.608 55.8291 0.83755 0.0149037
1675400 60.2883 239.621 55.8291 0.83765 0.000432144
1675600 60.2883 239.634 55.8291 0.83775 -0.000141562
1675800 60.2883 239.647 55.8291 0.83785 0.022995
1676000 60.2883 239.66 55.8291 0.83795 0.0182537
1676200 60.2883 239.673 55.8291 0.83805 0.0200672
1676400 60.2883 239.686 55.8291 0.83815 0.0354962
1676600 60.2883 239.699 55.8291 0.83825 0.0433642
1676800 60.2883 239.712 55.8291 0.83835 0.0177127
1677000 60.2883 239.725 55.8291 0.83845 0.0107181
1677200 60.2883 239.738 55.8291 0.83855 -0.00216164
1677400 60.2883 239.751 55.8291 0.83865 -0.00714319
1677600 60.2883 239.764 55.8291 0.83875 -0.00982004
1677800 60.2883 239.777 55.8291 0.83885 0.00495625
1678000 60.2883 239.79 55.8291 0.83895 -0.0154136
1678200 60.2883 239.803 55.8291 0.83905 -0.0173274
1678400 60.2883 239.816 55.8291 0.83915 -0.0236891
1678600 60.2883 239.83 55.8291 0.83925 -0.0337671
1678800 60.2883 239.843 55.8291 0.83935 -0.0275226
1679000 60.2883 239.856 55.8291 0.83945 0.00407309
1679200 60.2883 239.869 55.8291 0.83955 0.00493817
1679400 60.2883 239.882 55.8291 0.83965 0.016763
1679600 60.2883 239.895 55.8291 0.83975 0.0182447
1679800 60.2883 239.908 55.8291 0.83985 0.00938278
1680000 60.2883 239.921 55.8291 0.83995 0.0310731
1680200 60.2883 239.934 55.8291 0.84005 0.0456861
1680400 60.2883 239.947 55.8291 0.84015 0.0273775
1680600 60.2883 239.96 55.8291 0.84025 0.0276819
1680800 60.2883 239.973 55.8291 0.84035 0.0286269
1681000 60.2883 239.986 55.8291 0.84045 0.0116697
1681200 60.2883 239.999 55.8291 0.84055 -0.00908408
1681400 60.2883 240.012 55.8291 0.84065 -0.0171238
1681600 60.2883 240.025 55.8291 0.84075 -0.0119682
1681800 60.2883 240.038 55.8291 0.84085 -0.0185551
1682000 60.2883 240.051 55.8291 0.84095 -0.0261851
1682200 60.2883 240.064 55.8291 0.84105 -0.00541843
1682400 60.2883 240.077 55.8291 0.84115 -0.0231338
1682600 60.2883 240.09 55.8291 0.84125 -0.00631841
1682800 60.2883 240.103 55.8291 0.84135 -0.0127533
1683000 60.2883 240.116 55.8291 0.84145 -0.00141415
1683200 60.2883 240.129 55.8291 0.84155 -0.00384399
1683400 60.2883 240.142 55.8291 0.84165 0.00736965
1683600 60.2883 240.156 55.8291 0.84175 0.0292368
1683800 60.2883 240.169 55.8291 0.84185 0.0370664
1684000 60.2883 240.182 55.8291 0.84195 0.0231607
1684200 60.2883 240.195 55.8291 0.84205 0.0351784
1684400 60.2883 240.208 55.8291 0.84215 0.0082066
1684600 60.2883 240.221 55.8291 0.84225 0.020071
1684800 60.2883 240.234 55.8291 0.84235 0.0223662
1685000 60.2883 240.247 55.8291 0.84245 0.0151151
1685200 60.2883 240.26 55.8291 0.84255 -0.0180447
1685400 60.2883 240.273 55.8291 0.84265 -0.0128491
1685600 60.2883 240.286 55.8291 0.84275 -0.00702158
1685800 60.2883 240.299 55.8291 0.84285 -0.0198829
1686000 60.2883 240.312 55.8291 0.84295 -0.0316635
1686200 60.2883 240.325 55.8291 0.84305 -0.0173892
1686400 60.2883 240.338 55.8291 0.84315 -0.0149911
1686600 60.2883 240.351 55.8291 0.84325 -0.00569702
1686800 60.2883 240.364 55.8291 0.84335 0.00697477
1687000 60.2883 240.377 55.8291 0.84345 0.0137209
1687200 60.2883 240.39 55.8291 0.84355 0.0108606
1687400 60.2883 240.403 55.8291 0.84365 0.012301
1687600 60.2883 240.416 55.8291 0.84375 0.00184074
1687800 60.2883 240.429 55.8291 0.84385 0.0356283
1688000 60.2883 240.442 55.8291 0.84395 0.0274998
1688200 60.2883 240.455 55.8291 0.84405 0.0393044
1688400 60.2883 240.468 55.8291 0.84415 0.0239188
1688600 60.2883 240.482 55.8291 0.84425 -0.000863767
1688800 60.2883 240.495 55.8291 0.84435 -0.00652336
1689000 60.2883 240.508 55.8291 0.84445 0.00235379
1689200 60.2883 240.521 55.8291 0.84455 -0.00793152
1689400 60.2883 240.534 55.8291 0.84465 0.0119331
1689600 60.2883 240.547 55.8291 0.84475 -0.0193122
1689800 60.2883 240.56 55.8291 0.84485 -0.0213008
1690000 60.2883 240.573 55.8291 0.84495 -0.0220272
1690200 60.2883 240.586 55.8291 0.84505 -0.0124113
1690400 60.2883 240.599 55.8291 0.84515 -0.0361348
1690600 60.2883 240.612 55.8291 0.84525 -0.00309612
1690800 60.2883 240.625 55.8291 0.84535 0.012274
1691000 60.2883 240.638 55.8291 0.84545 0.0154751
1691200 60.2883 240.651 55.8291 0.84555 0.0185319
1691400 60.2883 240.664 55.8291 0.84565 0.0176036
1691600 60.2883 240.677 55.8291 0.84575 0.0135946
1691800 60.2883 240.69 55.8291 0.84585 0.0247186
1692000 60.2883 240.703 55.8291 0.84595 0.0150698
1692200 60.2883 240.716 55.8291 0.84605 0.0212324
1692400 60.2883 240.729 55.8291 0.84615 0.0271119
1692600 60.2883 240.742 55.8291 0.84625 0.0208506
1692800 60.2883 240.755 55.8291 0.84635 -0.00847144
1693000 60.2883 240.768 55.8291 0.84645 0.0165189
1693200 60.2883 240.781 55.8291 0.84655 -0.0184761
1693400 60.2883 240.794 55.8291 0.84665 -0.00308621
1693600 60.2883 240.808 55.8291 0.84675 -0.0264475
1693800 60.2883 240.821 55.8291 0.84685 -0.00730819
1694000 60.2883 240.834 55.8291 0.84695 -0.030309
1694200 60.2883 240.847 55.8291 0.84705 0.00107206
1694400 60.2883 240.86 55.8291 0.84715 -0.0137227
1694600 60.2883 240.873 55.8291 0.84725 -0.0131825
1694800 60.2883 240.886 55.8291 0.84735 0.000566953
1695000 60.2883 240.899 55.8291 0.84745 0.0140648
1695200 60.2883 240.912 55.8291 0.84755 0.0247589
1695400 60.2883 240.925 55.8291 0.84765 0.0114553
1695600 60.2883 240.938 55.8291 0.84775 0.0241357
1695800 60.2883 240.951 55.8291 0.84785 0.0221033
1696000 60.2883 240.964 55.8291 0.84795 0.0186284
1696200 60.2883 240.977 55.8291 0.84805 0.0174365
1696400 60.2883 240.99 55.8291 0.84815 0.0209528
1696600 60.2883 241.003 55.8291 0.84825 0.0134953
1696800 60.2883 241.016 55.8291 0.84835 0.00455731
1697000 60.2883 241.029 55.8291 0.84845 0.00266296
1697200 60.2883 241.042 55.8291 0.84855 -0.0108535
1697400 60.2883 241.055 55.8291 0.84865 -0.0227286
1697600 60.2883 241.068 55.8291 0.84875 -0.00705437
1697800 60.2883 241.081 55.8291 0.84885 -0.0213271
1698000 60.2883 241.094 55.8291 0.84895 -0.0128711
1698200 60.2883 241.107 55.8291 0.84905 -0.0135593
1698400 60.2883 241.12 55.8291 0.84915 -0.0185388
1698600 60.2883 241.133 55.8291 0.84925 -0.0149115
1698800 60.2883 241.147 55.8291 0.84935 0.0096047
1699000 60.2883 241.16 55.8291 0.84945 0.00806547
1699200 60.2883 241.173 55.8291 0.84955 0.00660803
1699400 60.2883 241.186 55.8291 0.84965 0.0320256
1699600 60.2883 241.199 55.8291 0.84975 0.0209599
1699800 60.2883 241.212 55.8291 0.84985 0.0272779
1700000 60.2883 241.225 55.8291 0.84995 0.0176841
1700200 60.2883 241.238 55.8291 0.85005 0.0290158
1700400 60.2883 241.251 55.8291 0.85015 0.0210704
1700600 60.2883 241.264 55.8291 0.85025 0.0164407
1700800 60.2883 241.277 55.8291 0.85035 0.00337409
1701000 60.2883 241.29 55.8291 0.85045 -0.0174218
1701200 60.2883 241.303 55.8291 0.85055 -0.00155362
1701400 60.2883 241.316 55.8291 0.85065 -0.0151955
1701600 60.2883 241.329 55.8291 0.85075 -0.00900546
1701800 60.2883 241.342 55.8291 0.85085 -0.0182738
1702000 60.2883 241.355 55.8291 0.85095 -0.0060155
1702200 60.2883 241.368 55.8291 0.85105 -0.0221698
1702400 60.2883 241.381 55.8291 0.85115 -0.0151647
1702600 60.2883 241.394 55.8291 0.85125 -0.0188878
1702800 60.2883 241.407 55.8291 0.85135 0.00795706
1703000 60.2883 241.42 55.8291 0.85145 0.00279047
1703200 60.2883 241.433 55.8291 0.85155 0.0160945
1703400 60.2883 241.446 55.8291 0.85165 0.0255295
1703600 60.2883 241.459 55.8291 0.85175 0.0279976
1703800 60.2883 241.473 55.8291 0.85185 0.0292579
1704000 60.2883 241.486 55.8291 0.85195 0.0211491
1704200 60.2883 241.499 55.8291 0.85205 0.00935737
1704400 60.2883 241.512 55.8291 0.85215 0.0274463
1704600 60.2883 241.525 55.8291 0.85225 0.000716399
1704800 60.2883 241.538 55.8291 0.85235 -0.00156462
1705000 60.2883 241.551 55.8291 0.85245 -0.00166329
1705200 60.2883 241.564 55.8291 0.85255 -0.00205327
1705400 60.2883 241.577 55.8291 0.85265 -0.02049
1705600 60.2883 241.59 55.8291 0.85275 -0.0113178
1705800 60.2883 241.603 55.8291 0.85285 -0.0166739
1706000 60.2883 241.616 55.8291 0.85295 -0.00697291
1706200 60.2883 241.629 55.8291 0.85305 -0.0253278
1706400 60.2883 241.642 55.8291 0.85315 -0.00255648
1706600 60.2883 241.655 55.8291 0.85325 0.000538996
1706800 60.2883 241.668 55.8291 0.85335 -0.00387971
1707000 60.2883 241.681 55.8291 0.85345 0.0163848
1707200 60.2883 241.694 55.8291 0.85355 0.0101038
1707400 60.2883 241.707 55.8291 0.85365 0.0183108
1707600 60.2883 241.72 55.8291 0.85375 0.0240185
1707800 60.2883 241.733 55.8291 0.85385 0.0322162
1708000 60.2883 241.746 55.8291 0.85395 0.0197071
1708200 60.2883 241.759 55.8291 0.85405 0.0235395
1708400 60.2883 241.772 55.8291 0.85415 -0.005642
1708600 60.2883 241.785 55.8291 0.85425 0.00546806
1708800 60.2883 241.799 55.8291 0.85435 0.0102525
1709000 60.2883 241.812 55.8291 0.85445 0.00400516
1709200 60.2883 241.825 55.8291 0.85455 -0.000101196
1709400 60.2883 241.838 55.8291 0.85465 -0.017918
1709600 60.2883 241.851 55.8291 0.85475 -0.0343397
1709800 60.2883 241.864 55.8291 0.85485 -0.0104998
1710000 60.2883 241.877 55.8291 0.85495 -0.0113952
1710200 60.2883 241.89 55.8291 0.85505 -0.0140823
1710400 60.2883 241.903 55.8291 0.85515 0.00244232
1710600 60.2883 241.916 55.8291 0.85525 0.0110178
1710800 60.2883 241.929 55.8291 0.85535 -0.00553826
1711000 60.2883 241.942 55.8291 0.85545 0.00111655
1711200 60.2883 241.955 55.8291 0.85555 0.00747968
1711400 60.2883 241.968 55.8291 0.85565 0.0285573
1711600 60.2883 241.981 55.8291 0.85575 0.00542361
1711800 60.2883 241.994 55.8291 0.85585 0.0367068
1712000 60.2883 242.007 55.8291 0.85595 0.0337311
1712200 60.2883 242.02 55.8291 0.85605 0.0187379
1712400 60.2883 242.033 55.8291 0.85615 0.0170131
1712600 60.2883 242.046 55.8291 0.85625 -0.00804137
1712800 60.2883 242.059 55.8291 0.85635 0.00258066
1713000 60.2883 242.072 55.8291 0.85645 -0.00177632
1713200 60.2883 242.085 55.8291 0.85655 -0.0161177
1713400 60.2883 242.098 55.8291 0.85665 -0.0127668
1713600 60.2883 242.111 55.8291 0.85675 -0.00743908
1713800 60.2883 242.124 55.8291 0.85685 -0.0296757
1714000 60.2883 242.138 55.8291 0.85695 -0.0236748
1714200 60.2883 242.151 55.8291 0.85705 -0.0209202
1714400 60.2883 242.164 55.8291 0.85715 0.00318585
1714600 60.2883 242.177 55.8291 0.85725 0.000927623
1714800 60.2883 242.19 55.8291 0.85735 0.0105374
1715000 60.2883 242.203 55.8291 0.85745 0.0195366
1715200 60.2883 242.216 55.8291 0.85755 0.02712
1715400 60.2883 242.229 55.8291 0.85765 0.0194429
1715600 60.2883 242.242 55.8291 0.85775 0.0203021
1715800 60.2883 242.255 55.8291 0.85785 0.0171885
1716000 60.2883 242.268 55.8291 0.85795 0.0398309
1716200 60.2883 242.281 55.8291 0.85805 0.0115863
1716400 60.2883 242.294 55.8291 0.85815 0.0064314
1716600 60.2883 242.307 55.8291 0.85825 0.0109825
1716800 60.2883 242.32 55.8291 0.85835 -0.0188001
1717000 60.2883 242.333 55.8291 0.85845 -0.0124771
1717200 60.2883 242.346 55.8291 0.85855 -0.0220398
1717400 60.2883 242.359 55.8291 0.85865 -0.0142264
1717600 60.2883 242.372 55.8291 0.85875 -0.0148572
1717800 60.2883 242.385 55.8291 0.85885 -0.0191613
1718000 60.2883 242.398 55.8291 0.85895 -0.0167869
1718200 60.2883 242.411 55.8291 0.85905 0.0106034
1718400 60.2883 242.424 55.8291 0.85915 -0.00453316
1718600 60.2883 242.437 55.8291 0.85925 0.0160354
1718800 60.2883 242.45 55.8291 0.85935 0.0140662
1719000 60.2883 242.464 55.8291 0.85945 0.0241495
1719200 60.2883 242.477 55.8291 0.85955 0.0118114
1719400 60.2883 242.49 55.8291 0.85965 0.00592495
1719600 60.2883 242.503 55.8291 0.85975 0.0292639
1719800 60.2883 242.516 55.8291 0.85985 0.031201
1720000 60.2883 242.529 55.8291 0.85995 0.00270997
1720200 60.2883 242.542 55.8291 0.86005 0.0129871
1720400 60.2883 242.555 55.8291 0.86015 0.00092396
1720600 60.2883 242.568 55.8291 0.86025 -0.0149805
1720800 60.2883 242.581 55.8291 0.86035 -0.0138592
1721000 60.2883 242.594 55.8291 0.86045 -0.00117062
1721200 60.2883 242.607 55.8291 0.86055 -0.00905228
1721400 60.2883 242.62 55.8291 0.86065 -0.00117597
1721600 60.2883 242.633 55.8291 0.86075 -0.0266183
1721800 60.2883 242.646 55.8291 0.86085 0.00257156
1722000 60.2883 242.659 55.8291 0.86095 -0.0101978
1722200 60.2883 242.672 55.8291 0.86105 0.00406834
1722400 60.2883 242.685 55.8291 0.86115 -0.000925202
1722600 60.2883 242.698 55.8291 0.86125 0.0216853
1722800 60.2883 242.711 55.8291 0.86135 0.0150771
1723000 60.2883 242.724 55.8291 0.86145 0.0114638
1723200 60.2883 242.737 55.8291 0.86155 0.0209033
1723400 60.2883 242.75 55.8291 0.86165 0.00694735
1723600 60.2883 242.763 55.8291 0.86175 0.00742766
1723800 60.2883 242.776 55.8291 0.86185 0.0203999
1724000 60.2883 242.79 55.8291 0.86195 0.000997107
1724200 60.2883 242.803 55.8291 0.86205 0.0133318
1724400 60.2883 242.816 55.8291 0.86215 -0.00665241
1724600 60.2883 242.829 55.8291 0.86225 -0.00694265
1724800 60.2883 242.842 55.8291 0.86235 -0.00604908
1725000 60.2883 242.855 55.8291 0.86245 -0.000568567
1725200 60.2883 242.868 55.8291 0.86255 -0.00717686
1725400 60.2883 242.881 55.8291 0.86265 -0.0133065
1725600 60.2883 242.894 55.8291 0.86275 -0.0154854
1725800 60.2883 242.907 55.8291 0.86285 -0.00234351
1726000 60.2883 242.92 55.8291 0.86295 0.00553687
1726200 60.2883 242.933 55.8291 0.86305 -0.00922117
1726400 60.2883 242.946 55.8291 0.86315 0.0123985
1726600 60.2883 242.959 55.8291 0.86325 -0.00182492
1726800 60.2883 242.972 55.8291 0.86335 0.0100027
1727000 60.2883 242.985 55.8291 0.86345 0.0216842
1727200 60.2883 242.998 55.8291 0.86355 0.0189531
1727400 60.2883 243.011 55.8291 0.86365 0.040723
1727600 60.2883 243.024 55.8291 0.86375 0.00726214
1727800 60.2883 243.037 55.8291 0.86385 0.0110099
1728000 60.2883 243.05 55.8291 0.86395 0.0137116
1728200 60.2883 243.063 55.8291 0.86405 -0.00684774
1728400 60.2883 243.076 55.8291 0.86415 -0.000119401
1728600 60.2883 243.089 55.8291 0.86425 -0.00158136
1728800 60.2883 243.102 55.8291 0.86435 0.0069824
1729000 60.2883 243.115 55.8291 0.86445 -0.016377
1729200 60.2883 243.129 55.8291 0.86455 -0.0387876
1729400 60.2883 243.142 55.8291 0.86465 -0.0143511
1729600 60.2883 243.155 55.8291 0.86475 -0.0203265
1729800 60.2883 243.168 55.8291 0.86485 7.46123e-05
1730000 60.2883 243.181 55.8291 0.86495 0.000539007
1730200 60.2883 243.194 55.8291 0.86505 0.00194049
1730400 60.2883 243.207 55.8291 0.86515 0.0176985
1730600 60.2883 243.22 55.8291 0.86525 0.0127511
1730800 60.2883 243.233 55.8291 0.86535 0.0226307
1731000 60.2883 243.246 55.8291 0.86545 0.0225375
1731200 60.2883 243.259 55.8291 0.86555 0.0225416
1731400 60.2883 243.272 55.8291 0.86565 0.0228843
1731600 60.2883 243.285 55.8291 0.86575 0.00977574
1731800 60.2883 243.298 55.8291 0.86585 0.0224103
1732000 60.2883 243.311 55.8291 0.86595 0.0123903
1732200 60.2883 243.324 55.8291 0.86605 -0.00818241
1732400 60.2883 243.337 55.8291 0.86615 -0.00751115
1732600 60.2883 243.35 55.8291 0.86625 -0.0238385
1732800 60.2883 243.363 55.8291 0.86635 -0.0098659
1733000 60.2883 243.376 55.8291 0.86645 -0.0135011
1733200 60.2883 243.389 55.8291 0.86655 -0.0073059
1733400 60.2883 243.402 55.8291 0.86665 -0.0112771
1733600 60.2883 243.415 55.8291 0.86675 -0.0217353
1733800 60.2883 243.428 55.8291 0.86685 0.00319901
1734000 60.2883 243.441 55.8291 0.86695 0.0064604
1734200 60.2883 243.455 55.8291 0.86705 0.0034512
1734400 60.2883 243.468 55.8291 0.86715 0.0173185
1734600 60.2883 243.481 55.8291 0.86725 0.0208866
1734800 60.2883 243.494 55.8291 0.86735 0.0318502
1735000 60.2883 243.507 55.8291 0.86745 0.00597736
1735200 60.2883 243.52 55.8291 0.86755 0.0147567
1735400 60.2883 243.533 55.8291 0.86765 0.00600904
1735600 60.2883 243.546 55.8291 0.86775 0.0245033
1735800 60.2883 243.559 55.8291 0.86785 -0.00191691
1736000 60.2883 243.572 55.8291 0.86795 0.00855509
1736200 60.2883 243.585 55.8291 0.86805 0.0132016
1736400 60.2883 243.598 55.8291 0.86815 -0.0164676
1736600 60.2883 243.611 55.8291 0.86825 -0.0108888
1736800 60.2883 243.624 55.8291 0.86835 -0.0187736
1737000 60.2883 243.637 55.8291 0.86845 0.00262223
1737200 60.2883 243.65 55.8291 0.86855 -0.02646
1737400 60.2883 243.663 55.8291 0.86865 -0.0131831
1737600 60.2883 243.676 55.8291 0.86875 0.00397687
1737800 60.2883 243.689 55.8291 0.86885 -0.000858317
1738000 60.2883 243.702 55.8291 0.86895 0.00322634
1738200 60.2883 243.715 55.8291 0.86905 0.00380797
1738400 60.2883 243.728 55.8291 0.86915 0.0213434
1738600 60.2883 243.741 55.8291 0.86925 0.0145472
1738800 60.2883 243.754 55.8291 0.86935 0.0159368
1739000 60.2883 243.767 55.8291 0.86945 0.0155847
1739200 60.2883 243.781 55.8291 0.86955 0.011989
1739400 60.2883 243.794 55.8291 0.86965 0.0109705
1739600 60.2883 243.807 55.8291 0.86975 0.00596943
1739800 60.2883 243.82 55.8291 0.86985 0.0225825
1740000 60.2883 243.833 55.8291 0.86995 -0.00484724
1740200 60.2883 243.846 55.8291 0.87005 -0.00365216
1740400 60.2883 243.859 55.8291 0.87015 0.002733
1740600 60.2883 243.872 55.8291 0.87025 -0.0120296
1740800 60.2883 243.885 55.8291 0.87035 -0.0125963
1741000 60.2883 243.898 55.8291 0.87045 -0.00558022
1741200 60.2883 243.911 55.8291 0.87055 -0.000265813
1741400 60.2883 243.924 55.8291 0.87065 -0.0173645
1741600 60.2883 243.937 55.8291 0.87075 -0.00455614
1741800 60.2883 243.95 55.8291 0.87085 0.0070479
1742000 60.2883 243.963 55.8291 0.87095 -0.00595283
1742200 60.2883 243.976 55.8291 0.87105 0.0165814
1742400 60.2883 243.989 55.8291 0.87115 -0.00213485
1742600 60.2883 244.002 55.8291 0.87125 0.0204778
1742800 60.2883 244.015 55.8291 0.87135 0.0140008
1743000 60.2883 244.028 55.8291 0.87145 0.0111578
1743200 60.2883 244.041 55.8291 0.87155 0.0321917
1743400 60.2883 244.054 55.8291 0.87165 0.00292166
1743600 60.2883 244.067 55.8291 0.87175 0.0144916
1743800 60.2883 244.08 55.8291 0.87185 0.0133838
1744000 60.2883 244.093 55.8291 0.87195 0.00528917
1744200 60.2883 244.107 55.8291 0.87205 -0.00590465
1744400 60.2883 244.12 55.8291 0.87215 -0.00708632
1744600 60.2883 244.133 55.8291 0.87225 -0.00310627
1744800 60.2883 244.146 55.8291 0.87235 -0.0186123
1745000 60.2883 244.159 55.8291 0.87245 -0.0160333
1745200 60.2883 244.172 55.8291 0.87255 -0.0136569
1745400 60.2883 244.185 55.8291 0.87265 -0.0113486
1745600 60.2883 244.198 55.8291 0.87275 0.0118832
1745800 60.2883 244.211 55.8291 0.87285 -0.0122659
1746000 60.2883 244.224 55.8291 0.87295 0.00456431
1746200 60.2883 244.237 55.8291 0.87305 0.0195851
1746400 60.2883 244.25 55.8291 0.87315 0.0111214
1746600 60.2883 244.263 55.8291 0.87325 0.00903644
1746800 60.2883 244.276 55.8291 0.87335 0.0375774
1747000 60.2883 244.289 55.8291 0.87345 0.0233715
1747200 60.2883 244.302 55.8291 0.87355 0.00617531
1747400 60.2883 244.315 55.8291 0.87365 0.010048
1747600 60.2883 244.328 55.8291 0.87375 0.00504476
1747800 60.2883 244.341 55.8291 0.87385 -0.00198205
1748000 60.2883 244.354 55.8291 0.87395 0.00533174
1748200 60.2883 244.367 55.8291 0.87405 -0.0126871
1748400 60.2883 244.38 55.8291 0.87415 -0.0059838
1748600 60.2883 244.393 55.8291 0.87425 -0.0026996
1748800 60.2883 244.406 55.8291 0.87435 -0.0177518
1749000 60.2883 244.419 55.8291 0.87445 -0.00320442
1749200 60.2883 244.432 55.8291 0.87455 -0.0136404
1749400 60.2883 244.446 55.8291 0.87465 0.00580172
1749600 60.2883 244.459 55.8291 0.87475 -0.0119203
1749800 60.2883 244.472 55.8291 0.87485 0.0186917
1750000 60.2883 244.485 55.8291 0.87495 -0.00890729
1750200 60.2883 244.498 55.8291 0.87505 0.0124721
1750400 60.2883 244.511 55.8291 0.87515 0.0163067
1750600 60.2883 244.524 55.8291 0.87525 0.0164146
1750800 60.2883 244.537 55.8291 0.87535 0.0146562
1751000 60.2883 244.55 55.8291 0.87545 0.0207414
1751200 60.2883 244.563 55.8291 0.87555 0.0106147
1751400 60.2883 244.576 55.8291 0.87565 0.0118561
1751600 60.2883 244.589 55.8291 0.87575 0.0126664
1751800 60.2883 244.602 55.8291 0.87585 -0.00700552
1752000 60.2883 244.615 55.8291 0.87595 0.00221257
1752200 60.2883 244.628 55.8291 0.87605 -0.00190482
1752400 60.2883 244.641 55.8291 0.87615 -0.0206371
1752600 60.2883 244.654 55.8291 0.87625 -0.00810259
1752800 60.2883 244.667 55.8291 0.87635 -0.00564132
1753000 60.2883 244.68 55.8291 0.87645 -0.0241659
1753200 60.2883 244.693 55.8291 0.87655 0.0103511
1753400 60.2883 244.706 55.8291 0.87665 -0.0118499
1753600 60.2883 244.719 55.8291 0.87675 0.0138624
1753800 60.2883 244.732 55.8291 0.87685 0.00054697
1754000 60.2883 244.745 55.8291 0.87695 0.0145827
1754200 60.2883 244.758 55.8291 0.87705 0.0140151
1754400 60.2883 244.772 55.8291 0.87715 0.0204948
1754600 60.2883 244.785 55.8291 0.87725 0.0143993
1754800 60.2883 244.798 55.8291 0.87735 0.0158302
1755000 60.2883 244.811 55.8291 0.87745 0.0070028
1755200 60.2883 244.824 55.8291 0.87755 0.0164152
1755400 60.2883 244.837 55.8291 0.87765 0.0210141
1755600 60.2883 244.85 55.8291 0.87775 0.00251288
1755800 60.2883 244.863 55.8291 0.87785 -0.0127205
1756000 60.2883 244.876 55.8291 0.87795 -0.0277411
1756200 60.2883 244.889 55.8291 0.87805 -0.00772893
1756400 60.2883 244.902 55.8291 0.87815 0.00110068
1756600 60.2883 244.915 55.8291 0.87825 -0.00157752
1756800 60.2883 244.928 55.8291 0.87835 -0.0047486
1757000 60.2883 244.941 55.8291 0.87845 -0.00397244
1757200 60.2883 244.954 55.8291 0.87855 -0.0126552
1757400 60.2883 244.967 55.8291 0.87865 -0.0146011
1757600 60.2883 244.98 55.8291 0.87875 -0.00149397
1757800 60.2883 244.993 55.8291 0.87885 0.02304
1758000 60.2883 245.006 55.8291 0.87895 0.0291934
1758200 60.2883 245.019 55.8291 0.87905 -0.00179708
1758400 60.2883 245.032 55.8291 0.87915 0.0143889
1758600 60.2883 245.045 55.8291 0.87925 0.00708363
1758800 60.2883 245.058 55.8291 0.87935 0.0062304
1759000 60.2883 245.071 55.8291 0.87945 0.0256988
1759200 60.2883 245.084 55.8291 0.87955 0.0230429
1759400 60.2883 245.098 55.8291 0.87965 0.0244316
1759600 60.2883 245.111 55.8291 0.87975 -0.00740541
1759800 60.2883 245.124 55.8291 0.87985 -0.00912091
1760000 60.2883 245.137 55.8291 0.87995 -0.0171118
1760200 60.2883 245.15 55.8291 0.88005 -0.00540847
1760400 60.2883 245.163 55.8291 0.88015 -0.00273735
1760600 60.2883 245.176 55.8291 0.88025 -0.011811
1760800 60.2883 245.189 55.8291 0.88035 0.00478213
1761000 60.2883 245.202 55.8291 0.88045 -0.0125327
1761200 60.2883 245.215 55.8291 0.88055 -0.013732
1761400 60.2883 245.228 55.8291 0.88065 -0.00416192
1761600 60.2883 245.241 55.8291 0.88075 0.00380631
1761800 60.2883 245.254 55.8291 0.88085 0.0172342
1762000 60.2883 245.267 55.8291 0.88095 0.0140923
1762200 60.2883 245.28 55.8291 0.88105 0.0165619
1762400 60.2883 245.293 55.8291 0.88115 0.0134762
1762600 60.2883 245.306 55.8291 0.88125 0.00717301
1762800 60.2883 245.319 55.8291 0.88135 0.0183801
1763000 60.2883 245.332 55.8291 0.88145 0.00461352
1763200 60.2883 245.345 55.8291 0.88155 0.0276695
1763400 60.2883 245.358 55.8291 0.88165 0.00341394
1763600 60.2883 245.371 55.8291 0.88175 0.000677182
1763800 60.2883 245.384 55.8291 0.88185 -0.00106703
1764000 60.2883 245.397 55.8291 0.88195 -0.0178839
1764200 60.2883 245.41 55.8291 0.88205 -0.00509513
1764400 60.2883 245.423 55.8291 0.88215 -0.0179642
1764600 60.2883 245.437 55.8291 0.88225 -0.0140023
1764800 60.2883 245.45 55.8291 0.88235 0.00252199
1765000 60.2883 245.463 55.8291 0.88245 4.42136e-05
1765200 60.2883 245.476 55.8291 0.88255 -0.00648075
1765400 60.2883 245.489 55.8291 0.88265 -0.0142934
1765600 60.2883 245.502 55.8291 0.88275 0.0125451
1765800 60.2883 245.515 55.8291 0.88285 0.0139042
1766000 60.2883 245.528 55.8291 0.88295 0.0259485
1766200 60.2883 245.541 55.8291 0.88305 0.0186578
1766400 60.2883 245.554 55.8291 0.88315 0.0214117
1766600 60.2883 245.567 55.8291 0.88325 0.00903099
1766800 60.2883 245.58 55.8291 0.88335 0.0237013
1767000 60.2883 245.593 55.8291 0.88345 -0.00289437
1767200 60.2883 245.606 55.8291 0.88355 0.00619534
1767400 60.2883 245.619 55.8291 0.88365 0.00444598
1767600 60.2883 245.632 55.8291 0.88375 -0.000606268
1767800 60.2883 245.645 55.8291 0.88385 -0.00292275
1768000 60.2883 245.658 55.8291 0.88395 -0.0139389
1768200 60.2883 245.671 55.8291 0.88405 -0.00459339
1768400 60.2883 245.684 55.8291 0.88415 -0.0203605
1768600 60.2883 245.697 55.8291 0.88425 -0.0111706
1768800 60.2883 245.71 55.8291 0.88435 -0.00372374
1769000 60.2883 245.723 55.8291 0.88445 -0.000849136
1769200 60.2883 245.736 55.8291 0.88455 -0.00686881
1769400 60.2883 245.749 55.8291 0.88465 0.0181543
1769600 60.2883 245.763 55.8291 0.88475 -0.0032771
1769800 60.2883 245.776 55.8291 0.88485 0.0196623
1770000 60.2883 245.789 55.8291 0.88495 0.0146054
1770200 60.2883 245.802 55.8291 0.88505 0.0237613
1770400 60.2883 245.815 55.8291 0.88515 0.0136421
1770600 60.2883 245.828 55.8291 0.88525 0.0190282
1770800 60.2883 245.841 55.8291 0.88535 0.0149944
1771000 60.2883 245.854 55.8291 0.88545 0.00552617
1771200 60.2883 245.867 55.8291 0.88555 -0.00357199
1771400 60.2883 245.88 55.8291 0.88565 0.00141566
1771600 60.2883 245.893 55.8291 0.88575 -0.00139431
1771800 60.2883 245.906 55.8291 0.88585 -0.00577273
1772000 60.2883 245.919 55.8291 0.88595 -0.00975134
1772200 60.2883 245.932 55.8291 0.88605 -0.0121034
1772400 60.2883 245.945 55.8291 0.88615 -0.0202765
1772600 60.2883 245.958 55.8291 0.88625 -0.00988384
1772800 60.2883 245.971 55.8291 0.88635 0.00503078
1773000 60.2883 245.984 55.8291 0.88645 0.00303053
1773200 60.2883 245.997 55.8291 0.88655 -0.000455197
1773400 60.2883 246.01 55.8291 0.88665 0.0110141
1773600 60.2883 246.023 55.8291 0.88675 0.0127647
1773800 60.2883 246.036 55.8291 0.88685 0.000962715
1774000 60.2883 246.049 55.8291 0.88695 0.0117463
1774200 60.2883 246.062 55.8291 0.88705 0.0242239
1774400 60.2883 246.075 55.8291 0.88715 0.0307772
1774600 60.2883 246.089 55.8291 0.88725 0.014375
1774800 60.2883 246.102 55.8291 0.88735 0.00308864
1775000 60.2883 246.115 55.8291 0.88745 0.0133038
1775200 60.2883 246.128 55.8291 0.88755 0.000999746
1775400 60.2883 246.141 55.8291 0.88765 -0.0154436
1775600 60.2883 246.154 55.8291 0.88775 0.00893328
1775800 60.2883 246.167 55.8291 0.88785 -0.00173549
1776000 60.2883 246.18 55.8291 0.88795 -0.0123253
1776200 60.2883 246.193 55.8291 0.88805 -0.00824295
1776400 60.2883 246.206 55.8291 0.88815 -0.0297894
1776600 60.2883 246.219 55.8291 0.88825 -0.0110606
1776800 60.2883 246.232 55.8291 0.88835 -0.0167063
1777000 60.2883 246.245 55.8291 0.88845 0.0194593
1777200 60.2883 246.258 55.8291 0.88855 0.0119999
1777400 60.2883 246.271 55.8291 0.88865 0.0197634
1777600 60.2883 246.284 55.8291 0.88875 -0.0035115
1777800 60.2883 246.297 55.8291 0.88885 0.0176188
1778000 60.2883 246.31 55.8291 0.88895 0.00917287
1778200 60.2883 246.323 55.8291 0.88905 0.0170436
1778400 60.2883 246.336 55.8291 0.88915 0.0342871
1778600 60.2883 246.349 55.8291 0.88925 0.00493661
1778800 60.2883 246.362 55.8291 0.88935 0.0228153
1779000 60.2883 246.375 55.8291 0.88945 -0.0115186
1779200 60.2883 246.388 55.8291 0.88955 -0.00743137
1779400 60.2883 246.401 55.8291 0.88965 0.000994903
1779600 60.2883 246.415 55.8291 0.88975 -0.0197162
1779800 60.2883 246.428 55.8291 0.88985 -0.00712342
1780000 60.2883 246.441 55.8291 0.88995 0.0006563
1780200 60.2883 246.454 55.8291 0.89005 -0.0100208
1780400 60.2883 246.467 55.8291 0.89015 -0.0128683
1780600 60.2883 246.48 55.8291 0.89025 -0.00403799
1780800 60.2883 246.493 55.8291 0.89035 -0.0135847
1781000 60.2883 246.506 55.8291 0.89045 0.021543
1781200 60.2883 246.519 55.8291 0.89055 0.00968237
1781400 60.2883 246.532 55.8291 0.89065 0.0122242
1781600 60.2883 246.545 55.8291 0.89075 0.0147592
1781800 60.2883 246.558 55.8291 0.89085 0.0199459
1782000 60.2883 246.571 55.8291 0.89095 0.0184883
1782200 60.2883 246.584 55.8291 0.89105 0.00803955
1782400 60.2883 246.597 55.8291 0.89115 0.0237468
1782600 60.2883 246.61 55.8291 0.89125 0.00728678
1782800 60.2883 246.623 55.8291 0.89135 0.00207834
1783000 60.2883 246.636 55.8291 0.89145 0.00583589
1783200 60.2883 246.649 55.8291 0.89155 -0.0179857
1783400 60.2883 246.662 55.8291 0.89165 -0.0085416
1783600 60.2883 246.675 55.8291 0.89175 -0.00183715
1783800 60.2883 246.688 55.8291 0.89185 -0.0147319
1784000 60.2883 246.701 55.8291 0.89195 -0.0185139
1784200 60.2883 246.714 55.8291 0.89205 -0.00978301
1784400 60.2883 246.727 55.8291 0.89215 -0.0064704
1784600 60.2883 246.74 55.8291 0.89225 0.00902638
1784800 60.2883 246.754 55.8291 0.89235 -0.0073261
1785000 60.2883 246.767 55.8291 0.89245 0.0117421
1785200 60.2883 246.78 55.8291 0.89255 0.00539845
1785400 60.2883 246.793 55.8291 0.89265 0.0151163
1785600 60.2883 246.806 55.8291 0.89275 0.0254494
1785800 60.2883 246.819 55.8291 0.89285 0.00911515
1786000 60.2883 246.832 55.8291 0.89295 0.034879
1786200 60.2883 246.845 55.8291 0.89305 -0.000261577
1786400 60.2883 246.858 55.8291 0.89315 0.0161365
1786600 60.2883 246.871 55.8291 0.89325 0.020502
1786800 60.2883 246.884 55.8291 0.89335 -0.00459932
1787000 60.2883 246.897 55.8291 0.89345 -0.00459305
1787200 60.2883 246.91 55.8291 0.89355 0.00198148
1787400 60.2883 246.923 55.8291 0.89365 -0.00708651
1787600 60.2883 246.936 55.8291 0.89375 -0.0105691
1787800 60.2883 246.949 55.8291 0.89385 -0.0187925
1788000 60.2883 246.962 55.8291 0.89395 -0.00493346
1788200 60.2883 246.975 55.8291 0.89405 -0.0287723
1788400 60.2883 246.988 55.8291 0.89415 0.00488934
1788600 60.2883 247.001 55.8291 0.89425 -0.015129
1788800 60.2883 247.014 55.8291 0.89435 0.00722773
1789000 60.2883 247.027 55.8291 0.89445 0.0105368
1789200 60.2883 247.04 55.8291 0.89455 0.0328316
1789400 60.2883 247.053 55.8291 0.89465 0.0031317
1789600 60.2883 247.066 55.8291 0.89475 0.0126038
1789800 60.2883 247.08 55.8291 0.89485 0.0117144
1790000 60.2883 247.093 55.8291 0.89495 0.0224791
1790200 60.2883 247.106 55.8291 0.89505 0.0232529
1790400 60.2883 247.119 55.8291 0.89515 0.0224714
1790600 60.2883 247.132 55.8291 0.89525 0.0121477
1790800 60.2883 247.145 55.8291 0.89535 -0.00255882
1791000 60.2883 247.158 55.8291 0.89545 -0.00902814
1791200 60.2883 247.171 55.8291 0.89555 -0.0194124
1791400 60.2883 247.184 55.8291 0.89565 -0.00225252
1791600 60.2883 247.197 55.8291 0.89575 -0.0116893
1791800 60.2883 247.21 55.8291 0.89585 -0.0135382
1792000 60.2883 247.223 55.8291 0.89595 -0.00622352
1792200 60.2883 247.236 55.8291 0.89605 -0.0141613
1792400 60.2883 247.249 55.8291 0.89615 0.00816429
1792600 60.2883 247.262 55.8291 0.89625 -0.0379431
1792800 60.2883 247.275 55.8291 0.89635 0.0179403
1793000 60.2883 247.288 55.8291 0.89645 0.00556231
1793200 60.2883 247.301 55.8291 0.89655 0.0301487
1793400 60.2883 247.314 55.8291 0.89665 0.016433
1793600 60.2883 247.327 55.8291 0.89675 0.0216971
1793800 60.2883 247.34 55.8291 0.89685 0.0202931
1794000 60.2883 247.353 55.8291 0.89695 0.0155578
1794200 60.2883 247.366 55.8291 0.89705 0.00918239
1794400 60.2883 247.379 55.8291 0.89715 0.0138226
1794600 60.2883 247.392 55.8291 0.89725 0.00691786
1794800 60.2883 247.406 55.8291 0.89735 0.00406157
1795000 60.2883 247.419 55.8291 0.89745 -0.00820848
1795200 60.2883 247.432 55.8291 0.89755 -0.0103999
1795400 60.2883 247.445 55.8291 0.89765 -0.00466078
1795600 60.2883 247.458 55.8291 0.89775 -0.019353
1795800 60.2883 247.471 55.8291 0.89785 -0.00757278
1796000 60.2883 247.484 55.8291 0.89795 -0.0149856
1796200 60.2883 247.497 55.8291 0.89805 -0.0100392
1796400 60.2883 247.51 55.8291 0.89815 -0.0175633
1796600 60.2883 247.523 55.8291 0.89825 0.0122893
1796800 60.2883 247.536 55.8291 0.89835 -0.00825186
1797000 60.2883 247.549 55.8291 0.89845 0.0191311
1797200 60.2883 247.562 55.8291 0.89855 0.0203815
1797400 60.2883 247.575 55.8291 0.89865 0.0256864
1797600 60.2883 247.588 55.8291 0.89875 0.027135
1797800 60.2883 247.601 55.8291 0.89885 0.0224181
1798000 60.2883 247.614 55.8291 0.89895 0.0173155
1798200 60.2883 247.627 55.8291 0.89905 0.022127
1798400 60.2883 247.64 55.8291 0.89915 -0.00276942
1798600 60.2883 247.653 55.8291 0.89925 -0.00270866
1798800 60.2883 247.666 55.8291 0.89935 0.00930792
1799000 60.2883 247.679 55.8291 0.89945 -0.0202131
1799200 60.2883 247.692 55.8291 0.89955 -0.00519889
1799400 60.2883 247.705 55.8291 0.89965 -0.0265898
1799600 60.2883 247.718 55.8291 0.89975 -0.0327985
1799800 60.2883 247.731 55.8291 0.89985 -0.0104014
1800000 60.2883 247.745 55.8291 0.89995 0.0118839
1800200 60.2883 247.758 55.8291 0.90005 -0.00760638
1800400 60.2883 247.771 55.8291 0.90015 0.0042046
1800600 60.2883 247.784 55.8291 0.90025 -0.000216731
1800800 60.2883 247.797 55.8291 0.90035 0.00294116
1801000 60.2883 247.81 55.8291 0.90045 0.0187026
1801200 60.2883 247.823 55.8291 0.90055 0.0309296
1801400 60.2883 247.836 55.8291 0.90065 0.0436327
1801600 60.2883 247.849 55.8291 0.90075 0.0145373
1801800 60.2883 247.862 55.8291 0.90085 0.0156909
1802000 60.2883 247.875 55.8291 0.90095 0.00935659
1802200 60.2883 247.888 55.8291 0.90105 -0.00782259
1802400 60.2883 247.901 55.8291 0.90115 0.00527593
1802600 60.2883 247.914 55.8291 0.90125 0.00144888
1802800 60.2883 247.927 55.8291 0.90135 -0.00764514
1803000 60.2883 247.94 55.8291 0.90145 -0.00463953
1803200 60.2883 247.953 55.8291 0.90155 -0.0173768
1803400 60.2883 247.966 55.8291 0.90165 -0.0232844
1803600 60.2883 247.979 55.8291 0.90175 -0.0291308
1803800 60.2883 247.992 55.8291 0.90185 -0.0059671
1804000 60.2883 248.005 55.8291 0.90195 0.00344037
1804200 60.2883 248.018 55.8291 0.90205 0.0078559
1804400 60.2883 248.031 55.8291 0.90215 -0.000726851
1804600 60.2883 248.044 55.8291 0.90225 0.00295534
1804800 60.2883 248.057 55.8291 0.90235 0.0229179
1805000 60.2883 248.071 55.8291 0.90245 0.00939958
1805200 60.2883 248.084 55.8291 0.90255 0.028326
1805400 60.2883 248.097 55.8291 0.90265 0.0105077
1805600 60.2883 248.11 55.8291 0.90275 0.0301446
1805800 60.2883 248.123 55.8291 0.90285 0.0196659
1806000 60.2883 248.136 55.8291 0.90295 0.00853129
1806200 60.2883 248.149 55.8291 0.90305 0.00255422
1806400 60.2883 248.162 55.8291 0.90315 0.00424899
1806600 60.2883 248.175 55.8291 0.90325 -0.00410517
1806800 60.2883 248.188 55.8291 0.90335 -0.0170197
1807000 60.2883 248.201 55.8291 0.90345 -0.00441386
1807200 60.2883 248.214 55.8291 0.90355 -0.00434309
1807400 60.2883 248.227 55.8291 0.90365 -0.00971234
1807600 60.2883 248.24 55.8291 0.90375 -0.0224907
1807800 60.2883 248.253 55.8291 0.90385 -0.0291347
1808000 60.2883 248.266 55.8291 0.90395 -0.00210622
1808200 60.2883 248.279 55.8291 0.90405 0.00960669
1808400 60.2883 248.292 55.8291 0.90415 0.00908365
1808600 60.2883 248.305 55.8291 0.90425 0.0164514
1808800 60.2883 248.318 55.8291 0.90435 0.0082439
1809000 60.2883 248.331 55.8291 0.90445 0.0060125
1809200 60.2883 248.344 55.8291 0.90455 0.0109664
1809400 60.2883 248.357 55.8291 0.90465 0.035416
1809600 60.2883 248.37 55.8291 0.90475 0.0133318
1809800 60.2883 248.383 55.8291 0.90485 0.0291534
1810000 60.2883 248.397 55.8291 0.90495 0.0136572
1810200 60.2883 248.41 55.8291 0.90505 -0.00263634
1810400 60.2883 248.423 55.8291 0.90515 -0.000794075
1810600 60.2883 248.436 55.8291 0.90525 -0.00779819
1810800 60.2883 248.449 55.8291 0.90535 -0.0138494
1811000 60.2883 248.462 55.8291 0.90545 -0.00915454
1811200 60.2883 248.475 55.8291 0.90555 0.00202126
1811400 60.2883 248.488 55.8291 0.90565 -0.0105015
1811600 60.2883 248.501 55.8291 0.90575 -0.0107333
1811800 60.2883 248.514 55.8291 0.90585 -0.0160212
1812000 60.2883 248.527 55.8291 0.90595 -0.0054151
1812200 60.2883 248.54 55.8291 0.90605 -0.0140105
1812400 60.2883 248.553 55.8291 0.90615 0.00289511
1812600 60.2883 248.566 55.8291 0.90625 0.021123
1812800 60.2883 248.579 55.8291 0.90635 0.0101141
1813000 60.2883 248.592 55.8291 0.90645 0.027208
1813200 60.2883 248.605 55.8291 0.90655 0.00967777
1813400 60.2883 248.618 55.8291 0.90665 0.0191875
1813600 60.2883 248.631 55.8291 0.90675 0.0226338
1813800 60.2883 248.644 55.8291 0.90685 0.0105362
1814000 60.2883 248.657 55.8291 0.90695 0.0230733
1814200 60.2883 248.67 55.8291 0.90705 0.00850554
1814400 60.2883 248.683 55.8291 0.90715 -0.000599424
1814600 60.2883 248.696 55.8291 0.90725 -0.00678105
1814800 60.2883 248.709 55.8291 0.90735 -0.020441
1815000 60.2883 248.722 55.8291 0.90745 -0.0187318
1815200 60.2883 248.736 55.8291 0.90755 -0.00422986
1815400 60.2883 248.749 55.8291 0.90765 -0.0158343
1815600 60.2883 248.762 55.8291 0.90775 -0.0121635
1815800 60.2883 248.775 55.8291 0.90785 0.000998766
1816000 60.2883 248.788 55.8291 0.90795 0.00107057
1816200 60.2883 248.801 55.8291 0.90805 -0.0145046
1816400 60.2883 248.814 55.8291 0.90815 0.00508113
1816600 60.2883 248.827 55.8291 0.90825 0.0169152
1816800 60.2883 248.84 55.8291 0.90835 0.0208536
1817000 60.2883 248.853 55.8291 0.90845 0.0249241
1817200 60.2883 248.866 55.8291 0.90855 0.0272174
1817400 60.2883 248.879 55.8291 0.90865 0.00475007
1817600 60.2883 248.892 55.8291 0.90875 -8.55448e-05
1817800 60.2883 248.905 55.8291 0.90885 0.0183268
1818000 60.2883 248.918 55.8291 0.90895 0.0254188
1818200 60.2883 248.931 55.8291 0.90905 -0.00674102
1818400 60.2883 248.944 55.8291 0.90915 -0.000962478
1818600 60.2883 248.957 55.8291 0.90925 -0.00318013
1818800 60.2883 248.97 55.8291 0.90935 -0.0188926
1819000 60.2883 248.983 55.8291 0.90945 -0.0211294
1819200 60.2883 248.996 55.8291 0.90955 -0.0124024
1819400 60.2883 249.009 55.8291 0.90965 -0.00320973
1819600 60.2883 249.022 55.8291 0.90975 0.0038535
1819800 60.2883 249.035 55.8291 0.90985 -0.0188682
1820000 60.2883 249.048 55.8291 0.90995 0.0058679
1820200 60.2883 249.062 55.8291 0.91005 6.60961e-05
1820400 60.2883 249.075 55.8291 0.91015 0.0203636
1820600 60.2883 249.088 55.8291 0.91025 0.00500669
1820800 60.2883 249.101 55.8291 0.91035 0.0225476
1821000 60.2883 249.114 55.8291 0.91045 0.0194615
1821200 60.2883 249.127 55.8291 0.91055 0.00772929
1821400 60.2883 249.14 55.8291 0.91065 0.0311601
1821600 60.2883 249.153 55.8291 0.91075 0.0111722
1821800 60.2883 249.166 55.8291 0.91085 0.00987188
1822000 60.2883 249.179 55.8291 0.91095 -0.00518009
1822200 60.2883 249.192 55.8291 0.91105 -0.00200446
1822400 60.2883 249.205 55.8291 0.91115 0.00604241
1822600 60.2883 249.218 55.8291 0.91125 -0.0121796
1822800 60.2883 249.231 55.8291 0.91135 -0.0266902
1823000 60.2883 249.244 55.8291 0.91145 -0.00995502
1823200 60.2883 249.257 55.8291 0.91155 -0.0191135
1823400 60.2883 249.27 55.8291 0.91165 -0.0152134
1823600 60.2883 249.283 55.8291 0.91175 -0.00360542
1823800 60.2883 249.296 55.8291 0.91185 -0.00513509
1824000 60.2883 249.309 55.8291 0.91195 0.0190353
1824200 60.2883 249.322 55.8291 0.91205 0.00305333
1824400 60.2883 249.335 55.8291 0.91215 0.0224369
1824600 60.2883 249.348 55.8291 0.91225 0.0287886
1824800 60.2883 249.361 55.8291 0.91235 0.0140705
1825000 60.2883 249.374 55.8291 0.91245 0.0233497
1825200 60.2883 249.388 55.8291 0.91255 0.0179523
1825400 60.2883 249.401 55.8291 0.91265 0.021058
1825600 60.2883 249.414 55.8291 0.91275 0.00601253
1825800 60.2883 249.427 55.8291 0.91285 -0.000213038
1826000 60.2883 249.44 55.8291 0.91295 -0.0176935
1826200 60.2883 249.453 55.8291 0.91305 0.00276361
1826400 60.2883 249.466 55.8291 0.91315 -0.00855996
1826600 60.2883 249.479 55.8291 0.91325 -0.00863028
1826800 60.2883 249.492 55.8291 0.91335 -0.0209641
1827000 60.2883 249.505 55.8291 0.91345 -0.0241648
1827200 60.2883 249.518 55.8291 0.91355 -0.00967967
1827400 60.2883 249.531 55.8291 0.91365 -0.00875213
1827600 60.2883 249.544 55.8291 0.91375 0.00979629
1827800 60.2883 249.557 55.8291 0.91385 0.00527265
1828000 60.2883 249.57 55.8291 0.91395 0.0146176
1828200 60.2883 249.583 55.8291 0.91405 0.0132366
1828400 60.2883 249.596 55.8291 0.91415 0.0221564
1828600 60.2883 249.609 55.8291 0.91425 0.0149317
1828800 60.2883 249.622 55.8291 0.91435 0.0152276
1829000 60.2883 249.635 55.8291 0.91445 0.0241689
1829200 60.2883 249.648 55.8291 0.91455 0.0140664
1829400 60.2883 249.661 55.8291 0.91465 0.0155128
1829600 60.2883 249.674 55.8291 0.91475 -0.000231453
1829800 60.2883 249.687 55.8291 0.91485 -0.0105112
1830000 60.2883 249.7 55.8291 0.91495 -0.00448556
1830200 60.2883 249.714 55.8291 0.91505 -0.00453169
1830400 60.2883 249.727 55.8291 0.91515 -0.00502378
1830600 60.2883 249.74 55.8291 0.91525 -0.0260789
1830800 60.2883 249.753 55.8291 0.91535 -0.0184822
1831000 60.2883 249.766 55.8291 0.91545 -0.00479878
1831200 60.2883 249.779 55.8291 0.91555 -0.0140218
1831400 60.2883 249.792 55.8291 0.91565 0.0125279
1831600 60.2883 249.805 55.8291 0.91575 -0.00995339
1831800 60.2883 249.818 55.8291 0.91585 0.0181832
1832000 60.2883 249.831 55.8291 0.91595 0.00963695
1832200 60.2883 249.844 55.8291 0.91605 0.016569
1832400 60.2883 249.857 55.8291 0.91615 0.0147366
1832600 60.2883 249.87 55.8291 0.91625 0.0173804
1832800 60.2883 249.883 55.8291 0.91635 0.026769
1833000 60.2883 249.896 55.8291 0.91645 0.00510932
1833200 60.2883 249.909 55.8291 0.91655 0.011312
1833400 60.2883 249.922 55.8291 0.91665 0.00754776
1833600 60.2883 249.935 55.8291 0.91675 -0.00771823
1833800 60.2883 249.948 55.8291 0.91685 0.0035447
1834000 60.2883 249.961 55.8291 0.91695 0.000714374
1834200 60.2883 249.974 55.8291 0.91705 -0.0155686
1834400 60.2883 249.987 55.8291 0.91715 -0.00502666
1834600 60.2883 250 55.8291 0.91725 -0.00806031
1834800 60.2883 250.013 55.8291 0.91735 -0.0100797
1835000 60.2883 250.026 55.8291 0.91745 -0.00209033
1835200 60.2883 250.039 55.8291 0.91755 0.00147968
1835400 60.2883 250.053 55.8291 0.91765 -0.010229
1835600 60.2883 250.066 55.8291 0.91775 0.00827571
1835800 60.2883 250.079 55.8291 0.91785 -0.00712869
1836000 60.2883 250.092 55.8291 0.91795 0.00637808
1836200 60.2883 250.105 55.8291 0.91805 0.012857
1836400 60.2883 250.118 55.8291 0.91815 0.0311619
1836600 60.2883 250.131 55.8291 0.91825 0.00943792
1836800 60.2883 250.144 55.8291 0.91835 0.0140827
1837000 60.2883 250.157 55.8291 0.91845 0.00580955
1837200 60.2883 250.17 55.8291 0.91855 0.0119251
1837400 60.2883 250.183 55.8291 0.91865 0.0206672
1837600 60.2883 250.196 55.8291 0.91875 0.0125899
1837800 60.2883 250.209 55.8291 0.91885 -0.0101497
1838000 60.2883 250.222 55.8291 0.91895 -0.0077434
1838200 60.2883 250.235 55.8291 0.91905 -0.0114085
1838400 60.2883 250.248 55.8291 0.91915 -0.0124673
1838600 60.2883 250.261 55.8291 0.91925 -0.000629926
1838800 60.2883 250.274 55.8291 0.91935 -0.0196772
1839000 60.2883 250.287 55.8291 0.91945 -0.0149135
1839200 60.2883 250.3 55.8291 0.91955 -0.00492668
1839400 60.2883 250.313 55.8291 0.91965 0.00886338
1839600 60.2883 250.326 55.8291 0.91975 0.00327647
1839800 60.2883 250.339 55.8291 0.91985 0.00407004
1840000 60.2883 250.352 55.8291 0.91995 0.00895824
1840200 60.2883 250.365 55.8291 0.92005 0.024873
1840400 60.2883 250.379 55.8291 0.92015 0.013606
1840600 60.2883 250.392 55.8291 0.92025 0.0296947
1840800 60.2883 250.405 55.8291 0.92035 0.0116249
1841000 60.2883 250.418 55.8291 0.92045 0.00606898
1841200 60.2883 250.431 55.8291 0.92055 0.0102542
1841400 60.2883 250.444 55.8291 0.92065 0.000656093
1841600 60.2883 250.457 55.8291 0.92075 0.000758503
1841800 60.2883 250.47 55.8291 0.92085 -0.000447463
1842000 60.2883 250.483 55.8291 0.92095 -0.00347157
1842200 60.2883 250.496 55.8291 0.92105 -0.0190837
1842400 60.2883 250.509 55.8291 0.92115 -0.0193686
1842600 60.2883 250.522 55.8291 0.92125 -0.00276637
1842800 60.2883 250.535 55.8291 0.92135 -0.0145821
1843000 60.2883 250.548 55.8291 0.92145 -0.0115623
1843200 60.2883 250.561 55.8291 0.92155 -0.0157475
1843400 60.2883 250.574 55.8291 0.92165 0.017443
1843600 60.2883 250.587 55.8291 0.92175 0.0149637
1843800 60.2883 250.6 55.8291 0.92185 0.00668283
1844000 60.2883 250.613 55.8291 0.92195 0.00794902
1844200 60.2883 250.626 55.8291 0.92205 0.0204935
1844400 60.2883 250.639 55.8291 0.92215 0.0265385
1844600 60.2883 250.652 55.8291 0.92225 0.0189077
1844800 60.2883 250.665 55.8291 0.92235 0.0230382
1845000 60.2883 250.678 55.8291 0.92245 0.0135474
1845200 60.2883 250.691 55.8291 0.92255 -0.0015782
1845400 60.2883 250.705 55.8291 0.92265 0.00795854
1845600 60.2883 250.718 55.8291 0.92275 -0.000315959
1845800 60.2883 250.731 55.8291 0.92285 -0.00179071
1846000 60.2883 250.744 55.8291 0.92295 -0.00808102
1846200 60.2883 250.757 55.8291 0.92305 -0.0186944
1846400 60.2883 250.77 55.8291 0.92315 -0.0320988
1846600 60.2883 250.783 55.8291 0.92325 -0.0187003
1846800 60.2883 250.796 55.8291 0.92335 0.00286343
1847000 60.2883 250.809 55.8291 0.92345 -0.0103915
1847200 60.2883 250.822 55.8291 0.92355 0.00613012
1847400 60.2883 250.835 55.8291 0.92365 0.00393477
1847600 60.2883 250.848 55.8291 0.92375 -0.00248878
1847800 60.2883 250.861 55.8291 0.92385 0.0195261
1848000 60.2883 250.874 55.8291 0.92395 0.00161862
1848200 60.2883 250.887 55.8291 0.92405 0.0178819
1848400 60.2883 250.9 55.8291 0.92415 0.0349532
1848600 60.2883 250.913 55.8291 0.92425 0.025424
1848800 60.2883 250.926 55.8291 0.92435 0.017317
1849000 60.2883 250.939 55.8291 0.92445 0.0244817
1849200 60.2883 250.952 55.8291 0.92455 0.00135072
1849400 60.2883 250.965 55.8291 0.92465 0.000586016
1849600 60.2883 250.978 55.8291 0.92475 -0.00811526
1849800 60.2883 250.991 55.8291 0.92485 -0.0188091
1850000 60.2883 251.004 55.8291 0.92495 0.000763514
1850200 60.2883 251.017 55.8291 0.92505 -0.0070619
1850400 60.2883 251.03 55.8291 0.92515 -0.022877
1850600 60.2883 251.044 55.8291 0.92525 -0.0248625
1850800 60.2883 251.057 55.8291 0.92535 -0.0261119
1851000 60.2883 251.07 55.8291 0.92545 -0.00229647
1851200 60.2883 251.083 55.8291 0.92555 -0.0090945
1851400 60.2883 251.096 55.8291 0.92565 0.0148537
1851600 60.2883 251.109 55.8291 0.92575 0.0226985
1851800 60.2883 251.122 55.8291 0.92585 0.0161527
1852000 60.2883 251.135 55.8291 0.92595 0.0164963
1852200 60.2883 251.148 55.8291 0.92605 0.0181106
1852400 60.2883 251.161 55.8291 0.92615 0.0213309
1852600 60.2883 251.174 55.8291 0.92625 0.0267693
1852800 60.2883 251.187 55.8291 0.92635 0.0352203
1853000 60.2883 251.2 55.8291 0.92645 0.00977203
1853200 60.2883 251.213 55.8291 0.92655 0.00337487
1853400 60.2883 251.226 55.8291 0.92665 -0.00797183
1853600 60.2883 251.239 55.8291 0.92675 -0.0149492
1853800 60.2883 251.252 55.8291 0.92685 -0.0170498
1854000 60.2883 251.265 55.8291 0.92695 -0.0204612
1854200 60.2883 251.278 55.8291 0.92705 -0.000620977
1854400 60.2883 251.291 55.8291 0.92715 -0.0252888
1854600 60.2883 251.304 55.8291 0.92725 -0.0151904
1854800 60.2883 251.317 55.8291 0.92735 -0.00926431
1855000 60.2883 251.33 55.8291 0.92745 -0.00872723
1855200 60.2883 251.343 55.8291 0.92755 -0.00407775
1855400 60.2883 251.356 55.8291 0.92765 0.0130672
1855600 60.2883 251.37 55.8291 0.92775 0.0258246
1855800 60.2883 251.383 55.8291 0.92785 0.0196778
1856000 60.2883 251.396 55.8291 0.92795 0.0222794
1856200 60.2883 251.409 55.8291 0.92805 0.0308389
1856400 60.2883 251.422 55.8291 0.92815 0.011894
1856600 60.2883 251.435 55.8291 0.92825 0.0233586
1856800 60.2883 251.448 55.8291 0.92835 0.0207421
1857000 60.2883 251.461 55.8291 0.92845 -0.00222264
1857200 60.2883 251.474 55.8291 0.92855 0.00527199
1857400 60.2883 251.487 55.8291 0.92865 -0.00135446
1857600 60.2883 251.5 55.8291 0.92875 -0.00914502
1857800 60.2883 251.513 55.8291 0.92885 -0.0148967
1858000 60.2883 251.526 55.8291 0.92895 -0.0342953
1858200 60.2883 251.539 55.8291 0.92905 -0.0151554
1858400 60.2883 251.552 55.8291 0.92915 -0.0220425
1858600 60.2883 251.565 55.8291 0.92925 -0.0145657
1858800 60.2883 251.578 55.8291 0.92935 0.000951919
1859000 60.2883 251.591 55.8291 0.92945 0.00652116
1859200 60.2883 251.604 55.8291 0.92955 0.0100014
1859400 60.2883 251.617 55.8291 0.92965 0.0103705
1859600 60.2883 251.63 55.8291 0.92975 0.0138058
1859800 60.2883 251.643 55.8291 0.92985 0.0209455
1860000 60.2883 251.656 55.8291 0.92995 0.0293746
1860200 60.2883 251.669 55.8291 0.93005 0.0345878
1860400 60.2883 251.682 55.8291 0.93015 0.0120909
1860600 60.2883 251.696 55.8291 0.93025 0.0115374
1860800 60.2883 251.709 55.8291 0.93035 0.00967887
1861000 60.2883 251.722 55.8291 0.93045 -0.000871057
1861200 60.2883 251.735 55.8291 0.93055 -0.0077115
1861400 60.2883 251.748 55.8291 0.93065 -0.00501018
1861600 60.2883 251.761 55.8291 0.93075 0.00161886
1861800 60.2883 251.774 55.8291 0.93085 -0.0266293
1862000 60.2883 251.787 55.8291 0.93095 -0.00758972
1862200 60.2883 251.8 55.8291 0.93105 -0.0352988
1862400 60.2883 251.813 55.8291 0.93115 -0.0211834
1862600 60.2883 251.826 55.8291 0.93125 -0.0151528
1862800 60.2883 251.839 55.8291 0.93135 -0.0041846
1863000 60.2883 251.852 55.8291 0.93145 0.0130593
1863200 60.2883 251.865 55.8291 0.93155 0.0265843
1863400 60.2883 251.878 55.8291 0.93165 0.0149568
1863600 60.2883 251.891 55.8291 0.93175 0.0151055
1863800 60.2883 251.904 55.8291 0.93185 0.029923
1864000 60.2883 251.917 55.8291 0.93195 0.0124215
1864200 60.2883 251.93 55.8291 0.93205 0.0232623
1864400 60.2883 251.943 55.8291 0.93215 0.0222695
1864600 60.2883 251.956 55.8291 0.93225 0.0280851
1864800 60.2883 251.969 55.8291 0.93235 0.0130733
1865000 60.2883 251.982 55.8291 0.93245 -0.0154045
1865200 60.2883 251.995 55.8291 0.93255 -0.00719581
1865400 60.2883 252.008 55.8291 0.93265 -0.0277138
1865600 60.2883 252.021 55.8291 0.93275 -0.00109447
1865800 60.2883 252.035 55.8291 0.93285 -0.0115262
1866000 60.2883 252.048 55.8291 0.93295 -0.0123093
1866200 60.2883 252.061 55.8291 0.93305 -0.0202491
1866400 60.2883 252.074 55.8291 0.93315 -0.0179932
1866600 60.2883 252.087 55.8291 0.93325 -0.00564147
1866800 60.2883 252.1 55.8291 0.93335 -0.0145551
1867000 60.2883 252.113 55.8291 0.93345 0.00559637
1867200 60.2883 252.126 55.8291 0.93355 0.0199304
1867400 60.2883 252.139 55.8291 0.93365 0.0162391
1867600 60.2883 252.152 55.8291 0.93375 0.0278755
1867800 60.2883 252.165 55.8291 0.93385 0.0185542
1868000 60.2883 252.178 55.8291 0.93395 0.0265514
1868200 60.2883 252.191 55.8291 0.93405 0.0190833
1868400 60.2883 252.204 55.8291 0.93415 0.0186646
1868600 60.2883 252.217 55.8291 0.93425 0.00777813
1868800 60.2883 252.23 55.8291 0.93435 0.00940225
1869000 60.2883 252.243 55.8291 0.93445 -0.00658903
1869200 60.2883 252.256 55.8291 0.93455 -0.00566755
1869400 60.2883 252.269 55.8291 0.93465 -0.0184752
1869600 60.2883 252.282 55.8291 0.93475 -0.0188093
1869800 60.2883 252.295 55.8291 0.93485 -0.0206938
1870000 60.2883 252.308 55.8291 0.93495 -0.0183778
1870200 60.2883 252.321 55.8291 0.93505 0.00270164
1870400 60.2883 252.334 55.8291 0.93515 -0.0213302
1870600 60.2883 252.347 55.8291 0.93525 -0.00213133
1870800 60.2883 252.361 55.8291 0.93535 0.00755223
1871000 60.2883 252.374 55.8291 0.93545 0.0111316
1871200 60.2883 252.387 55.8291 0.93555 0.035248
1871400 60.2883 252.4 55.8291 0.93565 0.0183089
1871600 60.2883 252.413 55.8291 0.93575 0.0291621
1871800 60.2883 252.426 55.8291 0.93585 0.00358649
1872000 60.2883 252.439 55.8291 0.93595 0.0351049
1872200 60.2883 252.452 55.8291 0.93605 0.0124222
1872400 60.2883 252.465 55.8291 0.93615 0.0118122
1872600 60.2883 252.478 55.8291 0.93625 -0.00179018
1872800 60.2883 252.491 55.8291 0.93635 -0.0100209
1873000 60.2883 252.504 55.8291 0.93645 -0.013595
1873200 60.2883 252.517 55.8291 0.93655 -0.0216471
1873400 60.2883 252.53 55.8291 0.93665 -0.0119259
1873600 60.2883 252.543 55.8291 0.93675 -0.0145199
1873800 60.2883 252.556 55.8291 0.93685 -0.0131317
1874000 60.2883 252.569 55.8291 0.93695 -0.0101874
1874200 60.2883 252.582 55.8291 0.93705 -0.00437373
1874400 60.2883 252.595 55.8291 0.93715 -0.00775066
1874600 60.2883 252.608 55.8291 0.93725 -0.00798214
1874800 60.2883 252.621 55.8291 0.93735 0.0193285
1875000 60.2883 252.634 55.8291 0.93745 0.0225214
1875200 60.2883 252.647 55.8291 0.93755 0.0279449
1875400 60.2883 252.66 55.8291 0.93765 0.0320827
1875600 60.2883 252.673 55.8291 0.93775 0.0146684
1875800 60.2883 252.687 55.8291 0.93785 0.0155775
1876000 60.2883 252.7 55.8291 0.93795 0.0134786
1876200 60.2883 252.713 55.8291 0.93805 0.00271645
1876400 60.2883 252.726 55.8291 0.93815 0.000483748
1876600 60.2883 252.739 55.8291 0.93825 0.0125458
1876800 60.2883 252.752 55.8291 0.93835 -0.0112862
1877000 60.2883 252.765 55.8291 0.93845 -0.00591371
1877200 60.2883 252.778 55.8291 0.93855 -0.0206432
1877400 60.2883 252.791 55.8291 0.93865 -0.0185445
1877600 60.2883 252.804 55.8291 0.93875 -0.00590742
1877800 60.2883 252.817 55.8291 0.93885 -0.010833
1878000 60.2883 252.83 55.8291 0.93895 -0.00521058
1878200 60.2883 252.843 55.8291 0.93905 0.00589489
1878400 60.2883 252.856 55.8291 0.93915 0.00115319
1878600 60.2883 252.869 55.8291 0.93925 0.00104493
1878800 60.2883 252.882 55.8291 0.93935 0.00525622
1879000 60.2883 252.895 55.8291 0.93945 0.0146005
1879200 60.2883 252.908 55.8291 0.93955 0.0109677
1879400 60.2883 252.921 55.8291 0.93965 0.025588
1879600 60.2883 252.934 55.8291 0.93975 0.0225285
1879800 60.2883 252.947 55.8291 0.93985 0.0103715
1880000 60.2883 252.96 55.8291 0.93995 0.0125482
1880200 60.2883 252.973 55.8291 0.94005 -0.00212785
1880400 60.2883 252.986 55.8291 0.94015 0.000679599
1880600 60.2883 252.999 55.8291 0.94025 -0.000651381
1880800 60.2883 253.013 55.8291 0.94035 -0.011069
1881000 60.2883 253.026 55.8291 0.94045 -0.00304433
1881200 60.2883 253.039 55.8291 0.94055 -0.00779513
1881400 60.2883 253.052 55.8291 0.94065 -0.0109199
1881600 60.2883 253.065 55.8291 0.94075 -0.00271113
1881800 60.2883 253.078 55.8291 0.94085 -0.0127176
1882000 60.2883 253.091 55.8291 0.94095 -0.0188206
1882200 60.2883 253.104 55.8291 0.94105 0.00767971
1882400 60.2883 253.117 55.8291 0.94115 0.0076727
1882600 60.2883 253.13 55.8291 0.94125 0.024707
1882800 60.2883 253.143 55.8291 0.94135 0.0104704
1883000 60.2883 253.156 55.8291 0.94145 0.0165833
1883200 60.2883 253.169 55.8291 0.94155 -0.00470367
1883400 60.2883 253.182 55.8291 0.94165 0.0251629
1883600 60.2883 253.195 55.8291 0.94175 0.000396612
1883800 60.2883 253.208 55.8291 0.94185 0.0190602
1884000 60.2883 253.221 55.8291 0.94195 0.0176006
1884200 60.2883 253.234 55.8291 0.94205 0.016965
1884400 60.2883 253.247 55.8291 0.94215 0.00408831
1884600 60.2883 253.26 55.8291 0.94225 -0.0322233
1884800 60.2883 253.273 55.8291 0.94235 -0.000378154
1885000 60.2883 253.286 55.8291 0.94245 -0.00702859
1885200 60.2883 253.299 55.8291 0.94255 -0.00529368
1885400 60.2883 253.312 55.8291 0.94265 -0.00862197
1885600 60.2883 253.325 55.8291 0.94275 0.0050879
1885800 60.2883 253.338 55.8291 0.94285 -0.0138721
1886000 60.2883 253.352 55.8291 0.94295 -0.0259733
1886200 60.2883 253.365 55.8291 0.94305 -0.00285779
1886400 60.2883 253.378 55.8291 0.94315 0.0182813
1886600 60.2883 253.391 55.8291 0.94325 -0.00211029
1886800 60.2883 253.404 55.8291 0.94335 0.0160834
1887000 60.2883 253.417 55.8291 0.94345 0.01148
1887200 60.2883 253.43 55.8291 0.94355 0.0136575
1887400 60.2883 253.443 55.8291 0.94365 0.0155522
1887600 60.2883 253.456 55.8291 0.94375 0.00582916
1887800 60.2883 253.469 55.8291 0.94385 0.0217167
1888000 60.2883 253.482 55.8291 0.94395 0.0194086
1888200 60.2883 253.495 55.8291 0.94405 0.0043043
1888400 60.2883 253.508 55.8291 0.94415 0.0100875
1888600 60.2883 253.521 55.8291 0.94425 -0.0025792
1888800 60.2883 253.534 55.8291 0.94435 -0.0172566
1889000 60.2883 253.547 55.8291 0.94445 -0.00409803
1889200 60.2883 253.56 55.8291 0.94455 -0.0212814
1889400 60.2883 253.573 55.8291 0.94465 0.0140191
1889600 60.2883 253.586 55.8291 0.94475 -0.00894799
1889800 60.2883 253.599 55.8291 0.94485 -0.0144822
1890000 60.2883 253.612 55.8291 0.94495 -0.00990922
1890200 60.2883 253.625 55.8291 0.94505 -0.00716056
1890400 60.2883 253.638 55.8291 0.94515 -0.0108298
1890600 60.2883 253.651 55.8291 0.94525 0.027102
1890800 60.2883 253.664 55.8291 0.94535 0.0167024
1891000 60.2883 253.678 55.8291 0.94545 0.0123332
1891200 60.2883 253.691 55.8291 0.94555 0.00594638
1891400 60.2883 253.704 55.8291 0.94565 0.0065565
1891600 60.2883 253.717 55.8291 0.94575 0.0234509
1891800 60.2883 253.73 55.8291 0.94585 0.01918
1892000 60.2883 253.743 55.8291 0.94595 0.0122089
1892200 60.2883 253.756 55.8291 0.94605 0.0110667
1892400 60.2883 253.769 55.8291 0.94615 -0.00396037
1892600 60.2883 253.782 55.8291 0.94625 -0.00683626
1892800 60.2883 253.795 55.8291 0.94635 0.00267489
1893000 60.2883 253.808 55.8291 0.94645 -0.0179393
1893200 60.2883 253.821 55.8291 0.94655 -0.01158
1893400 60.2883 253.834 55.8291 0.94665 -0.00577535
1893600 60.2883 253.847 55.8291 0.94675 -0.00602799
1893800 60.2883 253.86 55.8291 0.94685 -0.0220038
1894000 60.2883 253.873 55.8291 0.94695 -0.00235009
1894200 60.2883 253.886 55.8291 0.94705 -0.00590492
1894400 60.2883 253.899 55.8291 0.94715 0.0146237
1894600 60.2883 253.912 55.8291 0.94725 0.00804787
1894800 60.2883 253.925 55.8291 0.94735 0.0187525
1895000 60.2883 253.938 55.8291 0.94745 0.0237106
1895200 60.2883 253.951 55.8291 0.94755 0.00948463
1895400 60.2883 253.964 55.8291 0.94765 0.0112072
1895600 60.2883 253.977 55.8291 0.94775 0.0206703
1895800 60.2883 253.99 55.8291 0.94785 0.0156137
1896000 60.2883 254.004 55.8291 0.94795 0.00385782
1896200 60.2883 254.017 55.8291 0.94805 -0.00165335
1896400 60.2883 254.03 55.8291 0.94815 0.00624212
1896600 60.2883 254.043 55.8291 0.94825 -0.00697844
1896800 60.2883 254.056 55.8291 0.94835 -0.00523923
1897000 60.2883 254.069 55.8291 0.94845 -0.0272106
1897200 60.2883 254.082 55.8291 0.94855 -0.020041
1897400 60.2883 254.095 55.8291 0.94865 -0.0205894
1897600 60.2883 254.108 55.8291 0.94875 0.00606804
1897800 60.2883 254.121 55.8291 0.94885 -0.00802574
1898000 60.2883 254.134 55.8291 0.94895 0.00233288
1898200 60.2883 254.147 55.8291 0.94905 0.0194999
1898400 60.2883 254.16 55.8291 0.94915 0.00516452
1898600 60.2883 254.173 55.8291 0.94925 0.00401331
1898800 60.2883 254.186 55.8291 0.94935 0.0267124
1899000 60.2883 254.199 55.8291 0.94945 0.024337
1899200 60.2883 254.212 55.8291 0.94955 0.019216
1899400 60.2883 254.225 55.8291 0.94965 0.0190944
1899600 60.2883 254.238 55.8291 0.94975 0.0103084
1899800 60.2883 254.251 55.8291 0.94985 0.0149746
1900000 60.2883 254.264 55.8291 0.94995 -0.00243007
1900200 60.2883 254.277 55.8291 0.95005 -0.00248862
1900400 60.2883 254.29 55.8291 0.95015 -0.011334
1900600 60.2883 254.303 55.8291 0.95025 -0.0121166
1900800 60.2883 254.316 55.8291 0.95035 -0.0136853
1901000 60.2883 254.329 55.8291 0.95045 -0.0219359
1901200 60.2883 254.343 55.8291 0.95055 -0.0140354
1901400 60.2883 254.356 55.8291 0.95065 -0.0236991
1901600 60.2883 254.369 55.8291 0.95075 0.010363
1901800 60.2883 254.382 55.8291 0.95085 -0.0164402
1902000 60.2883 254.395 55.8291 0.95095 0.0100582
1902200 60.2883 254.408 55.8291 0.95105 0.0145666
1902400 60.2883 254.421 55.8291 0.95115 0.0186773
1902600 60.2883 254.434 55.8291 0.95125 0.0172199
1902800 60.2883 254.447 55.8291 0.95135 0.0181351
1903000 60.2883 254.46 55.8291 0.95145 0.0218394
1903200 60.2883 254.473 55.8291 0.95155 0.00777074
1903400 60.2883 254.486 55.8291 0.95165 0.0220521
1903600 60.2883 254.499 55.8291 0.95175 0.0170971
1903800 60.2883 254.512 55.8291 0.95185 -0.00480317
1904000 60.2883 254.525 55.8291 0.95195 0.00449268
1904200 60.2883 254.538 55.8291 0.95205 -0.00874493
1904400 60.2883 254.551 55.8291 0.95215 0.00383664
1904600 60.2883 254.564 55.8291 0.95225 -0.0105717
1904800 60.2883 254.577 55.8291 0.95235 -0.0233847
1905000 60.2883 254.59 55.8291 0.95245 -0.0146355
1905200 60.2883 254.603 55.8291 0.95255 -0.00467991
1905400 60.2883 254.616 55.8291 0.95265 -0.0099447
1905600 60.2883 254.629 55.8291 0.95275 -0.0154285
1905800 60.2883 254.642 55.8291 0.95285 0.00178469
1906000 60.2883 254.655 55.8291 0.95295 0.00583949
1906200 60.2883 254.669 55.8291 0.95305 0.00983897
1906400 60.2883 254.682 55.8291 0.95315 0.0121812
1906600 60.2883 254.695 55.8291 0.95325 0.0199721
1906800 60.2883 254.708 55.8291 0.95335 0.0235308
1907000 60.2883 254.721 55.8291 0.95345 0.0131351
1907200 60.2883 254.734 55.8291 0.95355 0.0269491
1907400 60.2883 254.747 55.8291 0.95365 0.0136889
1907600 60.2883 254.76 55.8291 0.95375 0.00190982
1907800 60.2883 254.773 55.8291 0.95385 0.00456676
1908000 60.2883 254.786 55.8291 0.95395 0.013599
1908200 60.2883 254.799 55.8291 0.95405 -0.00775641
1908400 60.2883 254.812 55.8291 0.95415 -0.0146385
1908600 60.2883 254.825 55.8291 0.95425 -0.0106493
1908800 60.2883 254.838 55.8291 0.95435 -0.0191361
1909000 60.2883 254.851 55.8291 0.95445 -0.0321854
1909200 60.2883 254.864 55.8291 0.95455 0.000614875
1909400 60.2883 254.877 55.8291 0.95465 -0.0124958
1909600 60.2883 254.89 55.8291 0.95475 -0.0137035
1909800 60.2883 254.903 55.8291 0.95485 0.00370891
1910000 60.2883 254.916 55.8291 0.95495 0.0141353
1910200 60.2883 254.929 55.8291 0.95505 0.00568867
1910400 60.2883 254.942 55.8291 0.95515 0.0203334
1910600 60.2883 254.955 55.8291 0.95525 0.0296638
1910800 60.2883 254.968 55.8291 0.95535 0.0276539
1911000 60.2883 254.981 55.8291 0.95545 0.0305703
1911200 60.2883 254.995 55.8291 0.95555 0.0131848
1911400 60.2883 255.008 55.8291 0.95565 0.0205034
1911600 60.2883 255.021 55.8291 0.95575 0.00114728
1911800 60.2883 255.034 55.8291 0.95585 -0.00884851
1912000 60.2883 255.047 55.8291 0.95595 0.00759984
1912200 60.2883 255.06 55.8291 0.95605 -0.0119521
1912400 60.2883 255.073 55.8291 0.95615 -0.0184152
1912600 60.2883 255.086 55.8291 0.95625 -0.0288926
1912800 60.2883 255.099 55.8291 0.95635 -0.0148081
1913000 60.2883 255.112 55.8291 0.95645 -0.0208939
1913200 60.2883 255.125 55.8291 0.95655 -0.0157734
1913400 60.2883 255.138 55.8291 0.95665 -0.0109104
1913600 60.2883 255.151 55.8291 0.95675 -0.000237407
1913800 60.2883 255.164 55.8291 0.95685 0.0144119
1914000 60.2883 255.177 55.8291 0.95695 0.0105686
1914200 60.2883 255.19 55.8291 0.95705 0.011977
1914400 60.2883 255.203 55.8291 0.95715 0.0357341
1914600 60.2883 255.216 55.8291 0.95725 0.0142273
1914800 60.2883 255.229 55.8291 0.95735 0.0237868
1915000 60.2883 255.242 55.8291 0.95745 0.0159174
1915200 60.2883 255.255 55.8291 0.95755 0.0259212
1915400 60.2883 255.268 55.8291 0.95765 0.0205319
1915600 60.2883 255.281 55.8291 0.95775 -0.00384957
1915800 60.2883 255.294 55.8291 0.95785 -0.00859141
1916000 60.2883 255.307 55.8291 0.95795 -0.00526799
1916200 60.2883 255.32 55.8291 0.95805 -0.00858968
1916400 60.2883 255.334 55.8291 0.95815 -0.0156361
1916600 60.2883 255.347 55.8291 0.95825 -0.0070663
1916800 60.2883 255.36 55.8291 0.95835 -0.0199062
1917000 60.2883 255.373 55.8291 0.95845 -0.0113131
1917200 60.2883 255.386 55.8291 0.95855 -0.0221254
1917400 60.2883 255.399 55.8291 0.95865 -0.00356735
1917600 60.2883 255.412 55.8291 0.95875 0.00481542
1917800 60.2883 255.425 55.8291 0.95885 -0.00654426
1918000 60.2883 255.438 55.8291 0.95895 0.0143839
1918200 60.2883 255.451 55.8291 0.95905 0.0181556
1918400 60.2883 255.464 55.8291 0.95915 0.0185932
1918600 60.2883 255.477 55.8291 0.95925 0.0197889
1918800 60.2883 255.49 55.8291 0.95935 0.015718
1919000 60.2883 255.503 55.8291 0.95945 0.024452
1919200 60.2883 255.516 55.8291 0.95955 0.0255323
1919400 60.2883 255.529 55.8291 0.95965 0.00291988
1919600 60.2883 255.542 55.8291 0.95975 0.0158619
1919800 60.2883 255.555 55.8291 0.95985 -0.0114122
1920000 60.2883 255.568 55.8291 0.95995 0.00453454
1920200 60.2883 255.581 55.8291 0.96005 -0.0185375
1920400 60.2883 255.594 55.8291 0.96015 -0.0123971
1920600 60.2883 255.607 55.8291 0.96025 -0.0265584
1920800 60.2883 255.62 55.8291 0.96035 -0.0105452
1921000 60.2883 255.633 55.8291 0.96045 -0.00889525
1921200 60.2883 255.646 55.8291 0.96055 -0.00848663
1921400 60.2883 255.66 55.8291 0.96065 -0.0278916
1921600 60.2883 255.673 55.8291 0.96075 -0.0043659
1921800 60.2883 255.686 55.8291 0.96085 0.0202005
1922000 60.2883 255.699 55.8291 0.96095 0.017577
1922200 60.2883 255.712 55.8291 0.96105 0.0207878
1922400 60.2883 255.725 55.8291 0.96115 0.020098
1922600 60.2883 255.738 55.8291 0.96125 0.022379
1922800 60.2883 255.751 55.8291 0.96135 0.0194359
1923000 60.2883 255.764 55.8291 0.96145 0.026003
1923200 60.2883 255.777 55.8291 0.96155 0.0121773
1923400 60.2883 255.79 55.8291 0.96165 0.00451188
1923600 60.2883 255.803 55.8291 0.96175 -0.00191538
1923800 60.2883 255.816 55.8291 0.96185 0.00534465
1924000 60.2883 255.829 55.8291 0.96195 -0.00865546
1924200 60.2883 255.842 55.8291 0.96205 -0.0142517
1924400 60.2883 255.855 55.8291 0.96215 -0.00851493
1924600 60.2883 255.868 55.8291 0.96225 -0.0138663
1924800 60.2883 255.881 55.8291 0.96235 -0.0207318
1925000 60.2883 255.894 55.8291 0.96245 -0.0157726
1925200 60.2883 255.907 55.8291 0.96255 -0.00834271
1925400 60.2883 255.92 55.8291 0.96265 -0.00776198
1925600 60.2883 255.933 55.8291 0.96275 -0.0120283
1925800 60.2883 255.946 55.8291 0.96285 0.0192459
1926000 60.2883 255.959 55.8291 0.96295 0.0227166
1926200 60.2883 255.972 55.8291 0.96305 0.00864158
1926400 60.2883 255.986 55.8291 0.96315 0.0156078
1926600 60.2883 255.999 55.8291 0.96325 0.0196064
1926800 60.2883 256.012 55.8291 0.96335 0.0145384
1927000 60.2883 256.025 55.8291 0.96345 0.0119016
1927200 60.2883 256.038 55.8291 0.96355 0.0273706
1927400 60.2883 256.051 55.8291 0.96365 0.0211026
1927600 60.2883 256.064 55.8291 0.96375 0.00625066
1927800 60.2883 256.077 55.8291 0.96385 -0.0108095
1928000 60.2883 256.09 55.8291 0.96395 -0.0122412
1928200 60.2883 256.103 55.8291 0.96405 -0.00421283
1928400 60.2883 256.116 55.8291 0.96415 -0.0251386
1928600 60.2883 256.129 55.8291 0.96425 -0.00294533
1928800 60.2883 256.142 55.8291 0.96435 -0.00357803
1929000 60.2883 256.155 55.8291 0.96445 -0.0154905
1929200 60.2883 256.168 55.8291 0.96455 -0.0173318
1929400 60.2883 256.181 55.8291 0.96465 -0.0106708
1929600 60.2883 256.194 55.8291 0.96475 -0.0104497
1929800 60.2883 256.207 55.8291 0.96485 0.0130859
1930000 60.2883 256.22 55.8291 0.96495 0.0118137
1930200 60.2883 256.233 55.8291 0.96505 0.0206702
1930400 60.2883 256.246 55.8291 0.96515 0.0161956
1930600 60.2883 256.259 55.8291 0.96525 0.0243384
1930800 60.2883 256.272 55.8291 0.96535 0.0138279
1931000 60.2883 256.285 55.8291 0.96545 0.0207579
1931200 60.2883 256.298 55.8291 0.96555 0.0187662
1931400 60.2883 256.312 55.8291 0.96565 0.0181339
1931600 60.2883 256.325 55.8291 0.96575 -0.00986802
1931800 60.2883 256.338 55.8291 0.96585 0.00781644
1932000 60.2883 256.351 55.8291 0.96595 -0.0064761
1932200 60.2883 256.364 55.8291 0.96605 -0.0160297
1932400 60.2883 256.377 55.8291 0.96615 -0.00662821
1932600 60.2883 256.39 55.8291 0.96625 -0.0160479
1932800 60.2883 256.403 55.8291 0.96635 -0.0282658
1933000 60.2883 256.416 55.8291 0.96645 -0.016518
1933200 60.2883 256.429 55.8291 0.96655 -0.013544
1933400 60.2883 256.442 55.8291 0.96665 0.011132
1933600 60.2883 256.455 55.8291 0.96675 0.00333976
1933800 60.2883 256.468 55.8291 0.96685 -0.0135733
1934000 60.2883 256.481 55.8291 0.96695 0.0109455
1934200 60.2883 256.494 55.8291 0.96705 0.0219986
1934400 60.2883 256.507 55.8291 0.96715 0.0208249
1934600 60.2883 256.52 55.8291 0.96725 0.022355
1934800 60.2883 256.533 55.8291 0.96735 0.029977
1935000 60.2883 256.546 55.8291 0.96745 0.0173758
1935200 60.2883 256.559 55.8291 0.96755 0.0200684
1935400 60.2883 256.572 55.8291 0.96765 0.0142846
1935600 60.2883 256.585 55.8291 0.96775 -0.000328564
1935800 60.2883 256.598 55.8291 0.96785 -0.00266847
1936000 60.2883 256.611 55.8291 0.96795 -0.0170642
1936200 60.2883 256.624 55.8291 0.96805 -0.0245932
1936400 60.2883 256.637 55.8291 0.96815 -0.00220076
1936600 60.2883 256.651 55.8291 0.96825 -0.006473
1936800 60.2883 256.664 55.8291 0.96835 -0.0160175
1937000 60.2883 256.677 55.8291 0.96845 -0.0129863
1937200 60.2883 256.69 55.8291 0.96855 -0.0284117
1937400 60.2883 256.703 55.8291 0.96865 -0.00196351
1937600 60.2883 256.716 55.8291 0.96875 0.0178364
1937800 60.2883 256.729 55.8291 0.96885 0.0107759
1938000 60.2883 256.742 55.8291 0.96895 0.00187665
1938200 60.2883 256.755 55.8291 0.96905 0.017188
1938400 60.2883 256.768 55.8291 0.96915 0.0256099
1938600 60.2883 256.781 55.8291 0.96925 0.0199637
1938800 60.2883 256.794 55.8291 0.96935 0.0158682
1939000 60.2883 256.807 55.8291 0.96945 0.0170211
1939200 60.2883 256.82 55.8291 0.96955 0.0159422
1939400 60.2883 256.833 55.8291 0.96965 0.0177304
1939600 60.2883 256.846 55.8291 0.96975 0.00812295
1939800 60.2883 256.859 55.8291 0.96985 -0.0125729
1940000 60.2883 256.872 55.8291 0.96995 -0.0148435
1940200 60.2883 256.885 55.8291 0.97005 -0.0231932
1940400 60.2883 256.898 55.8291 0.97015 -0.0160755
1940600 60.2883 256.911 55.8291 0.97025 -0.0216022
1940800 60.2883 256.924 55.8291 0.97035 -0.0122227
1941000 60.2883 256.937 55.8291 0.97045 -0.0160356
1941200 60.2883 256.95 55.8291 0.97055 -0.0024434
1941400 60.2883 256.963 55.8291 0.97065 0.00398284
1941600 60.2883 256.977 55.8291 0.97075 0.0087389
1941800 60.2883 256.99 55.8291 0.97085 0.0148865
1942000 60.2883 257.003 55.8291 0.97095 0.0167178
1942200 60.2883 257.016 55.8291 0.97105 0.0272564
1942400 60.2883 257.029 55.8291 0.97115 0.0131729
1942600 60.2883 257.042 55.8291 0.97125 0.0379789
1942800 60.2883 257.055 55.8291 0.97135 0.0189555
1943000 60.2883 257.068 55.8291 0.97145 0.0108126
1943200 60.2883 257.081 55.8291 0.97155 0.0102877
1943400 60.2883 257.094 55.8291 0.97165 -0.0164228
1943600 60.2883 257.107 55.8291 0.97175 0.00467293
1943800 60.2883 257.12 55.8291 0.97185 -0.0247261
1944000 60.2883 257.133 55.8291 0.97195 0.00609557
1944200 60.2883 257.146 55.8291 0.97205 -0.0340792
1944400 60.2883 257.159 55.8291 0.97215 -0.0109676
1944600 60.2883 257.172 55.8291 0.97225 -0.0326397
1944800 60.2883 257.185 55.8291 0.97235 -0.00468853
1945000 60.2883 257.198 55.8291 0.97245 -0.0203787
1945200 60.2883 257.211 55.8291 0.97255 0.00562428
1945400 60.2883 257.224 55.8291 0.97265 0.0210436
1945600 60.2883 257.237 55.8291 0.97275 0.0181959
1945800 60.2883 257.25 55.8291 0.97285 0.00387492
1946000 60.2883 257.263 55.8291 0.97295 0.0242302
1946200 60.2883 257.276 55.8291 0.97305 0.0447585
1946400 60.2883 257.289 55.8291 0.97315 0.0205209
1946600 60.2883 257.303 55.8291 0.97325 0.015884
1946800 60.2883 257.316 55.8291 0.97335 0.027931
1947000 60.2883 257.329 55.8291 0.97345 -0.00653533
1947200 60.2883 257.342 55.8291 0.97355 0.0149731
1947400 60.2883 257.355 55.8291 0.97365 -0.0197744
1947600 60.2883 257.368 55.8291 0.97375 -0.0116821
1947800 60.2883 257.381 55.8291 0.97385 -0.0259878
1948000 60.2883 257.394 55.8291 0.97395 -0.0203774
1948200 60.2883 257.407 55.8291 0.97405 -0.00269821
1948400 60.2883 257.42 55.8291 0.97415 -0.0302622
1948600 60.2883 257.433 55.8291 0.97425 -0.0170591
1948800 60.2883 257.446 55.8291 0.97435 -0.00860788
1949000 60.2883 257.459 55.8291 0.97445 0.0156877
1949200 60.2883 257.472 55.8291 0.97455 0.00218316
1949400 60.2883 257.485 55.8291 0.97465 0.00841196
1949600 60.2883 257.498 55.8291 0.97475 0.0262862
1949800 60.2883 257.511 55.8291 0.97485 0.0208977
1950000 60.2883 257.524 55.8291 0.97495 0.0134884
1950200 60.2883 257.537 55.8291 0.97505 0.0332505
1950400 60.2883 257.55 55.8291 0.97515 0.0121379
1950600 60.2883 257.563 55.8291 0.97525 0.0208602
1950800 60.2883 257.576 55.8291 0.97535 0.00759509
1951000 60.2883 257.589 55.8291 0.97545 -0.00370711
1951200 60.2883 257.602 55.8291 0.97555 -0.00576563
1951400 60.2883 257.615 55.8291 0.97565 -0.00514344
1951600 60.2883 257.628 55.8291 0.97575 -0.016664
1951800 60.2883 257.642 55.8291 0.97585 -0.0242065
1952000 60.2883 257.655 55.8291 0.97595 0.00294703
1952200 60.2883 257.668 55.8291 0.97605 -0.0191381
1952400 60.2883 257.681 55.8291 0.97615 -0.0215017
1952600 60.2883 257.694 55.8291 0.97625 -0.0113955
1952800 60.2883 257.707 55.8291 0.97635 0.0092569
1953000 60.2883 257.72 55.8291 0.97645 -0.00406551
1953200 60.2883 257.733 55.8291 0.97655 0.0111705
1953400 60.2883 257.746 55.8291 0.97665 0.0321405
1953600 60.2883 257.759 55.8291 0.97675 0.00995539
1953800 60.2883 257.772 55.8291 0.97685 0.0194243
1954000 60.2883 257.785 55.8291 0.97695 0.019763
1954200 60.2883 257.798 55.8291 0.97705 0.0142627
1954400 60.2883 257.811 55.8291 0.97715 0.0107745
1954600 60.2883 257.824 55.8291 0.97725 0.0238981
1954800 60.2883 257.837 55.8291 0.97735 0.00633458
1955000 60.2883 257.85 55.8291 0.97745 -0.00737018
1955200 60.2883 257.863 55.8291 0.97755 -0.00287148
1955400 60.2883 257.876 55.8291 0.97765 -0.026933
1955600 60.2883 257.889 55.8291 0.97775 -0.0156623
1955800 60.2883 257.902 55.8291 0.97785 -0.015792
1956000 60.2883 257.915 55.8291 0.97795 -0.00583946
1956200 60.2883 257.928 55.8291 0.97805 -0.000656292
1956400 60.2883 257.941 55.8291 0.97815 -0.0193499
1956600 60.2883 257.954 55.8291 0.97825 -0.00127859
1956800 60.2883 257.968 55.8291 0.97835 0.00106304
1957000 60.2883 257.981 55.8291 0.97845 0.00560242
1957200 60.2883 257.994 55.8291 0.97855 0.00935311
1957400 60.2883 258.007 55.8291 0.97865 0.0156855
1957600 60.2883 258.02 55.8291 0.97875 0.0328969
1957800 60.2883 258.033 55.8291 0.97885 0.0113924
1958000 60.2883 258.046 55.8291 0.97895 0.0261467
1958200 60.2883 258.059 55.8291 0.97905 0.0122412
1958400 60.2883 258.072 55.8291 0.97915 0.0097249
1958600 60.2883 258.085 55.8291 0.97925 -0.00254338
1958800 60.2883 258.098 55.8291 0.97935 0.0236817
1959000 60.2883 258.111 55.8291 0.97945 -0.0043302
1959200 60.2883 258.124 55.8291 0.97955 -0.00901535
1959400 60.2883 258.137 55.8291 0.97965 -0.0337086
1959600 60.2883 258.15 55.8291 0.97975 -0.00857345
1959800 60.2883 258.163 55.8291 0.97985 -0.0250137
1960000 60.2883 258.176 55.8291 0.97995 -0.0129291
1960200 60.2883 258.189 55.8291 0.98005 -0.0156273
1960400 60.2883 258.202 55.8291 0.98015 -0.00690285
1960600 60.2883 258.215 55.8291 0.98025 0.0131421
1960800 60.2883 258.228 55.8291 0.98035 0.00183782
1961000 60.2883 258.241 55.8291 0.98045 0.00672918
1961200 60.2883 258.254 55.8291 0.98055 0.0114611
1961400 60.2883 258.267 55.8291 0.98065 0.0237607
1961600 60.2883 258.28 55.8291 0.98075 0.019761
1961800 60.2883 258.294 55.8291 0.98085 0.0132684
1962000 60.2883 258.307 55.8291 0.98095 0.0182102
1962200 60.2883 258.32 55.8291 0.98105 0.0198162
1962400 60.2883 258.333 55.8291 0.98115 0.00421386
1962600 60.2883 258.346 55.8291 0.98125 0.0164255
1962800 60.2883 258.359 55.8291 0.98135 -0.000218632
1963000 60.2883 258.372 55.8291 0.98145 0.00942293
1963200 60.2883 258.385 55.8291 0.98155 -0.00269812
1963400 60.2883 258.398 55.8291 0.98165 -0.023299
1963600 60.2883 258.411 55.8291 0.98175 -0.0184054
1963800 60.2883 258.424 55.8291 0.98185 -0.0128342
1964000 60.2883 258.437 55.8291 0.98195 -0.0224283
1964200 60.2883 258.45 55.8291 0.98205 -0.0091404
1964400 60.2883 258.463 55.8291 0.98215 -0.00484013
1964600 60.2883 258.476 55.8291 0.98225 -0.00720833
1964800 60.2883 258.489 55.8291 0.98235 0.0191976
1965000 60.2883 258.502 55.8291 0.98245 -0.0115233
1965200 60.2883 258.515 55.8291 0.98255 -0.00320646
1965400 60.2883 258.528 55.8291 0.98265 0.0285459
1965600 60.2883 258.541 55.8291 0.98275 0.018476
1965800 60.2883 258.554 55.8291 0.98285 0.0341331
1966000 60.2883 258.567 55.8291 0.98295 0.0234732
1966200 60.2883 258.58 55.8291 0.98305 0.0113114
1966400 60.2883 258.593 55.8291 0.98315 0.0125962
1966600 60.2883 258.606 55.8291 0.98325 0.0109735
1966800 60.2883 258.619 55.8291 0.98335 -0.000288447
1967000 60.2883 258.633 55.8291 0.98345 -0.0042299
1967200 60.2883 258.646 55.8291 0.98355 -0.0106341
1967400 60.2883 258.659 55.8291 0.98365 -0.00173094
1967600 60.2883 258.672 55.8291 0.98375 -0.0082275
1967800 60.2883 258.685 55.8291 0.98385 -0.0330474
1968000 60.2883 258.698 55.8291 0.98395 -0.026523
1968200 60.2883 258.711 55.8291 0.98405 -0.0213442
1968400 60.2883 258.724 55.8291 0.98415 -0.0172362
1968600 60.2883 258.737 55.8291 0.98425 0.0228658
1968800 60.2883 258.75 55.8291 0.98435 -0.00298917
1969000 60.2883 258.763 55.8291 0.98445 0.00914426
1969200 60.2883 258.776 55.8291 0.98455 0.00825456
1969400 60.2883 258.789 55.8291 0.98465 0.0184054
1969600 60.2883 258.802 55.8291 0.98475 0.00191502
1969800 60.2883 258.815 55.8291 0.98485 0.0344243
1970000 60.2883 258.828 55.8291 0.98495 0.0299632
1970200 60.2883 258.841 55.8291 0.98505 0.0273597
1970400 60.2883 258.854 55.8291 0.98515 0.019127
1970600 60.2883 258.867 55.8291 0.98525 0.000184157
1970800 60.2883 258.88 55.8291 0.98535 0.00278831
1971000 60.2883 258.893 55.8291 0.98545 0.0102269
1971200 60.2883 258.906 55.8291 0.98555 -0.0186653
1971400 60.2883 258.919 55.8291 0.98565 -0.00247846
1971600 60.2883 258.932 55.8291 0.98575 -0.0193667
1971800 60.2883 258.945 55.8291 0.98585 -0.0253356
1972000 60.2883 258.959 55.8291 0.98595 -0.0236247
1972200 60.2883 258.972 55.8291 0.98605 -0.0190177
1972400 60.2883 258.985 55.8291 0.98615 -0.0127588
1972600 60.2883 258.998 55.8291 0.98625 -0.0171361
1972800 60.2883 259.011 55.8291 0.98635 0.0114151
1973000 60.2883 259.024 55.8291 0.98645 0.00340568
1973200 60.2883 259.037 55.8291 0.98655 -0.00132748
1973400 60.2883 259.05 55.8291 0.98665 0.0408692
1973600 60.2883 259.063 55.8291 0.98675 0.0193684
1973800 60.2883 259.076 55.8291 0.98685 0.0299856
1974000 60.2883 259.089 55.8291 0.98695 0.0244891
1974200 60.2883 259.102 55.8291 0.98705 0.0168372
1974400 60.2883 259.115 55.8291 0.98715 0.0239088
1974600 60.2883 259.128 55.8291 0.98725 0.00672454
1974800 60.2883 259.141 55.8291 0.98735 0.00615715
1975000 60.2883 259.154 55.8291 0.98745 0.000398628
1975200 60.2883 259.167 55.8291 0.98755 -0.0028808
1975400 60.2883 259.18 55.8291 0.98765 -0.0225627
1975600 60.2883 259.193 55.8291 0.98775 -0.0248606
1975800 60.2883 259.206 55.8291 0.98785 -0.0294877
1976000 60.2883 259.219 55.8291 0.98795 -0.0172731
1976200 60.2883 259.232 55.8291 0.98805 -0.00740099
1976400 60.2883 259.245 55.8291 0.98815 -0.0142277
1976600 60.2883 259.258 55.8291 0.98825 -0.007166
1976800 60.2883 259.271 55.8291 0.98835 0.00196897
1977000 60.2883 259.285 55.8291 0.98845 -0.00888815
1977200 60.2883 259.298 55.8291 0.98855 0.0092696
1977400 60.2883 259.311 55.8291 0.98865 0.0179748
1977600 60.2883 259.324 55.8291 0.98875 0.0284336
1977800 60.2883 259.337 55.8291 0.98885 0.0428536
1978000 60.2883 259.35 55.8291 0.98895 0.0406618
1978200 60.2883 259.363 55.8291 0.98905 0.0103611
1978400 60.2883 259.376 55.8291 0.98915 0.0217637
1978600 60.2883 259.389 55.8291 0.98925 -0.00312911
1978800 60.2883 259.402 55.8291 0.98935 0.00593398
1979000 60.2883 259.415 55.8291 0.98945 0.00239297
1979200 60.2883 259.428 55.8291 0.98955 -0.00781388
1979400 60.2883 259.441 55.8291 0.98965 -0.0121352
1979600 60.2883 259.454 55.8291 0.98975 -0.0267589
1979800 60.2883 259.467 55.8291 0.98985 -0.0295119
1980000 60.2883 259.48 55.8291 0.98995 -0.0212309
1980200 60.2883 259.493 55.8291 0.99005 -0.016222
1980400 60.2883 259.506 55.8291 0.99015 -0.00513086
1980600 60.2883 259.519 55.8291 0.99025 0.00354541
1980800 60.2883 259.532 55.8291 0.99035 -0.00415074
1981000 60.2883 259.545 55.8291 0.99045 -0.00993579
1981200 60.2883 259.558 55.8291 0.99055 0.00808394
1981400 60.2883 259.571 55.8291 0.99065 0.0242372
1981600 60.2883 259.584 55.8291 0.99075 0.0272386
1981800 60.2883 259.597 55.8291 0.99085 0.02583
1982000 60.2883 259.611 55.8291 0.99095 0.0188423
1982200 60.2883 259.624 55.8291 0.99105 0.0292131
1982400 60.2883 259.637 55.8291 0.99115 0.0176292
1982600 60.2883 259.65 55.8291 0.99125 0.0068746
1982800 60.2883 259.663 55.8291 0.99135 -0.00148491
1983000 60.2883 259.676 55.8291 0.99145 0.00360228
1983200 60.2883 259.689 55.8291 0.99155 -0.00802135
1983400 60.2883 259.702 55.8291 0.99165 -0.0107436
1983600 60.2883 259.715 55.8291 0.99175 -0.0129829
1983800 60.2883 259.728 55.8291 0.99185 -0.0230949
1984000 60.2883 259.741 55.8291 0.99195 -0.0202617
1984200 60.2883 259.754 55.8291 0.99205 -0.027044
1984400 60.2883 259.767 55.8291 0.99215 -0.0138871
1984600 60.2883 259.78 55.8291 0.99225 -0.0143629
1984800 60.2883 259.793 55.8291 0.99235 0.0179272
1985000 60.2883 259.806 55.8291 0.99245 0.00452123
1985200 60.2883 259.819 55.8291 0.99255 0.00894568
1985400 60.2883 259.832 55.8291 0.99265 0.0194452
1985600 60.2883 259.845 55.8291 0.99275 0.0231646
1985800 60.2883 259.858 55.8291 0.99285 0.0249081
1986000 60.2883 259.871 55.8291 0.99295 0.0248273
1986200 60.2883 259.884 55.8291 0.99305 0.025337
1986400 60.2883 259.897 55.8291 0.99315 0.0267176
1986600 60.2883 259.91 55.8291 0.99325 0.0102283
1986800 60.2883 259.923 55.8291 0.99335 -0.0221116
1987000 60.2883 259.936 55.8291 0.99345 -0.00293058
1987200 60.2883 259.95 55.8291 0.99355 0.00367109
1987400 60.2883 259.963 55.8291 0.99365 -0.00206519
1987600 60.2883 259.976 55.8291 0.99375 -0.0410304
1987800 60.2883 259.989 55.8291 0.99385 -0.0223978
1988000 60.2883 260.002 55.8291 0.99395 -0.0204581
1988200 60.2883 260.015 55.8291 0.99405 -0.0192363
1988400 60.2883 260.028 55.8291 0.99415 -0.00160143
1988600 60.2883 260.041 55.8291 0.99425 -0.00379085
1988800 60.2883 260.054 55.8291 0.99435 -0.0128792
1989000 60.2883 260.067 55.8291 0.99445 0.0158995
1989200 60.2883 260.08 55.8291 0.99455 0.0334359
1989400 60.2883 260.093 55.8291 0.99465 0.0177745
1989600 60.2883 260.106 55.8291 0.99475 0.0207405
1989800 60.2883 260.119 55.8291 0.99485 0.0287813
1990000 60.2883 260.132 55.8291 0.99495 0.0295642
1990200 60.2883 260.145 55.8291 0.99505 0.0240586
1990400 60.2883 260.158 55.8291 0.99515 0.0123806
1990600 60.2883 260.171 55.8291 0.99525 -0.00164777
1990800 60.2883 260.184 55.8291 0.99535 -0.000928817
1991000 60.2883 260.197 55.8291 0.99545 -0.0177644
1991200 60.2883 260.21 55.8291 0.99555 -0.00263186
1991400 60.2883 260.223 55.8291 0.99565 -0.0378756
1991600 60.2883 260.236 55.8291 0.99575 -0.0137411
1991800 60.2883 260.249 55.8291 0.99585 -0.0174614
1992000 60.2883 260.262 55.8291 0.99595 -0.0224045
1992200 60.2883 260.276 55.8291 0.99605 -0.0105519
1992400 60.2883 260.289 55.8291 0.99615 -0.0175671
1992600 60.2883 260.302 55.8291 0.99625 -0.00175508
1992800 60.2883 260.315 55.8291 0.99635 0.00312291
1993000 60.2883 260.328 55.8291 0.99645 0.0319788
1993200 60.2883 260.341 55.8291 0.99655 0.0229797
1993400 60.2883 260.354 55.8291 0.99665 0.0197825
1993600 60.2883 260.367 55.8291 0.99675 0.0212102
1993800 60.2883 260.38 55.8291 0.99685 0.0197025
1994000 60.2883 260.393 55.8291 0.99695 0.0262058
1994200 60.2883 260.406 55.8291 0.99705 0.0141
1994400 60.2883 260.419 55.8291 0.99715 0.0268423
1994600 60.2883 260.432 55.8291 0.99725 0.00333209
1994800 60.2883 260.445 55.8291 0.99735 -0.00326421
1995000 60.2883 260.458 55.8291 0.99745 -0.0233033
1995200 60.2883 260.471 55.8291 0.99755 -0.0152234
1995400 60.2883 260.484 55.8291 0.99765 -0.0187997
1995600 60.2883 260.497 55.8291 0.99775 -0.0229103
1995800 60.2883 260.51 55.8291 0.99785 -0.0260899
1996000 60.2883 260.523 55.8291 0.99795 -0.0116878
1996200 60.2883 260.536 55.8291 0.99805 -0.0187708
1996400 60.2883 260.549 55.8291 0.99815 0.00148133
1996600 60.2883 260.562 55.8291 0.99825 -0.00454669
1996800 60.2883 260.575 55.8291 0.99835 0.00221638
1997000 60.2883 260.588 55.8291 0.99845 0.013239
1997200 60.2883 260.602 55.8291 0.99855 0.0375396
1997400 60.2883 260.615 55.8291 0.99865 0.0260843
1997600 60.2883 260.628 55.8291 0.99875 0.0334994
1997800 60.2883 260.641 55.8291 0.99885 0.0142031
1998000 60.2883 260.654 55.8291 0.99895 0.0283634
1998200 60.2883 260.667 55.8291 0.99905 0.0057814
1998400 60.2883 260.68 55.8291 0.99915 0.0120252
1998600 60.2883 260.693 55.8291 0.99925 -0.00304307
1998800 60.2883 260.706 55.8291 0.99935 -0.00481452
1999000 60.2883 260.719 55.8291 0.99945 -0.00130309
1999200 60.2883 260.732 55.8291 0.99955 -0.0386248
1999400 60.2883 260.745 55.8291 0.99965 -0.0186292
1999600 60.2883 260.758 55.8291 0.99975 -0.017774
1999800 60.2883 260.771 55.8291 0.99985 -0.0188215
2000000 60.2883 260.784 55.8291 0.99995 -0.0158656
