# Time-averaged data for fix Re_Primary
Step Lx Ly Lz StrainY StressYY
200 60.0864 130.78 55.755 5.025e-05 0.0170692
400 60.0864 130.794 55.755 0.00015025 0.013417
600 60.0864 130.807 55.755 0.00025025 0.0388856
800 60.0864 130.82 55.755 0.00035025 0.046578
1000 60.0864 130.833 55.755 0.00045025 0.0544695
1200 60.0864 130.846 55.755 0.00055025 0.0762621
1400 60.0864 130.859 55.755 0.00065025 0.0868117
1600 60.0864 130.872 55.755 0.00075025 0.0883735
1800 60.0864 130.885 55.755 0.00085025 0.121187
2000 60.0864 130.898 55.755 0.00095025 0.118113
2200 60.0864 130.911 55.755 0.00105025 0.128224
2400 60.0864 130.924 55.755 0.00115025 0.1269
2600 60.0864 130.937 55.755 0.00125025 0.154614
2800 60.0864 130.95 55.755 0.00135025 0.135532
3000 60.0864 130.964 55.755 0.00145025 0.177905
3200 60.0864 130.977 55.755 0.00155025 0.154591
3400 60.0864 130.99 55.755 0.00165025 0.207042
3600 60.0864 131.003 55.755 0.00175025 0.188679
3800 60.0864 131.016 55.755 0.00185025 0.191286
4000 60.0864 131.029 55.755 0.00195025 0.202012
4200 60.0864 131.042 55.755 0.00205025 0.22713
4400 60.0864 131.055 55.755 0.00215025 0.222423
4600 60.0864 131.068 55.755 0.00225025 0.260383
4800 60.0864 131.081 55.755 0.00235025 0.25883
5000 60.0864 131.094 55.755 0.00245025 0.258022
5200 60.0864 131.107 55.755 0.00255025 0.264254
5400 60.0864 131.12 55.755 0.00265025 0.325296
5600 60.0864 131.134 55.755 0.00275025 0.271487
5800 60.0864 131.147 55.755 0.00285025 0.320607
6000 60.0864 131.16 55.755 0.00295025 0.317791
6200 60.0864 131.173 55.755 0.00305025 0.332059
6400 60.0864 131.186 55.755 0.00315025 0.335851
6600 60.0864 131.199 55.755 0.00325025 0.35363
6800 60.0864 131.212 55.755 0.00335025 0.381734
7000 60.0864 131.225 55.755 0.00345025 0.347158
7200 60.0864 131.238 55.755 0.00355025 0.386477
7400 60.0864 131.251 55.755 0.00365025 0.410644
7600 60.0864 131.264 55.755 0.00375025 0.406492
7800 60.0864 131.277 55.755 0.00385025 0.391864
8000 60.0864 131.291 55.755 0.00395025 0.433138
8200 60.0864 131.304 55.755 0.00405025 0.429215
8400 60.0864 131.317 55.755 0.00415025 0.44643
8600 60.0864 131.33 55.755 0.00425025 0.452943
8800 60.0864 131.343 55.755 0.00435025 0.481389
9000 60.0864 131.356 55.755 0.00445025 0.467398
9200 60.0864 131.369 55.755 0.00455025 0.495406
9400 60.0864 131.382 55.755 0.00465025 0.480969
9600 60.0864 131.395 55.755 0.00475025 0.508508
9800 60.0864 131.408 55.755 0.00485025 0.526261
10000 60.0864 131.421 55.755 0.00495025 0.507179
10200 60.0864 131.434 55.755 0.00505025 0.54701
10400 60.0864 131.447 55.755 0.00515025 0.544547
10600 60.0864 131.461 55.755 0.00525025 0.558912
10800 60.0864 131.474 55.755 0.00535025 0.578326
11000 60.0864 131.487 55.755 0.00545025 0.57416
11200 60.0864 131.5 55.755 0.00555025 0.595246
11400 60.0864 131.513 55.755 0.00565025 0.59313
11600 60.0864 131.526 55.755 0.00575025 0.593849
11800 60.0864 131.539 55.755 0.00585025 0.648264
12000 60.0864 131.552 55.755 0.00595025 0.632321
12200 60.0864 131.565 55.755 0.00605025 0.636687
12400 60.0864 131.578 55.755 0.00615025 0.671072
12600 60.0864 131.591 55.755 0.00625025 0.64199
12800 60.0864 131.604 55.755 0.00635025 0.675284
13000 60.0864 131.617 55.755 0.00645025 0.6815
13200 60.0864 131.631 55.755 0.00655025 0.693121
13400 60.0864 131.644 55.755 0.00665025 0.69916
13600 60.0864 131.657 55.755 0.00675025 0.734235
13800 60.0864 131.67 55.755 0.00685025 0.700032
14000 60.0864 131.683 55.755 0.00695025 0.728796
14200 60.0864 131.696 55.755 0.00705025 0.761364
14400 60.0864 131.709 55.755 0.00715025 0.752521
14600 60.0864 131.722 55.755 0.00725025 0.773005
14800 60.0864 131.735 55.755 0.00735025 0.794786
15000 60.0864 131.748 55.755 0.00745025 0.783256
15200 60.0864 131.761 55.755 0.00755025 0.81872
15400 60.0864 131.774 55.755 0.00765025 0.790277
15600 60.0864 131.787 55.755 0.00775025 0.84239
15800 60.0864 131.801 55.755 0.00785025 0.844685
16000 60.0864 131.814 55.755 0.00795025 0.834611
16200 60.0864 131.827 55.755 0.00805025 0.861648
16400 60.0864 131.84 55.755 0.00815025 0.857959
16600 60.0864 131.853 55.755 0.00825025 0.884801
16800 60.0864 131.866 55.755 0.00835025 0.894322
17000 60.0864 131.879 55.755 0.00845025 0.900248
17200 60.0864 131.892 55.755 0.00855025 0.910088
17400 60.0864 131.905 55.755 0.00865025 0.930484
17600 60.0864 131.918 55.755 0.00875025 0.925954
17800 60.0864 131.931 55.755 0.00885025 0.947593
18000 60.0864 131.944 55.755 0.00895025 0.95542
18200 60.0864 131.957 55.755 0.00905025 0.976438
18400 60.0864 131.971 55.755 0.00915025 0.960476
18600 60.0864 131.984 55.755 0.00925025 0.998788
18800 60.0864 131.997 55.755 0.00935025 1.00623
19000 60.0864 132.01 55.755 0.00945025 1.01831
19200 60.0864 132.023 55.755 0.00955025 1.02036
19400 60.0864 132.036 55.755 0.00965025 1.03528
19600 60.0864 132.049 55.755 0.00975025 1.0549
19800 60.0864 132.062 55.755 0.00985025 1.06435
20000 60.0864 132.075 55.755 0.00995025 1.06519
20200 60.0864 132.088 55.755 0.0100503 1.08163
20400 60.0864 132.101 55.755 0.0101503 1.08583
20600 60.0864 132.114 55.755 0.0102503 1.12044
20800 60.0864 132.127 55.755 0.0103503 1.10155
21000 60.0864 132.141 55.755 0.0104503 1.11548
21200 60.0864 132.154 55.755 0.0105503 1.1564
21400 60.0864 132.167 55.755 0.0106503 1.12265
21600 60.0864 132.18 55.755 0.0107503 1.16242
21800 60.0864 132.193 55.755 0.0108503 1.191
22000 60.0864 132.206 55.755 0.0109503 1.18605
22200 60.0864 132.219 55.755 0.0110503 1.1621
22400 60.0864 132.232 55.755 0.0111503 1.20315
22600 60.0864 132.245 55.755 0.0112503 1.21696
22800 60.0864 132.258 55.755 0.0113503 1.21153
23000 60.0864 132.271 55.755 0.0114503 1.2473
23200 60.0864 132.284 55.755 0.0115503 1.20552
23400 60.0864 132.297 55.755 0.0116503 1.28016
23600 60.0864 132.311 55.755 0.0117503 1.27379
23800 60.0864 132.324 55.755 0.0118503 1.25114
24000 60.0864 132.337 55.755 0.0119503 1.29617
24200 60.0864 132.35 55.755 0.0120503 1.29762
24400 60.0864 132.363 55.755 0.0121503 1.31293
24600 60.0864 132.376 55.755 0.0122503 1.32515
24800 60.0864 132.389 55.755 0.0123503 1.3158
25000 60.0864 132.402 55.755 0.0124503 1.33084
25200 60.0864 132.415 55.755 0.0125503 1.36712
25400 60.0864 132.428 55.755 0.0126503 1.34218
25600 60.0864 132.441 55.755 0.0127503 1.38425
25800 60.0864 132.454 55.755 0.0128503 1.39712
26000 60.0864 132.467 55.755 0.0129503 1.37104
26200 60.0864 132.481 55.755 0.0130503 1.40124
26400 60.0864 132.494 55.755 0.0131503 1.42959
26600 60.0864 132.507 55.755 0.0132503 1.41705
26800 60.0864 132.52 55.755 0.0133503 1.42029
27000 60.0864 132.533 55.755 0.0134503 1.48788
27200 60.0864 132.546 55.755 0.0135503 1.43807
27400 60.0864 132.559 55.755 0.0136503 1.46789
27600 60.0864 132.572 55.755 0.0137503 1.51097
27800 60.0864 132.585 55.755 0.0138503 1.46779
28000 60.0864 132.598 55.755 0.0139503 1.50512
28200 60.0864 132.611 55.755 0.0140503 1.53871
28400 60.0864 132.624 55.755 0.0141503 1.51894
28600 60.0864 132.637 55.755 0.0142503 1.52331
28800 60.0864 132.651 55.755 0.0143503 1.55327
29000 60.0864 132.664 55.755 0.0144503 1.55059
29200 60.0864 132.677 55.755 0.0145503 1.58698
29400 60.0864 132.69 55.755 0.0146503 1.53827
29600 60.0864 132.703 55.755 0.0147503 1.61159
29800 60.0864 132.716 55.755 0.0148503 1.60217
30000 60.0864 132.729 55.755 0.0149503 1.63739
30200 60.0864 132.742 55.755 0.0150503 1.59918
30400 60.0864 132.755 55.755 0.0151503 1.63029
30600 60.0864 132.768 55.755 0.0152503 1.66289
30800 60.0864 132.781 55.755 0.0153503 1.62982
31000 60.0864 132.794 55.755 0.0154503 1.66572
31200 60.0864 132.807 55.755 0.0155503 1.68643
31400 60.0864 132.821 55.755 0.0156503 1.68446
31600 60.0864 132.834 55.755 0.0157503 1.70188
31800 60.0864 132.847 55.755 0.0158503 1.70569
32000 60.0864 132.86 55.755 0.0159503 1.72206
32200 60.0864 132.873 55.755 0.0160503 1.74838
32400 60.0864 132.886 55.755 0.0161503 1.75995
32600 60.0864 132.899 55.755 0.0162503 1.72357
32800 60.0864 132.912 55.755 0.0163503 1.7847
33000 60.0864 132.925 55.755 0.0164503 1.78159
33200 60.0864 132.938 55.755 0.0165503 1.76392
33400 60.0864 132.951 55.755 0.0166503 1.80505
33600 60.0864 132.964 55.755 0.0167503 1.82057
33800 60.0864 132.977 55.755 0.0168503 1.82338
34000 60.0864 132.991 55.755 0.0169503 1.81237
34200 60.0864 133.004 55.755 0.0170503 1.86194
34400 60.0864 133.017 55.755 0.0171503 1.87475
34600 60.0864 133.03 55.755 0.0172503 1.85011
34800 60.0864 133.043 55.755 0.0173503 1.86525
35000 60.0864 133.056 55.755 0.0174503 1.89899
35200 60.0864 133.069 55.755 0.0175503 1.91047
35400 60.0864 133.082 55.755 0.0176503 1.89272
35600 60.0864 133.095 55.755 0.0177503 1.9409
35800 60.0864 133.108 55.755 0.0178503 1.93199
36000 60.0864 133.121 55.755 0.0179503 1.95141
36200 60.0864 133.134 55.755 0.0180503 1.96098
36400 60.0864 133.147 55.755 0.0181503 1.96865
36600 60.0864 133.161 55.755 0.0182503 1.95676
36800 60.0864 133.174 55.755 0.0183503 2.00927
37000 60.0864 133.187 55.755 0.0184503 2.00999
37200 60.0864 133.2 55.755 0.0185503 1.99767
37400 60.0864 133.213 55.755 0.0186503 2.04228
37600 60.0864 133.226 55.755 0.0187503 2.03497
37800 60.0864 133.239 55.755 0.0188503 2.03392
38000 60.0864 133.252 55.755 0.0189503 2.05894
38200 60.0864 133.265 55.755 0.0190503 2.09108
38400 60.0864 133.278 55.755 0.0191503 2.08527
38600 60.0864 133.291 55.755 0.0192503 2.09208
38800 60.0864 133.304 55.755 0.0193503 2.11489
39000 60.0864 133.318 55.755 0.0194503 2.12139
39200 60.0864 133.331 55.755 0.0195503 2.1211
39400 60.0864 133.344 55.755 0.0196503 2.14246
39600 60.0864 133.357 55.755 0.0197503 2.16498
39800 60.0864 133.37 55.755 0.0198503 2.15772
40000 60.0864 133.383 55.755 0.0199503 2.17444
40200 60.0864 133.396 55.755 0.0200503 2.19006
40400 60.0864 133.409 55.755 0.0201503 2.18989
40600 60.0864 133.422 55.755 0.0202503 2.21947
40800 60.0864 133.435 55.755 0.0203503 2.23888
41000 60.0864 133.448 55.755 0.0204503 2.22057
41200 60.0864 133.461 55.755 0.0205503 2.23895
41400 60.0864 133.474 55.755 0.0206503 2.26509
41600 60.0864 133.488 55.755 0.0207503 2.25544
41800 60.0864 133.501 55.755 0.0208503 2.27061
42000 60.0864 133.514 55.755 0.0209503 2.28646
42200 60.0864 133.527 55.755 0.0210503 2.2949
42400 60.0864 133.54 55.755 0.0211503 2.31445
42600 60.0864 133.553 55.755 0.0212503 2.31378
42800 60.0864 133.566 55.755 0.0213503 2.33967
43000 60.0864 133.579 55.755 0.0214503 2.33264
43200 60.0864 133.592 55.755 0.0215503 2.36159
43400 60.0864 133.605 55.755 0.0216503 2.37542
43600 60.0864 133.618 55.755 0.0217503 2.36962
43800 60.0864 133.631 55.755 0.0218503 2.3955
44000 60.0864 133.644 55.755 0.0219503 2.42879
44200 60.0864 133.658 55.755 0.0220503 2.3927
44400 60.0864 133.671 55.755 0.0221503 2.42557
44600 60.0864 133.684 55.755 0.0222503 2.44381
44800 60.0864 133.697 55.755 0.0223503 2.46385
45000 60.0864 133.71 55.755 0.0224503 2.45281
45200 60.0864 133.723 55.755 0.0225503 2.47297
45400 60.0864 133.736 55.755 0.0226503 2.48759
45600 60.0864 133.749 55.755 0.0227503 2.48734
45800 60.0864 133.762 55.755 0.0228503 2.48372
46000 60.0864 133.775 55.755 0.0229503 2.5236
46200 60.0864 133.788 55.755 0.0230503 2.53441
46400 60.0864 133.801 55.755 0.0231503 2.52389
46600 60.0864 133.814 55.755 0.0232503 2.56232
46800 60.0864 133.828 55.755 0.0233503 2.57494
47000 60.0864 133.841 55.755 0.0234503 2.56819
47200 60.0864 133.854 55.755 0.0235503 2.60302
47400 60.0864 133.867 55.755 0.0236503 2.58552
47600 60.0864 133.88 55.755 0.0237503 2.6042
47800 60.0864 133.893 55.755 0.0238503 2.61888
48000 60.0864 133.906 55.755 0.0239503 2.63328
48200 60.0864 133.919 55.755 0.0240503 2.63244
48400 60.0864 133.932 55.755 0.0241503 2.66343
48600 60.0864 133.945 55.755 0.0242503 2.67526
48800 60.0864 133.958 55.755 0.0243503 2.67527
49000 60.0864 133.971 55.755 0.0244503 2.69581
49200 60.0864 133.984 55.755 0.0245503 2.69085
49400 60.0864 133.998 55.755 0.0246503 2.71899
49600 60.0864 134.011 55.755 0.0247503 2.72127
49800 60.0864 134.024 55.755 0.0248503 2.76276
50000 60.0864 134.037 55.755 0.0249503 2.72493
50200 60.0864 134.05 55.755 0.0250503 2.76636
50400 60.0864 134.063 55.755 0.0251503 2.76808
50600 60.0864 134.076 55.755 0.0252503 2.78423
50800 60.0864 134.089 55.755 0.0253503 2.80471
51000 60.0864 134.102 55.755 0.0254503 2.81396
51200 60.0864 134.115 55.755 0.0255503 2.7954
51400 60.0864 134.128 55.755 0.0256503 2.85844
51600 60.0864 134.141 55.755 0.0257503 2.82442
51800 60.0864 134.154 55.755 0.0258503 2.86706
52000 60.0864 134.168 55.755 0.0259503 2.85319
52200 60.0864 134.181 55.755 0.0260503 2.88544
52400 60.0864 134.194 55.755 0.0261503 2.88916
52600 60.0864 134.207 55.755 0.0262503 2.90579
52800 60.0864 134.22 55.755 0.0263503 2.90162
53000 60.0864 134.233 55.755 0.0264503 2.90791
53200 60.0864 134.246 55.755 0.0265503 2.92884
53400 60.0864 134.259 55.755 0.0266503 2.94787
53600 60.0864 134.272 55.755 0.0267503 2.9698
53800 60.0864 134.285 55.755 0.0268503 2.95247
54000 60.0864 134.298 55.755 0.0269503 2.9804
54200 60.0864 134.311 55.755 0.0270503 2.97805
54400 60.0864 134.324 55.755 0.0271503 3.02331
54600 60.0864 134.338 55.755 0.0272503 2.98496
54800 60.0864 134.351 55.755 0.0273503 3.01683
55000 60.0864 134.364 55.755 0.0274503 3.0242
55200 60.0864 134.377 55.755 0.0275503 3.04898
55400 60.0864 134.39 55.755 0.0276503 3.04503
55600 60.0864 134.403 55.755 0.0277503 3.06918
55800 60.0864 134.416 55.755 0.0278503 3.07059
56000 60.0864 134.429 55.755 0.0279503 3.09174
56200 60.0864 134.442 55.755 0.0280503 3.10189
56400 60.0864 134.455 55.755 0.0281503 3.12234
56600 60.0864 134.468 55.755 0.0282503 3.11836
56800 60.0864 134.481 55.755 0.0283503 3.14151
57000 60.0864 134.494 55.755 0.0284503 3.15769
57200 60.0864 134.508 55.755 0.0285503 3.13832
57400 60.0864 134.521 55.755 0.0286503 3.18089
57600 60.0864 134.534 55.755 0.0287503 3.18577
57800 60.0864 134.547 55.755 0.0288503 3.18998
58000 60.0864 134.56 55.755 0.0289503 3.21333
58200 60.0864 134.573 55.755 0.0290503 3.19614
58400 60.0864 134.586 55.755 0.0291503 3.24605
58600 60.0864 134.599 55.755 0.0292503 3.23394
58800 60.0864 134.612 55.755 0.0293503 3.24063
59000 60.0864 134.625 55.755 0.0294503 3.27365
59200 60.0864 134.638 55.755 0.0295503 3.28548
59400 60.0864 134.651 55.755 0.0296503 3.28416
59600 60.0864 134.664 55.755 0.0297503 3.29999
59800 60.0864 134.678 55.755 0.0298503 3.31131
60000 60.0864 134.691 55.755 0.0299503 3.32661
60200 60.0864 134.704 55.755 0.0300503 3.34671
60400 60.0864 134.717 55.755 0.0301503 3.33922
60600 60.0864 134.73 55.755 0.0302503 3.35823
60800 60.0864 134.743 55.755 0.0303503 3.38855
61000 60.0864 134.756 55.755 0.0304503 3.38388
61200 60.0864 134.769 55.755 0.0305503 3.38089
61400 60.0864 134.782 55.755 0.0306503 3.41451
61600 60.0864 134.795 55.755 0.0307503 3.4279
61800 60.0864 134.808 55.755 0.0308503 3.42141
62000 60.0864 134.821 55.755 0.0309503 3.42554
62200 60.0864 134.834 55.755 0.0310503 3.47546
62400 60.0864 134.848 55.755 0.0311503 3.43794
62600 60.0864 134.861 55.755 0.0312503 3.48954
62800 60.0864 134.874 55.755 0.0313503 3.47427
63000 60.0864 134.887 55.755 0.0314503 3.50222
63200 60.0864 134.9 55.755 0.0315503 3.50479
63400 60.0864 134.913 55.755 0.0316503 3.53855
63600 60.0864 134.926 55.755 0.0317503 3.51799
63800 60.0864 134.939 55.755 0.0318503 3.53812
64000 60.0864 134.952 55.755 0.0319503 3.55623
64200 60.0864 134.965 55.755 0.0320503 3.56075
64400 60.0864 134.978 55.755 0.0321503 3.58795
64600 60.0864 134.991 55.755 0.0322503 3.57361
64800 60.0864 135.004 55.755 0.0323503 3.63029
65000 60.0864 135.018 55.755 0.0324503 3.59359
65200 60.0864 135.031 55.755 0.0325503 3.64341
65400 60.0864 135.044 55.755 0.0326503 3.63082
65600 60.0864 135.057 55.755 0.0327503 3.66004
65800 60.0864 135.07 55.755 0.0328503 3.66763
66000 60.0864 135.083 55.755 0.0329503 3.66716
66200 60.0864 135.096 55.755 0.0330503 3.69527
66400 60.0864 135.109 55.755 0.0331503 3.71185
66600 60.0864 135.122 55.755 0.0332503 3.70211
66800 60.0864 135.135 55.755 0.0333503 3.73888
67000 60.0864 135.148 55.755 0.0334503 3.71057
67200 60.0864 135.161 55.755 0.0335503 3.7721
67400 60.0864 135.174 55.755 0.0336503 3.76916
67600 60.0864 135.188 55.755 0.0337503 3.76495
67800 60.0864 135.201 55.755 0.0338503 3.76334
68000 60.0864 135.214 55.755 0.0339503 3.81374
68200 60.0864 135.227 55.755 0.0340503 3.81459
68400 60.0864 135.24 55.755 0.0341503 3.81354
68600 60.0864 135.253 55.755 0.0342503 3.82481
68800 60.0864 135.266 55.755 0.0343503 3.85606
69000 60.0864 135.279 55.755 0.0344503 3.86021
69200 60.0864 135.292 55.755 0.0345503 3.8591
69400 60.0864 135.305 55.755 0.0346503 3.88444
69600 60.0864 135.318 55.755 0.0347503 3.90799
69800 60.0864 135.331 55.755 0.0348503 3.8995
70000 60.0864 135.344 55.755 0.0349503 3.91627
70200 60.0864 135.358 55.755 0.0350503 3.93147
70400 60.0864 135.371 55.755 0.0351503 3.94223
70600 60.0864 135.384 55.755 0.0352503 3.93825
70800 60.0864 135.397 55.755 0.0353503 3.98399
71000 60.0864 135.41 55.755 0.0354503 3.98031
71200 60.0864 135.423 55.755 0.0355503 3.96989
71400 60.0864 135.436 55.755 0.0356503 4.00896
71600 60.0864 135.449 55.755 0.0357503 4.01279
71800 60.0864 135.462 55.755 0.0358503 4.01275
72000 60.0864 135.475 55.755 0.0359503 4.0428
72200 60.0864 135.488 55.755 0.0360503 4.0513
72400 60.0864 135.501 55.755 0.0361503 4.07045
72600 60.0864 135.515 55.755 0.0362503 4.07838
72800 60.0864 135.528 55.755 0.0363503 4.07572
73000 60.0864 135.541 55.755 0.0364503 4.10479
73200 60.0864 135.554 55.755 0.0365503 4.12705
73400 60.0864 135.567 55.755 0.0366503 4.11646
73600 60.0864 135.58 55.755 0.0367503 4.13676
73800 60.0864 135.593 55.755 0.0368503 4.14802
74000 60.0864 135.606 55.755 0.0369503 4.15579
74200 60.0864 135.619 55.755 0.0370503 4.18653
74400 60.0864 135.632 55.755 0.0371503 4.17755
74600 60.0864 135.645 55.755 0.0372503 4.20427
74800 60.0864 135.658 55.755 0.0373503 4.2268
75000 60.0864 135.671 55.755 0.0374503 4.19214
75200 60.0864 135.685 55.755 0.0375503 4.2584
75400 60.0864 135.698 55.755 0.0376503 4.22289
75600 60.0864 135.711 55.755 0.0377503 4.27578
75800 60.0864 135.724 55.755 0.0378503 4.26036
76000 60.0864 135.737 55.755 0.0379503 4.30286
76200 60.0864 135.75 55.755 0.0380503 4.26886
76400 60.0864 135.763 55.755 0.0381503 4.30853
76600 60.0864 135.776 55.755 0.0382503 4.30975
76800 60.0864 135.789 55.755 0.0383503 4.33296
77000 60.0864 135.802 55.755 0.0384503 4.34851
77200 60.0864 135.815 55.755 0.0385503 4.33418
77400 60.0864 135.828 55.755 0.0386503 4.38818
77600 60.0864 135.841 55.755 0.0387503 4.36161
77800 60.0864 135.855 55.755 0.0388503 4.39237
78000 60.0864 135.868 55.755 0.0389503 4.40097
78200 60.0864 135.881 55.755 0.0390503 4.42925
78400 60.0864 135.894 55.755 0.0391503 4.42706
78600 60.0864 135.907 55.755 0.0392503 4.43928
78800 60.0864 135.92 55.755 0.0393503 4.45783
79000 60.0864 135.933 55.755 0.0394503 4.4597
79200 60.0864 135.946 55.755 0.0395503 4.4924
79400 60.0864 135.959 55.755 0.0396503 4.47798
79600 60.0864 135.972 55.755 0.0397503 4.50986
79800 60.0864 135.985 55.755 0.0398503 4.51403
80000 60.0864 135.998 55.755 0.0399503 4.53676
80200 60.0864 136.011 55.755 0.0400503 4.52924
80400 60.0864 136.025 55.755 0.0401503 4.54362
80600 60.0864 136.038 55.755 0.0402503 4.58292
80800 60.0864 136.051 55.755 0.0403503 4.57065
81000 60.0864 136.064 55.755 0.0404503 4.58806
81200 60.0864 136.077 55.755 0.0405503 4.60388
81400 60.0864 136.09 55.755 0.0406503 4.62398
81600 60.0864 136.103 55.755 0.0407503 4.61804
81800 60.0864 136.116 55.755 0.0408503 4.65178
82000 60.0864 136.129 55.755 0.0409503 4.64431
82200 60.0864 136.142 55.755 0.0410503 4.67842
82400 60.0864 136.155 55.755 0.0411503 4.67035
82600 60.0864 136.168 55.755 0.0412503 4.67909
82800 60.0864 136.181 55.755 0.0413503 4.71882
83000 60.0864 136.195 55.755 0.0414503 4.70279
83200 60.0864 136.208 55.755 0.0415503 4.73264
83400 60.0864 136.221 55.755 0.0416503 4.73826
83600 60.0864 136.234 55.755 0.0417503 4.76799
83800 60.0864 136.247 55.755 0.0418503 4.76687
84000 60.0864 136.26 55.755 0.0419503 4.77906
84200 60.0864 136.273 55.755 0.0420503 4.80521
84400 60.0864 136.286 55.755 0.0421503 4.78395
84600 60.0864 136.299 55.755 0.0422503 4.81867
84800 60.0864 136.312 55.755 0.0423503 4.83647
85000 60.0864 136.325 55.755 0.0424503 4.8385
85200 60.0864 136.338 55.755 0.0425503 4.8416
85400 60.0864 136.351 55.755 0.0426503 4.85785
85600 60.0864 136.365 55.755 0.0427503 4.884
85800 60.0864 136.378 55.755 0.0428503 4.91484
86000 60.0864 136.391 55.755 0.0429503 4.86494
86200 60.0864 136.404 55.755 0.0430503 4.94003
86400 60.0864 136.417 55.755 0.0431503 4.9197
86600 60.0864 136.43 55.755 0.0432503 4.94619
86800 60.0864 136.443 55.755 0.0433503 4.94612
87000 60.0864 136.456 55.755 0.0434503 4.96068
87200 60.0864 136.469 55.755 0.0435503 4.96867
87400 60.0864 136.482 55.755 0.0436503 4.99029
87600 60.0864 136.495 55.755 0.0437503 4.98958
87800 60.0864 136.508 55.755 0.0438503 5.02718
88000 60.0864 136.521 55.755 0.0439503 5.0195
88200 60.0864 136.535 55.755 0.0440503 5.03744
88400 60.0864 136.548 55.755 0.0441503 5.05194
88600 60.0864 136.561 55.755 0.0442503 5.05902
88800 60.0864 136.574 55.755 0.0443503 5.07614
89000 60.0864 136.587 55.755 0.0444503 5.09881
89200 60.0864 136.6 55.755 0.0445503 5.10597
89400 60.0864 136.613 55.755 0.0446503 5.10289
89600 60.0864 136.626 55.755 0.0447503 5.12331
89800 60.0864 136.639 55.755 0.0448503 5.14256
90000 60.0864 136.652 55.755 0.0449503 5.14034
90200 60.0864 136.665 55.755 0.0450503 5.16436
90400 60.0864 136.678 55.755 0.0451503 5.16873
90600 60.0864 136.691 55.755 0.0452503 5.18478
90800 60.0864 136.705 55.755 0.0453503 5.19339
91000 60.0864 136.718 55.755 0.0454503 5.22706
91200 60.0864 136.731 55.755 0.0455503 5.21907
91400 60.0864 136.744 55.755 0.0456503 5.25529
91600 60.0864 136.757 55.755 0.0457503 5.24062
91800 60.0864 136.77 55.755 0.0458503 5.28095
92000 60.0864 136.783 55.755 0.0459503 5.26353
92200 60.0864 136.796 55.755 0.0460503 5.32393
92400 60.0864 136.809 55.755 0.0461503 5.29729
92600 60.0864 136.822 55.755 0.0462503 5.31526
92800 60.0864 136.835 55.755 0.0463503 5.33671
93000 60.0864 136.848 55.755 0.0464503 5.33496
93200 60.0864 136.861 55.755 0.0465503 5.38062
93400 60.0864 136.875 55.755 0.0466503 5.36992
93600 60.0864 136.888 55.755 0.0467503 5.37115
93800 60.0864 136.901 55.755 0.0468503 5.39781
94000 60.0864 136.914 55.755 0.0469503 5.41139
94200 60.0864 136.927 55.755 0.0470503 5.40351
94400 60.0864 136.94 55.755 0.0471503 5.43655
94600 60.0864 136.953 55.755 0.0472503 5.44799
94800 60.0864 136.966 55.755 0.0473503 5.44412
95000 60.0864 136.979 55.755 0.0474503 5.4661
95200 60.0864 136.992 55.755 0.0475503 5.48044
95400 60.0864 137.005 55.755 0.0476503 5.476
95600 60.0864 137.018 55.755 0.0477503 5.52176
95800 60.0864 137.031 55.755 0.0478503 5.50476
96000 60.0864 137.045 55.755 0.0479503 5.54951
96200 60.0864 137.058 55.755 0.0480503 5.5294
96400 60.0864 137.071 55.755 0.0481503 5.55755
96600 60.0864 137.084 55.755 0.0482503 5.57706
96800 60.0864 137.097 55.755 0.0483503 5.58167
97000 60.0864 137.11 55.755 0.0484503 5.58739
97200 60.0864 137.123 55.755 0.0485503 5.61032
97400 60.0864 137.136 55.755 0.0486503 5.62791
97600 60.0864 137.149 55.755 0.0487503 5.6219
97800 60.0864 137.162 55.755 0.0488503 5.6577
98000 60.0864 137.175 55.755 0.0489503 5.65221
98200 60.0864 137.188 55.755 0.0490503 5.66776
98400 60.0864 137.201 55.755 0.0491503 5.69883
98600 60.0864 137.215 55.755 0.0492503 5.721
98800 60.0864 137.228 55.755 0.0493503 5.69051
99000 60.0864 137.241 55.755 0.0494503 5.73438
99200 60.0864 137.254 55.755 0.0495503 5.73367
99400 60.0864 137.267 55.755 0.0496503 5.73588
99600 60.0864 137.28 55.755 0.0497503 5.76825
99800 60.0864 137.293 55.755 0.0498503 5.77704
100000 60.0864 137.306 55.755 0.0499503 5.79817
100200 60.0864 137.319 55.755 0.0500503 5.78692
100400 60.0864 137.332 55.755 0.0501503 5.8275
100600 60.0864 137.345 55.755 0.0502503 5.81074
100800 60.0864 137.358 55.755 0.0503503 5.84556
101000 60.0864 137.371 55.755 0.0504503 5.82266
101200 60.0864 137.385 55.755 0.0505503 5.88411
101400 60.0864 137.398 55.755 0.0506503 5.87791
101600 60.0864 137.411 55.755 0.0507503 5.87584
101800 60.0864 137.424 55.755 0.0508503 5.8998
102000 60.0864 137.437 55.755 0.0509503 5.91749
102200 60.0864 137.45 55.755 0.0510503 5.92506
102400 60.0864 137.463 55.755 0.0511503 5.94194
102600 60.0864 137.476 55.755 0.0512503 5.95158
102800 60.0864 137.489 55.755 0.0513503 5.9642
103000 60.0864 137.502 55.755 0.0514503 5.98387
103200 60.0864 137.515 55.755 0.0515503 5.98557
103400 60.0864 137.528 55.755 0.0516503 5.9934
103600 60.0864 137.541 55.755 0.0517503 6.01659
103800 60.0864 137.555 55.755 0.0518503 6.04886
104000 60.0864 137.568 55.755 0.0519503 6.04649
104200 60.0864 137.581 55.755 0.0520503 6.05143
104400 60.0864 137.594 55.755 0.0521503 6.06974
104600 60.0864 137.607 55.755 0.0522503 6.08898
104800 60.0864 137.62 55.755 0.0523503 6.09102
105000 60.0864 137.633 55.755 0.0524503 6.11348
105200 60.0864 137.646 55.755 0.0525503 6.13043
105400 60.0864 137.659 55.755 0.0526503 6.12979
105600 60.0864 137.672 55.755 0.0527503 6.14088
105800 60.0864 137.685 55.755 0.0528503 6.17008
106000 60.0864 137.698 55.755 0.0529503 6.1764
106200 60.0864 137.712 55.755 0.0530503 6.18411
106400 60.0864 137.725 55.755 0.0531503 6.2039
106600 60.0864 137.738 55.755 0.0532503 6.21057
106800 60.0864 137.751 55.755 0.0533503 6.24093
107000 60.0864 137.764 55.755 0.0534503 6.24412
107200 60.0864 137.777 55.755 0.0535503 6.24091
107400 60.0864 137.79 55.755 0.0536503 6.26364
107600 60.0864 137.803 55.755 0.0537503 6.26919
107800 60.0864 137.816 55.755 0.0538503 6.29502
108000 60.0864 137.829 55.755 0.0539503 6.29428
108200 60.0864 137.842 55.755 0.0540503 6.31003
108400 60.0864 137.855 55.755 0.0541503 6.32425
108600 60.0864 137.868 55.755 0.0542503 6.34141
108800 60.0864 137.882 55.755 0.0543503 6.34203
109000 60.0864 137.895 55.755 0.0544503 6.36092
109200 60.0864 137.908 55.755 0.0545503 6.37255
109400 60.0864 137.921 55.755 0.0546503 6.38557
109600 60.0864 137.934 55.755 0.0547503 6.38501
109800 60.0864 137.947 55.755 0.0548503 6.41373
110000 60.0864 137.96 55.755 0.0549503 6.43647
110200 60.0864 137.973 55.755 0.0550503 6.41643
110400 60.0864 137.986 55.755 0.0551503 6.46312
110600 60.0864 137.999 55.755 0.0552503 6.47044
110800 60.0864 138.012 55.755 0.0553503 6.47843
111000 60.0864 138.025 55.755 0.0554503 6.48775
111200 60.0864 138.038 55.755 0.0555503 6.50215
111400 60.0864 138.052 55.755 0.0556503 6.51318
111600 60.0864 138.065 55.755 0.0557503 6.52273
111800 60.0864 138.078 55.755 0.0558503 6.52804
112000 60.0864 138.091 55.755 0.0559503 6.57132
112200 60.0864 138.104 55.755 0.0560503 6.56144
112400 60.0864 138.117 55.755 0.0561503 6.6035
112600 60.0864 138.13 55.755 0.0562503 6.60028
112800 60.0864 138.143 55.755 0.0563503 6.59401
113000 60.0864 138.156 55.755 0.0564503 6.62662
113200 60.0864 138.169 55.755 0.0565503 6.65186
113400 60.0864 138.182 55.755 0.0566503 6.61736
113600 60.0864 138.195 55.755 0.0567503 6.66512
113800 60.0864 138.208 55.755 0.0568503 6.66966
114000 60.0864 138.222 55.755 0.0569503 6.69842
114200 60.0864 138.235 55.755 0.0570503 6.67482
114400 60.0864 138.248 55.755 0.0571503 6.71231
114600 60.0864 138.261 55.755 0.0572503 6.72127
114800 60.0864 138.274 55.755 0.0573503 6.72108
115000 60.0864 138.287 55.755 0.0574503 6.74987
115200 60.0864 138.3 55.755 0.0575503 6.7627
115400 60.0864 138.313 55.755 0.0576503 6.76832
115600 60.0864 138.326 55.755 0.0577503 6.80278
115800 60.0864 138.339 55.755 0.0578503 6.78235
116000 60.0864 138.352 55.755 0.0579503 6.83017
116200 60.0864 138.365 55.755 0.0580503 6.81321
116400 60.0864 138.378 55.755 0.0581503 6.84954
116600 60.0864 138.392 55.755 0.0582503 6.84889
116800 60.0864 138.405 55.755 0.0583503 6.86034
117000 60.0864 138.418 55.755 0.0584503 6.86788
117200 60.0864 138.431 55.755 0.0585503 6.9062
117400 60.0864 138.444 55.755 0.0586503 6.89214
117600 60.0864 138.457 55.755 0.0587503 6.92408
117800 60.0864 138.47 55.755 0.0588503 6.91635
118000 60.0864 138.483 55.755 0.0589503 6.92465
118200 60.0864 138.496 55.755 0.0590503 6.95513
118400 60.0864 138.509 55.755 0.0591503 6.983
118600 60.0864 138.522 55.755 0.0592503 6.97151
118800 60.0864 138.535 55.755 0.0593503 6.9888
119000 60.0864 138.548 55.755 0.0594503 7.0089
119200 60.0864 138.562 55.755 0.0595503 7.01175
119400 60.0864 138.575 55.755 0.0596503 7.02532
119600 60.0864 138.588 55.755 0.0597503 7.04658
119800 60.0864 138.601 55.755 0.0598503 7.05458
120000 60.0864 138.614 55.755 0.0599503 7.07623
120200 60.0864 138.627 55.755 0.0600503 7.08461
120400 60.0864 138.64 55.755 0.0601503 7.08906
120600 60.0864 138.653 55.755 0.0602503 7.10135
120800 60.0864 138.666 55.755 0.0603503 7.13216
121000 60.0864 138.679 55.755 0.0604503 7.12929
121200 60.0864 138.692 55.755 0.0605503 7.13545
121400 60.0864 138.705 55.755 0.0606503 7.162
121600 60.0864 138.718 55.755 0.0607503 7.16393
121800 60.0864 138.732 55.755 0.0608503 7.19569
122000 60.0864 138.745 55.755 0.0609503 7.1936
122200 60.0864 138.758 55.755 0.0610503 7.21138
122400 60.0864 138.771 55.755 0.0611503 7.23072
122600 60.0864 138.784 55.755 0.0612503 7.22486
122800 60.0864 138.797 55.755 0.0613503 7.26399
123000 60.0864 138.81 55.755 0.0614503 7.26475
123200 60.0864 138.823 55.755 0.0615503 7.27771
123400 60.0864 138.836 55.755 0.0616503 7.27793
123600 60.0864 138.849 55.755 0.0617503 7.31783
123800 60.0864 138.862 55.755 0.0618503 7.31073
124000 60.0864 138.875 55.755 0.0619503 7.33744
124200 60.0864 138.888 55.755 0.0620503 7.3417
124400 60.0864 138.902 55.755 0.0621503 7.3663
124600 60.0864 138.915 55.755 0.0622503 7.36593
124800 60.0864 138.928 55.755 0.0623503 7.38971
125000 60.0864 138.941 55.755 0.0624503 7.39692
125200 60.0864 138.954 55.755 0.0625503 7.40828
125400 60.0864 138.967 55.755 0.0626503 7.4294
125600 60.0864 138.98 55.755 0.0627503 7.42839
125800 60.0864 138.993 55.755 0.0628503 7.47127
126000 60.0864 139.006 55.755 0.0629503 7.45476
126200 60.0864 139.019 55.755 0.0630503 7.48059
126400 60.0864 139.032 55.755 0.0631503 7.4952
126600 60.0864 139.045 55.755 0.0632503 7.49552
126800 60.0864 139.058 55.755 0.0633503 7.52642
127000 60.0864 139.072 55.755 0.0634503 7.5239
127200 60.0864 139.085 55.755 0.0635503 7.55118
127400 60.0864 139.098 55.755 0.0636503 7.55718
127600 60.0864 139.111 55.755 0.0637503 7.58556
127800 60.0864 139.124 55.755 0.0638503 7.56828
128000 60.0864 139.137 55.755 0.0639503 7.60862
128200 60.0864 139.15 55.755 0.0640503 7.61452
128400 60.0864 139.163 55.755 0.0641503 7.61363
128600 60.0864 139.176 55.755 0.0642503 7.64383
128800 60.0864 139.189 55.755 0.0643503 7.65492
129000 60.0864 139.202 55.755 0.0644503 7.65697
129200 60.0864 139.215 55.755 0.0645503 7.68408
129400 60.0864 139.228 55.755 0.0646503 7.7005
129600 60.0864 139.242 55.755 0.0647503 7.70139
129800 60.0864 139.255 55.755 0.0648503 7.70169
130000 60.0864 139.268 55.755 0.0649503 7.75325
130200 60.0864 139.281 55.755 0.0650503 7.7207
130400 60.0864 139.294 55.755 0.0651503 7.76788
130600 60.0864 139.307 55.755 0.0652503 7.77232
130800 60.0864 139.32 55.755 0.0653503 7.77996
131000 60.0864 139.333 55.755 0.0654503 7.79685
131200 60.0864 139.346 55.755 0.0655503 7.80091
131400 60.0864 139.359 55.755 0.0656503 7.83263
131600 60.0864 139.372 55.755 0.0657503 7.82725
131800 60.0864 139.385 55.755 0.0658503 7.86637
132000 60.0864 139.398 55.755 0.0659503 7.83951
132200 60.0864 139.412 55.755 0.0660503 7.8822
132400 60.0864 139.425 55.755 0.0661503 7.88078
132600 60.0864 139.438 55.755 0.0662503 7.90359
132800 60.0864 139.451 55.755 0.0663503 7.92117
133000 60.0864 139.464 55.755 0.0664503 7.93613
133200 60.0864 139.477 55.755 0.0665503 7.93322
133400 60.0864 139.49 55.755 0.0666503 7.96511
133600 60.0864 139.503 55.755 0.0667503 7.96409
133800 60.0864 139.516 55.755 0.0668503 7.9825
134000 60.0864 139.529 55.755 0.0669503 8.00511
134200 60.0864 139.542 55.755 0.0670503 7.99529
134400 60.0864 139.555 55.755 0.0671503 8.00742
134600 60.0864 139.568 55.755 0.0672503 8.00987
134800 60.0864 139.582 55.755 0.0673503 8.03506
135000 60.0864 139.595 55.755 0.0674503 8.04579
135200 60.0864 139.608 55.755 0.0675503 8.0684
135400 60.0864 139.621 55.755 0.0676503 8.05441
135600 60.0864 139.634 55.755 0.0677503 8.10402
135800 60.0864 139.647 55.755 0.0678503 8.09387
136000 60.0864 139.66 55.755 0.0679503 8.14379
136200 60.0864 139.673 55.755 0.0680503 8.1171
136400 60.0864 139.686 55.755 0.0681503 8.13991
136600 60.0864 139.699 55.755 0.0682503 8.1603
136800 60.0864 139.712 55.755 0.0683503 8.17109
137000 60.0864 139.725 55.755 0.0684503 8.18421
137200 60.0864 139.738 55.755 0.0685503 8.20647
137400 60.0864 139.752 55.755 0.0686503 8.18805
137600 60.0864 139.765 55.755 0.0687503 8.23768
137800 60.0864 139.778 55.755 0.0688503 8.24064
138000 60.0864 139.791 55.755 0.0689503 8.25519
138200 60.0864 139.804 55.755 0.0690503 8.25883
138400 60.0864 139.817 55.755 0.0691503 8.26906
138600 60.0864 139.83 55.755 0.0692503 8.29767
138800 60.0864 139.843 55.755 0.0693503 8.30861
139000 60.0864 139.856 55.755 0.0694503 8.324
139200 60.0864 139.869 55.755 0.0695503 8.32388
139400 60.0864 139.882 55.755 0.0696503 8.34396
139600 60.0864 139.895 55.755 0.0697503 8.36201
139800 60.0864 139.909 55.755 0.0698503 8.37806
140000 60.0864 139.922 55.755 0.0699503 8.38146
140200 60.0864 139.935 55.755 0.0700503 8.38842
140400 60.0864 139.948 55.755 0.0701503 8.41746
140600 60.0864 139.961 55.755 0.0702503 8.43359
140800 60.0864 139.974 55.755 0.0703503 8.42541
141000 60.0864 139.987 55.755 0.0704503 8.46786
141200 60.0864 140 55.755 0.0705503 8.45259
141400 60.0864 140.013 55.755 0.0706503 8.47426
141600 60.0864 140.026 55.755 0.0707503 8.50002
141800 60.0864 140.039 55.755 0.0708503 8.51669
142000 60.0864 140.052 55.755 0.0709503 8.5067
142200 60.0864 140.065 55.755 0.0710503 8.53064
142400 60.0864 140.079 55.755 0.0711503 8.55527
142600 60.0864 140.092 55.755 0.0712503 8.56179
142800 60.0864 140.105 55.755 0.0713503 8.5695
143000 60.0864 140.118 55.755 0.0714503 8.59776
143200 60.0864 140.131 55.755 0.0715503 8.5938
143400 60.0864 140.144 55.755 0.0716503 8.61321
143600 60.0864 140.157 55.755 0.0717503 8.63841
143800 60.0864 140.17 55.755 0.0718503 8.61978
144000 60.0864 140.183 55.755 0.0719503 8.64382
144200 60.0864 140.196 55.755 0.0720503 8.66413
144400 60.0864 140.209 55.755 0.0721503 8.67405
144600 60.0864 140.222 55.755 0.0722503 8.67708
144800 60.0864 140.235 55.755 0.0723503 8.72001
145000 60.0864 140.249 55.755 0.0724503 8.70242
145200 60.0864 140.262 55.755 0.0725503 8.73205
145400 60.0864 140.275 55.755 0.0726503 8.73649
145600 60.0864 140.288 55.755 0.0727503 8.74772
145800 60.0864 140.301 55.755 0.0728503 8.77575
146000 60.0864 140.314 55.755 0.0729503 8.78055
146200 60.0864 140.327 55.755 0.0730503 8.78203
146400 60.0864 140.34 55.755 0.0731503 8.82068
146600 60.0864 140.353 55.755 0.0732503 8.81453
146800 60.0864 140.366 55.755 0.0733503 8.83383
147000 60.0864 140.379 55.755 0.0734503 8.84542
147200 60.0864 140.392 55.755 0.0735503 8.86729
147400 60.0864 140.405 55.755 0.0736503 8.86448
147600 60.0864 140.419 55.755 0.0737503 8.88937
147800 60.0864 140.432 55.755 0.0738503 8.90222
148000 60.0864 140.445 55.755 0.0739503 8.91138
148200 60.0864 140.458 55.755 0.0740503 8.93512
148400 60.0864 140.471 55.755 0.0741503 8.94192
148600 60.0864 140.484 55.755 0.0742503 8.97
148800 60.0864 140.497 55.755 0.0743503 8.95695
149000 60.0864 140.51 55.755 0.0744503 8.97493
149200 60.0864 140.523 55.755 0.0745503 8.99933
149400 60.0864 140.536 55.755 0.0746503 8.99955
149600 60.0864 140.549 55.755 0.0747503 9.01587
149800 60.0864 140.562 55.755 0.0748503 9.04696
150000 60.0864 140.575 55.755 0.0749503 9.0376
150200 60.0864 140.589 55.755 0.0750503 9.0679
150400 60.0864 140.602 55.755 0.0751503 9.07952
150600 60.0864 140.615 55.755 0.0752503 9.08653
150800 60.0864 140.628 55.755 0.0753503 9.0944
151000 60.0864 140.641 55.755 0.0754503 9.12588
151200 60.0864 140.654 55.755 0.0755503 9.11366
151400 60.0864 140.667 55.755 0.0756503 9.16308
151600 60.0864 140.68 55.755 0.0757503 9.14268
151800 60.0864 140.693 55.755 0.0758503 9.1746
152000 60.0864 140.706 55.755 0.0759503 9.18644
152200 60.0864 140.719 55.755 0.0760503 9.18979
152400 60.0864 140.732 55.755 0.0761503 9.22253
152600 60.0864 140.745 55.755 0.0762503 9.21676
152800 60.0864 140.759 55.755 0.0763503 9.23553
153000 60.0864 140.772 55.755 0.0764503 9.25249
153200 60.0864 140.785 55.755 0.0765503 9.25968
153400 60.0864 140.798 55.755 0.0766503 9.29079
153600 60.0864 140.811 55.755 0.0767503 9.27611
153800 60.0864 140.824 55.755 0.0768503 9.30328
154000 60.0864 140.837 55.755 0.0769503 9.3307
154200 60.0864 140.85 55.755 0.0770503 9.32059
154400 60.0864 140.863 55.755 0.0771503 9.35547
154600 60.0864 140.876 55.755 0.0772503 9.36314
154800 60.0864 140.889 55.755 0.0773503 9.3762
155000 60.0864 140.902 55.755 0.0774503 9.37783
155200 60.0864 140.915 55.755 0.0775503 9.39984
155400 60.0864 140.929 55.755 0.0776503 9.42263
155600 60.0864 140.942 55.755 0.0777503 9.41445
155800 60.0864 140.955 55.755 0.0778503 9.45769
156000 60.0864 140.968 55.755 0.0779503 9.4548
156200 60.0864 140.981 55.755 0.0780503 9.46692
156400 60.0864 140.994 55.755 0.0781503 9.48204
156600 60.0864 141.007 55.755 0.0782503 9.50358
156800 60.0864 141.02 55.755 0.0783503 9.51269
157000 60.0864 141.033 55.755 0.0784503 9.52755
157200 60.0864 141.046 55.755 0.0785503 9.53709
157400 60.0864 141.059 55.755 0.0786503 9.53947
157600 60.0864 141.072 55.755 0.0787503 9.58821
157800 60.0864 141.085 55.755 0.0788503 9.57708
158000 60.0864 141.099 55.755 0.0789503 9.58016
158200 60.0864 141.112 55.755 0.0790503 9.61463
158400 60.0864 141.125 55.755 0.0791503 9.6292
158600 60.0864 141.138 55.755 0.0792503 9.63435
158800 60.0864 141.151 55.755 0.0793503 9.65104
159000 60.0864 141.164 55.755 0.0794503 9.66931
159200 60.0864 141.177 55.755 0.0795503 9.6702
159400 60.0864 141.19 55.755 0.0796503 9.68066
159600 60.0864 141.203 55.755 0.0797503 9.7016
159800 60.0864 141.216 55.755 0.0798503 9.72575
160000 60.0864 141.229 55.755 0.0799503 9.73155
160200 60.0864 141.242 55.755 0.0800503 9.73408
160400 60.0864 141.255 55.755 0.0801503 9.74841
160600 60.0864 141.269 55.755 0.0802503 9.77835
160800 60.0864 141.282 55.755 0.0803503 9.78242
161000 60.0864 141.295 55.755 0.0804503 9.77139
161200 60.0864 141.308 55.755 0.0805503 9.8259
161400 60.0864 141.321 55.755 0.0806503 9.82409
161600 60.0864 141.334 55.755 0.0807503 9.84039
161800 60.0864 141.347 55.755 0.0808503 9.81928
162000 60.0864 141.36 55.755 0.0809503 9.84255
162200 60.0864 141.373 55.755 0.0810503 9.88452
162400 60.0864 141.386 55.755 0.0811503 9.87887
162600 60.0864 141.399 55.755 0.0812503 9.8946
162800 60.0864 141.412 55.755 0.0813503 9.89524
163000 60.0864 141.425 55.755 0.0814503 9.93196
163200 60.0864 141.439 55.755 0.0815503 9.91546
163400 60.0864 141.452 55.755 0.0816503 9.9484
163600 60.0864 141.465 55.755 0.0817503 9.97363
163800 60.0864 141.478 55.755 0.0818503 9.9618
164000 60.0864 141.491 55.755 0.0819503 9.9877
164200 60.0864 141.504 55.755 0.0820503 10.0155
164400 60.0864 141.517 55.755 0.0821503 10.0041
164600 60.0864 141.53 55.755 0.0822503 10.0114
164800 60.0864 141.543 55.755 0.0823503 10.0408
165000 60.0864 141.556 55.755 0.0824503 10.0325
165200 60.0864 141.569 55.755 0.0825503 10.0641
165400 60.0864 141.582 55.755 0.0826503 10.0756
165600 60.0864 141.595 55.755 0.0827503 10.0609
165800 60.0864 141.609 55.755 0.0828503 10.1129
166000 60.0864 141.622 55.755 0.0829503 10.1111
166200 60.0864 141.635 55.755 0.0830503 10.1213
166400 60.0864 141.648 55.755 0.0831503 10.1503
166600 60.0864 141.661 55.755 0.0832503 10.1495
166800 60.0864 141.674 55.755 0.0833503 10.1584
167000 60.0864 141.687 55.755 0.0834503 10.1939
167200 60.0864 141.7 55.755 0.0835503 10.2051
167400 60.0864 141.713 55.755 0.0836503 10.2098
167600 60.0864 141.726 55.755 0.0837503 10.2123
167800 60.0864 141.739 55.755 0.0838503 10.2521
168000 60.0864 141.752 55.755 0.0839503 10.2358
168200 60.0864 141.765 55.755 0.0840503 10.2805
168400 60.0864 141.779 55.755 0.0841503 10.2713
168600 60.0864 141.792 55.755 0.0842503 10.2907
168800 60.0864 141.805 55.755 0.0843503 10.3197
169000 60.0864 141.818 55.755 0.0844503 10.31
169200 60.0864 141.831 55.755 0.0845503 10.3217
169400 60.0864 141.844 55.755 0.0846503 10.3511
169600 60.0864 141.857 55.755 0.0847503 10.3398
169800 60.0864 141.87 55.755 0.0848503 10.3857
170000 60.0864 141.883 55.755 0.0849503 10.3729
170200 60.0864 141.896 55.755 0.0850503 10.3917
170400 60.0864 141.909 55.755 0.0851503 10.4237
170600 60.0864 141.922 55.755 0.0852503 10.4169
170800 60.0864 141.936 55.755 0.0853503 10.433
171000 60.0864 141.949 55.755 0.0854503 10.4568
171200 60.0864 141.962 55.755 0.0855503 10.4657
171400 60.0864 141.975 55.755 0.0856503 10.462
171600 60.0864 141.988 55.755 0.0857503 10.4889
171800 60.0864 142.001 55.755 0.0858503 10.5192
172000 60.0864 142.014 55.755 0.0859503 10.5205
172200 60.0864 142.027 55.755 0.0860503 10.5364
172400 60.0864 142.04 55.755 0.0861503 10.535
172600 60.0864 142.053 55.755 0.0862503 10.5684
172800 60.0864 142.066 55.755 0.0863503 10.5742
173000 60.0864 142.079 55.755 0.0864503 10.5909
173200 60.0864 142.092 55.755 0.0865503 10.6046
173400 60.0864 142.106 55.755 0.0866503 10.6107
173600 60.0864 142.119 55.755 0.0867503 10.6292
173800 60.0864 142.132 55.755 0.0868503 10.6465
174000 60.0864 142.145 55.755 0.0869503 10.6549
174200 60.0864 142.158 55.755 0.0870503 10.667
174400 60.0864 142.171 55.755 0.0871503 10.6832
174600 60.0864 142.184 55.755 0.0872503 10.6925
174800 60.0864 142.197 55.755 0.0873503 10.7154
175000 60.0864 142.21 55.755 0.0874503 10.7467
175200 60.0864 142.223 55.755 0.0875503 10.7211
175400 60.0864 142.236 55.755 0.0876503 10.7727
175600 60.0864 142.249 55.755 0.0877503 10.7695
175800 60.0864 142.262 55.755 0.0878503 10.783
176000 60.0864 142.276 55.755 0.0879503 10.7974
176200 60.0864 142.289 55.755 0.0880503 10.8203
176400 60.0864 142.302 55.755 0.0881503 10.8224
176600 60.0864 142.315 55.755 0.0882503 10.845
176800 60.0864 142.328 55.755 0.0883503 10.8492
177000 60.0864 142.341 55.755 0.0884503 10.8603
177200 60.0864 142.354 55.755 0.0885503 10.8871
177400 60.0864 142.367 55.755 0.0886503 10.9002
177600 60.0864 142.38 55.755 0.0887503 10.9073
177800 60.0864 142.393 55.755 0.0888503 10.9196
178000 60.0864 142.406 55.755 0.0889503 10.9425
178200 60.0864 142.419 55.755 0.0890503 10.9503
178400 60.0864 142.432 55.755 0.0891503 10.9699
178600 60.0864 142.446 55.755 0.0892503 10.9818
178800 60.0864 142.459 55.755 0.0893503 10.9929
179000 60.0864 142.472 55.755 0.0894503 11.0079
179200 60.0864 142.485 55.755 0.0895503 11.0154
179400 60.0864 142.498 55.755 0.0896503 11.0429
179600 60.0864 142.511 55.755 0.0897503 11.0365
179800 60.0864 142.524 55.755 0.0898503 11.0788
180000 60.0864 142.537 55.755 0.0899503 11.0792
180200 60.0864 142.55 55.755 0.0900503 11.0867
180400 60.0864 142.563 55.755 0.0901503 11.1018
180600 60.0864 142.576 55.755 0.0902503 11.117
180800 60.0864 142.589 55.755 0.0903503 11.1312
181000 60.0864 142.602 55.755 0.0904503 11.1383
181200 60.0864 142.616 55.755 0.0905503 11.1597
181400 60.0864 142.629 55.755 0.0906503 11.1695
181600 60.0864 142.642 55.755 0.0907503 11.1929
181800 60.0864 142.655 55.755 0.0908503 11.1863
182000 60.0864 142.668 55.755 0.0909503 11.2157
182200 60.0864 142.681 55.755 0.0910503 11.223
182400 60.0864 142.694 55.755 0.0911503 11.2572
182600 60.0864 142.707 55.755 0.0912503 11.2519
182800 60.0864 142.72 55.755 0.0913503 11.2712
183000 60.0864 142.733 55.755 0.0914503 11.2702
183200 60.0864 142.746 55.755 0.0915503 11.3169
183400 60.0864 142.759 55.755 0.0916503 11.293
183600 60.0864 142.772 55.755 0.0917503 11.3258
183800 60.0864 142.786 55.755 0.0918503 11.3232
184000 60.0864 142.799 55.755 0.0919503 11.347
184200 60.0864 142.812 55.755 0.0920503 11.3666
184400 60.0864 142.825 55.755 0.0921503 11.3768
184600 60.0864 142.838 55.755 0.0922503 11.3692
184800 60.0864 142.851 55.755 0.0923503 11.4106
185000 60.0864 142.864 55.755 0.0924503 11.401
185200 60.0864 142.877 55.755 0.0925503 11.4151
185400 60.0864 142.89 55.755 0.0926503 11.4505
185600 60.0864 142.903 55.755 0.0927503 11.4512
185800 60.0864 142.916 55.755 0.0928503 11.4404
186000 60.0864 142.929 55.755 0.0929503 11.4609
186200 60.0864 142.942 55.755 0.0930503 11.4719
186400 60.0864 142.956 55.755 0.0931503 11.4679
186600 60.0864 142.969 55.755 0.0932503 11.5016
186800 60.0864 142.982 55.755 0.0933503 11.5112
187000 60.0864 142.995 55.755 0.0934503 11.5153
187200 60.0864 143.008 55.755 0.0935503 11.5379
187400 60.0864 143.021 55.755 0.0936503 11.5443
187600 60.0864 143.034 55.755 0.0937503 11.5727
187800 60.0864 143.047 55.755 0.0938503 11.5724
188000 60.0864 143.06 55.755 0.0939503 11.5853
188200 60.0864 143.073 55.755 0.0940503 11.6026
188400 60.0864 143.086 55.755 0.0941503 11.6357
188600 60.0864 143.099 55.755 0.0942503 11.6244
188800 60.0864 143.112 55.755 0.0943503 11.6482
189000 60.0864 143.126 55.755 0.0944503 11.67
189200 60.0864 143.139 55.755 0.0945503 11.6639
189400 60.0864 143.152 55.755 0.0946503 11.6929
189600 60.0864 143.165 55.755 0.0947503 11.7077
189800 60.0864 143.178 55.755 0.0948503 11.7057
190000 60.0864 143.191 55.755 0.0949503 11.7363
190200 60.0864 143.204 55.755 0.0950503 11.7426
190400 60.0864 143.217 55.755 0.0951503 11.7542
190600 60.0864 143.23 55.755 0.0952503 11.7725
190800 60.0864 143.243 55.755 0.0953503 11.7814
191000 60.0864 143.256 55.755 0.0954503 11.8015
191200 60.0864 143.269 55.755 0.0955503 11.8162
191400 60.0864 143.282 55.755 0.0956503 11.8194
191600 60.0864 143.296 55.755 0.0957503 11.8456
191800 60.0864 143.309 55.755 0.0958503 11.841
192000 60.0864 143.322 55.755 0.0959503 11.886
192200 60.0864 143.335 55.755 0.0960503 11.8841
192400 60.0864 143.348 55.755 0.0961503 11.8876
192600 60.0864 143.361 55.755 0.0962503 11.9118
192800 60.0864 143.374 55.755 0.0963503 11.9197
193000 60.0864 143.387 55.755 0.0964503 11.9086
193200 60.0864 143.4 55.755 0.0965503 11.9369
193400 60.0864 143.413 55.755 0.0966503 11.94
193600 60.0864 143.426 55.755 0.0967503 11.9674
193800 60.0864 143.439 55.755 0.0968503 11.964
194000 60.0864 143.452 55.755 0.0969503 11.9934
194200 60.0864 143.466 55.755 0.0970503 11.9984
194400 60.0864 143.479 55.755 0.0971503 12.0243
194600 60.0864 143.492 55.755 0.0972503 12.0223
194800 60.0864 143.505 55.755 0.0973503 12.0373
195000 60.0864 143.518 55.755 0.0974503 12.05
195200 60.0864 143.531 55.755 0.0975503 12.0805
195400 60.0864 143.544 55.755 0.0976503 12.0818
195600 60.0864 143.557 55.755 0.0977503 12.0961
195800 60.0864 143.57 55.755 0.0978503 12.1126
196000 60.0864 143.583 55.755 0.0979503 12.1223
196200 60.0864 143.596 55.755 0.0980503 12.144
196400 60.0864 143.609 55.755 0.0981503 12.1608
196600 60.0864 143.622 55.755 0.0982503 12.1567
196800 60.0864 143.636 55.755 0.0983503 12.1841
197000 60.0864 143.649 55.755 0.0984503 12.2007
197200 60.0864 143.662 55.755 0.0985503 12.2015
197400 60.0864 143.675 55.755 0.0986503 12.2368
197600 60.0864 143.688 55.755 0.0987503 12.2215
197800 60.0864 143.701 55.755 0.0988503 12.2609
198000 60.0864 143.714 55.755 0.0989503 12.2381
198200 60.0864 143.727 55.755 0.0990503 12.2614
198400 60.0864 143.74 55.755 0.0991503 12.2804
198600 60.0864 143.753 55.755 0.0992503 12.2906
198800 60.0864 143.766 55.755 0.0993503 12.3007
199000 60.0864 143.779 55.755 0.0994503 12.3207
199200 60.0864 143.792 55.755 0.0995503 12.3363
199400 60.0864 143.806 55.755 0.0996503 12.3466
199600 60.0864 143.819 55.755 0.0997503 12.3502
199800 60.0864 143.832 55.755 0.0998503 12.3759
200000 60.0864 143.845 55.755 0.0999503 12.3644
200200 60.0864 143.858 55.755 0.10005 12.3781
200400 60.0864 143.871 55.755 0.10015 12.3898
200600 60.0864 143.884 55.755 0.10025 12.4047
200800 60.0864 143.897 55.755 0.10035 12.4232
201000 60.0864 143.91 55.755 0.10045 12.4196
201200 60.0864 143.923 55.755 0.10055 12.4503
201400 60.0864 143.936 55.755 0.10065 12.4506
201600 60.0864 143.949 55.755 0.10075 12.4732
201800 60.0864 143.962 55.755 0.10085 12.4889
202000 60.0864 143.976 55.755 0.10095 12.4955
202200 60.0864 143.989 55.755 0.10105 12.5121
202400 60.0864 144.002 55.755 0.10115 12.5322
202600 60.0864 144.015 55.755 0.10125 12.5233
202800 60.0864 144.028 55.755 0.10135 12.5558
203000 60.0864 144.041 55.755 0.10145 12.5729
203200 60.0864 144.054 55.755 0.10155 12.5716
203400 60.0864 144.067 55.755 0.10165 12.6102
203600 60.0864 144.08 55.755 0.10175 12.595
203800 60.0864 144.093 55.755 0.10185 12.6345
204000 60.0864 144.106 55.755 0.10195 12.5996
204200 60.0864 144.119 55.755 0.10205 12.6158
204400 60.0864 144.133 55.755 0.10215 12.643
204600 60.0864 144.146 55.755 0.10225 12.6334
204800 60.0864 144.159 55.755 0.10235 12.6668
205000 60.0864 144.172 55.755 0.10245 12.6695
205200 60.0864 144.185 55.755 0.10255 12.6562
205400 60.0864 144.198 55.755 0.10265 12.6823
205600 60.0864 144.211 55.755 0.10275 12.6933
205800 60.0864 144.224 55.755 0.10285 12.6991
206000 60.0864 144.237 55.755 0.10295 12.7266
206200 60.0864 144.25 55.755 0.10305 12.7359
206400 60.0864 144.263 55.755 0.10315 12.7329
206600 60.0864 144.276 55.755 0.10325 12.781
206800 60.0864 144.289 55.755 0.10335 12.7726
207000 60.0864 144.303 55.755 0.10345 12.7881
207200 60.0864 144.316 55.755 0.10355 12.8007
207400 60.0864 144.329 55.755 0.10365 12.8268
207600 60.0864 144.342 55.755 0.10375 12.8255
207800 60.0864 144.355 55.755 0.10385 12.8557
208000 60.0864 144.368 55.755 0.10395 12.8595
208200 60.0864 144.381 55.755 0.10405 12.8706
208400 60.0864 144.394 55.755 0.10415 12.891
208600 60.0864 144.407 55.755 0.10425 12.9063
208800 60.0864 144.42 55.755 0.10435 12.9068
209000 60.0864 144.433 55.755 0.10445 12.9273
209200 60.0864 144.446 55.755 0.10455 12.9571
209400 60.0864 144.459 55.755 0.10465 12.9355
209600 60.0864 144.473 55.755 0.10475 12.9507
209800 60.0864 144.486 55.755 0.10485 12.9706
210000 60.0864 144.499 55.755 0.10495 12.982
210200 60.0864 144.512 55.755 0.10505 12.9773
210400 60.0864 144.525 55.755 0.10515 13.0095
210600 60.0864 144.538 55.755 0.10525 13.014
210800 60.0864 144.551 55.755 0.10535 13.0426
211000 60.0864 144.564 55.755 0.10545 13.0512
211200 60.0864 144.577 55.755 0.10555 13.0584
211400 60.0864 144.59 55.755 0.10565 13.0768
211600 60.0864 144.603 55.755 0.10575 13.1014
211800 60.0864 144.616 55.755 0.10585 13.1035
212000 60.0864 144.629 55.755 0.10595 13.1134
212200 60.0864 144.643 55.755 0.10605 13.1251
212400 60.0864 144.656 55.755 0.10615 13.1437
212600 60.0864 144.669 55.755 0.10625 13.1687
212800 60.0864 144.682 55.755 0.10635 13.1716
213000 60.0864 144.695 55.755 0.10645 13.182
213200 60.0864 144.708 55.755 0.10655 13.2114
213400 60.0864 144.721 55.755 0.10665 13.216
213600 60.0864 144.734 55.755 0.10675 13.2341
213800 60.0864 144.747 55.755 0.10685 13.2482
214000 60.0864 144.76 55.755 0.10695 13.2549
214200 60.0864 144.773 55.755 0.10705 13.2719
214400 60.0864 144.786 55.755 0.10715 13.2814
214600 60.0864 144.799 55.755 0.10725 13.3001
214800 60.0864 144.813 55.755 0.10735 13.3179
215000 60.0864 144.826 55.755 0.10745 13.3205
215200 60.0864 144.839 55.755 0.10755 13.3246
215400 60.0864 144.852 55.755 0.10765 13.2937
215600 60.0864 144.865 55.755 0.10775 13.3248
215800 60.0864 144.878 55.755 0.10785 13.3323
216000 60.0864 144.891 55.755 0.10795 13.3363
216200 60.0864 144.904 55.755 0.10805 13.3311
216400 60.0864 144.917 55.755 0.10815 13.3554
216600 60.0864 144.93 55.755 0.10825 13.3814
216800 60.0864 144.943 55.755 0.10835 13.378
217000 60.0864 144.956 55.755 0.10845 13.3901
217200 60.0864 144.969 55.755 0.10855 13.4074
217400 60.0864 144.983 55.755 0.10865 13.4183
217600 60.0864 144.996 55.755 0.10875 13.442
217800 60.0864 145.009 55.755 0.10885 13.4485
218000 60.0864 145.022 55.755 0.10895 13.4662
218200 60.0864 145.035 55.755 0.10905 13.4791
218400 60.0864 145.048 55.755 0.10915 13.4625
218600 60.0864 145.061 55.755 0.10925 13.4598
218800 60.0864 145.074 55.755 0.10935 13.4814
219000 60.0864 145.087 55.755 0.10945 13.4806
219200 60.0864 145.1 55.755 0.10955 13.494
219400 60.0864 145.113 55.755 0.10965 13.5148
219600 60.0864 145.126 55.755 0.10975 13.5342
219800 60.0864 145.139 55.755 0.10985 13.5298
220000 60.0864 145.153 55.755 0.10995 13.5777
220200 60.0864 145.166 55.755 0.11005 13.5538
220400 60.0864 145.179 55.755 0.11015 13.5861
220600 60.0864 145.192 55.755 0.11025 13.5998
220800 60.0864 145.205 55.755 0.11035 13.6038
221000 60.0864 145.218 55.755 0.11045 13.6333
221200 60.0864 145.231 55.755 0.11055 13.6285
221400 60.0864 145.244 55.755 0.11065 13.6497
221600 60.0864 145.257 55.755 0.11075 13.6685
221800 60.0864 145.27 55.755 0.11085 13.6795
222000 60.0864 145.283 55.755 0.11095 13.7067
222200 60.0864 145.296 55.755 0.11105 13.6962
222400 60.0864 145.309 55.755 0.11115 13.7408
222600 60.0864 145.323 55.755 0.11125 13.7223
222800 60.0864 145.336 55.755 0.11135 13.7461
223000 60.0864 145.349 55.755 0.11145 13.7666
223200 60.0864 145.362 55.755 0.11155 13.7722
223400 60.0864 145.375 55.755 0.11165 13.7762
223600 60.0864 145.388 55.755 0.11175 13.8194
223800 60.0864 145.401 55.755 0.11185 13.8061
224000 60.0864 145.414 55.755 0.11195 13.834
224200 60.0864 145.427 55.755 0.11205 13.8269
224400 60.0864 145.44 55.755 0.11215 13.8705
224600 60.0864 145.453 55.755 0.11225 13.8718
224800 60.0864 145.466 55.755 0.11235 13.8843
225000 60.0864 145.479 55.755 0.11245 13.9073
225200 60.0864 145.493 55.755 0.11255 13.9012
225400 60.0864 145.506 55.755 0.11265 13.9315
225600 60.0864 145.519 55.755 0.11275 13.9383
225800 60.0864 145.532 55.755 0.11285 13.9412
226000 60.0864 145.545 55.755 0.11295 13.9375
226200 60.0864 145.558 55.755 0.11305 13.9338
226400 60.0864 145.571 55.755 0.11315 13.9415
226600 60.0864 145.584 55.755 0.11325 13.9557
226800 60.0864 145.597 55.755 0.11335 13.9866
227000 60.0864 145.61 55.755 0.11345 13.9829
227200 60.0864 145.623 55.755 0.11355 14.0085
227400 60.0864 145.636 55.755 0.11365 14.0063
227600 60.0864 145.649 55.755 0.11375 14.0455
227800 60.0864 145.663 55.755 0.11385 14.0455
228000 60.0864 145.676 55.755 0.11395 14.0612
228200 60.0864 145.689 55.755 0.11405 14.0698
228400 60.0864 145.702 55.755 0.11415 14.0687
228600 60.0864 145.715 55.755 0.11425 14.1207
228800 60.0864 145.728 55.755 0.11435 14.1057
229000 60.0864 145.741 55.755 0.11445 14.1284
229200 60.0864 145.754 55.755 0.11455 14.1443
229400 60.0864 145.767 55.755 0.11465 14.1567
229600 60.0864 145.78 55.755 0.11475 14.1483
229800 60.0864 145.793 55.755 0.11485 14.1609
230000 60.0864 145.806 55.755 0.11495 14.1769
230200 60.0864 145.819 55.755 0.11505 14.201
230400 60.0864 145.833 55.755 0.11515 14.1923
230600 60.0864 145.846 55.755 0.11525 14.2266
230800 60.0864 145.859 55.755 0.11535 14.2099
231000 60.0864 145.872 55.755 0.11545 14.21
231200 60.0864 145.885 55.755 0.11555 14.2188
231400 60.0864 145.898 55.755 0.11565 14.2268
231600 60.0864 145.911 55.755 0.11575 14.2317
231800 60.0864 145.924 55.755 0.11585 14.2506
232000 60.0864 145.937 55.755 0.11595 14.2474
232200 60.0864 145.95 55.755 0.11605 14.2778
232400 60.0864 145.963 55.755 0.11615 14.2724
232600 60.0864 145.976 55.755 0.11625 14.3102
232800 60.0864 145.989 55.755 0.11635 14.3141
233000 60.0864 146.003 55.755 0.11645 14.3279
233200 60.0864 146.016 55.755 0.11655 14.3316
233400 60.0864 146.029 55.755 0.11665 14.3646
233600 60.0864 146.042 55.755 0.11675 14.3693
233800 60.0864 146.055 55.755 0.11685 14.3892
234000 60.0864 146.068 55.755 0.11695 14.3828
234200 60.0864 146.081 55.755 0.11705 14.4112
234400 60.0864 146.094 55.755 0.11715 14.3726
234600 60.0864 146.107 55.755 0.11725 14.3744
234800 60.0864 146.12 55.755 0.11735 14.3909
235000 60.0864 146.133 55.755 0.11745 14.4112
235200 60.0864 146.146 55.755 0.11755 14.4113
235400 60.0864 146.159 55.755 0.11765 14.4214
235600 60.0864 146.173 55.755 0.11775 14.4432
235800 60.0864 146.186 55.755 0.11785 14.465
236000 60.0864 146.199 55.755 0.11795 14.4666
236200 60.0864 146.212 55.755 0.11805 14.4902
236400 60.0864 146.225 55.755 0.11815 14.5114
236600 60.0864 146.238 55.755 0.11825 14.5027
236800 60.0864 146.251 55.755 0.11835 14.524
237000 60.0864 146.264 55.755 0.11845 14.5402
237200 60.0864 146.277 55.755 0.11855 14.5258
237400 60.0864 146.29 55.755 0.11865 14.5509
237600 60.0864 146.303 55.755 0.11875 14.5609
237800 60.0864 146.316 55.755 0.11885 14.5866
238000 60.0864 146.33 55.755 0.11895 14.5926
238200 60.0864 146.343 55.755 0.11905 14.5889
238400 60.0864 146.356 55.755 0.11915 14.615
238600 60.0864 146.369 55.755 0.11925 14.6135
238800 60.0864 146.382 55.755 0.11935 14.6244
239000 60.0864 146.395 55.755 0.11945 14.6366
239200 60.0864 146.408 55.755 0.11955 14.663
239400 60.0864 146.421 55.755 0.11965 14.6625
239600 60.0864 146.434 55.755 0.11975 14.6955
239800 60.0864 146.447 55.755 0.11985 14.6875
240000 60.0864 146.46 55.755 0.11995 14.6991
240200 60.0864 146.473 55.755 0.12005 14.7149
240400 60.0864 146.486 55.755 0.12015 14.7195
240600 60.0864 146.5 55.755 0.12025 14.7295
240800 60.0864 146.513 55.755 0.12035 14.7367
241000 60.0864 146.526 55.755 0.12045 14.7378
241200 60.0864 146.539 55.755 0.12055 14.7487
241400 60.0864 146.552 55.755 0.12065 14.7308
241600 60.0864 146.565 55.755 0.12075 14.7715
241800 60.0864 146.578 55.755 0.12085 14.7757
242000 60.0864 146.591 55.755 0.12095 14.7646
242200 60.0864 146.604 55.755 0.12105 14.7803
242400 60.0864 146.617 55.755 0.12115 14.7734
242600 60.0864 146.63 55.755 0.12125 14.7943
242800 60.0864 146.643 55.755 0.12135 14.7906
243000 60.0864 146.656 55.755 0.12145 14.8067
243200 60.0864 146.67 55.755 0.12155 14.7999
243400 60.0864 146.683 55.755 0.12165 14.8264
243600 60.0864 146.696 55.755 0.12175 14.8397
243800 60.0864 146.709 55.755 0.12185 14.8663
244000 60.0864 146.722 55.755 0.12195 14.8569
244200 60.0864 146.735 55.755 0.12205 14.8627
244400 60.0864 146.748 55.755 0.12215 14.8116
244600 60.0864 146.761 55.755 0.12225 14.8345
244800 60.0864 146.774 55.755 0.12235 14.8412
245000 60.0864 146.787 55.755 0.12245 14.8264
245200 60.0864 146.8 55.755 0.12255 14.8368
245400 60.0864 146.813 55.755 0.12265 14.8591
245600 60.0864 146.826 55.755 0.12275 14.8285
245800 60.0864 146.84 55.755 0.12285 14.8836
246000 60.0864 146.853 55.755 0.12295 14.8683
246200 60.0864 146.866 55.755 0.12305 14.8825
246400 60.0864 146.879 55.755 0.12315 14.902
246600 60.0864 146.892 55.755 0.12325 14.9156
246800 60.0864 146.905 55.755 0.12335 14.9084
247000 60.0864 146.918 55.755 0.12345 14.9466
247200 60.0864 146.931 55.755 0.12355 14.9456
247400 60.0864 146.944 55.755 0.12365 14.9674
247600 60.0864 146.957 55.755 0.12375 14.9827
247800 60.0864 146.97 55.755 0.12385 14.9803
248000 60.0864 146.983 55.755 0.12395 15.0226
248200 60.0864 146.996 55.755 0.12405 15.0173
248400 60.0864 147.01 55.755 0.12415 15.0175
248600 60.0864 147.023 55.755 0.12425 15.0238
248800 60.0864 147.036 55.755 0.12435 15.0324
249000 60.0864 147.049 55.755 0.12445 15.0462
249200 60.0864 147.062 55.755 0.12455 15.0627
249400 60.0864 147.075 55.755 0.12465 15.0654
249600 60.0864 147.088 55.755 0.12475 15.0836
249800 60.0864 147.101 55.755 0.12485 15.1036
250000 60.0864 147.114 55.755 0.12495 15.106
250200 60.0864 147.127 55.755 0.12505 15.1338
250400 60.0864 147.14 55.755 0.12515 15.1147
250600 60.0864 147.153 55.755 0.12525 15.1447
250800 60.0864 147.166 55.755 0.12535 15.1424
251000 60.0864 147.18 55.755 0.12545 15.1448
251200 60.0864 147.193 55.755 0.12555 15.1295
251400 60.0864 147.206 55.755 0.12565 15.1414
251600 60.0864 147.219 55.755 0.12575 15.1324
251800 60.0864 147.232 55.755 0.12585 15.1533
252000 60.0864 147.245 55.755 0.12595 15.1724
252200 60.0864 147.258 55.755 0.12605 15.1739
252400 60.0864 147.271 55.755 0.12615 15.2062
252600 60.0864 147.284 55.755 0.12625 15.2036
252800 60.0864 147.297 55.755 0.12635 15.2198
253000 60.0864 147.31 55.755 0.12645 15.2173
253200 60.0864 147.323 55.755 0.12655 15.2314
253400 60.0864 147.336 55.755 0.12665 15.2392
253600 60.0864 147.35 55.755 0.12675 15.2659
253800 60.0864 147.363 55.755 0.12685 15.2512
254000 60.0864 147.376 55.755 0.12695 15.2555
254200 60.0864 147.389 55.755 0.12705 15.264
254400 60.0864 147.402 55.755 0.12715 15.2894
254600 60.0864 147.415 55.755 0.12725 15.2836
254800 60.0864 147.428 55.755 0.12735 15.3027
255000 60.0864 147.441 55.755 0.12745 15.3094
255200 60.0864 147.454 55.755 0.12755 15.2952
255400 60.0864 147.467 55.755 0.12765 15.3071
255600 60.0864 147.48 55.755 0.12775 15.3085
255800 60.0864 147.493 55.755 0.12785 15.2978
256000 60.0864 147.506 55.755 0.12795 15.296
256200 60.0864 147.52 55.755 0.12805 15.3303
256400 60.0864 147.533 55.755 0.12815 15.3165
256600 60.0864 147.546 55.755 0.12825 15.3374
256800 60.0864 147.559 55.755 0.12835 15.3507
257000 60.0864 147.572 55.755 0.12845 15.3417
257200 60.0864 147.585 55.755 0.12855 15.3528
257400 60.0864 147.598 55.755 0.12865 15.3515
257600 60.0864 147.611 55.755 0.12875 15.3364
257800 60.0864 147.624 55.755 0.12885 15.3642
258000 60.0864 147.637 55.755 0.12895 15.3779
258200 60.0864 147.65 55.755 0.12905 15.3613
258400 60.0864 147.663 55.755 0.12915 15.3936
258600 60.0864 147.676 55.755 0.12925 15.3898
258800 60.0864 147.69 55.755 0.12935 15.3946
259000 60.0864 147.703 55.755 0.12945 15.3987
259200 60.0864 147.716 55.755 0.12955 15.4244
259400 60.0864 147.729 55.755 0.12965 15.4174
259600 60.0864 147.742 55.755 0.12975 15.446
259800 60.0864 147.755 55.755 0.12985 15.4396
260000 60.0864 147.768 55.755 0.12995 15.4373
260200 60.0864 147.781 55.755 0.13005 15.4566
260400 60.0864 147.794 55.755 0.13015 15.4721
260600 60.0864 147.807 55.755 0.13025 15.4757
260800 60.0864 147.82 55.755 0.13035 15.4987
261000 60.0864 147.833 55.755 0.13045 15.5034
261200 60.0864 147.846 55.755 0.13055 15.5231
261400 60.0864 147.86 55.755 0.13065 15.5408
261600 60.0864 147.873 55.755 0.13075 15.5474
261800 60.0864 147.886 55.755 0.13085 15.553
262000 60.0864 147.899 55.755 0.13095 15.5592
262200 60.0864 147.912 55.755 0.13105 15.546
262400 60.0864 147.925 55.755 0.13115 15.5833
262600 60.0864 147.938 55.755 0.13125 15.5935
262800 60.0864 147.951 55.755 0.13135 15.5948
263000 60.0864 147.964 55.755 0.13145 15.6114
263200 60.0864 147.977 55.755 0.13155 15.6019
263400 60.0864 147.99 55.755 0.13165 15.6149
263600 60.0864 148.003 55.755 0.13175 15.6249
263800 60.0864 148.016 55.755 0.13185 15.6399
264000 60.0864 148.03 55.755 0.13195 15.6654
264200 60.0864 148.043 55.755 0.13205 15.6548
264400 60.0864 148.056 55.755 0.13215 15.6923
264600 60.0864 148.069 55.755 0.13225 15.6898
264800 60.0864 148.082 55.755 0.13235 15.7023
265000 60.0864 148.095 55.755 0.13245 15.7359
265200 60.0864 148.108 55.755 0.13255 15.7187
265400 60.0864 148.121 55.755 0.13265 15.7543
265600 60.0864 148.134 55.755 0.13275 15.7666
265800 60.0864 148.147 55.755 0.13285 15.7631
266000 60.0864 148.16 55.755 0.13295 15.7717
266200 60.0864 148.173 55.755 0.13305 15.7825
266400 60.0864 148.186 55.755 0.13315 15.7929
266600 60.0864 148.2 55.755 0.13325 15.7947
266800 60.0864 148.213 55.755 0.13335 15.8091
267000 60.0864 148.226 55.755 0.13345 15.8263
267200 60.0864 148.239 55.755 0.13355 15.8325
267400 60.0864 148.252 55.755 0.13365 15.8674
267600 60.0864 148.265 55.755 0.13375 15.8635
267800 60.0864 148.278 55.755 0.13385 15.8887
268000 60.0864 148.291 55.755 0.13395 15.8876
268200 60.0864 148.304 55.755 0.13405 15.9133
268400 60.0864 148.317 55.755 0.13415 15.9235
268600 60.0864 148.33 55.755 0.13425 15.9319
268800 60.0864 148.343 55.755 0.13435 15.9239
269000 60.0864 148.357 55.755 0.13445 15.9545
269200 60.0864 148.37 55.755 0.13455 15.9484
269400 60.0864 148.383 55.755 0.13465 15.9399
269600 60.0864 148.396 55.755 0.13475 15.9472
269800 60.0864 148.409 55.755 0.13485 15.9112
270000 60.0864 148.422 55.755 0.13495 15.9513
270200 60.0864 148.435 55.755 0.13505 15.9615
270400 60.0864 148.448 55.755 0.13515 15.9807
270600 60.0864 148.461 55.755 0.13525 15.9786
270800 60.0864 148.474 55.755 0.13535 15.9835
271000 60.0864 148.487 55.755 0.13545 16.0007
271200 60.0864 148.5 55.755 0.13555 15.9884
271400 60.0864 148.513 55.755 0.13565 16.0085
271600 60.0864 148.527 55.755 0.13575 16.0138
271800 60.0864 148.54 55.755 0.13585 15.9996
272000 60.0864 148.553 55.755 0.13595 16.0194
272200 60.0864 148.566 55.755 0.13605 16.0572
272400 60.0864 148.579 55.755 0.13615 16.0464
272600 60.0864 148.592 55.755 0.13625 16.0624
272800 60.0864 148.605 55.755 0.13635 16.059
273000 60.0864 148.618 55.755 0.13645 16.0783
273200 60.0864 148.631 55.755 0.13655 16.0504
273400 60.0864 148.644 55.755 0.13665 16.0964
273600 60.0864 148.657 55.755 0.13675 16.0983
273800 60.0864 148.67 55.755 0.13685 16.1089
274000 60.0864 148.683 55.755 0.13695 16.1302
274200 60.0864 148.697 55.755 0.13705 16.1281
274400 60.0864 148.71 55.755 0.13715 16.1636
274600 60.0864 148.723 55.755 0.13725 16.156
274800 60.0864 148.736 55.755 0.13735 16.1827
275000 60.0864 148.749 55.755 0.13745 16.1918
275200 60.0864 148.762 55.755 0.13755 16.1947
275400 60.0864 148.775 55.755 0.13765 16.2144
275600 60.0864 148.788 55.755 0.13775 16.209
275800 60.0864 148.801 55.755 0.13785 16.2055
276000 60.0864 148.814 55.755 0.13795 16.19
276200 60.0864 148.827 55.755 0.13805 16.1964
276400 60.0864 148.84 55.755 0.13815 16.2111
276600 60.0864 148.853 55.755 0.13825 16.1921
276800 60.0864 148.867 55.755 0.13835 16.2315
277000 60.0864 148.88 55.755 0.13845 16.2222
277200 60.0864 148.893 55.755 0.13855 16.24
277400 60.0864 148.906 55.755 0.13865 16.2316
277600 60.0864 148.919 55.755 0.13875 16.2445
277800 60.0864 148.932 55.755 0.13885 16.2302
278000 60.0864 148.945 55.755 0.13895 16.1792
278200 60.0864 148.958 55.755 0.13905 16.1478
278400 60.0864 148.971 55.755 0.13915 16.1421
278600 60.0864 148.984 55.755 0.13925 16.1118
278800 60.0864 148.997 55.755 0.13935 16.119
279000 60.0864 149.01 55.755 0.13945 16.126
279200 60.0864 149.023 55.755 0.13955 16.1342
279400 60.0864 149.037 55.755 0.13965 16.1408
279600 60.0864 149.05 55.755 0.13975 16.1289
279800 60.0864 149.063 55.755 0.13985 16.1376
280000 60.0864 149.076 55.755 0.13995 16.1561
280200 60.0864 149.089 55.755 0.14005 16.1587
280400 60.0864 149.102 55.755 0.14015 16.1839
280600 60.0864 149.115 55.755 0.14025 16.1842
280800 60.0864 149.128 55.755 0.14035 16.1482
281000 60.0864 149.141 55.755 0.14045 16.1491
281200 60.0864 149.154 55.755 0.14055 16.1493
281400 60.0864 149.167 55.755 0.14065 16.1308
281600 60.0864 149.18 55.755 0.14075 16.1143
281800 60.0864 149.193 55.755 0.14085 16.1067
282000 60.0864 149.207 55.755 0.14095 16.1141
282200 60.0864 149.22 55.755 0.14105 16.1136
282400 60.0864 149.233 55.755 0.14115 16.123
282600 60.0864 149.246 55.755 0.14125 16.1257
282800 60.0864 149.259 55.755 0.14135 16.1195
283000 60.0864 149.272 55.755 0.14145 16.1291
283200 60.0864 149.285 55.755 0.14155 16.1406
283400 60.0864 149.298 55.755 0.14165 16.1092
283600 60.0864 149.311 55.755 0.14175 16.1162
283800 60.0864 149.324 55.755 0.14185 16.0918
284000 60.0864 149.337 55.755 0.14195 16.1219
284200 60.0864 149.35 55.755 0.14205 16.1417
284400 60.0864 149.363 55.755 0.14215 16.1161
284600 60.0864 149.377 55.755 0.14225 16.1241
284800 60.0864 149.39 55.755 0.14235 16.1067
285000 60.0864 149.403 55.755 0.14245 16.1428
285200 60.0864 149.416 55.755 0.14255 16.1409
285400 60.0864 149.429 55.755 0.14265 16.1684
285600 60.0864 149.442 55.755 0.14275 16.1662
285800 60.0864 149.455 55.755 0.14285 16.197
286000 60.0864 149.468 55.755 0.14295 16.168
286200 60.0864 149.481 55.755 0.14305 16.1956
286400 60.0864 149.494 55.755 0.14315 16.1761
286600 60.0864 149.507 55.755 0.14325 16.2318
286800 60.0864 149.52 55.755 0.14335 16.2003
287000 60.0864 149.533 55.755 0.14345 16.2294
287200 60.0864 149.547 55.755 0.14355 16.2523
287400 60.0864 149.56 55.755 0.14365 16.2602
287600 60.0864 149.573 55.755 0.14375 16.2481
287800 60.0864 149.586 55.755 0.14385 16.2209
288000 60.0864 149.599 55.755 0.14395 16.2478
288200 60.0864 149.612 55.755 0.14405 16.247
288400 60.0864 149.625 55.755 0.14415 16.2533
288600 60.0864 149.638 55.755 0.14425 16.256
288800 60.0864 149.651 55.755 0.14435 16.2734
289000 60.0864 149.664 55.755 0.14445 16.2739
289200 60.0864 149.677 55.755 0.14455 16.3009
289400 60.0864 149.69 55.755 0.14465 16.2986
289600 60.0864 149.703 55.755 0.14475 16.321
289800 60.0864 149.717 55.755 0.14485 16.3359
290000 60.0864 149.73 55.755 0.14495 16.3325
290200 60.0864 149.743 55.755 0.14505 16.3514
290400 60.0864 149.756 55.755 0.14515 16.3647
290600 60.0864 149.769 55.755 0.14525 16.3654
290800 60.0864 149.782 55.755 0.14535 16.3816
291000 60.0864 149.795 55.755 0.14545 16.4003
291200 60.0864 149.808 55.755 0.14555 16.3982
291400 60.0864 149.821 55.755 0.14565 16.4349
291600 60.0864 149.834 55.755 0.14575 16.4206
291800 60.0864 149.847 55.755 0.14585 16.4135
292000 60.0864 149.86 55.755 0.14595 16.4469
292200 60.0864 149.873 55.755 0.14605 16.4457
292400 60.0864 149.887 55.755 0.14615 16.4403
292600 60.0864 149.9 55.755 0.14625 16.4507
292800 60.0864 149.913 55.755 0.14635 16.4553
293000 60.0864 149.926 55.755 0.14645 16.4571
293200 60.0864 149.939 55.755 0.14655 16.4656
293400 60.0864 149.952 55.755 0.14665 16.4888
293600 60.0864 149.965 55.755 0.14675 16.4922
293800 60.0864 149.978 55.755 0.14685 16.4971
294000 60.0864 149.991 55.755 0.14695 16.4938
294200 60.0864 150.004 55.755 0.14705 16.4711
294400 60.0864 150.017 55.755 0.14715 16.4904
294600 60.0864 150.03 55.755 0.14725 16.4756
294800 60.0864 150.043 55.755 0.14735 16.486
295000 60.0864 150.057 55.755 0.14745 16.5028
295200 60.0864 150.07 55.755 0.14755 16.4829
295400 60.0864 150.083 55.755 0.14765 16.5013
295600 60.0864 150.096 55.755 0.14775 16.4735
295800 60.0864 150.109 55.755 0.14785 16.4902
296000 60.0864 150.122 55.755 0.14795 16.5134
296200 60.0864 150.135 55.755 0.14805 16.5185
296400 60.0864 150.148 55.755 0.14815 16.5099
296600 60.0864 150.161 55.755 0.14825 16.5182
296800 60.0864 150.174 55.755 0.14835 16.5225
297000 60.0864 150.187 55.755 0.14845 16.5136
297200 60.0864 150.2 55.755 0.14855 16.5267
297400 60.0864 150.213 55.755 0.14865 16.5426
297600 60.0864 150.227 55.755 0.14875 16.5265
297800 60.0864 150.24 55.755 0.14885 16.5053
298000 60.0864 150.253 55.755 0.14895 16.5058
298200 60.0864 150.266 55.755 0.14905 16.4911
298400 60.0864 150.279 55.755 0.14915 16.5142
298600 60.0864 150.292 55.755 0.14925 16.5255
298800 60.0864 150.305 55.755 0.14935 16.4956
299000 60.0864 150.318 55.755 0.14945 16.5428
299200 60.0864 150.331 55.755 0.14955 16.5464
299400 60.0864 150.344 55.755 0.14965 16.5272
299600 60.0864 150.357 55.755 0.14975 16.5424
299800 60.0864 150.37 55.755 0.14985 16.5662
300000 60.0864 150.383 55.755 0.14995 16.557
300200 60.0864 150.397 55.755 0.15005 16.5685
300400 60.0864 150.41 55.755 0.15015 16.5676
300600 60.0864 150.423 55.755 0.15025 16.5772
300800 60.0864 150.436 55.755 0.15035 16.5912
301000 60.0864 150.449 55.755 0.15045 16.5891
301200 60.0864 150.462 55.755 0.15055 16.5841
301400 60.0864 150.475 55.755 0.15065 16.5707
301600 60.0864 150.488 55.755 0.15075 16.5617
301800 60.0864 150.501 55.755 0.15085 16.6206
302000 60.0864 150.514 55.755 0.15095 16.5969
302200 60.0864 150.527 55.755 0.15105 16.6162
302400 60.0864 150.54 55.755 0.15115 16.5998
302600 60.0864 150.554 55.755 0.15125 16.6208
302800 60.0864 150.567 55.755 0.15135 16.6252
303000 60.0864 150.58 55.755 0.15145 16.6424
303200 60.0864 150.593 55.755 0.15155 16.6449
303400 60.0864 150.606 55.755 0.15165 16.6341
303600 60.0864 150.619 55.755 0.15175 16.636
303800 60.0864 150.632 55.755 0.15185 16.6598
304000 60.0864 150.645 55.755 0.15195 16.6777
304200 60.0864 150.658 55.755 0.15205 16.6988
304400 60.0864 150.671 55.755 0.15215 16.697
304600 60.0864 150.684 55.755 0.15225 16.6973
304800 60.0864 150.697 55.755 0.15235 16.7024
305000 60.0864 150.71 55.755 0.15245 16.6727
305200 60.0864 150.724 55.755 0.15255 16.6857
305400 60.0864 150.737 55.755 0.15265 16.7026
305600 60.0864 150.75 55.755 0.15275 16.6656
305800 60.0864 150.763 55.755 0.15285 16.6877
306000 60.0864 150.776 55.755 0.15295 16.7062
306200 60.0864 150.789 55.755 0.15305 16.7009
306400 60.0864 150.802 55.755 0.15315 16.7175
306600 60.0864 150.815 55.755 0.15325 16.7003
306800 60.0864 150.828 55.755 0.15335 16.7117
307000 60.0864 150.841 55.755 0.15345 16.7153
307200 60.0864 150.854 55.755 0.15355 16.7247
307400 60.0864 150.867 55.755 0.15365 16.7285
307600 60.0864 150.88 55.755 0.15375 16.7491
307800 60.0864 150.894 55.755 0.15385 16.7467
308000 60.0864 150.907 55.755 0.15395 16.7596
308200 60.0864 150.92 55.755 0.15405 16.7537
308400 60.0864 150.933 55.755 0.15415 16.685
308600 60.0864 150.946 55.755 0.15425 16.6682
308800 60.0864 150.959 55.755 0.15435 16.661
309000 60.0864 150.972 55.755 0.15445 16.6812
309200 60.0864 150.985 55.755 0.15455 16.6679
309400 60.0864 150.998 55.755 0.15465 16.6846
309600 60.0864 151.011 55.755 0.15475 16.7096
309800 60.0864 151.024 55.755 0.15485 16.6838
310000 60.0864 151.037 55.755 0.15495 16.6724
310200 60.0864 151.05 55.755 0.15505 16.6925
310400 60.0864 151.064 55.755 0.15515 16.6778
310600 60.0864 151.077 55.755 0.15525 16.6464
310800 60.0864 151.09 55.755 0.15535 16.633
311000 60.0864 151.103 55.755 0.15545 16.6361
311200 60.0864 151.116 55.755 0.15555 16.6399
311400 60.0864 151.129 55.755 0.15565 16.6552
311600 60.0864 151.142 55.755 0.15575 16.6659
311800 60.0864 151.155 55.755 0.15585 16.6653
312000 60.0864 151.168 55.755 0.15595 16.6858
312200 60.0864 151.181 55.755 0.15605 16.6579
312400 60.0864 151.194 55.755 0.15615 16.6902
312600 60.0864 151.207 55.755 0.15625 16.637
312800 60.0864 151.22 55.755 0.15635 16.6734
313000 60.0864 151.234 55.755 0.15645 16.6586
313200 60.0864 151.247 55.755 0.15655 16.671
313400 60.0864 151.26 55.755 0.15665 16.6805
313600 60.0864 151.273 55.755 0.15675 16.6858
313800 60.0864 151.286 55.755 0.15685 16.7135
314000 60.0864 151.299 55.755 0.15695 16.7181
314200 60.0864 151.312 55.755 0.15705 16.7207
314400 60.0864 151.325 55.755 0.15715 16.7194
314600 60.0864 151.338 55.755 0.15725 16.68
314800 60.0864 151.351 55.755 0.15735 16.6819
315000 60.0864 151.364 55.755 0.15745 16.6943
315200 60.0864 151.377 55.755 0.15755 16.7084
315400 60.0864 151.39 55.755 0.15765 16.6945
315600 60.0864 151.404 55.755 0.15775 16.6596
315800 60.0864 151.417 55.755 0.15785 16.6778
316000 60.0864 151.43 55.755 0.15795 16.6716
316200 60.0864 151.443 55.755 0.15805 16.6619
316400 60.0864 151.456 55.755 0.15815 16.6289
316600 60.0864 151.469 55.755 0.15825 16.6373
316800 60.0864 151.482 55.755 0.15835 16.6201
317000 60.0864 151.495 55.755 0.15845 16.619
317200 60.0864 151.508 55.755 0.15855 16.5741
317400 60.0864 151.521 55.755 0.15865 16.6272
317600 60.0864 151.534 55.755 0.15875 16.6095
317800 60.0864 151.547 55.755 0.15885 16.5936
318000 60.0864 151.56 55.755 0.15895 16.6217
318200 60.0864 151.574 55.755 0.15905 16.5946
318400 60.0864 151.587 55.755 0.15915 16.5775
318600 60.0864 151.6 55.755 0.15925 16.5432
318800 60.0864 151.613 55.755 0.15935 16.5142
319000 60.0864 151.626 55.755 0.15945 16.4474
319200 60.0864 151.639 55.755 0.15955 16.4277
319400 60.0864 151.652 55.755 0.15965 16.4576
319600 60.0864 151.665 55.755 0.15975 16.4246
319800 60.0864 151.678 55.755 0.15985 16.3719
320000 60.0864 151.691 55.755 0.15995 16.3483
320200 60.0864 151.704 55.755 0.16005 16.3082
320400 60.0864 151.717 55.755 0.16015 16.3026
320600 60.0864 151.73 55.755 0.16025 16.2935
320800 60.0864 151.744 55.755 0.16035 16.262
321000 60.0864 151.757 55.755 0.16045 16.2407
321200 60.0864 151.77 55.755 0.16055 16.2424
321400 60.0864 151.783 55.755 0.16065 16.2242
321600 60.0864 151.796 55.755 0.16075 16.2511
321800 60.0864 151.809 55.755 0.16085 16.2553
322000 60.0864 151.822 55.755 0.16095 16.2866
322200 60.0864 151.835 55.755 0.16105 16.2675
322400 60.0864 151.848 55.755 0.16115 16.2897
322600 60.0864 151.861 55.755 0.16125 16.2973
322800 60.0864 151.874 55.755 0.16135 16.2781
323000 60.0864 151.887 55.755 0.16145 16.2714
323200 60.0864 151.9 55.755 0.16155 16.2217
323400 60.0864 151.914 55.755 0.16165 16.1459
323600 60.0864 151.927 55.755 0.16175 16.1155
323800 60.0864 151.94 55.755 0.16185 16.0971
324000 60.0864 151.953 55.755 0.16195 16.0846
324200 60.0864 151.966 55.755 0.16205 16.0557
324400 60.0864 151.979 55.755 0.16215 16.0655
324600 60.0864 151.992 55.755 0.16225 16.0499
324800 60.0864 152.005 55.755 0.16235 16.0397
325000 60.0864 152.018 55.755 0.16245 16.02
325200 60.0864 152.031 55.755 0.16255 16.0096
325400 60.0864 152.044 55.755 0.16265 15.991
325600 60.0864 152.057 55.755 0.16275 15.9331
325800 60.0864 152.07 55.755 0.16285 15.9553
326000 60.0864 152.084 55.755 0.16295 15.9273
326200 60.0864 152.097 55.755 0.16305 15.9566
326400 60.0864 152.11 55.755 0.16315 15.9409
326600 60.0864 152.123 55.755 0.16325 15.8864
326800 60.0864 152.136 55.755 0.16335 15.907
327000 60.0864 152.149 55.755 0.16345 15.8481
327200 60.0864 152.162 55.755 0.16355 15.8351
327400 60.0864 152.175 55.755 0.16365 15.8372
327600 60.0864 152.188 55.755 0.16375 15.7849
327800 60.0864 152.201 55.755 0.16385 15.7536
328000 60.0864 152.214 55.755 0.16395 15.7147
328200 60.0864 152.227 55.755 0.16405 15.6736
328400 60.0864 152.24 55.755 0.16415 15.6305
328600 60.0864 152.254 55.755 0.16425 15.5897
328800 60.0864 152.267 55.755 0.16435 15.5875
329000 60.0864 152.28 55.755 0.16445 15.6018
329200 60.0864 152.293 55.755 0.16455 15.6077
329400 60.0864 152.306 55.755 0.16465 15.6
329600 60.0864 152.319 55.755 0.16475 15.6065
329800 60.0864 152.332 55.755 0.16485 15.6265
330000 60.0864 152.345 55.755 0.16495 15.64
330200 60.0864 152.358 55.755 0.16505 15.6346
330400 60.0864 152.371 55.755 0.16515 15.6306
330600 60.0864 152.384 55.755 0.16525 15.6283
330800 60.0864 152.397 55.755 0.16535 15.6415
331000 60.0864 152.41 55.755 0.16545 15.6294
331200 60.0864 152.424 55.755 0.16555 15.6314
331400 60.0864 152.437 55.755 0.16565 15.6358
331600 60.0864 152.45 55.755 0.16575 15.623
331800 60.0864 152.463 55.755 0.16585 15.5863
332000 60.0864 152.476 55.755 0.16595 15.6074
332200 60.0864 152.489 55.755 0.16605 15.6088
332400 60.0864 152.502 55.755 0.16615 15.6206
332600 60.0864 152.515 55.755 0.16625 15.5833
332800 60.0864 152.528 55.755 0.16635 15.5857
333000 60.0864 152.541 55.755 0.16645 15.5832
333200 60.0864 152.554 55.755 0.16655 15.5495
333400 60.0864 152.567 55.755 0.16665 15.5
333600 60.0864 152.58 55.755 0.16675 15.522
333800 60.0864 152.594 55.755 0.16685 15.4516
334000 60.0864 152.607 55.755 0.16695 15.4325
334200 60.0864 152.62 55.755 0.16705 15.4044
334400 60.0864 152.633 55.755 0.16715 15.3909
334600 60.0864 152.646 55.755 0.16725 15.3659
334800 60.0864 152.659 55.755 0.16735 15.2933
335000 60.0864 152.672 55.755 0.16745 15.2847
335200 60.0864 152.685 55.755 0.16755 15.204
335400 60.0864 152.698 55.755 0.16765 15.219
335600 60.0864 152.711 55.755 0.16775 15.1607
335800 60.0864 152.724 55.755 0.16785 15.0788
336000 60.0864 152.737 55.755 0.16795 15.0631
336200 60.0864 152.751 55.755 0.16805 15.0113
336400 60.0864 152.764 55.755 0.16815 14.9955
336600 60.0864 152.777 55.755 0.16825 14.9642
336800 60.0864 152.79 55.755 0.16835 14.9761
337000 60.0864 152.803 55.755 0.16845 14.8812
337200 60.0864 152.816 55.755 0.16855 14.7249
337400 60.0864 152.829 55.755 0.16865 14.5713
337600 60.0864 152.842 55.755 0.16875 14.3704
337800 60.0864 152.855 55.755 0.16885 14.1136
338000 60.0864 152.868 55.755 0.16895 13.8067
338200 60.0864 152.881 55.755 0.16905 13.255
338400 60.0864 152.894 55.755 0.16915 12.4662
338600 60.0864 152.907 55.755 0.16925 11.2569
338800 60.0864 152.921 55.755 0.16935 9.71718
339000 60.0864 152.934 55.755 0.16945 7.7267
339200 60.0864 152.947 55.755 0.16955 5.66929
339400 60.0864 152.96 55.755 0.16965 3.76727
339600 60.0864 152.973 55.755 0.16975 2.13875
339800 60.0864 152.986 55.755 0.16985 0.712367
340000 60.0864 152.999 55.755 0.16995 -0.466168
340200 60.0864 153.012 55.755 0.17005 -1.42147
340400 60.0864 153.025 55.755 0.17015 -2.18022
340600 60.0864 153.038 55.755 0.17025 -2.86038
340800 60.0864 153.051 55.755 0.17035 -3.35164
341000 60.0864 153.064 55.755 0.17045 -3.59341
341200 60.0864 153.077 55.755 0.17055 -3.58192
341400 60.0864 153.091 55.755 0.17065 -3.43112
341600 60.0864 153.104 55.755 0.17075 -3.0862
341800 60.0864 153.117 55.755 0.17085 -2.64836
342000 60.0864 153.13 55.755 0.17095 -2.05517
342200 60.0864 153.143 55.755 0.17105 -1.36939
342400 60.0864 153.156 55.755 0.17115 -0.433105
342600 60.0864 153.169 55.755 0.17125 0.679845
342800 60.0864 153.182 55.755 0.17135 1.91357
343000 60.0864 153.195 55.755 0.17145 3.17522
343200 60.0864 153.208 55.755 0.17155 4.16501
343400 60.0864 153.221 55.755 0.17165 4.6087
343600 60.0864 153.234 55.755 0.17175 4.32519
343800 60.0864 153.247 55.755 0.17185 3.58315
344000 60.0864 153.261 55.755 0.17195 2.55031
344200 60.0864 153.274 55.755 0.17205 1.4003
344400 60.0864 153.287 55.755 0.17215 0.27547
344600 60.0864 153.3 55.755 0.17225 -0.74953
344800 60.0864 153.313 55.755 0.17235 -1.64523
345000 60.0864 153.326 55.755 0.17245 -2.28834
345200 60.0864 153.339 55.755 0.17255 -2.76959
345400 60.0864 153.352 55.755 0.17265 -2.93522
345600 60.0864 153.365 55.755 0.17275 -2.99503
345800 60.0864 153.378 55.755 0.17285 -2.86893
346000 60.0864 153.391 55.755 0.17295 -2.63725
346200 60.0864 153.404 55.755 0.17305 -2.22315
346400 60.0864 153.417 55.755 0.17315 -1.67428
346600 60.0864 153.431 55.755 0.17325 -1.01618
346800 60.0864 153.444 55.755 0.17335 -0.102104
347000 60.0864 153.457 55.755 0.17345 0.888611
347200 60.0864 153.47 55.755 0.17355 1.98235
347400 60.0864 153.483 55.755 0.17365 2.96688
347600 60.0864 153.496 55.755 0.17375 3.65978
347800 60.0864 153.509 55.755 0.17385 3.84586
348000 60.0864 153.522 55.755 0.17395 3.53086
348200 60.0864 153.535 55.755 0.17405 2.86445
348400 60.0864 153.548 55.755 0.17415 1.91591
348600 60.0864 153.561 55.755 0.17425 0.877997
348800 60.0864 153.574 55.755 0.17435 -0.105717
349000 60.0864 153.587 55.755 0.17445 -0.966196
349200 60.0864 153.601 55.755 0.17455 -1.68381
349400 60.0864 153.614 55.755 0.17465 -2.2351
349600 60.0864 153.627 55.755 0.17475 -2.57574
349800 60.0864 153.64 55.755 0.17485 -2.71481
350000 60.0864 153.653 55.755 0.17495 -2.68875
350200 60.0864 153.666 55.755 0.17505 -2.48765
350400 60.0864 153.679 55.755 0.17515 -2.21892
350600 60.0864 153.692 55.755 0.17525 -1.77953
350800 60.0864 153.705 55.755 0.17535 -1.17796
351000 60.0864 153.718 55.755 0.17545 -0.358544
351200 60.0864 153.731 55.755 0.17555 0.502245
351400 60.0864 153.744 55.755 0.17565 1.4624
351600 60.0864 153.757 55.755 0.17575 2.3798
351800 60.0864 153.771 55.755 0.17585 3.06125
352000 60.0864 153.784 55.755 0.17595 3.40989
352200 60.0864 153.797 55.755 0.17605 3.28166
352400 60.0864 153.81 55.755 0.17615 2.77991
352600 60.0864 153.823 55.755 0.17625 2.00466
352800 60.0864 153.836 55.755 0.17635 1.10946
353000 60.0864 153.849 55.755 0.17645 0.198637
353200 60.0864 153.862 55.755 0.17655 -0.62329
353400 60.0864 153.875 55.755 0.17665 -1.37767
353600 60.0864 153.888 55.755 0.17675 -1.89956
353800 60.0864 153.901 55.755 0.17685 -2.24458
354000 60.0864 153.914 55.755 0.17695 -2.44005
354200 60.0864 153.927 55.755 0.17705 -2.48302
354400 60.0864 153.941 55.755 0.17715 -2.37638
354600 60.0864 153.954 55.755 0.17725 -2.12864
354800 60.0864 153.967 55.755 0.17735 -1.75062
355000 60.0864 153.98 55.755 0.17745 -1.16132
355200 60.0864 153.993 55.755 0.17755 -0.471749
355400 60.0864 154.006 55.755 0.17765 0.355053
355600 60.0864 154.019 55.755 0.17775 1.21584
355800 60.0864 154.032 55.755 0.17785 2.06542
356000 60.0864 154.045 55.755 0.17795 2.70933
356200 60.0864 154.058 55.755 0.17805 3.07338
356400 60.0864 154.071 55.755 0.17815 3.03176
356600 60.0864 154.084 55.755 0.17825 2.62383
356800 60.0864 154.097 55.755 0.17835 1.94771
357000 60.0864 154.111 55.755 0.17845 1.14234
357200 60.0864 154.124 55.755 0.17855 0.259288
357400 60.0864 154.137 55.755 0.17865 -0.520671
357600 60.0864 154.15 55.755 0.17875 -1.18744
357800 60.0864 154.163 55.755 0.17885 -1.71212
358000 60.0864 154.176 55.755 0.17895 -2.0626
358200 60.0864 154.189 55.755 0.17905 -2.24941
358400 60.0864 154.202 55.755 0.17915 -2.33721
358600 60.0864 154.215 55.755 0.17925 -2.22517
358800 60.0864 154.228 55.755 0.17935 -1.98686
359000 60.0864 154.241 55.755 0.17945 -1.61213
359200 60.0864 154.254 55.755 0.17955 -1.10371
359400 60.0864 154.267 55.755 0.17965 -0.435159
359600 60.0864 154.281 55.755 0.17975 0.342646
359800 60.0864 154.294 55.755 0.17985 1.14093
360000 60.0864 154.307 55.755 0.17995 1.89484
360200 60.0864 154.32 55.755 0.18005 2.49462
360400 60.0864 154.333 55.755 0.18015 2.81745
360600 60.0864 154.346 55.755 0.18025 2.78057
360800 60.0864 154.359 55.755 0.18035 2.37364
361000 60.0864 154.372 55.755 0.18045 1.77314
361200 60.0864 154.385 55.755 0.18055 1.03233
361400 60.0864 154.398 55.755 0.18065 0.241965
361600 60.0864 154.411 55.755 0.18075 -0.483688
361800 60.0864 154.424 55.755 0.18085 -1.13096
362000 60.0864 154.437 55.755 0.18095 -1.58863
362200 60.0864 154.451 55.755 0.18105 -1.95497
362400 60.0864 154.464 55.755 0.18115 -2.11798
362600 60.0864 154.477 55.755 0.18125 -2.1587
362800 60.0864 154.49 55.755 0.18135 -2.06424
363000 60.0864 154.503 55.755 0.18145 -1.81164
363200 60.0864 154.516 55.755 0.18155 -1.43699
363400 60.0864 154.529 55.755 0.18165 -0.929241
363600 60.0864 154.542 55.755 0.18175 -0.304936
363800 60.0864 154.555 55.755 0.18185 0.425504
364000 60.0864 154.568 55.755 0.18195 1.1865
364200 60.0864 154.581 55.755 0.18205 1.85978
364400 60.0864 154.594 55.755 0.18215 2.37444
364600 60.0864 154.607 55.755 0.18225 2.58682
364800 60.0864 154.621 55.755 0.18235 2.50325
365000 60.0864 154.634 55.755 0.18245 2.13247
365200 60.0864 154.647 55.755 0.18255 1.48948
365400 60.0864 154.66 55.755 0.18265 0.793553
365600 60.0864 154.673 55.755 0.18275 0.100606
365800 60.0864 154.686 55.755 0.18285 -0.54826
366000 60.0864 154.699 55.755 0.18295 -1.14368
366200 60.0864 154.712 55.755 0.18305 -1.57466
366400 60.0864 154.725 55.755 0.18315 -1.85172
366600 60.0864 154.738 55.755 0.18325 -1.99405
366800 60.0864 154.751 55.755 0.18335 -1.97651
367000 60.0864 154.764 55.755 0.18345 -1.8661
367200 60.0864 154.778 55.755 0.18355 -1.61157
367400 60.0864 154.791 55.755 0.18365 -1.22521
367600 60.0864 154.804 55.755 0.18375 -0.68669
367800 60.0864 154.817 55.755 0.18385 -0.0899666
368000 60.0864 154.83 55.755 0.18395 0.618409
368200 60.0864 154.843 55.755 0.18405 1.28991
368400 60.0864 154.856 55.755 0.18415 1.87193
368600 60.0864 154.869 55.755 0.18425 2.26594
368800 60.0864 154.882 55.755 0.18435 2.38758
369000 60.0864 154.895 55.755 0.18445 2.21605
369200 60.0864 154.908 55.755 0.18455 1.79619
369400 60.0864 154.921 55.755 0.18465 1.18474
369600 60.0864 154.934 55.755 0.18475 0.530432
369800 60.0864 154.948 55.755 0.18485 -0.114331
370000 60.0864 154.961 55.755 0.18495 -0.706707
370200 60.0864 154.974 55.755 0.18505 -1.17109
370400 60.0864 154.987 55.755 0.18515 -1.57264
370600 60.0864 155 55.755 0.18525 -1.79609
370800 60.0864 155.013 55.755 0.18535 -1.86255
371000 60.0864 155.026 55.755 0.18545 -1.83414
371200 60.0864 155.039 55.755 0.18555 -1.64492
371400 60.0864 155.052 55.755 0.18565 -1.35874
371600 60.0864 155.065 55.755 0.18575 -0.947084
371800 60.0864 155.078 55.755 0.18585 -0.420596
372000 60.0864 155.091 55.755 0.18595 0.158699
372200 60.0864 155.104 55.755 0.18605 0.809419
372400 60.0864 155.118 55.755 0.18615 1.36903
372600 60.0864 155.131 55.755 0.18625 1.87075
372800 60.0864 155.144 55.755 0.18635 2.18022
373000 60.0864 155.157 55.755 0.18645 2.15682
373200 60.0864 155.17 55.755 0.18655 1.88431
373400 60.0864 155.183 55.755 0.18665 1.47293
373600 60.0864 155.196 55.755 0.18675 0.887234
373800 60.0864 155.209 55.755 0.18685 0.266001
374000 60.0864 155.222 55.755 0.18695 -0.317671
374200 60.0864 155.235 55.755 0.18705 -0.828091
374400 60.0864 155.248 55.755 0.18715 -1.24315
374600 60.0864 155.261 55.755 0.18725 -1.56105
374800 60.0864 155.274 55.755 0.18735 -1.69333
375000 60.0864 155.288 55.755 0.18745 -1.73872
375200 60.0864 155.301 55.755 0.18755 -1.64201
375400 60.0864 155.314 55.755 0.18765 -1.42937
375600 60.0864 155.327 55.755 0.18775 -1.10454
375800 60.0864 155.34 55.755 0.18785 -0.664817
376000 60.0864 155.353 55.755 0.18795 -0.147779
376200 60.0864 155.366 55.755 0.18805 0.411222
376400 60.0864 155.379 55.755 0.18815 0.992542
376600 60.0864 155.392 55.755 0.18825 1.50949
376800 60.0864 155.405 55.755 0.18835 1.83905
377000 60.0864 155.418 55.755 0.18845 1.98061
377200 60.0864 155.431 55.755 0.18855 1.91076
377400 60.0864 155.444 55.755 0.18865 1.5816
377600 60.0864 155.458 55.755 0.18875 1.10006
377800 60.0864 155.471 55.755 0.18885 0.585559
378000 60.0864 155.484 55.755 0.18895 0.0219915
378200 60.0864 155.497 55.755 0.18905 -0.517854
378400 60.0864 155.51 55.755 0.18915 -0.968406
378600 60.0864 155.523 55.755 0.18925 -1.32315
378800 60.0864 155.536 55.755 0.18935 -1.52078
379000 60.0864 155.549 55.755 0.18945 -1.57254
379200 60.0864 155.562 55.755 0.18955 -1.59485
379400 60.0864 155.575 55.755 0.18965 -1.43485
379600 60.0864 155.588 55.755 0.18975 -1.19957
379800 60.0864 155.601 55.755 0.18985 -0.818288
380000 60.0864 155.614 55.755 0.18995 -0.429427
380200 60.0864 155.628 55.755 0.19005 0.107121
380400 60.0864 155.641 55.755 0.19015 0.681559
380600 60.0864 155.654 55.755 0.19025 1.20383
380800 60.0864 155.667 55.755 0.19035 1.58531
381000 60.0864 155.68 55.755 0.19045 1.82953
381200 60.0864 155.693 55.755 0.19055 1.82513
381400 60.0864 155.706 55.755 0.19065 1.6078
381600 60.0864 155.719 55.755 0.19075 1.27429
381800 60.0864 155.732 55.755 0.19085 0.7886
382000 60.0864 155.745 55.755 0.19095 0.278416
382200 60.0864 155.758 55.755 0.19105 -0.25128
382400 60.0864 155.771 55.755 0.19115 -0.719767
382600 60.0864 155.784 55.755 0.19125 -1.07871
382800 60.0864 155.798 55.755 0.19135 -1.3727
383000 60.0864 155.811 55.755 0.19145 -1.51256
383200 60.0864 155.824 55.755 0.19155 -1.5276
383400 60.0864 155.837 55.755 0.19165 -1.41751
383600 60.0864 155.85 55.755 0.19175 -1.26147
383800 60.0864 155.863 55.755 0.19185 -0.925781
384000 60.0864 155.876 55.755 0.19195 -0.563322
384200 60.0864 155.889 55.755 0.19205 -0.104248
384400 60.0864 155.902 55.755 0.19215 0.438821
384600 60.0864 155.915 55.755 0.19225 0.913643
384800 60.0864 155.928 55.755 0.19235 1.36251
385000 60.0864 155.941 55.755 0.19245 1.6518
385200 60.0864 155.954 55.755 0.19255 1.77116
385400 60.0864 155.968 55.755 0.19265 1.61161
385600 60.0864 155.981 55.755 0.19275 1.36229
385800 60.0864 155.994 55.755 0.19285 0.950075
386000 60.0864 156.007 55.755 0.19295 0.449116
386200 60.0864 156.02 55.755 0.19305 -0.0363958
386400 60.0864 156.033 55.755 0.19315 -0.501593
386600 60.0864 156.046 55.755 0.19325 -0.889836
386800 60.0864 156.059 55.755 0.19335 -1.20456
387000 60.0864 156.072 55.755 0.19345 -1.37872
387200 60.0864 156.085 55.755 0.19355 -1.44189
387400 60.0864 156.098 55.755 0.19365 -1.42766
387600 60.0864 156.111 55.755 0.19375 -1.2651
387800 60.0864 156.124 55.755 0.19385 -1.01184
388000 60.0864 156.138 55.755 0.19395 -0.699315
388200 60.0864 156.151 55.755 0.19405 -0.254238
388400 60.0864 156.164 55.755 0.19415 0.20363
388600 60.0864 156.177 55.755 0.19425 0.714034
388800 60.0864 156.19 55.755 0.19435 1.11439
389000 60.0864 156.203 55.755 0.19445 1.4608
389200 60.0864 156.216 55.755 0.19455 1.64108
389400 60.0864 156.229 55.755 0.19465 1.60889
389600 60.0864 156.242 55.755 0.19475 1.4126
389800 60.0864 156.255 55.755 0.19485 1.07088
390000 60.0864 156.268 55.755 0.19495 0.62012
390200 60.0864 156.281 55.755 0.19505 0.146158
390400 60.0864 156.294 55.755 0.19515 -0.315764
390600 60.0864 156.308 55.755 0.19525 -0.721793
390800 60.0864 156.321 55.755 0.19535 -1.052
391000 60.0864 156.334 55.755 0.19545 -1.24283
391200 60.0864 156.347 55.755 0.19555 -1.35398
391400 60.0864 156.36 55.755 0.19565 -1.3783
391600 60.0864 156.373 55.755 0.19575 -1.27524
391800 60.0864 156.386 55.755 0.19585 -1.09568
392000 60.0864 156.399 55.755 0.19595 -0.748408
392200 60.0864 156.412 55.755 0.19605 -0.390113
392400 60.0864 156.425 55.755 0.19615 0.0345251
392600 60.0864 156.438 55.755 0.19625 0.525418
392800 60.0864 156.451 55.755 0.19635 0.949776
393000 60.0864 156.464 55.755 0.19645 1.2947
393200 60.0864 156.478 55.755 0.19655 1.49039
393400 60.0864 156.491 55.755 0.19665 1.51415
393600 60.0864 156.504 55.755 0.19675 1.42452
393800 60.0864 156.517 55.755 0.19685 1.15888
394000 60.0864 156.53 55.755 0.19695 0.724428
394200 60.0864 156.543 55.755 0.19705 0.294557
394400 60.0864 156.556 55.755 0.19715 -0.14474
394600 60.0864 156.569 55.755 0.19725 -0.573627
394800 60.0864 156.582 55.755 0.19735 -0.90368
395000 60.0864 156.595 55.755 0.19745 -1.13762
395200 60.0864 156.608 55.755 0.19755 -1.24553
395400 60.0864 156.621 55.755 0.19765 -1.32082
395600 60.0864 156.634 55.755 0.19775 -1.2111
395800 60.0864 156.648 55.755 0.19785 -1.0947
396000 60.0864 156.661 55.755 0.19795 -0.837625
396200 60.0864 156.674 55.755 0.19805 -0.498615
396400 60.0864 156.687 55.755 0.19815 -0.0995617
396600 60.0864 156.7 55.755 0.19825 0.363262
396800 60.0864 156.713 55.755 0.19835 0.760779
397000 60.0864 156.726 55.755 0.19845 1.1142
397200 60.0864 156.739 55.755 0.19855 1.3438
397400 60.0864 156.752 55.755 0.19865 1.45956
397600 60.0864 156.765 55.755 0.19875 1.40665
397800 60.0864 156.778 55.755 0.19885 1.18303
398000 60.0864 156.791 55.755 0.19895 0.824743
398200 60.0864 156.804 55.755 0.19905 0.424236
398400 60.0864 156.818 55.755 0.19915 -0.00198036
398600 60.0864 156.831 55.755 0.19925 -0.386677
398800 60.0864 156.844 55.755 0.19935 -0.769805
399000 60.0864 156.857 55.755 0.19945 -1.01498
399200 60.0864 156.87 55.755 0.19955 -1.18914
399400 60.0864 156.883 55.755 0.19965 -1.23823
399600 60.0864 156.896 55.755 0.19975 -1.20711
399800 60.0864 156.909 55.755 0.19985 -1.08367
400000 60.0864 156.922 55.755 0.19995 -0.871649
400200 60.0864 156.935 55.755 0.20005 -0.577086
400400 60.0864 156.948 55.755 0.20015 -0.238083
400600 60.0864 156.961 55.755 0.20025 0.193738
400800 60.0864 156.975 55.755 0.20035 0.599152
401000 60.0864 156.988 55.755 0.20045 0.985195
401200 60.0864 157.001 55.755 0.20055 1.25627
401400 60.0864 157.014 55.755 0.20065 1.3521
401600 60.0864 157.027 55.755 0.20075 1.38536
401800 60.0864 157.04 55.755 0.20085 1.20279
402000 60.0864 157.053 55.755 0.20095 0.923799
402200 60.0864 157.066 55.755 0.20105 0.524205
402400 60.0864 157.079 55.755 0.20115 0.115958
402600 60.0864 157.092 55.755 0.20125 -0.2628
402800 60.0864 157.105 55.755 0.20135 -0.621055
403000 60.0864 157.118 55.755 0.20145 -0.891875
403200 60.0864 157.131 55.755 0.20155 -1.08584
403400 60.0864 157.145 55.755 0.20165 -1.20473
403600 60.0864 157.158 55.755 0.20175 -1.20414
403800 60.0864 157.171 55.755 0.20185 -1.06683
404000 60.0864 157.184 55.755 0.20195 -0.91783
404200 60.0864 157.197 55.755 0.20205 -0.664048
404400 60.0864 157.21 55.755 0.20215 -0.317254
404600 60.0864 157.223 55.755 0.20225 0.0283856
404800 60.0864 157.236 55.755 0.20235 0.461209
405000 60.0864 157.249 55.755 0.20245 0.858142
405200 60.0864 157.262 55.755 0.20255 1.15852
405400 60.0864 157.275 55.755 0.20265 1.29769
405600 60.0864 157.288 55.755 0.20275 1.32568
405800 60.0864 157.301 55.755 0.20285 1.22403
406000 60.0864 157.315 55.755 0.20295 0.971637
406200 60.0864 157.328 55.755 0.20305 0.631744
406400 60.0864 157.341 55.755 0.20315 0.255731
406600 60.0864 157.354 55.755 0.20325 -0.143877
406800 60.0864 157.367 55.755 0.20335 -0.502911
407000 60.0864 157.38 55.755 0.20345 -0.820057
407200 60.0864 157.393 55.755 0.20355 -1.02482
407400 60.0864 157.406 55.755 0.20365 -1.14864
407600 60.0864 157.419 55.755 0.20375 -1.14484
407800 60.0864 157.432 55.755 0.20385 -1.10245
408000 60.0864 157.445 55.755 0.20395 -0.937067
408200 60.0864 157.458 55.755 0.20405 -0.699865
408400 60.0864 157.471 55.755 0.20415 -0.414644
408600 60.0864 157.485 55.755 0.20425 -0.0654141
408800 60.0864 157.498 55.755 0.20435 0.338675
409000 60.0864 157.511 55.755 0.20445 0.759792
409200 60.0864 157.524 55.755 0.20455 1.02786
409400 60.0864 157.537 55.755 0.20465 1.23878
409600 60.0864 157.55 55.755 0.20475 1.28839
409800 60.0864 157.563 55.755 0.20485 1.21768
410000 60.0864 157.576 55.755 0.20495 1.01393
410200 60.0864 157.589 55.755 0.20505 0.715459
410400 60.0864 157.602 55.755 0.20515 0.331057
410600 60.0864 157.615 55.755 0.20525 -0.0538332
410800 60.0864 157.628 55.755 0.20535 -0.395706
411000 60.0864 157.641 55.755 0.20545 -0.700358
411200 60.0864 157.655 55.755 0.20555 -0.929255
411400 60.0864 157.668 55.755 0.20565 -1.08905
411600 60.0864 157.681 55.755 0.20575 -1.1305
411800 60.0864 157.694 55.755 0.20585 -1.0712
412000 60.0864 157.707 55.755 0.20595 -0.959496
412200 60.0864 157.72 55.755 0.20605 -0.745666
412400 60.0864 157.733 55.755 0.20615 -0.50883
412600 60.0864 157.746 55.755 0.20625 -0.11893
412800 60.0864 157.759 55.755 0.20635 0.23193
413000 60.0864 157.772 55.755 0.20645 0.604031
413200 60.0864 157.785 55.755 0.20655 0.928471
413400 60.0864 157.798 55.755 0.20665 1.15782
413600 60.0864 157.811 55.755 0.20675 1.21033
413800 60.0864 157.825 55.755 0.20685 1.19031
414000 60.0864 157.838 55.755 0.20695 1.05588
414200 60.0864 157.851 55.755 0.20705 0.768034
414400 60.0864 157.864 55.755 0.20715 0.420686
414600 60.0864 157.877 55.755 0.20725 0.0740316
414800 60.0864 157.89 55.755 0.20735 -0.30739
415000 60.0864 157.903 55.755 0.20745 -0.601958
415200 60.0864 157.916 55.755 0.20755 -0.859964
415400 60.0864 157.929 55.755 0.20765 -0.990087
415600 60.0864 157.942 55.755 0.20775 -1.07302
415800 60.0864 157.955 55.755 0.20785 -1.06059
416000 60.0864 157.968 55.755 0.20795 -0.939126
416200 60.0864 157.981 55.755 0.20805 -0.816712
416400 60.0864 157.995 55.755 0.20815 -0.527642
416600 60.0864 158.008 55.755 0.20825 -0.218771
416800 60.0864 158.021 55.755 0.20835 0.129524
417000 60.0864 158.034 55.755 0.20845 0.479178
417200 60.0864 158.047 55.755 0.20855 0.827152
417400 60.0864 158.06 55.755 0.20865 1.05152
417600 60.0864 158.073 55.755 0.20875 1.18276
417800 60.0864 158.086 55.755 0.20885 1.16751
418000 60.0864 158.099 55.755 0.20895 1.04423
418200 60.0864 158.112 55.755 0.20905 0.804134
418400 60.0864 158.125 55.755 0.20915 0.516624
418600 60.0864 158.138 55.755 0.20925 0.155766
418800 60.0864 158.151 55.755 0.20935 -0.192021
419000 60.0864 158.165 55.755 0.20945 -0.531191
419200 60.0864 158.178 55.755 0.20955 -0.754637
419400 60.0864 158.191 55.755 0.20965 -0.958972
419600 60.0864 158.204 55.755 0.20975 -1.03143
419800 60.0864 158.217 55.755 0.20985 -1.01819
420000 60.0864 158.23 55.755 0.20995 -0.951579
420200 60.0864 158.243 55.755 0.21005 -0.795085
420400 60.0864 158.256 55.755 0.21015 -0.567161
420600 60.0864 158.269 55.755 0.21025 -0.298167
420800 60.0864 158.282 55.755 0.21035 0.012582
421000 60.0864 158.295 55.755 0.21045 0.378656
421200 60.0864 158.308 55.755 0.21055 0.705777
421400 60.0864 158.321 55.755 0.21065 0.975678
421600 60.0864 158.335 55.755 0.21075 1.12146
421800 60.0864 158.348 55.755 0.21085 1.14084
422000 60.0864 158.361 55.755 0.21095 1.07064
422200 60.0864 158.374 55.755 0.21105 0.848341
422400 60.0864 158.387 55.755 0.21115 0.562634
422600 60.0864 158.4 55.755 0.21125 0.245938
422800 60.0864 158.413 55.755 0.21135 -0.0878997
423000 60.0864 158.426 55.755 0.21145 -0.423465
423200 60.0864 158.439 55.755 0.21155 -0.682292
423400 60.0864 158.452 55.755 0.21165 -0.86904
423600 60.0864 158.465 55.755 0.21175 -0.983405
423800 60.0864 158.478 55.755 0.21185 -1.03124
424000 60.0864 158.491 55.755 0.21195 -0.952113
424200 60.0864 158.505 55.755 0.21205 -0.807851
424400 60.0864 158.518 55.755 0.21215 -0.613475
424600 60.0864 158.531 55.755 0.21225 -0.37607
424800 60.0864 158.544 55.755 0.21235 -0.0755758
425000 60.0864 158.557 55.755 0.21245 0.263466
425200 60.0864 158.57 55.755 0.21255 0.597411
425400 60.0864 158.583 55.755 0.21265 0.894108
425600 60.0864 158.596 55.755 0.21275 1.0781
425800 60.0864 158.609 55.755 0.21285 1.13168
426000 60.0864 158.622 55.755 0.21295 1.04383
426200 60.0864 158.635 55.755 0.21305 0.870877
426400 60.0864 158.648 55.755 0.21315 0.624306
426600 60.0864 158.661 55.755 0.21325 0.336073
426800 60.0864 158.675 55.755 0.21335 -0.0106304
427000 60.0864 158.688 55.755 0.21345 -0.298611
427200 60.0864 158.701 55.755 0.21355 -0.576448
427400 60.0864 158.714 55.755 0.21365 -0.819017
427600 60.0864 158.727 55.755 0.21375 -0.977056
427800 60.0864 158.74 55.755 0.21385 -0.992935
428000 60.0864 158.753 55.755 0.21395 -0.926089
428200 60.0864 158.766 55.755 0.21405 -0.810906
428400 60.0864 158.779 55.755 0.21415 -0.640058
428600 60.0864 158.792 55.755 0.21425 -0.436935
428800 60.0864 158.805 55.755 0.21435 -0.135616
429000 60.0864 158.818 55.755 0.21445 0.173952
429200 60.0864 158.831 55.755 0.21455 0.513753
429400 60.0864 158.845 55.755 0.21465 0.770836
429600 60.0864 158.858 55.755 0.21475 0.982897
429800 60.0864 158.871 55.755 0.21485 1.06649
430000 60.0864 158.884 55.755 0.21495 1.02598
430200 60.0864 158.897 55.755 0.21505 0.895048
430400 60.0864 158.91 55.755 0.21515 0.651634
430600 60.0864 158.923 55.755 0.21525 0.390415
430800 60.0864 158.936 55.755 0.21535 0.0922862
431000 60.0864 158.949 55.755 0.21545 -0.203988
431200 60.0864 158.962 55.755 0.21555 -0.504471
431400 60.0864 158.975 55.755 0.21565 -0.749176
431600 60.0864 158.988 55.755 0.21575 -0.882968
431800 60.0864 159.001 55.755 0.21585 -0.937201
432000 60.0864 159.015 55.755 0.21595 -0.926714
432200 60.0864 159.028 55.755 0.21605 -0.83942
432400 60.0864 159.041 55.755 0.21615 -0.670706
432600 60.0864 159.054 55.755 0.21625 -0.450879
432800 60.0864 159.067 55.755 0.21635 -0.201541
433000 60.0864 159.08 55.755 0.21645 0.0937955
433200 60.0864 159.093 55.755 0.21655 0.406395
433400 60.0864 159.106 55.755 0.21665 0.674751
433600 60.0864 159.119 55.755 0.21675 0.946951
433800 60.0864 159.132 55.755 0.21685 1.0222
434000 60.0864 159.145 55.755 0.21695 1.02245
434200 60.0864 159.158 55.755 0.21705 0.895656
434400 60.0864 159.172 55.755 0.21715 0.699231
434600 60.0864 159.185 55.755 0.21725 0.437156
434800 60.0864 159.198 55.755 0.21735 0.143766
435000 60.0864 159.211 55.755 0.21745 -0.151487
435200 60.0864 159.224 55.755 0.21755 -0.418424
435400 60.0864 159.237 55.755 0.21765 -0.675792
435600 60.0864 159.25 55.755 0.21775 -0.809817
435800 60.0864 159.263 55.755 0.21785 -0.925549
436000 60.0864 159.276 55.755 0.21795 -0.914987
436200 60.0864 159.289 55.755 0.21805 -0.807442
436400 60.0864 159.302 55.755 0.21815 -0.714774
436600 60.0864 159.315 55.755 0.21825 -0.488828
436800 60.0864 159.328 55.755 0.21835 -0.243465
437000 60.0864 159.342 55.755 0.21845 0.0585351
437200 60.0864 159.355 55.755 0.21855 0.321503
437400 60.0864 159.368 55.755 0.21865 0.588459
437600 60.0864 159.381 55.755 0.21875 0.846801
437800 60.0864 159.394 55.755 0.21885 0.991519
438000 60.0864 159.407 55.755 0.21895 1.00865
438200 60.0864 159.42 55.755 0.21905 0.887487
438400 60.0864 159.433 55.755 0.21915 0.706994
438600 60.0864 159.446 55.755 0.21925 0.485337
438800 60.0864 159.459 55.755 0.21935 0.230184
439000 60.0864 159.472 55.755 0.21945 -0.0928705
439200 60.0864 159.485 55.755 0.21955 -0.355997
439400 60.0864 159.498 55.755 0.21965 -0.613848
439600 60.0864 159.512 55.755 0.21975 -0.754527
439800 60.0864 159.525 55.755 0.21985 -0.887308
440000 60.0864 159.538 55.755 0.21995 -0.889883
440200 60.0864 159.551 55.755 0.22005 -0.841013
440400 60.0864 159.564 55.755 0.22015 -0.723467
440600 60.0864 159.577 55.755 0.22025 -0.510649
440800 60.0864 159.59 55.755 0.22035 -0.30131
441000 60.0864 159.603 55.755 0.22045 -0.0349522
441200 60.0864 159.616 55.755 0.22055 0.294609
441400 60.0864 159.629 55.755 0.22065 0.553169
441600 60.0864 159.642 55.755 0.22075 0.770791
441800 60.0864 159.655 55.755 0.22085 0.936039
442000 60.0864 159.668 55.755 0.22095 0.988262
442200 60.0864 159.682 55.755 0.22105 0.919371
442400 60.0864 159.695 55.755 0.22115 0.747658
442600 60.0864 159.708 55.755 0.22125 0.517179
442800 60.0864 159.721 55.755 0.22135 0.235755
443000 60.0864 159.734 55.755 0.22145 -0.017664
443200 60.0864 159.747 55.755 0.22155 -0.317585
443400 60.0864 159.76 55.755 0.22165 -0.552723
443600 60.0864 159.773 55.755 0.22175 -0.755857
443800 60.0864 159.786 55.755 0.22185 -0.811517
444000 60.0864 159.799 55.755 0.22195 -0.84742
444200 60.0864 159.812 55.755 0.22205 -0.842
444400 60.0864 159.825 55.755 0.22215 -0.737904
444600 60.0864 159.838 55.755 0.22225 -0.556593
444800 60.0864 159.852 55.755 0.22235 -0.31307
445000 60.0864 159.865 55.755 0.22245 -0.0678721
445200 60.0864 159.878 55.755 0.22255 0.217328
445400 60.0864 159.891 55.755 0.22265 0.484935
445600 60.0864 159.904 55.755 0.22275 0.747039
445800 60.0864 159.917 55.755 0.22285 0.888721
446000 60.0864 159.93 55.755 0.22295 0.931498
446200 60.0864 159.943 55.755 0.22305 0.908576
446400 60.0864 159.956 55.755 0.22315 0.771911
446600 60.0864 159.969 55.755 0.22325 0.558201
446800 60.0864 159.982 55.755 0.22335 0.297014
447000 60.0864 159.995 55.755 0.22345 0.0308892
447200 60.0864 160.008 55.755 0.22355 -0.250981
447400 60.0864 160.022 55.755 0.22365 -0.479458
447600 60.0864 160.035 55.755 0.22375 -0.685244
447800 60.0864 160.048 55.755 0.22385 -0.80267
448000 60.0864 160.061 55.755 0.22395 -0.842598
448200 60.0864 160.074 55.755 0.22405 -0.824623
448400 60.0864 160.087 55.755 0.22415 -0.715231
448600 60.0864 160.1 55.755 0.22425 -0.563079
448800 60.0864 160.113 55.755 0.22435 -0.384669
449000 60.0864 160.126 55.755 0.22445 -0.11302
449200 60.0864 160.139 55.755 0.22455 0.170383
449400 60.0864 160.152 55.755 0.22465 0.397749
449600 60.0864 160.165 55.755 0.22475 0.65596
449800 60.0864 160.178 55.755 0.22485 0.845827
450000 60.0864 160.192 55.755 0.22495 0.911294
450200 60.0864 160.205 55.755 0.22505 0.888894
450400 60.0864 160.218 55.755 0.22515 0.789194
450600 60.0864 160.231 55.755 0.22525 0.558963
450800 60.0864 160.244 55.755 0.22535 0.335052
451000 60.0864 160.257 55.755 0.22545 0.068526
451200 60.0864 160.27 55.755 0.22555 -0.181537
451400 60.0864 160.283 55.755 0.22565 -0.427099
451600 60.0864 160.296 55.755 0.22575 -0.642629
451800 60.0864 160.309 55.755 0.22585 -0.734023
452000 60.0864 160.322 55.755 0.22595 -0.788744
452200 60.0864 160.335 55.755 0.22605 -0.821362
452400 60.0864 160.348 55.755 0.22615 -0.72601
452600 60.0864 160.362 55.755 0.22625 -0.564404
452800 60.0864 160.375 55.755 0.22635 -0.397176
453000 60.0864 160.388 55.755 0.22645 -0.120666
453200 60.0864 160.401 55.755 0.22655 0.111183
453400 60.0864 160.414 55.755 0.22665 0.332137
453600 60.0864 160.427 55.755 0.22675 0.568854
453800 60.0864 160.44 55.755 0.22685 0.747985
454000 60.0864 160.453 55.755 0.22695 0.856951
454200 60.0864 160.466 55.755 0.22705 0.900966
454400 60.0864 160.479 55.755 0.22715 0.764336
454600 60.0864 160.492 55.755 0.22725 0.594949
454800 60.0864 160.505 55.755 0.22735 0.385157
455000 60.0864 160.518 55.755 0.22745 0.11601
455200 60.0864 160.532 55.755 0.22755 -0.153803
455400 60.0864 160.545 55.755 0.22765 -0.360612
455600 60.0864 160.558 55.755 0.22775 -0.552736
455800 60.0864 160.571 55.755 0.22785 -0.686659
456000 60.0864 160.584 55.755 0.22795 -0.755813
456200 60.0864 160.597 55.755 0.22805 -0.780769
456400 60.0864 160.61 55.755 0.22815 -0.736691
456600 60.0864 160.623 55.755 0.22825 -0.619432
456800 60.0864 160.636 55.755 0.22835 -0.392046
457000 60.0864 160.649 55.755 0.22845 -0.211371
457200 60.0864 160.662 55.755 0.22855 0.0868705
457400 60.0864 160.675 55.755 0.22865 0.298594
457600 60.0864 160.688 55.755 0.22875 0.520274
457800 60.0864 160.702 55.755 0.22885 0.69096
458000 60.0864 160.715 55.755 0.22895 0.816668
458200 60.0864 160.728 55.755 0.22905 0.824293
458400 60.0864 160.741 55.755 0.22915 0.782326
458600 60.0864 160.754 55.755 0.22925 0.62019
458800 60.0864 160.767 55.755 0.22935 0.41553
459000 60.0864 160.78 55.755 0.22945 0.152381
459200 60.0864 160.793 55.755 0.22955 -0.0845689
459400 60.0864 160.806 55.755 0.22965 -0.303904
459600 60.0864 160.819 55.755 0.22975 -0.52008
459800 60.0864 160.832 55.755 0.22985 -0.632521
460000 60.0864 160.845 55.755 0.22995 -0.715064
460200 60.0864 160.858 55.755 0.23005 -0.770755
460400 60.0864 160.872 55.755 0.23015 -0.712661
460600 60.0864 160.885 55.755 0.23025 -0.623354
460800 60.0864 160.898 55.755 0.23035 -0.434157
461000 60.0864 160.911 55.755 0.23045 -0.233004
461200 60.0864 160.924 55.755 0.23055 0.0209143
461400 60.0864 160.937 55.755 0.23065 0.245241
461600 60.0864 160.95 55.755 0.23075 0.48204
461800 60.0864 160.963 55.755 0.23085 0.653985
462000 60.0864 160.976 55.755 0.23095 0.755362
462200 60.0864 160.989 55.755 0.23105 0.807734
462400 60.0864 161.002 55.755 0.23115 0.76138
462600 60.0864 161.015 55.755 0.23125 0.625419
462800 60.0864 161.028 55.755 0.23135 0.449094
463000 60.0864 161.042 55.755 0.23145 0.198813
463200 60.0864 161.055 55.755 0.23155 -0.0422765
463400 60.0864 161.068 55.755 0.23165 -0.258169
463600 60.0864 161.081 55.755 0.23175 -0.44683
463800 60.0864 161.094 55.755 0.23185 -0.587834
464000 60.0864 161.107 55.755 0.23195 -0.710364
464200 60.0864 161.12 55.755 0.23205 -0.705249
464400 60.0864 161.133 55.755 0.23215 -0.695404
464600 60.0864 161.146 55.755 0.23225 -0.629746
464800 60.0864 161.159 55.755 0.23235 -0.47353
465000 60.0864 161.172 55.755 0.23245 -0.272804
465200 60.0864 161.185 55.755 0.23255 -0.0420288
465400 60.0864 161.198 55.755 0.23265 0.203144
465600 60.0864 161.212 55.755 0.23275 0.410772
465800 60.0864 161.225 55.755 0.23285 0.610229
466000 60.0864 161.238 55.755 0.23295 0.700988
466200 60.0864 161.251 55.755 0.23305 0.791117
466400 60.0864 161.264 55.755 0.23315 0.739036
466600 60.0864 161.277 55.755 0.23325 0.663843
466800 60.0864 161.29 55.755 0.23335 0.484988
467000 60.0864 161.303 55.755 0.23345 0.257526
467200 60.0864 161.316 55.755 0.23355 0.0140883
467400 60.0864 161.329 55.755 0.23365 -0.242025
467600 60.0864 161.342 55.755 0.23375 -0.4087
467800 60.0864 161.355 55.755 0.23385 -0.572575
468000 60.0864 161.369 55.755 0.23395 -0.661585
468200 60.0864 161.382 55.755 0.23405 -0.699118
468400 60.0864 161.395 55.755 0.23415 -0.676942
468600 60.0864 161.408 55.755 0.23425 -0.609431
468800 60.0864 161.421 55.755 0.23435 -0.49476
469000 60.0864 161.434 55.755 0.23445 -0.333975
469200 60.0864 161.447 55.755 0.23455 -0.086509
469400 60.0864 161.46 55.755 0.23465 0.164734
469600 60.0864 161.473 55.755 0.23475 0.407481
469800 60.0864 161.486 55.755 0.23485 0.580682
470000 60.0864 161.499 55.755 0.23495 0.676966
470200 60.0864 161.512 55.755 0.23505 0.753909
470400 60.0864 161.525 55.755 0.23515 0.718369
470600 60.0864 161.539 55.755 0.23525 0.651478
470800 60.0864 161.552 55.755 0.23535 0.500996
471000 60.0864 161.565 55.755 0.23545 0.27422
471200 60.0864 161.578 55.755 0.23555 0.061494
471400 60.0864 161.591 55.755 0.23565 -0.199897
471600 60.0864 161.604 55.755 0.23575 -0.4022
471800 60.0864 161.617 55.755 0.23585 -0.550501
472000 60.0864 161.63 55.755 0.23595 -0.624888
472200 60.0864 161.643 55.755 0.23605 -0.656884
472400 60.0864 161.656 55.755 0.23615 -0.654995
472600 60.0864 161.669 55.755 0.23625 -0.619598
472800 60.0864 161.682 55.755 0.23635 -0.483478
473000 60.0864 161.695 55.755 0.23645 -0.319252
473200 60.0864 161.709 55.755 0.23655 -0.127822
473400 60.0864 161.722 55.755 0.23665 0.137766
473600 60.0864 161.735 55.755 0.23675 0.325522
473800 60.0864 161.748 55.755 0.23685 0.54157
474000 60.0864 161.761 55.755 0.23695 0.628507
474200 60.0864 161.774 55.755 0.23705 0.739388
474400 60.0864 161.787 55.755 0.23715 0.713263
474600 60.0864 161.8 55.755 0.23725 0.616732
474800 60.0864 161.813 55.755 0.23735 0.509844
475000 60.0864 161.826 55.755 0.23745 0.30871
475200 60.0864 161.839 55.755 0.23755 0.091601
475400 60.0864 161.852 55.755 0.23765 -0.148085
475600 60.0864 161.865 55.755 0.23775 -0.355571
475800 60.0864 161.879 55.755 0.23785 -0.49524
476000 60.0864 161.892 55.755 0.23795 -0.625352
476200 60.0864 161.905 55.755 0.23805 -0.648576
476400 60.0864 161.918 55.755 0.23815 -0.627517
476600 60.0864 161.931 55.755 0.23825 -0.59316
476800 60.0864 161.944 55.755 0.23835 -0.467829
477000 60.0864 161.957 55.755 0.23845 -0.349029
477200 60.0864 161.97 55.755 0.23855 -0.146389
477400 60.0864 161.983 55.755 0.23865 0.0690556
477600 60.0864 161.996 55.755 0.23875 0.299642
477800 60.0864 162.009 55.755 0.23885 0.480285
478000 60.0864 162.022 55.755 0.23895 0.647148
478200 60.0864 162.035 55.755 0.23905 0.695119
478400 60.0864 162.049 55.755 0.23915 0.684619
478600 60.0864 162.062 55.755 0.23925 0.612518
478800 60.0864 162.075 55.755 0.23935 0.497798
479000 60.0864 162.088 55.755 0.23945 0.319463
479200 60.0864 162.101 55.755 0.23955 0.13703
479400 60.0864 162.114 55.755 0.23965 -0.10292
479600 60.0864 162.127 55.755 0.23975 -0.300479
479800 60.0864 162.14 55.755 0.23985 -0.457746
480000 60.0864 162.153 55.755 0.23995 -0.581201
480200 60.0864 162.166 55.755 0.24005 -0.636713
480400 60.0864 162.179 55.755 0.24015 -0.635513
480600 60.0864 162.192 55.755 0.24025 -0.570512
480800 60.0864 162.205 55.755 0.24035 -0.471253
481000 60.0864 162.219 55.755 0.24045 -0.345824
481200 60.0864 162.232 55.755 0.24055 -0.194635
481400 60.0864 162.245 55.755 0.24065 0.0336065
481600 60.0864 162.258 55.755 0.24075 0.229384
481800 60.0864 162.271 55.755 0.24085 0.430024
482000 60.0864 162.284 55.755 0.24095 0.605985
482200 60.0864 162.297 55.755 0.24105 0.657349
482400 60.0864 162.31 55.755 0.24115 0.695173
482600 60.0864 162.323 55.755 0.24125 0.607695
482800 60.0864 162.336 55.755 0.24135 0.497321
483000 60.0864 162.349 55.755 0.24145 0.353908
483200 60.0864 162.362 55.755 0.24155 0.165532
483400 60.0864 162.375 55.755 0.24165 -0.0428933
483600 60.0864 162.389 55.755 0.24175 -0.236125
483800 60.0864 162.402 55.755 0.24185 -0.444089
484000 60.0864 162.415 55.755 0.24195 -0.551492
484200 60.0864 162.428 55.755 0.24205 -0.602601
484400 60.0864 162.441 55.755 0.24215 -0.624358
484600 60.0864 162.454 55.755 0.24225 -0.575508
484800 60.0864 162.467 55.755 0.24235 -0.488423
485000 60.0864 162.48 55.755 0.24245 -0.36728
485200 60.0864 162.493 55.755 0.24255 -0.19364
485400 60.0864 162.506 55.755 0.24265 -0.0388416
485600 60.0864 162.519 55.755 0.24275 0.19011
485800 60.0864 162.532 55.755 0.24285 0.399286
486000 60.0864 162.545 55.755 0.24295 0.565333
486200 60.0864 162.559 55.755 0.24305 0.649991
486400 60.0864 162.572 55.755 0.24315 0.653348
486600 60.0864 162.585 55.755 0.24325 0.628588
486800 60.0864 162.598 55.755 0.24335 0.503214
487000 60.0864 162.611 55.755 0.24345 0.352071
487200 60.0864 162.624 55.755 0.24355 0.188041
487400 60.0864 162.637 55.755 0.24365 0.0014502
487600 60.0864 162.65 55.755 0.24375 -0.193262
487800 60.0864 162.663 55.755 0.24385 -0.393852
488000 60.0864 162.676 55.755 0.24395 -0.503297
488200 60.0864 162.689 55.755 0.24405 -0.598987
488400 60.0864 162.702 55.755 0.24415 -0.612845
488600 60.0864 162.715 55.755 0.24425 -0.609654
488800 60.0864 162.729 55.755 0.24435 -0.458262
489000 60.0864 162.742 55.755 0.24445 -0.374074
489200 60.0864 162.755 55.755 0.24455 -0.224918
489400 60.0864 162.768 55.755 0.24465 -0.0354979
489600 60.0864 162.781 55.755 0.24475 0.15479
489800 60.0864 162.794 55.755 0.24485 0.35886
490000 60.0864 162.807 55.755 0.24495 0.50326
490200 60.0864 162.82 55.755 0.24505 0.611199
490400 60.0864 162.833 55.755 0.24515 0.648747
490600 60.0864 162.846 55.755 0.24525 0.599058
490800 60.0864 162.859 55.755 0.24535 0.550012
491000 60.0864 162.872 55.755 0.24545 0.382141
491200 60.0864 162.885 55.755 0.24555 0.186765
491400 60.0864 162.899 55.755 0.24565 0.0188049
491600 60.0864 162.912 55.755 0.24575 -0.171793
491800 60.0864 162.925 55.755 0.24585 -0.335693
492000 60.0864 162.938 55.755 0.24595 -0.469588
492200 60.0864 162.951 55.755 0.24605 -0.588008
492400 60.0864 162.964 55.755 0.24615 -0.616291
492600 60.0864 162.977 55.755 0.24625 -0.578064
492800 60.0864 162.99 55.755 0.24635 -0.474053
493000 60.0864 163.003 55.755 0.24645 -0.374478
493200 60.0864 163.016 55.755 0.24655 -0.239037
493400 60.0864 163.029 55.755 0.24665 -0.0631618
493600 60.0864 163.042 55.755 0.24675 0.132651
493800 60.0864 163.055 55.755 0.24685 0.311928
494000 60.0864 163.069 55.755 0.24695 0.478061
494200 60.0864 163.082 55.755 0.24705 0.591702
494400 60.0864 163.095 55.755 0.24715 0.640733
494600 60.0864 163.108 55.755 0.24725 0.582295
494800 60.0864 163.121 55.755 0.24735 0.532194
495000 60.0864 163.134 55.755 0.24745 0.375034
495200 60.0864 163.147 55.755 0.24755 0.226832
495400 60.0864 163.16 55.755 0.24765 0.041276
495600 60.0864 163.173 55.755 0.24775 -0.135991
495800 60.0864 163.186 55.755 0.24785 -0.323008
496000 60.0864 163.199 55.755 0.24795 -0.435927
496200 60.0864 163.212 55.755 0.24805 -0.542471
496400 60.0864 163.225 55.755 0.24815 -0.57901
496600 60.0864 163.239 55.755 0.24825 -0.569515
496800 60.0864 163.252 55.755 0.24835 -0.501882
497000 60.0864 163.265 55.755 0.24845 -0.401272
497200 60.0864 163.278 55.755 0.24855 -0.228474
497400 60.0864 163.291 55.755 0.24865 -0.0906698
497600 60.0864 163.304 55.755 0.24875 0.100385
497800 60.0864 163.317 55.755 0.24885 0.27974
498000 60.0864 163.33 55.755 0.24895 0.464207
498200 60.0864 163.343 55.755 0.24905 0.559099
498400 60.0864 163.356 55.755 0.24915 0.608251
498600 60.0864 163.369 55.755 0.24925 0.612714
498800 60.0864 163.382 55.755 0.24935 0.503809
499000 60.0864 163.396 55.755 0.24945 0.408865
499200 60.0864 163.409 55.755 0.24955 0.240386
499400 60.0864 163.422 55.755 0.24965 0.0638452
499600 60.0864 163.435 55.755 0.24975 -0.108629
499800 60.0864 163.448 55.755 0.24985 -0.284056
500000 60.0864 163.461 55.755 0.24995 -0.432904
500200 60.0864 163.474 55.755 0.25005 -0.51607
500400 60.0864 163.487 55.755 0.25015 -0.577813
500600 60.0864 163.5 55.755 0.25025 -0.574098
500800 60.0864 163.513 55.755 0.25035 -0.50461
501000 60.0864 163.526 55.755 0.25045 -0.423751
501200 60.0864 163.539 55.755 0.25055 -0.255334
501400 60.0864 163.552 55.755 0.25065 -0.0964495
501600 60.0864 163.566 55.755 0.25075 0.0654578
501800 60.0864 163.579 55.755 0.25085 0.266953
502000 60.0864 163.592 55.755 0.25095 0.410133
502200 60.0864 163.605 55.755 0.25105 0.540654
502400 60.0864 163.618 55.755 0.25115 0.609921
502600 60.0864 163.631 55.755 0.25125 0.626808
502800 60.0864 163.644 55.755 0.25135 0.509132
503000 60.0864 163.657 55.755 0.25145 0.42415
503200 60.0864 163.67 55.755 0.25155 0.242706
503400 60.0864 163.683 55.755 0.25165 0.0806633
503600 60.0864 163.696 55.755 0.25175 -0.101182
503800 60.0864 163.709 55.755 0.25185 -0.26112
504000 60.0864 163.722 55.755 0.25195 -0.372477
504200 60.0864 163.736 55.755 0.25205 -0.488279
504400 60.0864 163.749 55.755 0.25215 -0.578721
504600 60.0864 163.762 55.755 0.25225 -0.575497
504800 60.0864 163.775 55.755 0.25235 -0.511211
505000 60.0864 163.788 55.755 0.25245 -0.408789
505200 60.0864 163.801 55.755 0.25255 -0.259157
505400 60.0864 163.814 55.755 0.25265 -0.129066
505600 60.0864 163.827 55.755 0.25275 0.072359
505800 60.0864 163.84 55.755 0.25285 0.237127
506000 60.0864 163.853 55.755 0.25295 0.374888
506200 60.0864 163.866 55.755 0.25305 0.529952
506400 60.0864 163.879 55.755 0.25315 0.584567
506600 60.0864 163.892 55.755 0.25325 0.576799
506800 60.0864 163.906 55.755 0.25335 0.558771
507000 60.0864 163.919 55.755 0.25345 0.399954
507200 60.0864 163.932 55.755 0.25355 0.282215
507400 60.0864 163.945 55.755 0.25365 0.117304
507600 60.0864 163.958 55.755 0.25375 -0.0882434
507800 60.0864 163.971 55.755 0.25385 -0.250786
508000 60.0864 163.984 55.755 0.25395 -0.371897
508200 60.0864 163.997 55.755 0.25405 -0.460183
508400 60.0864 164.01 55.755 0.25415 -0.537527
508600 60.0864 164.023 55.755 0.25425 -0.55633
508800 60.0864 164.036 55.755 0.25435 -0.494669
509000 60.0864 164.049 55.755 0.25445 -0.406647
509200 60.0864 164.062 55.755 0.25455 -0.306211
509400 60.0864 164.076 55.755 0.25465 -0.104131
509600 60.0864 164.089 55.755 0.25475 0.0166215
509800 60.0864 164.102 55.755 0.25485 0.208476
510000 60.0864 164.115 55.755 0.25495 0.368515
510200 60.0864 164.128 55.755 0.25505 0.460681
510400 60.0864 164.141 55.755 0.25515 0.533406
510600 60.0864 164.154 55.755 0.25525 0.5674
510800 60.0864 164.167 55.755 0.25535 0.517404
511000 60.0864 164.18 55.755 0.25545 0.432149
511200 60.0864 164.193 55.755 0.25555 0.301498
511400 60.0864 164.206 55.755 0.25565 0.110236
511600 60.0864 164.219 55.755 0.25575 -0.0460623
511800 60.0864 164.232 55.755 0.25585 -0.207017
512000 60.0864 164.246 55.755 0.25595 -0.357815
512200 60.0864 164.259 55.755 0.25605 -0.430894
512400 60.0864 164.272 55.755 0.25615 -0.496003
512600 60.0864 164.285 55.755 0.25625 -0.518215
512800 60.0864 164.298 55.755 0.25635 -0.474827
513000 60.0864 164.311 55.755 0.25645 -0.411556
513200 60.0864 164.324 55.755 0.25655 -0.28707
513400 60.0864 164.337 55.755 0.25665 -0.159389
513600 60.0864 164.35 55.755 0.25675 -0.0014797
513800 60.0864 164.363 55.755 0.25685 0.176587
514000 60.0864 164.376 55.755 0.25695 0.317368
514200 60.0864 164.389 55.755 0.25705 0.424097
514400 60.0864 164.402 55.755 0.25715 0.521747
514600 60.0864 164.416 55.755 0.25725 0.54515
514800 60.0864 164.429 55.755 0.25735 0.516086
515000 60.0864 164.442 55.755 0.25745 0.411573
515200 60.0864 164.455 55.755 0.25755 0.309681
515400 60.0864 164.468 55.755 0.25765 0.139999
515600 60.0864 164.481 55.755 0.25775 -0.0107826
515800 60.0864 164.494 55.755 0.25785 -0.182804
516000 60.0864 164.507 55.755 0.25795 -0.291512
516200 60.0864 164.52 55.755 0.25805 -0.424375
516400 60.0864 164.533 55.755 0.25815 -0.477553
516600 60.0864 164.546 55.755 0.25825 -0.491703
516800 60.0864 164.559 55.755 0.25835 -0.451428
517000 60.0864 164.572 55.755 0.25845 -0.423783
517200 60.0864 164.586 55.755 0.25855 -0.327327
517400 60.0864 164.599 55.755 0.25865 -0.160498
517600 60.0864 164.612 55.755 0.25875 0.00034423
517800 60.0864 164.625 55.755 0.25885 0.124094
518000 60.0864 164.638 55.755 0.25895 0.276036
518200 60.0864 164.651 55.755 0.25905 0.416009
518400 60.0864 164.664 55.755 0.25915 0.479741
518600 60.0864 164.677 55.755 0.25925 0.511398
518800 60.0864 164.69 55.755 0.25935 0.501381
519000 60.0864 164.703 55.755 0.25945 0.428798
519200 60.0864 164.716 55.755 0.25955 0.313008
519400 60.0864 164.729 55.755 0.25965 0.155522
519600 60.0864 164.742 55.755 0.25975 0.0113571
519800 60.0864 164.756 55.755 0.25985 -0.122021
520000 60.0864 164.769 55.755 0.25995 -0.274571
520200 60.0864 164.782 55.755 0.26005 -0.384123
520400 60.0864 164.795 55.755 0.26015 -0.463917
520600 60.0864 164.808 55.755 0.26025 -0.457871
520800 60.0864 164.821 55.755 0.26035 -0.460503
521000 60.0864 164.834 55.755 0.26045 -0.411909
521200 60.0864 164.847 55.755 0.26055 -0.340695
521400 60.0864 164.86 55.755 0.26065 -0.176163
521600 60.0864 164.873 55.755 0.26075 -0.039312
521800 60.0864 164.886 55.755 0.26085 0.0948707
522000 60.0864 164.899 55.755 0.26095 0.233677
522200 60.0864 164.912 55.755 0.26105 0.38073
522400 60.0864 164.926 55.755 0.26115 0.445843
522600 60.0864 164.939 55.755 0.26125 0.499074
522800 60.0864 164.952 55.755 0.26135 0.488978
523000 60.0864 164.965 55.755 0.26145 0.428915
523200 60.0864 164.978 55.755 0.26155 0.327928
523400 60.0864 164.991 55.755 0.26165 0.188614
523600 60.0864 165.004 55.755 0.26175 0.0527496
523800 60.0864 165.017 55.755 0.26185 -0.102157
524000 60.0864 165.03 55.755 0.26195 -0.247077
524200 60.0864 165.043 55.755 0.26205 -0.372103
524400 60.0864 165.056 55.755 0.26215 -0.401283
524600 60.0864 165.069 55.755 0.26225 -0.428624
524800 60.0864 165.082 55.755 0.26235 -0.473847
525000 60.0864 165.096 55.755 0.26245 -0.401171
525200 60.0864 165.109 55.755 0.26255 -0.340758
525400 60.0864 165.122 55.755 0.26265 -0.212481
525600 60.0864 165.135 55.755 0.26275 -0.0821353
525800 60.0864 165.148 55.755 0.26285 0.0746692
526000 60.0864 165.161 55.755 0.26295 0.240681
526200 60.0864 165.174 55.755 0.26305 0.3593
526400 60.0864 165.187 55.755 0.26315 0.431086
526600 60.0864 165.2 55.755 0.26325 0.450621
526800 60.0864 165.213 55.755 0.26335 0.472426
527000 60.0864 165.226 55.755 0.26345 0.449543
527200 60.0864 165.239 55.755 0.26355 0.31927
527400 60.0864 165.252 55.755 0.26365 0.211206
527600 60.0864 165.266 55.755 0.26375 0.0723292
527800 60.0864 165.279 55.755 0.26385 -0.0991683
528000 60.0864 165.292 55.755 0.26395 -0.245182
528200 60.0864 165.305 55.755 0.26405 -0.32786
528400 60.0864 165.318 55.755 0.26415 -0.417409
528600 60.0864 165.331 55.755 0.26425 -0.433596
528800 60.0864 165.344 55.755 0.26435 -0.408511
529000 60.0864 165.357 55.755 0.26445 -0.40158
529200 60.0864 165.37 55.755 0.26455 -0.339049
529400 60.0864 165.383 55.755 0.26465 -0.216896
529600 60.0864 165.396 55.755 0.26475 -0.0811619
529800 60.0864 165.409 55.755 0.26485 0.0580653
530000 60.0864 165.422 55.755 0.26495 0.221324
530200 60.0864 165.436 55.755 0.26505 0.341019
530400 60.0864 165.449 55.755 0.26515 0.413652
530600 60.0864 165.462 55.755 0.26525 0.473688
530800 60.0864 165.475 55.755 0.26535 0.425362
531000 60.0864 165.488 55.755 0.26545 0.442267
531200 60.0864 165.501 55.755 0.26555 0.313705
531400 60.0864 165.514 55.755 0.26565 0.205373
531600 60.0864 165.527 55.755 0.26575 0.0631556
531800 60.0864 165.54 55.755 0.26585 -0.0538104
532000 60.0864 165.553 55.755 0.26595 -0.21366
532200 60.0864 165.566 55.755 0.26605 -0.331554
532400 60.0864 165.579 55.755 0.26615 -0.405623
532600 60.0864 165.593 55.755 0.26625 -0.430732
532800 60.0864 165.606 55.755 0.26635 -0.424025
533000 60.0864 165.619 55.755 0.26645 -0.379616
533200 60.0864 165.632 55.755 0.26655 -0.311241
533400 60.0864 165.645 55.755 0.26665 -0.223295
533600 60.0864 165.658 55.755 0.26675 -0.0913024
533800 60.0864 165.671 55.755 0.26685 0.056632
534000 60.0864 165.684 55.755 0.26695 0.202885
534200 60.0864 165.697 55.755 0.26705 0.31413
534400 60.0864 165.71 55.755 0.26715 0.401322
534600 60.0864 165.723 55.755 0.26725 0.437869
534800 60.0864 165.736 55.755 0.26735 0.426298
535000 60.0864 165.749 55.755 0.26745 0.418522
535200 60.0864 165.763 55.755 0.26755 0.316016
535400 60.0864 165.776 55.755 0.26765 0.221722
535600 60.0864 165.789 55.755 0.26775 0.0636233
535800 60.0864 165.802 55.755 0.26785 -0.0511432
536000 60.0864 165.815 55.755 0.26795 -0.169756
536200 60.0864 165.828 55.755 0.26805 -0.298333
536400 60.0864 165.841 55.755 0.26815 -0.367498
536600 60.0864 165.854 55.755 0.26825 -0.395065
536800 60.0864 165.867 55.755 0.26835 -0.424072
537000 60.0864 165.88 55.755 0.26845 -0.364948
537200 60.0864 165.893 55.755 0.26855 -0.33974
537400 60.0864 165.906 55.755 0.26865 -0.222901
537600 60.0864 165.919 55.755 0.26875 -0.0825256
537800 60.0864 165.933 55.755 0.26885 0.00831895
538000 60.0864 165.946 55.755 0.26895 0.153955
538200 60.0864 165.959 55.755 0.26905 0.280895
538400 60.0864 165.972 55.755 0.26915 0.355871
538600 60.0864 165.985 55.755 0.26925 0.429468
538800 60.0864 165.998 55.755 0.26935 0.435862
539000 60.0864 166.011 55.755 0.26945 0.375047
539200 60.0864 166.024 55.755 0.26955 0.344296
539400 60.0864 166.037 55.755 0.26965 0.239479
539600 60.0864 166.05 55.755 0.26975 0.108763
539800 60.0864 166.063 55.755 0.26985 -0.0377856
540000 60.0864 166.076 55.755 0.26995 -0.155056
540200 60.0864 166.089 55.755 0.27005 -0.270064
540400 60.0864 166.103 55.755 0.27015 -0.334988
540600 60.0864 166.116 55.755 0.27025 -0.391377
540800 60.0864 166.129 55.755 0.27035 -0.406898
541000 60.0864 166.142 55.755 0.27045 -0.390827
541200 60.0864 166.155 55.755 0.27055 -0.337593
541400 60.0864 166.168 55.755 0.27065 -0.219511
541600 60.0864 166.181 55.755 0.27075 -0.130067
541800 60.0864 166.194 55.755 0.27085 0.00880945
542000 60.0864 166.207 55.755 0.27095 0.159115
542200 60.0864 166.22 55.755 0.27105 0.252714
542400 60.0864 166.233 55.755 0.27115 0.343285
542600 60.0864 166.246 55.755 0.27125 0.397816
542800 60.0864 166.259 55.755 0.27135 0.424026
543000 60.0864 166.273 55.755 0.27145 0.398627
543200 60.0864 166.286 55.755 0.27155 0.361745
543400 60.0864 166.299 55.755 0.27165 0.227242
543600 60.0864 166.312 55.755 0.27175 0.12325
543800 60.0864 166.325 55.755 0.27185 -0.0264064
544000 60.0864 166.338 55.755 0.27195 -0.146982
544200 60.0864 166.351 55.755 0.27205 -0.227752
544400 60.0864 166.364 55.755 0.27215 -0.34612
544600 60.0864 166.377 55.755 0.27225 -0.364724
544800 60.0864 166.39 55.755 0.27235 -0.414108
545000 60.0864 166.403 55.755 0.27245 -0.383216
545200 60.0864 166.416 55.755 0.27255 -0.322651
545400 60.0864 166.429 55.755 0.27265 -0.21691
545600 60.0864 166.443 55.755 0.27275 -0.156241
545800 60.0864 166.456 55.755 0.27285 0.000576723
546000 60.0864 166.469 55.755 0.27295 0.119672
546200 60.0864 166.482 55.755 0.27305 0.248932
546400 60.0864 166.495 55.755 0.27315 0.323018
546600 60.0864 166.508 55.755 0.27325 0.378177
546800 60.0864 166.521 55.755 0.27335 0.407139
547000 60.0864 166.534 55.755 0.27345 0.382381
547200 60.0864 166.547 55.755 0.27355 0.347309
547400 60.0864 166.56 55.755 0.27365 0.248111
547600 60.0864 166.573 55.755 0.27375 0.138178
547800 60.0864 166.586 55.755 0.27385 -0.00188099
548000 60.0864 166.599 55.755 0.27395 -0.127432
548200 60.0864 166.613 55.755 0.27405 -0.211884
548400 60.0864 166.626 55.755 0.27415 -0.335169
548600 60.0864 166.639 55.755 0.27425 -0.331753
548800 60.0864 166.652 55.755 0.27435 -0.386644
549000 60.0864 166.665 55.755 0.27445 -0.381683
549200 60.0864 166.678 55.755 0.27455 -0.335956
549400 60.0864 166.691 55.755 0.27465 -0.253826
549600 60.0864 166.704 55.755 0.27475 -0.135283
549800 60.0864 166.717 55.755 0.27485 -0.0254601
550000 60.0864 166.73 55.755 0.27495 0.100819
550200 60.0864 166.743 55.755 0.27505 0.212429
550400 60.0864 166.756 55.755 0.27515 0.334186
550600 60.0864 166.769 55.755 0.27525 0.366752
550800 60.0864 166.783 55.755 0.27535 0.414242
551000 60.0864 166.796 55.755 0.27545 0.385402
551200 60.0864 166.809 55.755 0.27555 0.334906
551400 60.0864 166.822 55.755 0.27565 0.24547
551600 60.0864 166.835 55.755 0.27575 0.167535
551800 60.0864 166.848 55.755 0.27585 0.00275744
552000 60.0864 166.861 55.755 0.27595 -0.098414
552200 60.0864 166.874 55.755 0.27605 -0.213909
552400 60.0864 166.887 55.755 0.27615 -0.309484
552600 60.0864 166.9 55.755 0.27625 -0.397997
552800 60.0864 166.913 55.755 0.27635 -0.367858
553000 60.0864 166.926 55.755 0.27645 -0.385775
553200 60.0864 166.939 55.755 0.27655 -0.327394
553400 60.0864 166.953 55.755 0.27665 -0.220449
553600 60.0864 166.966 55.755 0.27675 -0.144771
553800 60.0864 166.979 55.755 0.27685 -0.040074
554000 60.0864 166.992 55.755 0.27695 0.099669
554200 60.0864 167.005 55.755 0.27705 0.202121
554400 60.0864 167.018 55.755 0.27715 0.312761
554600 60.0864 167.031 55.755 0.27725 0.375513
554800 60.0864 167.044 55.755 0.27735 0.393316
555000 60.0864 167.057 55.755 0.27745 0.381544
555200 60.0864 167.07 55.755 0.27755 0.322634
555400 60.0864 167.083 55.755 0.27765 0.243375
555600 60.0864 167.096 55.755 0.27775 0.166688
555800 60.0864 167.109 55.755 0.27785 0.0226806
556000 60.0864 167.123 55.755 0.27795 -0.0939342
556200 60.0864 167.136 55.755 0.27805 -0.228246
556400 60.0864 167.149 55.755 0.27815 -0.288233
556600 60.0864 167.162 55.755 0.27825 -0.337815
556800 60.0864 167.175 55.755 0.27835 -0.382434
557000 60.0864 167.188 55.755 0.27845 -0.377767
557200 60.0864 167.201 55.755 0.27855 -0.313396
557400 60.0864 167.214 55.755 0.27865 -0.221802
557600 60.0864 167.227 55.755 0.27875 -0.158024
557800 60.0864 167.24 55.755 0.27885 -0.017926
558000 60.0864 167.253 55.755 0.27895 0.0743124
558200 60.0864 167.266 55.755 0.27905 0.183862
558400 60.0864 167.279 55.755 0.27915 0.291666
558600 60.0864 167.293 55.755 0.27925 0.350666
558800 60.0864 167.306 55.755 0.27935 0.378749
559000 60.0864 167.319 55.755 0.27945 0.388745
559200 60.0864 167.332 55.755 0.27955 0.320798
559400 60.0864 167.345 55.755 0.27965 0.233613
559600 60.0864 167.358 55.755 0.27975 0.157389
559800 60.0864 167.371 55.755 0.27985 0.0287022
560000 60.0864 167.384 55.755 0.27995 -0.0780028
560200 60.0864 167.397 55.755 0.28005 -0.19863
560400 60.0864 167.41 55.755 0.28015 -0.261173
560600 60.0864 167.423 55.755 0.28025 -0.317964
560800 60.0864 167.436 55.755 0.28035 -0.362668
561000 60.0864 167.449 55.755 0.28045 -0.390399
561200 60.0864 167.463 55.755 0.28055 -0.297335
561400 60.0864 167.476 55.755 0.28065 -0.247523
561600 60.0864 167.489 55.755 0.28075 -0.146959
561800 60.0864 167.502 55.755 0.28085 -0.0345248
562000 60.0864 167.515 55.755 0.28095 0.073967
562200 60.0864 167.528 55.755 0.28105 0.169771
562400 60.0864 167.541 55.755 0.28115 0.256415
562600 60.0864 167.554 55.755 0.28125 0.321546
562800 60.0864 167.567 55.755 0.28135 0.3991
563000 60.0864 167.58 55.755 0.28145 0.37826
563200 60.0864 167.593 55.755 0.28155 0.321324
563400 60.0864 167.606 55.755 0.28165 0.239297
563600 60.0864 167.619 55.755 0.28175 0.125261
563800 60.0864 167.633 55.755 0.28185 0.0436033
564000 60.0864 167.646 55.755 0.28195 -0.0673499
564200 60.0864 167.659 55.755 0.28205 -0.200048
564400 60.0864 167.672 55.755 0.28215 -0.229575
564600 60.0864 167.685 55.755 0.28225 -0.305695
564800 60.0864 167.698 55.755 0.28235 -0.330574
565000 60.0864 167.711 55.755 0.28245 -0.354304
565200 60.0864 167.724 55.755 0.28255 -0.336195
565400 60.0864 167.737 55.755 0.28265 -0.241983
565600 60.0864 167.75 55.755 0.28275 -0.135764
565800 60.0864 167.763 55.755 0.28285 -0.0538829
566000 60.0864 167.776 55.755 0.28295 0.0504808
566200 60.0864 167.79 55.755 0.28305 0.169725
566400 60.0864 167.803 55.755 0.28315 0.248147
566600 60.0864 167.816 55.755 0.28325 0.324359
566800 60.0864 167.829 55.755 0.28335 0.347622
567000 60.0864 167.842 55.755 0.28345 0.340897
567200 60.0864 167.855 55.755 0.28355 0.323302
567400 60.0864 167.868 55.755 0.28365 0.272924
567600 60.0864 167.881 55.755 0.28375 0.163593
567800 60.0864 167.894 55.755 0.28385 0.0337437
568000 60.0864 167.907 55.755 0.28395 -0.0621204
568200 60.0864 167.92 55.755 0.28405 -0.165777
568400 60.0864 167.933 55.755 0.28415 -0.235511
568600 60.0864 167.946 55.755 0.28425 -0.281692
568800 60.0864 167.96 55.755 0.28435 -0.33201
569000 60.0864 167.973 55.755 0.28445 -0.347336
569200 60.0864 167.986 55.755 0.28455 -0.313287
569400 60.0864 167.999 55.755 0.28465 -0.238378
569600 60.0864 168.012 55.755 0.28475 -0.172985
569800 60.0864 168.025 55.755 0.28485 -0.0616391
570000 60.0864 168.038 55.755 0.28495 0.0590016
570200 60.0864 168.051 55.755 0.28505 0.149021
570400 60.0864 168.064 55.755 0.28515 0.228627
570600 60.0864 168.077 55.755 0.28525 0.310063
570800 60.0864 168.09 55.755 0.28535 0.334035
571000 60.0864 168.103 55.755 0.28545 0.331919
571200 60.0864 168.116 55.755 0.28555 0.316741
571400 60.0864 168.13 55.755 0.28565 0.267709
571600 60.0864 168.143 55.755 0.28575 0.174142
571800 60.0864 168.156 55.755 0.28585 0.0408401
572000 60.0864 168.169 55.755 0.28595 -0.0433455
572200 60.0864 168.182 55.755 0.28605 -0.152556
572400 60.0864 168.195 55.755 0.28615 -0.225384
572600 60.0864 168.208 55.755 0.28625 -0.285455
572800 60.0864 168.221 55.755 0.28635 -0.299323
573000 60.0864 168.234 55.755 0.28645 -0.324309
573200 60.0864 168.247 55.755 0.28655 -0.314221
573400 60.0864 168.26 55.755 0.28665 -0.2426
573600 60.0864 168.273 55.755 0.28675 -0.170861
573800 60.0864 168.286 55.755 0.28685 -0.0888189
574000 60.0864 168.3 55.755 0.28695 0.0587322
574200 60.0864 168.313 55.755 0.28705 0.118908
574400 60.0864 168.326 55.755 0.28715 0.221491
574600 60.0864 168.339 55.755 0.28725 0.291011
574800 60.0864 168.352 55.755 0.28735 0.315314
575000 60.0864 168.365 55.755 0.28745 0.339671
575200 60.0864 168.378 55.755 0.28755 0.321314
575400 60.0864 168.391 55.755 0.28765 0.271143
575600 60.0864 168.404 55.755 0.28775 0.162683
575800 60.0864 168.417 55.755 0.28785 0.063586
576000 60.0864 168.43 55.755 0.28795 -0.0261505
576200 60.0864 168.443 55.755 0.28805 -0.138133
576400 60.0864 168.456 55.755 0.28815 -0.20885
576600 60.0864 168.47 55.755 0.28825 -0.261772
576800 60.0864 168.483 55.755 0.28835 -0.313786
577000 60.0864 168.496 55.755 0.28845 -0.308558
577200 60.0864 168.509 55.755 0.28855 -0.311967
577400 60.0864 168.522 55.755 0.28865 -0.247448
577600 60.0864 168.535 55.755 0.28875 -0.17155
577800 60.0864 168.548 55.755 0.28885 -0.0881474
578000 60.0864 168.561 55.755 0.28895 0.00227568
578200 60.0864 168.574 55.755 0.28905 0.107221
578400 60.0864 168.587 55.755 0.28915 0.217405
578600 60.0864 168.6 55.755 0.28925 0.267961
578800 60.0864 168.613 55.755 0.28935 0.301673
579000 60.0864 168.626 55.755 0.28945 0.335817
579200 60.0864 168.64 55.755 0.28955 0.311896
579400 60.0864 168.653 55.755 0.28965 0.277061
579600 60.0864 168.666 55.755 0.28975 0.180084
579800 60.0864 168.679 55.755 0.28985 0.0870072
580000 60.0864 168.692 55.755 0.28995 -0.00148011
580200 60.0864 168.705 55.755 0.29005 -0.123494
580400 60.0864 168.718 55.755 0.29015 -0.209225
580600 60.0864 168.731 55.755 0.29025 -0.25623
580800 60.0864 168.744 55.755 0.29035 -0.309521
581000 60.0864 168.757 55.755 0.29045 -0.289407
581200 60.0864 168.77 55.755 0.29055 -0.293364
581400 60.0864 168.783 55.755 0.29065 -0.258172
581600 60.0864 168.796 55.755 0.29075 -0.169463
581800 60.0864 168.81 55.755 0.29085 -0.0948593
582000 60.0864 168.823 55.755 0.29095 0.00135579
582200 60.0864 168.836 55.755 0.29105 0.100629
582400 60.0864 168.849 55.755 0.29115 0.167271
582600 60.0864 168.862 55.755 0.29125 0.260892
582800 60.0864 168.875 55.755 0.29135 0.305252
583000 60.0864 168.888 55.755 0.29145 0.298773
583200 60.0864 168.901 55.755 0.29155 0.298717
583400 60.0864 168.914 55.755 0.29165 0.274195
583600 60.0864 168.927 55.755 0.29175 0.189796
583800 60.0864 168.94 55.755 0.29185 0.0929488
584000 60.0864 168.953 55.755 0.29195 -0.00762627
584200 60.0864 168.966 55.755 0.29205 -0.0921006
584400 60.0864 168.98 55.755 0.29215 -0.169599
584600 60.0864 168.993 55.755 0.29225 -0.225234
584800 60.0864 169.006 55.755 0.29235 -0.28223
585000 60.0864 169.019 55.755 0.29245 -0.312914
585200 60.0864 169.032 55.755 0.29255 -0.284627
585400 60.0864 169.045 55.755 0.29265 -0.232968
585600 60.0864 169.058 55.755 0.29275 -0.203139
585800 60.0864 169.071 55.755 0.29285 -0.0997069
586000 60.0864 169.084 55.755 0.29295 0.0132596
586200 60.0864 169.097 55.755 0.29305 0.0738652
586400 60.0864 169.11 55.755 0.29315 0.155132
586600 60.0864 169.123 55.755 0.29325 0.232277
586800 60.0864 169.136 55.755 0.29335 0.28022
587000 60.0864 169.15 55.755 0.29345 0.338978
587200 60.0864 169.163 55.755 0.29355 0.277711
587400 60.0864 169.176 55.755 0.29365 0.252517
587600 60.0864 169.189 55.755 0.29375 0.166692
587800 60.0864 169.202 55.755 0.29385 0.105417
588000 60.0864 169.215 55.755 0.29395 0.0189888
588200 60.0864 169.228 55.755 0.29405 -0.0667392
588400 60.0864 169.241 55.755 0.29415 -0.157227
588600 60.0864 169.254 55.755 0.29425 -0.233158
588800 60.0864 169.267 55.755 0.29435 -0.26466
589000 60.0864 169.28 55.755 0.29445 -0.302703
589200 60.0864 169.293 55.755 0.29455 -0.262292
589400 60.0864 169.306 55.755 0.29465 -0.279605
589600 60.0864 169.32 55.755 0.29475 -0.171832
589800 60.0864 169.333 55.755 0.29485 -0.10654
590000 60.0864 169.346 55.755 0.29495 -0.0239487
590200 60.0864 169.359 55.755 0.29505 0.0771441
590400 60.0864 169.372 55.755 0.29515 0.177371
590600 60.0864 169.385 55.755 0.29525 0.225845
590800 60.0864 169.398 55.755 0.29535 0.273325
591000 60.0864 169.411 55.755 0.29545 0.298591
591200 60.0864 169.424 55.755 0.29555 0.283411
591400 60.0864 169.437 55.755 0.29565 0.249948
591600 60.0864 169.45 55.755 0.29575 0.195793
591800 60.0864 169.463 55.755 0.29585 0.0992629
592000 60.0864 169.476 55.755 0.29595 0.0179182
592200 60.0864 169.49 55.755 0.29605 -0.0656612
592400 60.0864 169.503 55.755 0.29615 -0.171613
592600 60.0864 169.516 55.755 0.29625 -0.224325
592800 60.0864 169.529 55.755 0.29635 -0.28919
593000 60.0864 169.542 55.755 0.29645 -0.257799
593200 60.0864 169.555 55.755 0.29655 -0.2454
593400 60.0864 169.568 55.755 0.29665 -0.238358
593600 60.0864 169.581 55.755 0.29675 -0.184485
593800 60.0864 169.594 55.755 0.29685 -0.115725
594000 60.0864 169.607 55.755 0.29695 -0.0228636
594200 60.0864 169.62 55.755 0.29705 0.0448528
594400 60.0864 169.633 55.755 0.29715 0.162799
594600 60.0864 169.646 55.755 0.29725 0.215277
594800 60.0864 169.66 55.755 0.29735 0.276753
595000 60.0864 169.673 55.755 0.29745 0.289551
595200 60.0864 169.686 55.755 0.29755 0.245407
595400 60.0864 169.699 55.755 0.29765 0.241993
595600 60.0864 169.712 55.755 0.29775 0.179762
595800 60.0864 169.725 55.755 0.29785 0.121589
596000 60.0864 169.738 55.755 0.29795 0.0326749
596200 60.0864 169.751 55.755 0.29805 -0.0635063
596400 60.0864 169.764 55.755 0.29815 -0.125449
596600 60.0864 169.777 55.755 0.29825 -0.20906
596800 60.0864 169.79 55.755 0.29835 -0.261332
597000 60.0864 169.803 55.755 0.29845 -0.278756
597200 60.0864 169.817 55.755 0.29855 -0.234737
597400 60.0864 169.83 55.755 0.29865 -0.21617
597600 60.0864 169.843 55.755 0.29875 -0.174071
597800 60.0864 169.856 55.755 0.29885 -0.116447
598000 60.0864 169.869 55.755 0.29895 -0.056649
598200 60.0864 169.882 55.755 0.29905 0.0473407
598400 60.0864 169.895 55.755 0.29915 0.132333
598600 60.0864 169.908 55.755 0.29925 0.183019
598800 60.0864 169.921 55.755 0.29935 0.266897
599000 60.0864 169.934 55.755 0.29945 0.267409
599200 60.0864 169.947 55.755 0.29955 0.273422
599400 60.0864 169.96 55.755 0.29965 0.252894
599600 60.0864 169.973 55.755 0.29975 0.165782
599800 60.0864 169.987 55.755 0.29985 0.130899
600000 60.0864 170 55.755 0.29995 0.0390485
600200 60.0864 170.013 55.755 0.30005 -0.0310375
600400 60.0864 170.026 55.755 0.30015 -0.119473
600600 60.0864 170.039 55.755 0.30025 -0.207544
600800 60.0864 170.052 55.755 0.30035 -0.219865
601000 60.0864 170.065 55.755 0.30045 -0.277235
601200 60.0864 170.078 55.755 0.30055 -0.257901
601400 60.0864 170.091 55.755 0.30065 -0.242381
601600 60.0864 170.104 55.755 0.30075 -0.189852
601800 60.0864 170.117 55.755 0.30085 -0.117149
602000 60.0864 170.13 55.755 0.30095 -0.0485965
602200 60.0864 170.143 55.755 0.30105 0.0332231
602400 60.0864 170.157 55.755 0.30115 0.119609
602600 60.0864 170.17 55.755 0.30125 0.163983
602800 60.0864 170.183 55.755 0.30135 0.229246
603000 60.0864 170.196 55.755 0.30145 0.273572
603200 60.0864 170.209 55.755 0.30155 0.282929
603400 60.0864 170.222 55.755 0.30165 0.242064
603600 60.0864 170.235 55.755 0.30175 0.204188
603800 60.0864 170.248 55.755 0.30185 0.132428
604000 60.0864 170.261 55.755 0.30195 0.0538998
604200 60.0864 170.274 55.755 0.30205 -0.0368725
604400 60.0864 170.287 55.755 0.30215 -0.0922841
604600 60.0864 170.3 55.755 0.30225 -0.195827
604800 60.0864 170.313 55.755 0.30235 -0.210872
605000 60.0864 170.327 55.755 0.30245 -0.235342
605200 60.0864 170.34 55.755 0.30255 -0.268389
605400 60.0864 170.353 55.755 0.30265 -0.248964
605600 60.0864 170.366 55.755 0.30275 -0.185019
605800 60.0864 170.379 55.755 0.30285 -0.1346
606000 60.0864 170.392 55.755 0.30295 -0.0653436
606200 60.0864 170.405 55.755 0.30305 0.0130493
606400 60.0864 170.418 55.755 0.30315 0.10354
606600 60.0864 170.431 55.755 0.30325 0.16447
606800 60.0864 170.444 55.755 0.30335 0.22947
607000 60.0864 170.457 55.755 0.30345 0.255815
607200 60.0864 170.47 55.755 0.30355 0.259447
607400 60.0864 170.483 55.755 0.30365 0.253808
607600 60.0864 170.497 55.755 0.30375 0.182921
607800 60.0864 170.51 55.755 0.30385 0.144096
608000 60.0864 170.523 55.755 0.30395 0.0714724
608200 60.0864 170.536 55.755 0.30405 -0.0259653
608400 60.0864 170.549 55.755 0.30415 -0.0879801
608600 60.0864 170.562 55.755 0.30425 -0.160921
608800 60.0864 170.575 55.755 0.30435 -0.224938
609000 60.0864 170.588 55.755 0.30445 -0.250105
609200 60.0864 170.601 55.755 0.30455 -0.242369
609400 60.0864 170.614 55.755 0.30465 -0.217427
609600 60.0864 170.627 55.755 0.30475 -0.186359
609800 60.0864 170.64 55.755 0.30485 -0.136088
610000 60.0864 170.653 55.755 0.30495 -0.0411657
610200 60.0864 170.667 55.755 0.30505 0.00308167
610400 60.0864 170.68 55.755 0.30515 0.0750082
610600 60.0864 170.693 55.755 0.30525 0.145233
610800 60.0864 170.706 55.755 0.30535 0.233245
611000 60.0864 170.719 55.755 0.30545 0.254749
611200 60.0864 170.732 55.755 0.30555 0.235933
611400 60.0864 170.745 55.755 0.30565 0.231341
611600 60.0864 170.758 55.755 0.30575 0.200968
611800 60.0864 170.771 55.755 0.30585 0.149827
612000 60.0864 170.784 55.755 0.30595 0.0461194
612200 60.0864 170.797 55.755 0.30605 -0.0270334
612400 60.0864 170.81 55.755 0.30615 -0.0596092
612600 60.0864 170.823 55.755 0.30625 -0.16535
612800 60.0864 170.837 55.755 0.30635 -0.218602
613000 60.0864 170.85 55.755 0.30645 -0.24266
613200 60.0864 170.863 55.755 0.30655 -0.244505
613400 60.0864 170.876 55.755 0.30665 -0.237394
613600 60.0864 170.889 55.755 0.30675 -0.19619
613800 60.0864 170.902 55.755 0.30685 -0.118588
614000 60.0864 170.915 55.755 0.30695 -0.0590779
614200 60.0864 170.928 55.755 0.30705 0.0219575
614400 60.0864 170.941 55.755 0.30715 0.10041
614600 60.0864 170.954 55.755 0.30725 0.155961
614800 60.0864 170.967 55.755 0.30735 0.186599
615000 60.0864 170.98 55.755 0.30745 0.261217
615200 60.0864 170.993 55.755 0.30755 0.264563
615400 60.0864 171.007 55.755 0.30765 0.205656
615600 60.0864 171.02 55.755 0.30775 0.20517
615800 60.0864 171.033 55.755 0.30785 0.129035
616000 60.0864 171.046 55.755 0.30795 0.0798008
616200 60.0864 171.059 55.755 0.30805 -0.0271566
616400 60.0864 171.072 55.755 0.30815 -0.0908092
616600 60.0864 171.085 55.755 0.30825 -0.167537
616800 60.0864 171.098 55.755 0.30835 -0.186736
617000 60.0864 171.111 55.755 0.30845 -0.220915
617200 60.0864 171.124 55.755 0.30855 -0.236077
617400 60.0864 171.137 55.755 0.30865 -0.211366
617600 60.0864 171.15 55.755 0.30875 -0.191983
617800 60.0864 171.163 55.755 0.30885 -0.122366
618000 60.0864 171.177 55.755 0.30895 -0.0859612
618200 60.0864 171.19 55.755 0.30905 0.0248352
618400 60.0864 171.203 55.755 0.30915 0.0959837
618600 60.0864 171.216 55.755 0.30925 0.142015
618800 60.0864 171.229 55.755 0.30935 0.186598
619000 60.0864 171.242 55.755 0.30945 0.209991
619200 60.0864 171.255 55.755 0.30955 0.267338
619400 60.0864 171.268 55.755 0.30965 0.212657
619600 60.0864 171.281 55.755 0.30975 0.196975
619800 60.0864 171.294 55.755 0.30985 0.137564
620000 60.0864 171.307 55.755 0.30995 0.0656159
620200 60.0864 171.32 55.755 0.31005 -0.00697445
620400 60.0864 171.333 55.755 0.31015 -0.0713328
620600 60.0864 171.347 55.755 0.31025 -0.140667
620800 60.0864 171.36 55.755 0.31035 -0.171984
621000 60.0864 171.373 55.755 0.31045 -0.227929
621200 60.0864 171.386 55.755 0.31055 -0.208053
621400 60.0864 171.399 55.755 0.31065 -0.248302
621600 60.0864 171.412 55.755 0.31075 -0.182723
621800 60.0864 171.425 55.755 0.31085 -0.125772
622000 60.0864 171.438 55.755 0.31095 -0.084414
622200 60.0864 171.451 55.755 0.31105 0.00122003
622400 60.0864 171.464 55.755 0.31115 0.0788243
622600 60.0864 171.477 55.755 0.31125 0.133602
622800 60.0864 171.49 55.755 0.31135 0.170831
623000 60.0864 171.503 55.755 0.31145 0.218503
623200 60.0864 171.517 55.755 0.31155 0.236339
623400 60.0864 171.53 55.755 0.31165 0.257594
623600 60.0864 171.543 55.755 0.31175 0.189439
623800 60.0864 171.556 55.755 0.31185 0.138839
624000 60.0864 171.569 55.755 0.31195 0.071582
624200 60.0864 171.582 55.755 0.31205 -0.0224186
624400 60.0864 171.595 55.755 0.31215 -0.0563452
624600 60.0864 171.608 55.755 0.31225 -0.105606
624800 60.0864 171.621 55.755 0.31235 -0.198047
625000 60.0864 171.634 55.755 0.31245 -0.208074
625200 60.0864 171.647 55.755 0.31255 -0.236951
625400 60.0864 171.66 55.755 0.31265 -0.220697
625600 60.0864 171.673 55.755 0.31275 -0.223057
625800 60.0864 171.687 55.755 0.31285 -0.118229
626000 60.0864 171.7 55.755 0.31295 -0.0642412
626200 60.0864 171.713 55.755 0.31305 -0.00370993
626400 60.0864 171.726 55.755 0.31315 0.064793
626600 60.0864 171.739 55.755 0.31325 0.121389
626800 60.0864 171.752 55.755 0.31335 0.195278
627000 60.0864 171.765 55.755 0.31345 0.2137
627200 60.0864 171.778 55.755 0.31355 0.232255
627400 60.0864 171.791 55.755 0.31365 0.233928
627600 60.0864 171.804 55.755 0.31375 0.193298
627800 60.0864 171.817 55.755 0.31385 0.14392
628000 60.0864 171.83 55.755 0.31395 0.0809929
628200 60.0864 171.843 55.755 0.31405 -0.0022304
628400 60.0864 171.857 55.755 0.31415 -0.0617842
628600 60.0864 171.87 55.755 0.31425 -0.1144
628800 60.0864 171.883 55.755 0.31435 -0.175229
629000 60.0864 171.896 55.755 0.31445 -0.226634
629200 60.0864 171.909 55.755 0.31455 -0.217135
629400 60.0864 171.922 55.755 0.31465 -0.203574
629600 60.0864 171.935 55.755 0.31475 -0.203042
629800 60.0864 171.948 55.755 0.31485 -0.154854
630000 60.0864 171.961 55.755 0.31495 -0.0605921
630200 60.0864 171.974 55.755 0.31505 -0.0174994
630400 60.0864 171.987 55.755 0.31515 0.0685883
630600 60.0864 172 55.755 0.31525 0.126809
630800 60.0864 172.014 55.755 0.31535 0.161859
631000 60.0864 172.027 55.755 0.31545 0.207025
631200 60.0864 172.04 55.755 0.31555 0.243446
631400 60.0864 172.053 55.755 0.31565 0.234631
631600 60.0864 172.066 55.755 0.31575 0.190127
631800 60.0864 172.079 55.755 0.31585 0.137751
632000 60.0864 172.092 55.755 0.31595 0.0833629
632200 60.0864 172.105 55.755 0.31605 0.0118526
632400 60.0864 172.118 55.755 0.31615 -0.0560171
632600 60.0864 172.131 55.755 0.31625 -0.107298
632800 60.0864 172.144 55.755 0.31635 -0.175332
633000 60.0864 172.157 55.755 0.31645 -0.207051
633200 60.0864 172.17 55.755 0.31655 -0.220219
633400 60.0864 172.184 55.755 0.31665 -0.18823
633600 60.0864 172.197 55.755 0.31675 -0.213684
633800 60.0864 172.21 55.755 0.31685 -0.14789
634000 60.0864 172.223 55.755 0.31695 -0.0765587
634200 60.0864 172.236 55.755 0.31705 -0.0480422
634400 60.0864 172.249 55.755 0.31715 0.0698603
634600 60.0864 172.262 55.755 0.31725 0.113524
634800 60.0864 172.275 55.755 0.31735 0.165321
635000 60.0864 172.288 55.755 0.31745 0.21727
635200 60.0864 172.301 55.755 0.31755 0.217881
635400 60.0864 172.314 55.755 0.31765 0.203712
635600 60.0864 172.327 55.755 0.31775 0.203143
635800 60.0864 172.34 55.755 0.31785 0.17645
636000 60.0864 172.354 55.755 0.31795 0.0836567
636200 60.0864 172.367 55.755 0.31805 0.0415744
636400 60.0864 172.38 55.755 0.31815 -0.0368004
636600 60.0864 172.393 55.755 0.31825 -0.117463
636800 60.0864 172.406 55.755 0.31835 -0.152236
637000 60.0864 172.419 55.755 0.31845 -0.217023
637200 60.0864 172.432 55.755 0.31855 -0.220682
637400 60.0864 172.445 55.755 0.31865 -0.203148
637600 60.0864 172.458 55.755 0.31875 -0.19448
637800 60.0864 172.471 55.755 0.31885 -0.152164
638000 60.0864 172.484 55.755 0.31895 -0.099207
638200 60.0864 172.497 55.755 0.31905 -0.0563563
638400 60.0864 172.51 55.755 0.31915 0.0353813
638600 60.0864 172.524 55.755 0.31925 0.103275
638800 60.0864 172.537 55.755 0.31935 0.177818
639000 60.0864 172.55 55.755 0.31945 0.203876
639200 60.0864 172.563 55.755 0.31955 0.222434
639400 60.0864 172.576 55.755 0.31965 0.229772
639600 60.0864 172.589 55.755 0.31975 0.187849
639800 60.0864 172.602 55.755 0.31985 0.172695
640000 60.0864 172.615 55.755 0.31995 0.0999473
640200 60.0864 172.628 55.755 0.32005 0.0482155
640400 60.0864 172.641 55.755 0.32015 -0.0482534
640600 60.0864 172.654 55.755 0.32025 -0.100615
640800 60.0864 172.667 55.755 0.32035 -0.151609
641000 60.0864 172.68 55.755 0.32045 -0.203718
641200 60.0864 172.694 55.755 0.32055 -0.205294
641400 60.0864 172.707 55.755 0.32065 -0.213779
641600 60.0864 172.72 55.755 0.32075 -0.180453
641800 60.0864 172.733 55.755 0.32085 -0.157772
642000 60.0864 172.746 55.755 0.32095 -0.108594
642200 60.0864 172.759 55.755 0.32105 -0.0516907
642400 60.0864 172.772 55.755 0.32115 0.0276819
642600 60.0864 172.785 55.755 0.32125 0.0963322
642800 60.0864 172.798 55.755 0.32135 0.147782
643000 60.0864 172.811 55.755 0.32145 0.198228
643200 60.0864 172.824 55.755 0.32155 0.223266
643400 60.0864 172.837 55.755 0.32165 0.209693
643600 60.0864 172.85 55.755 0.32175 0.202854
643800 60.0864 172.864 55.755 0.32185 0.156245
644000 60.0864 172.877 55.755 0.32195 0.128442
644200 60.0864 172.89 55.755 0.32205 0.0391159
644400 60.0864 172.903 55.755 0.32215 -0.0200501
644600 60.0864 172.916 55.755 0.32225 -0.0882508
644800 60.0864 172.929 55.755 0.32235 -0.147334
645000 60.0864 172.942 55.755 0.32245 -0.182789
645200 60.0864 172.955 55.755 0.32255 -0.204981
645400 60.0864 172.968 55.755 0.32265 -0.2041
645600 60.0864 172.981 55.755 0.32275 -0.211039
645800 60.0864 172.994 55.755 0.32285 -0.156062
646000 60.0864 173.007 55.755 0.32295 -0.117154
646200 60.0864 173.02 55.755 0.32305 -0.069147
646400 60.0864 173.034 55.755 0.32315 0.0179054
646600 60.0864 173.047 55.755 0.32325 0.0797363
646800 60.0864 173.06 55.755 0.32335 0.160275
647000 60.0864 173.073 55.755 0.32345 0.199055
647200 60.0864 173.086 55.755 0.32355 0.212364
647400 60.0864 173.099 55.755 0.32365 0.202502
647600 60.0864 173.112 55.755 0.32375 0.206676
647800 60.0864 173.125 55.755 0.32385 0.199068
648000 60.0864 173.138 55.755 0.32395 0.132223
648200 60.0864 173.151 55.755 0.32405 0.0526864
648400 60.0864 173.164 55.755 0.32415 -0.0290495
648600 60.0864 173.177 55.755 0.32425 -0.0892287
648800 60.0864 173.19 55.755 0.32435 -0.144447
649000 60.0864 173.204 55.755 0.32445 -0.170527
649200 60.0864 173.217 55.755 0.32455 -0.227223
649400 60.0864 173.23 55.755 0.32465 -0.201441
649600 60.0864 173.243 55.755 0.32475 -0.199547
649800 60.0864 173.256 55.755 0.32485 -0.145254
650000 60.0864 173.269 55.755 0.32495 -0.131449
650200 60.0864 173.282 55.755 0.32505 -0.0557597
650400 60.0864 173.295 55.755 0.32515 -0.00481673
650600 60.0864 173.308 55.755 0.32525 0.0780423
650800 60.0864 173.321 55.755 0.32535 0.129208
651000 60.0864 173.334 55.755 0.32545 0.167956
651200 60.0864 173.347 55.755 0.32555 0.232005
651400 60.0864 173.36 55.755 0.32565 0.21422
651600 60.0864 173.374 55.755 0.32575 0.216558
651800 60.0864 173.387 55.755 0.32585 0.158977
652000 60.0864 173.4 55.755 0.32595 0.12724
652200 60.0864 173.413 55.755 0.32605 0.0739351
652400 60.0864 173.426 55.755 0.32615 -0.0075419
652600 60.0864 173.439 55.755 0.32625 -0.0557097
652800 60.0864 173.452 55.755 0.32635 -0.121777
653000 60.0864 173.465 55.755 0.32645 -0.192347
653200 60.0864 173.478 55.755 0.32655 -0.195777
653400 60.0864 173.491 55.755 0.32665 -0.221924
653600 60.0864 173.504 55.755 0.32675 -0.186827
653800 60.0864 173.517 55.755 0.32685 -0.184806
654000 60.0864 173.53 55.755 0.32695 -0.12762
654200 60.0864 173.544 55.755 0.32705 -0.0696482
654400 60.0864 173.557 55.755 0.32715 -0.00172322
654600 60.0864 173.57 55.755 0.32725 0.0490054
654800 60.0864 173.583 55.755 0.32735 0.138177
655000 60.0864 173.596 55.755 0.32745 0.168707
655200 60.0864 173.609 55.755 0.32755 0.226286
655400 60.0864 173.622 55.755 0.32765 0.2083
655600 60.0864 173.635 55.755 0.32775 0.218502
655800 60.0864 173.648 55.755 0.32785 0.159841
656000 60.0864 173.661 55.755 0.32795 0.138197
656200 60.0864 173.674 55.755 0.32805 0.0762455
656400 60.0864 173.687 55.755 0.32815 0.00306787
656600 60.0864 173.7 55.755 0.32825 -0.0651991
656800 60.0864 173.714 55.755 0.32835 -0.100831
657000 60.0864 173.727 55.755 0.32845 -0.178961
657200 60.0864 173.74 55.755 0.32855 -0.194174
657400 60.0864 173.753 55.755 0.32865 -0.206542
657600 60.0864 173.766 55.755 0.32875 -0.190456
657800 60.0864 173.779 55.755 0.32885 -0.166472
658000 60.0864 173.792 55.755 0.32895 -0.132528
658200 60.0864 173.805 55.755 0.32905 -0.0733948
658400 60.0864 173.818 55.755 0.32915 -0.0080157
658600 60.0864 173.831 55.755 0.32925 0.0553724
658800 60.0864 173.844 55.755 0.32935 0.103044
659000 60.0864 173.857 55.755 0.32945 0.142298
659200 60.0864 173.87 55.755 0.32955 0.193947
659400 60.0864 173.884 55.755 0.32965 0.219858
659600 60.0864 173.897 55.755 0.32975 0.187647
659800 60.0864 173.91 55.755 0.32985 0.152273
660000 60.0864 173.923 55.755 0.32995 0.157632
660200 60.0864 173.936 55.755 0.33005 0.0771191
660400 60.0864 173.949 55.755 0.33015 0.0137762
660600 60.0864 173.962 55.755 0.33025 -0.0328045
660800 60.0864 173.975 55.755 0.33035 -0.091684
661000 60.0864 173.988 55.755 0.33045 -0.155346
661200 60.0864 174.001 55.755 0.33055 -0.164517
661400 60.0864 174.014 55.755 0.33065 -0.186416
661600 60.0864 174.027 55.755 0.33075 -0.184451
661800 60.0864 174.04 55.755 0.33085 -0.179746
662000 60.0864 174.054 55.755 0.33095 -0.133104
662200 60.0864 174.067 55.755 0.33105 -0.0789262
662400 60.0864 174.08 55.755 0.33115 -0.0405033
662600 60.0864 174.093 55.755 0.33125 0.0370201
662800 60.0864 174.106 55.755 0.33135 0.0971037
663000 60.0864 174.119 55.755 0.33145 0.131334
663200 60.0864 174.132 55.755 0.33155 0.179487
663400 60.0864 174.145 55.755 0.33165 0.195954
663600 60.0864 174.158 55.755 0.33175 0.184103
663800 60.0864 174.171 55.755 0.33185 0.181008
664000 60.0864 174.184 55.755 0.33195 0.157332
664200 60.0864 174.197 55.755 0.33205 0.0775921
664400 60.0864 174.211 55.755 0.33215 0.0262099
664600 60.0864 174.224 55.755 0.33225 -0.00867268
664800 60.0864 174.237 55.755 0.33235 -0.0901089
665000 60.0864 174.25 55.755 0.33245 -0.145952
665200 60.0864 174.263 55.755 0.33255 -0.174837
665400 60.0864 174.276 55.755 0.33265 -0.175956
665600 60.0864 174.289 55.755 0.33275 -0.198567
665800 60.0864 174.302 55.755 0.33285 -0.182201
666000 60.0864 174.315 55.755 0.33295 -0.126894
666200 60.0864 174.328 55.755 0.33305 -0.0858778
666400 60.0864 174.341 55.755 0.33315 -0.0303814
666600 60.0864 174.354 55.755 0.33325 0.0228076
666800 60.0864 174.367 55.755 0.33335 0.0625578
667000 60.0864 174.381 55.755 0.33345 0.145129
667200 60.0864 174.394 55.755 0.33355 0.190364
667400 60.0864 174.407 55.755 0.33365 0.176223
667600 60.0864 174.42 55.755 0.33375 0.199761
667800 60.0864 174.433 55.755 0.33385 0.165465
668000 60.0864 174.446 55.755 0.33395 0.121222
668200 60.0864 174.459 55.755 0.33405 0.0993945
668400 60.0864 174.472 55.755 0.33415 0.0461262
668600 60.0864 174.485 55.755 0.33425 -0.00664275
668800 60.0864 174.498 55.755 0.33435 -0.0763681
669000 60.0864 174.511 55.755 0.33445 -0.113823
669200 60.0864 174.524 55.755 0.33455 -0.165481
669400 60.0864 174.537 55.755 0.33465 -0.190241
669600 60.0864 174.551 55.755 0.33475 -0.186867
669800 60.0864 174.564 55.755 0.33485 -0.153705
670000 60.0864 174.577 55.755 0.33495 -0.130469
670200 60.0864 174.59 55.755 0.33505 -0.0890278
670400 60.0864 174.603 55.755 0.33515 -0.057591
670600 60.0864 174.616 55.755 0.33525 -0.0111062
670800 60.0864 174.629 55.755 0.33535 0.0631707
671000 60.0864 174.642 55.755 0.33545 0.112623
671200 60.0864 174.655 55.755 0.33555 0.187476
671400 60.0864 174.668 55.755 0.33565 0.180649
671600 60.0864 174.681 55.755 0.33575 0.225609
671800 60.0864 174.694 55.755 0.33585 0.153648
672000 60.0864 174.707 55.755 0.33595 0.135284
672200 60.0864 174.721 55.755 0.33605 0.0907855
672400 60.0864 174.734 55.755 0.33615 0.0299002
672600 60.0864 174.747 55.755 0.33625 0.00989733
672800 60.0864 174.76 55.755 0.33635 -0.0417909
673000 60.0864 174.773 55.755 0.33645 -0.12077
673200 60.0864 174.786 55.755 0.33655 -0.138796
673400 60.0864 174.799 55.755 0.33665 -0.194815
673600 60.0864 174.812 55.755 0.33675 -0.177611
673800 60.0864 174.825 55.755 0.33685 -0.171849
674000 60.0864 174.838 55.755 0.33695 -0.128852
674200 60.0864 174.851 55.755 0.33705 -0.0953103
674400 60.0864 174.864 55.755 0.33715 -0.046306
674600 60.0864 174.877 55.755 0.33725 0.0326131
674800 60.0864 174.891 55.755 0.33735 0.0345099
675000 60.0864 174.904 55.755 0.33745 0.0731583
675200 60.0864 174.917 55.755 0.33755 0.153753
675400 60.0864 174.93 55.755 0.33765 0.194699
675600 60.0864 174.943 55.755 0.33775 0.184303
675800 60.0864 174.956 55.755 0.33785 0.180207
676000 60.0864 174.969 55.755 0.33795 0.13414
676200 60.0864 174.982 55.755 0.33805 0.0819375
676400 60.0864 174.995 55.755 0.33815 0.0463393
676600 60.0864 175.008 55.755 0.33825 -0.0235296
676800 60.0864 175.021 55.755 0.33835 -0.033568
677000 60.0864 175.034 55.755 0.33845 -0.0717776
677200 60.0864 175.047 55.755 0.33855 -0.145552
677400 60.0864 175.061 55.755 0.33865 -0.179461
677600 60.0864 175.074 55.755 0.33875 -0.160447
677800 60.0864 175.087 55.755 0.33885 -0.16497
678000 60.0864 175.1 55.755 0.33895 -0.135075
678200 60.0864 175.113 55.755 0.33905 -0.0797158
678400 60.0864 175.126 55.755 0.33915 -0.0342445
678600 60.0864 175.139 55.755 0.33925 -0.00792339
678800 60.0864 175.152 55.755 0.33935 0.0523753
679000 60.0864 175.165 55.755 0.33945 0.0722681
679200 60.0864 175.178 55.755 0.33955 0.137526
679400 60.0864 175.191 55.755 0.33965 0.172491
679600 60.0864 175.204 55.755 0.33975 0.15472
679800 60.0864 175.217 55.755 0.33985 0.189068
680000 60.0864 175.231 55.755 0.33995 0.107424
680200 60.0864 175.244 55.755 0.34005 0.0886653
680400 60.0864 175.257 55.755 0.34015 0.0496083
680600 60.0864 175.27 55.755 0.34025 0.020567
680800 60.0864 175.283 55.755 0.34035 -0.048555
681000 60.0864 175.296 55.755 0.34045 -0.101071
681200 60.0864 175.309 55.755 0.34055 -0.108803
681400 60.0864 175.322 55.755 0.34065 -0.177476
681600 60.0864 175.335 55.755 0.34075 -0.154654
681800 60.0864 175.348 55.755 0.34085 -0.167204
682000 60.0864 175.361 55.755 0.34095 -0.106703
682200 60.0864 175.374 55.755 0.34105 -0.0761216
682400 60.0864 175.387 55.755 0.34115 -0.0505773
682600 60.0864 175.401 55.755 0.34125 -0.0175634
682800 60.0864 175.414 55.755 0.34135 0.0457818
683000 60.0864 175.427 55.755 0.34145 0.0763859
683200 60.0864 175.44 55.755 0.34155 0.122327
683400 60.0864 175.453 55.755 0.34165 0.172581
683600 60.0864 175.466 55.755 0.34175 0.177279
683800 60.0864 175.479 55.755 0.34185 0.160957
684000 60.0864 175.492 55.755 0.34195 0.137809
684200 60.0864 175.505 55.755 0.34205 0.0929392
684400 60.0864 175.518 55.755 0.34215 0.0410425
684600 60.0864 175.531 55.755 0.34225 0.00345817
684800 60.0864 175.544 55.755 0.34235 -0.042333
685000 60.0864 175.557 55.755 0.34245 -0.0732221
685200 60.0864 175.571 55.755 0.34255 -0.126308
685400 60.0864 175.584 55.755 0.34265 -0.155321
685600 60.0864 175.597 55.755 0.34275 -0.175885
685800 60.0864 175.61 55.755 0.34285 -0.162876
686000 60.0864 175.623 55.755 0.34295 -0.112812
686200 60.0864 175.636 55.755 0.34305 -0.108196
686400 60.0864 175.649 55.755 0.34315 -0.0425994
686600 60.0864 175.662 55.755 0.34325 0.011102
686800 60.0864 175.675 55.755 0.34335 0.043108
687000 60.0864 175.688 55.755 0.34345 0.0673415
687200 60.0864 175.701 55.755 0.34355 0.12287
687400 60.0864 175.714 55.755 0.34365 0.16919
687600 60.0864 175.727 55.755 0.34375 0.161988
687800 60.0864 175.741 55.755 0.34385 0.170283
688000 60.0864 175.754 55.755 0.34395 0.13969
688200 60.0864 175.767 55.755 0.34405 0.091882
688400 60.0864 175.78 55.755 0.34415 0.0445416
688600 60.0864 175.793 55.755 0.34425 0.0241848
688800 60.0864 175.806 55.755 0.34435 -0.039765
689000 60.0864 175.819 55.755 0.34445 -0.110702
689200 60.0864 175.832 55.755 0.34455 -0.119036
689400 60.0864 175.845 55.755 0.34465 -0.141396
689600 60.0864 175.858 55.755 0.34475 -0.15307
689800 60.0864 175.871 55.755 0.34485 -0.161328
690000 60.0864 175.884 55.755 0.34495 -0.13233
690200 60.0864 175.897 55.755 0.34505 -0.114127
690400 60.0864 175.911 55.755 0.34515 -0.051919
690600 60.0864 175.924 55.755 0.34525 0.000163614
690800 60.0864 175.937 55.755 0.34535 0.0395769
691000 60.0864 175.95 55.755 0.34545 0.0791987
691200 60.0864 175.963 55.755 0.34555 0.147409
691400 60.0864 175.976 55.755 0.34565 0.151287
691600 60.0864 175.989 55.755 0.34575 0.163101
691800 60.0864 176.002 55.755 0.34585 0.16924
692000 60.0864 176.015 55.755 0.34595 0.140696
692200 60.0864 176.028 55.755 0.34605 0.0994384
692400 60.0864 176.041 55.755 0.34615 0.0525215
692600 60.0864 176.054 55.755 0.34625 0.000438338
692800 60.0864 176.067 55.755 0.34635 -0.0444997
693000 60.0864 176.081 55.755 0.34645 -0.0839694
693200 60.0864 176.094 55.755 0.34655 -0.121074
693400 60.0864 176.107 55.755 0.34665 -0.139517
693600 60.0864 176.12 55.755 0.34675 -0.157321
693800 60.0864 176.133 55.755 0.34685 -0.150051
694000 60.0864 176.146 55.755 0.34695 -0.135646
694200 60.0864 176.159 55.755 0.34705 -0.0766236
694400 60.0864 176.172 55.755 0.34715 -0.0696629
694600 60.0864 176.185 55.755 0.34725 -0.0268269
694800 60.0864 176.198 55.755 0.34735 0.0368242
695000 60.0864 176.211 55.755 0.34745 0.119725
695200 60.0864 176.224 55.755 0.34755 0.104872
695400 60.0864 176.237 55.755 0.34765 0.121798
695600 60.0864 176.251 55.755 0.34775 0.158442
695800 60.0864 176.264 55.755 0.34785 0.168314
696000 60.0864 176.277 55.755 0.34795 0.140073
696200 60.0864 176.29 55.755 0.34805 0.0988259
696400 60.0864 176.303 55.755 0.34815 0.0769231
696600 60.0864 176.316 55.755 0.34825 0.011091
696800 60.0864 176.329 55.755 0.34835 -0.0245995
697000 60.0864 176.342 55.755 0.34845 -0.0906463
697200 60.0864 176.355 55.755 0.34855 -0.117549
697400 60.0864 176.368 55.755 0.34865 -0.128231
697600 60.0864 176.381 55.755 0.34875 -0.151338
697800 60.0864 176.394 55.755 0.34885 -0.138387
698000 60.0864 176.408 55.755 0.34895 -0.147262
698200 60.0864 176.421 55.755 0.34905 -0.110648
698400 60.0864 176.434 55.755 0.34915 -0.062482
698600 60.0864 176.447 55.755 0.34925 -0.0144387
698800 60.0864 176.46 55.755 0.34935 0.0145726
699000 60.0864 176.473 55.755 0.34945 0.0872293
699200 60.0864 176.486 55.755 0.34955 0.101917
699400 60.0864 176.499 55.755 0.34965 0.138984
699600 60.0864 176.512 55.755 0.34975 0.157762
699800 60.0864 176.525 55.755 0.34985 0.144378
700000 60.0864 176.538 55.755 0.34995 0.155655
700200 60.0864 176.551 55.755 0.35005 0.107817
700400 60.0864 176.564 55.755 0.35015 0.0961028
700600 60.0864 176.578 55.755 0.35025 0.0147906
700800 60.0864 176.591 55.755 0.35035 -0.0426708
701000 60.0864 176.604 55.755 0.35045 -0.0680642
701200 60.0864 176.617 55.755 0.35055 -0.110432
701400 60.0864 176.63 55.755 0.35065 -0.126385
701600 60.0864 176.643 55.755 0.35075 -0.137661
701800 60.0864 176.656 55.755 0.35085 -0.153281
702000 60.0864 176.669 55.755 0.35095 -0.125586
702200 60.0864 176.682 55.755 0.35105 -0.121068
702400 60.0864 176.695 55.755 0.35115 -0.0804171
702600 60.0864 176.708 55.755 0.35125 -0.0208944
702800 60.0864 176.721 55.755 0.35135 0.023485
703000 60.0864 176.734 55.755 0.35145 0.0755202
703200 60.0864 176.748 55.755 0.35155 0.102193
703400 60.0864 176.761 55.755 0.35165 0.136054
703600 60.0864 176.774 55.755 0.35175 0.139381
703800 60.0864 176.787 55.755 0.35185 0.156422
704000 60.0864 176.8 55.755 0.35195 0.134931
704200 60.0864 176.813 55.755 0.35205 0.117374
704400 60.0864 176.826 55.755 0.35215 0.0755814
704600 60.0864 176.839 55.755 0.35225 0.0248632
704800 60.0864 176.852 55.755 0.35235 -0.0132179
705000 60.0864 176.865 55.755 0.35245 -0.0513697
705200 60.0864 176.878 55.755 0.35255 -0.0864947
705400 60.0864 176.891 55.755 0.35265 -0.142154
705600 60.0864 176.904 55.755 0.35275 -0.150009
705800 60.0864 176.918 55.755 0.35285 -0.137369
706000 60.0864 176.931 55.755 0.35295 -0.120776
706200 60.0864 176.944 55.755 0.35305 -0.12479
706400 60.0864 176.957 55.755 0.35315 -0.0794351
706600 60.0864 176.97 55.755 0.35325 -0.0149378
706800 60.0864 176.983 55.755 0.35335 0.0191046
707000 60.0864 176.996 55.755 0.35345 0.0533326
707200 60.0864 177.009 55.755 0.35355 0.103389
707400 60.0864 177.022 55.755 0.35365 0.112662
707600 60.0864 177.035 55.755 0.35375 0.143436
707800 60.0864 177.048 55.755 0.35385 0.153112
708000 60.0864 177.061 55.755 0.35395 0.119613
708200 60.0864 177.074 55.755 0.35405 0.127401
708400 60.0864 177.088 55.755 0.35415 0.0633491
708600 60.0864 177.101 55.755 0.35425 0.0290998
708800 60.0864 177.114 55.755 0.35435 -0.0126732
709000 60.0864 177.127 55.755 0.35445 -0.0419667
709200 60.0864 177.14 55.755 0.35455 -0.103185
709400 60.0864 177.153 55.755 0.35465 -0.124891
709600 60.0864 177.166 55.755 0.35475 -0.135596
709800 60.0864 177.179 55.755 0.35485 -0.122889
710000 60.0864 177.192 55.755 0.35495 -0.116785
710200 60.0864 177.205 55.755 0.35505 -0.102259
710400 60.0864 177.218 55.755 0.35515 -0.0687991
710600 60.0864 177.231 55.755 0.35525 -0.0484524
710800 60.0864 177.244 55.755 0.35535 0.0247514
711000 60.0864 177.258 55.755 0.35545 0.0647601
711200 60.0864 177.271 55.755 0.35555 0.0862276
711400 60.0864 177.284 55.755 0.35565 0.134214
711600 60.0864 177.297 55.755 0.35575 0.122271
711800 60.0864 177.31 55.755 0.35585 0.116166
712000 60.0864 177.323 55.755 0.35595 0.108292
712200 60.0864 177.336 55.755 0.35605 0.121916
712400 60.0864 177.349 55.755 0.35615 0.0610249
712600 60.0864 177.362 55.755 0.35625 0.0167749
712800 60.0864 177.375 55.755 0.35635 0.00625592
713000 60.0864 177.388 55.755 0.35645 -0.056687
713200 60.0864 177.401 55.755 0.35655 -0.0734577
713400 60.0864 177.414 55.755 0.35665 -0.102906
713600 60.0864 177.428 55.755 0.35675 -0.123306
713800 60.0864 177.441 55.755 0.35685 -0.129726
714000 60.0864 177.454 55.755 0.35695 -0.103253
714200 60.0864 177.467 55.755 0.35705 -0.101932
714400 60.0864 177.48 55.755 0.35715 -0.0659291
714600 60.0864 177.493 55.755 0.35725 -0.0265176
714800 60.0864 177.506 55.755 0.35735 3.257e-05
715000 60.0864 177.519 55.755 0.35745 0.0628788
715200 60.0864 177.532 55.755 0.35755 0.0659538
715400 60.0864 177.545 55.755 0.35765 0.0982385
715600 60.0864 177.558 55.755 0.35775 0.135798
715800 60.0864 177.571 55.755 0.35785 0.10581
716000 60.0864 177.584 55.755 0.35795 0.0951331
716200 60.0864 177.598 55.755 0.35805 0.122242
716400 60.0864 177.611 55.755 0.35815 0.0458288
716600 60.0864 177.624 55.755 0.35825 0.067073
716800 60.0864 177.637 55.755 0.35835 0.00728639
717000 60.0864 177.65 55.755 0.35845 -0.0479023
717200 60.0864 177.663 55.755 0.35855 -0.0750813
717400 60.0864 177.676 55.755 0.35865 -0.0950733
717600 60.0864 177.689 55.755 0.35875 -0.0855056
717800 60.0864 177.702 55.755 0.35885 -0.10715
718000 60.0864 177.715 55.755 0.35895 -0.13492
718200 60.0864 177.728 55.755 0.35905 -0.103093
718400 60.0864 177.741 55.755 0.35915 -0.0713383
718600 60.0864 177.754 55.755 0.35925 -0.0455741
718800 60.0864 177.768 55.755 0.35935 0.00866236
719000 60.0864 177.781 55.755 0.35945 0.0203015
719200 60.0864 177.794 55.755 0.35955 0.0603389
719400 60.0864 177.807 55.755 0.35965 0.0964
719600 60.0864 177.82 55.755 0.35975 0.0988906
719800 60.0864 177.833 55.755 0.35985 0.123094
720000 60.0864 177.846 55.755 0.35995 0.126125
720200 60.0864 177.859 55.755 0.36005 0.103186
720400 60.0864 177.872 55.755 0.36015 0.0952319
720600 60.0864 177.885 55.755 0.36025 0.0619366
720800 60.0864 177.898 55.755 0.36035 0.00297399
721000 60.0864 177.911 55.755 0.36045 -0.027755
721200 60.0864 177.924 55.755 0.36055 -0.0570509
721400 60.0864 177.938 55.755 0.36065 -0.0707861
721600 60.0864 177.951 55.755 0.36075 -0.103774
721800 60.0864 177.964 55.755 0.36085 -0.123002
722000 60.0864 177.977 55.755 0.36095 -0.112551
722200 60.0864 177.99 55.755 0.36105 -0.0890902
722400 60.0864 178.003 55.755 0.36115 -0.104681
722600 60.0864 178.016 55.755 0.36125 -0.0641984
722800 60.0864 178.029 55.755 0.36135 -0.023392
723000 60.0864 178.042 55.755 0.36145 0.0112072
723200 60.0864 178.055 55.755 0.36155 0.0739517
723400 60.0864 178.068 55.755 0.36165 0.0817202
723600 60.0864 178.081 55.755 0.36175 0.11143
723800 60.0864 178.094 55.755 0.36185 0.118901
724000 60.0864 178.108 55.755 0.36195 0.122559
724200 60.0864 178.121 55.755 0.36205 0.111987
724400 60.0864 178.134 55.755 0.36215 0.079193
724600 60.0864 178.147 55.755 0.36225 0.0636855
724800 60.0864 178.16 55.755 0.36235 0.0331325
725000 60.0864 178.173 55.755 0.36245 -0.01877
725200 60.0864 178.186 55.755 0.36255 -0.0437552
725400 60.0864 178.199 55.755 0.36265 -0.0926073
725600 60.0864 178.212 55.755 0.36275 -0.0984778
725800 60.0864 178.225 55.755 0.36285 -0.118745
726000 60.0864 178.238 55.755 0.36295 -0.0966239
726200 60.0864 178.251 55.755 0.36305 -0.106167
726400 60.0864 178.264 55.755 0.36315 -0.0761691
726600 60.0864 178.278 55.755 0.36325 -0.0685595
726800 60.0864 178.291 55.755 0.36335 -0.0304281
727000 60.0864 178.304 55.755 0.36345 -0.00547536
727200 60.0864 178.317 55.755 0.36355 0.0443417
727400 60.0864 178.33 55.755 0.36365 0.109954
727600 60.0864 178.343 55.755 0.36375 0.112961
727800 60.0864 178.356 55.755 0.36385 0.105336
728000 60.0864 178.369 55.755 0.36395 0.0965793
728200 60.0864 178.382 55.755 0.36405 0.108057
728400 60.0864 178.395 55.755 0.36415 0.0962121
728600 60.0864 178.408 55.755 0.36425 0.0527296
728800 60.0864 178.421 55.755 0.36435 0.0302042
729000 60.0864 178.435 55.755 0.36445 -0.00432957
729200 60.0864 178.448 55.755 0.36455 -0.0551051
729400 60.0864 178.461 55.755 0.36465 -0.0682768
729600 60.0864 178.474 55.755 0.36475 -0.105298
729800 60.0864 178.487 55.755 0.36485 -0.116168
730000 60.0864 178.5 55.755 0.36495 -0.104322
730200 60.0864 178.513 55.755 0.36505 -0.0784194
730400 60.0864 178.526 55.755 0.36515 -0.079936
730600 60.0864 178.539 55.755 0.36525 -0.0482944
730800 60.0864 178.552 55.755 0.36535 -0.0364455
731000 60.0864 178.565 55.755 0.36545 -0.00226664
731200 60.0864 178.578 55.755 0.36555 0.0612636
731400 60.0864 178.591 55.755 0.36565 0.0821413
731600 60.0864 178.605 55.755 0.36575 0.100708
731800 60.0864 178.618 55.755 0.36585 0.103986
732000 60.0864 178.631 55.755 0.36595 0.0926182
732200 60.0864 178.644 55.755 0.36605 0.101409
732400 60.0864 178.657 55.755 0.36615 0.0798369
732600 60.0864 178.67 55.755 0.36625 0.0566377
732800 60.0864 178.683 55.755 0.36635 0.0436082
733000 60.0864 178.696 55.755 0.36645 -0.0099108
733200 60.0864 178.709 55.755 0.36655 -0.0478904
733400 60.0864 178.722 55.755 0.36665 -0.0553617
733600 60.0864 178.735 55.755 0.36675 -0.0999315
733800 60.0864 178.748 55.755 0.36685 -0.112336
734000 60.0864 178.761 55.755 0.36695 -0.117684
734200 60.0864 178.775 55.755 0.36705 -0.0778412
734400 60.0864 178.788 55.755 0.36715 -0.0751037
734600 60.0864 178.801 55.755 0.36725 -0.043891
734800 60.0864 178.814 55.755 0.36735 -0.0269871
735000 60.0864 178.827 55.755 0.36745 -0.0044134
735200 60.0864 178.84 55.755 0.36755 0.0279499
735400 60.0864 178.853 55.755 0.36765 0.0610462
735600 60.0864 178.866 55.755 0.36775 0.109008
735800 60.0864 178.879 55.755 0.36785 0.0997885
736000 60.0864 178.892 55.755 0.36795 0.119149
736200 60.0864 178.905 55.755 0.36805 0.108074
736400 60.0864 178.918 55.755 0.36815 0.0578896
736600 60.0864 178.931 55.755 0.36825 0.0634422
736800 60.0864 178.945 55.755 0.36835 0.0274524
737000 60.0864 178.958 55.755 0.36845 0.00486263
737200 60.0864 178.971 55.755 0.36855 -0.03526
737400 60.0864 178.984 55.755 0.36865 -0.0579669
737600 60.0864 178.997 55.755 0.36875 -0.0941608
737800 60.0864 179.01 55.755 0.36885 -0.101264
738000 60.0864 179.023 55.755 0.36895 -0.102739
738200 60.0864 179.036 55.755 0.36905 -0.0895868
738400 60.0864 179.049 55.755 0.36915 -0.0615066
738600 60.0864 179.062 55.755 0.36925 -0.0521546
738800 60.0864 179.075 55.755 0.36935 -0.0186689
739000 60.0864 179.088 55.755 0.36945 0.00186202
739200 60.0864 179.101 55.755 0.36955 0.0239006
739400 60.0864 179.115 55.755 0.36965 0.0576122
739600 60.0864 179.128 55.755 0.36975 0.0925209
739800 60.0864 179.141 55.755 0.36985 0.093581
740000 60.0864 179.154 55.755 0.36995 0.0770043
740200 60.0864 179.167 55.755 0.37005 0.075754
740400 60.0864 179.18 55.755 0.37015 0.0892938
740600 60.0864 179.193 55.755 0.37025 0.0230132
740800 60.0864 179.206 55.755 0.37035 0.0478941
741000 60.0864 179.219 55.755 0.37045 0.019562
741200 60.0864 179.232 55.755 0.37055 -0.0162943
741400 60.0864 179.245 55.755 0.37065 -0.0353947
741600 60.0864 179.258 55.755 0.37075 -0.0703655
741800 60.0864 179.271 55.755 0.37085 -0.0992263
742000 60.0864 179.285 55.755 0.37095 -0.0813715
742200 60.0864 179.298 55.755 0.37105 -0.0995452
742400 60.0864 179.311 55.755 0.37115 -0.0689735
742600 60.0864 179.324 55.755 0.37125 -0.0561664
742800 60.0864 179.337 55.755 0.37135 -0.0261298
743000 60.0864 179.35 55.755 0.37145 -0.0187196
743200 60.0864 179.363 55.755 0.37155 0.0253421
743400 60.0864 179.376 55.755 0.37165 0.0485754
743600 60.0864 179.389 55.755 0.37175 0.0777474
743800 60.0864 179.402 55.755 0.37185 0.0794448
744000 60.0864 179.415 55.755 0.37195 0.106354
744200 60.0864 179.428 55.755 0.37205 0.0964804
744400 60.0864 179.441 55.755 0.37215 0.0649163
744600 60.0864 179.455 55.755 0.37225 0.0460798
744800 60.0864 179.468 55.755 0.37235 0.0589351
745000 60.0864 179.481 55.755 0.37245 0.02105
745200 60.0864 179.494 55.755 0.37255 -0.0333476
745400 60.0864 179.507 55.755 0.37265 -0.0555747
745600 60.0864 179.52 55.755 0.37275 -0.0577268
745800 60.0864 179.533 55.755 0.37285 -0.0930189
746000 60.0864 179.546 55.755 0.37295 -0.100517
746200 60.0864 179.559 55.755 0.37305 -0.0929016
746400 60.0864 179.572 55.755 0.37315 -0.0676131
746600 60.0864 179.585 55.755 0.37325 -0.0576952
746800 60.0864 179.598 55.755 0.37335 -0.0364529
747000 60.0864 179.611 55.755 0.37345 0.00556361
747200 60.0864 179.625 55.755 0.37355 0.0184221
747400 60.0864 179.638 55.755 0.37365 0.0524843
747600 60.0864 179.651 55.755 0.37375 0.0861621
747800 60.0864 179.664 55.755 0.37385 0.0860264
748000 60.0864 179.677 55.755 0.37395 0.106976
748200 60.0864 179.69 55.755 0.37405 0.0827908
748400 60.0864 179.703 55.755 0.37415 0.0841879
748600 60.0864 179.716 55.755 0.37425 0.0327355
748800 60.0864 179.729 55.755 0.37435 0.0564056
749000 60.0864 179.742 55.755 0.37445 -0.0059518
749200 60.0864 179.755 55.755 0.37455 -0.026259
749400 60.0864 179.768 55.755 0.37465 -0.0444962
749600 60.0864 179.781 55.755 0.37475 -0.0698921
749800 60.0864 179.795 55.755 0.37485 -0.0886656
750000 60.0864 179.808 55.755 0.37495 -0.0880254
750200 60.0864 179.821 55.755 0.37505 -0.0931654
750400 60.0864 179.834 55.755 0.37515 -0.0598089
750600 60.0864 179.847 55.755 0.37525 -0.0563193
750800 60.0864 179.86 55.755 0.37535 -0.0138776
751000 60.0864 179.873 55.755 0.37545 -0.0244901
751200 60.0864 179.886 55.755 0.37555 0.02763
751400 60.0864 179.899 55.755 0.37565 0.0526072
751600 60.0864 179.912 55.755 0.37575 0.0740147
751800 60.0864 179.925 55.755 0.37585 0.0780249
752000 60.0864 179.938 55.755 0.37595 0.0958864
752200 60.0864 179.951 55.755 0.37605 0.067496
752400 60.0864 179.965 55.755 0.37615 0.0668899
752600 60.0864 179.978 55.755 0.37625 0.0666089
752800 60.0864 179.991 55.755 0.37635 0.0354039
753000 60.0864 180.004 55.755 0.37645 0.017124
753200 60.0864 180.017 55.755 0.37655 -0.0196677
753400 60.0864 180.03 55.755 0.37665 -0.0583999
753600 60.0864 180.043 55.755 0.37675 -0.062401
753800 60.0864 180.056 55.755 0.37685 -0.0606199
754000 60.0864 180.069 55.755 0.37695 -0.0729359
754200 60.0864 180.082 55.755 0.37705 -0.084354
754400 60.0864 180.095 55.755 0.37715 -0.0658552
754600 60.0864 180.108 55.755 0.37725 -0.0501733
754800 60.0864 180.121 55.755 0.37735 -0.0346622
755000 60.0864 180.135 55.755 0.37745 -0.0127734
755200 60.0864 180.148 55.755 0.37755 0.0010579
755400 60.0864 180.161 55.755 0.37765 0.0475658
755600 60.0864 180.174 55.755 0.37775 0.043288
755800 60.0864 180.187 55.755 0.37785 0.0659481
756000 60.0864 180.2 55.755 0.37795 0.090157
756200 60.0864 180.213 55.755 0.37805 0.0884459
756400 60.0864 180.226 55.755 0.37815 0.0831014
756600 60.0864 180.239 55.755 0.37825 0.0504889
756800 60.0864 180.252 55.755 0.37835 0.0410938
757000 60.0864 180.265 55.755 0.37845 0.027162
757200 60.0864 180.278 55.755 0.37855 -0.0252304
757400 60.0864 180.291 55.755 0.37865 -0.0311625
757600 60.0864 180.305 55.755 0.37875 -0.0383614
757800 60.0864 180.318 55.755 0.37885 -0.0705718
758000 60.0864 180.331 55.755 0.37895 -0.074567
758200 60.0864 180.344 55.755 0.37905 -0.0672437
758400 60.0864 180.357 55.755 0.37915 -0.0733188
758600 60.0864 180.37 55.755 0.37925 -0.0460568
758800 60.0864 180.383 55.755 0.37935 -0.037259
759000 60.0864 180.396 55.755 0.37945 -0.0253764
759200 60.0864 180.409 55.755 0.37955 -0.00325771
759400 60.0864 180.422 55.755 0.37965 0.0335007
759600 60.0864 180.435 55.755 0.37975 0.0577427
759800 60.0864 180.448 55.755 0.37985 0.0732597
760000 60.0864 180.461 55.755 0.37995 0.0922112
760200 60.0864 180.475 55.755 0.38005 0.0425616
760400 60.0864 180.488 55.755 0.38015 0.0622044
760600 60.0864 180.501 55.755 0.38025 0.0707427
760800 60.0864 180.514 55.755 0.38035 0.0421475
761000 60.0864 180.527 55.755 0.38045 0.00140285
761200 60.0864 180.54 55.755 0.38055 0.0145357
761400 60.0864 180.553 55.755 0.38065 -0.033791
761600 60.0864 180.566 55.755 0.38075 -0.0234201
761800 60.0864 180.579 55.755 0.38085 -0.07007
762000 60.0864 180.592 55.755 0.38095 -0.0741334
762200 60.0864 180.605 55.755 0.38105 -0.0650391
762400 60.0864 180.618 55.755 0.38115 -0.0442917
762600 60.0864 180.632 55.755 0.38125 -0.0762783
762800 60.0864 180.645 55.755 0.38135 -0.0384148
763000 60.0864 180.658 55.755 0.38145 -0.0367089
763200 60.0864 180.671 55.755 0.38155 -0.0178898
763400 60.0864 180.684 55.755 0.38165 0.0451983
763600 60.0864 180.697 55.755 0.38175 0.0488877
763800 60.0864 180.71 55.755 0.38185 0.056108
764000 60.0864 180.723 55.755 0.38195 0.0959076
764200 60.0864 180.736 55.755 0.38205 0.0644826
764400 60.0864 180.749 55.755 0.38215 0.0646886
764600 60.0864 180.762 55.755 0.38225 0.0675984
764800 60.0864 180.775 55.755 0.38235 0.053089
765000 60.0864 180.788 55.755 0.38245 0.00208356
765200 60.0864 180.802 55.755 0.38255 0.0133981
765400 60.0864 180.815 55.755 0.38265 -0.00996111
765600 60.0864 180.828 55.755 0.38275 -0.0412375
765800 60.0864 180.841 55.755 0.38285 -0.0663295
766000 60.0864 180.854 55.755 0.38295 -0.0875715
766200 60.0864 180.867 55.755 0.38305 -0.0897779
766400 60.0864 180.88 55.755 0.38315 -0.0634042
766600 60.0864 180.893 55.755 0.38325 -0.0369155
766800 60.0864 180.906 55.755 0.38335 -0.0311506
767000 60.0864 180.919 55.755 0.38345 -0.0120898
767200 60.0864 180.932 55.755 0.38355 -0.00275466
767400 60.0864 180.945 55.755 0.38365 0.0267243
767600 60.0864 180.958 55.755 0.38375 0.0342148
767800 60.0864 180.972 55.755 0.38385 0.0522299
768000 60.0864 180.985 55.755 0.38395 0.0799223
768200 60.0864 180.998 55.755 0.38405 0.0799376
768400 60.0864 181.011 55.755 0.38415 0.0776462
768600 60.0864 181.024 55.755 0.38425 0.0664826
768800 60.0864 181.037 55.755 0.38435 0.0410286
769000 60.0864 181.05 55.755 0.38445 -0.00167877
769200 60.0864 181.063 55.755 0.38455 -0.000581838
769400 60.0864 181.076 55.755 0.38465 -0.0185618
769600 60.0864 181.089 55.755 0.38475 -0.0287127
769800 60.0864 181.102 55.755 0.38485 -0.0617267
770000 60.0864 181.115 55.755 0.38495 -0.0686082
770200 60.0864 181.128 55.755 0.38505 -0.0573654
770400 60.0864 181.142 55.755 0.38515 -0.0845859
770600 60.0864 181.155 55.755 0.38525 -0.059877
770800 60.0864 181.168 55.755 0.38535 -0.0107081
771000 60.0864 181.181 55.755 0.38545 -0.0158324
771200 60.0864 181.194 55.755 0.38555 -0.00388904
771400 60.0864 181.207 55.755 0.38565 0.00216665
771600 60.0864 181.22 55.755 0.38575 0.0492031
771800 60.0864 181.233 55.755 0.38585 0.0470559
772000 60.0864 181.246 55.755 0.38595 0.0659193
772200 60.0864 181.259 55.755 0.38605 0.0759005
772400 60.0864 181.272 55.755 0.38615 0.0753067
772600 60.0864 181.285 55.755 0.38625 0.0498946
772800 60.0864 181.298 55.755 0.38635 0.056902
773000 60.0864 181.312 55.755 0.38645 0.0118302
773200 60.0864 181.325 55.755 0.38655 -0.0020259
773400 60.0864 181.338 55.755 0.38665 0.0044774
773600 60.0864 181.351 55.755 0.38675 -0.0529326
773800 60.0864 181.364 55.755 0.38685 -0.0498785
774000 60.0864 181.377 55.755 0.38695 -0.0535162
774200 60.0864 181.39 55.755 0.38705 -0.0669062
774400 60.0864 181.403 55.755 0.38715 -0.0762269
774600 60.0864 181.416 55.755 0.38725 -0.0545655
774800 60.0864 181.429 55.755 0.38735 -0.0294915
775000 60.0864 181.442 55.755 0.38745 -0.0399409
775200 60.0864 181.455 55.755 0.38755 0.00788858
775400 60.0864 181.468 55.755 0.38765 0.0104549
775600 60.0864 181.482 55.755 0.38775 0.0374027
775800 60.0864 181.495 55.755 0.38785 0.053569
776000 60.0864 181.508 55.755 0.38795 0.0602642
776200 60.0864 181.521 55.755 0.38805 0.0438055
776400 60.0864 181.534 55.755 0.38815 0.0811808
776600 60.0864 181.547 55.755 0.38825 0.0627106
776800 60.0864 181.56 55.755 0.38835 0.0497828
777000 60.0864 181.573 55.755 0.38845 0.019713
777200 60.0864 181.586 55.755 0.38855 0.0127558
777400 60.0864 181.599 55.755 0.38865 -0.0122599
777600 60.0864 181.612 55.755 0.38875 -0.0162411
777800 60.0864 181.625 55.755 0.38885 -0.0438891
778000 60.0864 181.638 55.755 0.38895 -0.0383035
778200 60.0864 181.652 55.755 0.38905 -0.0579021
778400 60.0864 181.665 55.755 0.38915 -0.0737875
778600 60.0864 181.678 55.755 0.38925 -0.0627928
778800 60.0864 181.691 55.755 0.38935 -0.0273818
779000 60.0864 181.704 55.755 0.38945 -0.0222167
779200 60.0864 181.717 55.755 0.38955 -0.012543
779400 60.0864 181.73 55.755 0.38965 -0.0151423
779600 60.0864 181.743 55.755 0.38975 0.0232723
779800 60.0864 181.756 55.755 0.38985 0.0193397
780000 60.0864 181.769 55.755 0.38995 0.0587546
780200 60.0864 181.782 55.755 0.39005 0.0637775
780400 60.0864 181.795 55.755 0.39015 0.0659452
780600 60.0864 181.808 55.755 0.39025 0.0576553
780800 60.0864 181.822 55.755 0.39035 0.0711298
781000 60.0864 181.835 55.755 0.39045 0.033723
781200 60.0864 181.848 55.755 0.39055 0.0170896
781400 60.0864 181.861 55.755 0.39065 -0.0127803
781600 60.0864 181.874 55.755 0.39075 -0.00914216
781800 60.0864 181.887 55.755 0.39085 -0.0153305
782000 60.0864 181.9 55.755 0.39095 -0.0444911
782200 60.0864 181.913 55.755 0.39105 -0.0640585
782400 60.0864 181.926 55.755 0.39115 -0.0435844
782600 60.0864 181.939 55.755 0.39125 -0.0650322
782800 60.0864 181.952 55.755 0.39135 -0.0656152
783000 60.0864 181.965 55.755 0.39145 -0.0589226
783200 60.0864 181.978 55.755 0.39155 -0.0234172
783400 60.0864 181.992 55.755 0.39165 0.0147103
783600 60.0864 182.005 55.755 0.39175 0.0237339
783800 60.0864 182.018 55.755 0.39185 0.0306521
784000 60.0864 182.031 55.755 0.39195 0.0304923
784200 60.0864 182.044 55.755 0.39205 0.0786526
784400 60.0864 182.057 55.755 0.39215 0.0426794
784600 60.0864 182.07 55.755 0.39225 0.0832354
784800 60.0864 182.083 55.755 0.39235 0.0660933
785000 60.0864 182.096 55.755 0.39245 0.0481358
785200 60.0864 182.109 55.755 0.39255 0.0217698
785400 60.0864 182.122 55.755 0.39265 0.00370221
785600 60.0864 182.135 55.755 0.39275 -0.0412555
785800 60.0864 182.148 55.755 0.39285 -0.0138266
786000 60.0864 182.162 55.755 0.39295 -0.0353277
786200 60.0864 182.175 55.755 0.39305 -0.0490918
786400 60.0864 182.188 55.755 0.39315 -0.0800953
786600 60.0864 182.201 55.755 0.39325 -0.0606477
786800 60.0864 182.214 55.755 0.39335 -0.0693987
787000 60.0864 182.227 55.755 0.39345 -0.0316244
787200 60.0864 182.24 55.755 0.39355 -0.015452
787400 60.0864 182.253 55.755 0.39365 0.00131836
787600 60.0864 182.266 55.755 0.39375 0.0183482
787800 60.0864 182.279 55.755 0.39385 0.0237579
788000 60.0864 182.292 55.755 0.39395 0.0425401
788200 60.0864 182.305 55.755 0.39405 0.043414
788400 60.0864 182.318 55.755 0.39415 0.0736018
788600 60.0864 182.332 55.755 0.39425 0.0706706
788800 60.0864 182.345 55.755 0.39435 0.0706142
789000 60.0864 182.358 55.755 0.39445 0.0446711
789200 60.0864 182.371 55.755 0.39455 0.0434132
789400 60.0864 182.384 55.755 0.39465 -0.00697228
789600 60.0864 182.397 55.755 0.39475 -0.0147113
789800 60.0864 182.41 55.755 0.39485 -0.0337985
790000 60.0864 182.423 55.755 0.39495 -0.0258031
790200 60.0864 182.436 55.755 0.39505 -0.0527846
790400 60.0864 182.449 55.755 0.39515 -0.0715218
790600 60.0864 182.462 55.755 0.39525 -0.0714969
790800 60.0864 182.475 55.755 0.39535 -0.0449344
791000 60.0864 182.488 55.755 0.39545 -0.0393176
791200 60.0864 182.502 55.755 0.39555 -0.0280184
791400 60.0864 182.515 55.755 0.39565 -0.0188685
791600 60.0864 182.528 55.755 0.39575 0.0295331
791800 60.0864 182.541 55.755 0.39585 0.0147271
792000 60.0864 182.554 55.755 0.39595 0.0593995
792200 60.0864 182.567 55.755 0.39605 0.0387243
792400 60.0864 182.58 55.755 0.39615 0.071401
792600 60.0864 182.593 55.755 0.39625 0.0596017
792800 60.0864 182.606 55.755 0.39635 0.0623645
793000 60.0864 182.619 55.755 0.39645 0.0483063
793200 60.0864 182.632 55.755 0.39655 0.0242094
793400 60.0864 182.645 55.755 0.39665 0.0101165
793600 60.0864 182.658 55.755 0.39675 -0.0238544
793800 60.0864 182.672 55.755 0.39685 -0.0302733
794000 60.0864 182.685 55.755 0.39695 -0.0307563
794200 60.0864 182.698 55.755 0.39705 -0.0467418
794400 60.0864 182.711 55.755 0.39715 -0.0544621
794600 60.0864 182.724 55.755 0.39725 -0.0449906
794800 60.0864 182.737 55.755 0.39735 -0.0483062
795000 60.0864 182.75 55.755 0.39745 -0.0528833
795200 60.0864 182.763 55.755 0.39755 -0.0291346
795400 60.0864 182.776 55.755 0.39765 -0.00747009
795600 60.0864 182.789 55.755 0.39775 0.0117049
795800 60.0864 182.802 55.755 0.39785 0.0311629
796000 60.0864 182.815 55.755 0.39795 0.032046
796200 60.0864 182.829 55.755 0.39805 0.0422888
796400 60.0864 182.842 55.755 0.39815 0.0343519
796600 60.0864 182.855 55.755 0.39825 0.0772793
796800 60.0864 182.868 55.755 0.39835 0.0620686
797000 60.0864 182.881 55.755 0.39845 0.0512934
797200 60.0864 182.894 55.755 0.39855 0.0375616
797400 60.0864 182.907 55.755 0.39865 0.0186187
797600 60.0864 182.92 55.755 0.39875 -0.0124584
797800 60.0864 182.933 55.755 0.39885 -0.0228832
798000 60.0864 182.946 55.755 0.39895 -0.0138362
798200 60.0864 182.959 55.755 0.39905 -0.0440311
798400 60.0864 182.972 55.755 0.39915 -0.051336
798600 60.0864 182.985 55.755 0.39925 -0.0593732
798800 60.0864 182.999 55.755 0.39935 -0.0383509
799000 60.0864 183.012 55.755 0.39945 -0.0587729
799200 60.0864 183.025 55.755 0.39955 -0.0570843
799400 60.0864 183.038 55.755 0.39965 -0.0206754
799600 60.0864 183.051 55.755 0.39975 0.0192702
799800 60.0864 183.064 55.755 0.39985 0.0243713
800000 60.0864 183.077 55.755 0.39995 0.0268003
800200 60.0864 183.09 55.755 0.40005 0.0277281
800400 60.0864 183.103 55.755 0.40015 0.0659332
800600 60.0864 183.116 55.755 0.40025 0.060182
800800 60.0864 183.129 55.755 0.40035 0.0674661
801000 60.0864 183.142 55.755 0.40045 0.040979
801200 60.0864 183.155 55.755 0.40055 0.031514
801400 60.0864 183.169 55.755 0.40065 0.0316837
801600 60.0864 183.182 55.755 0.40075 0.0178644
801800 60.0864 183.195 55.755 0.40085 -0.0337046
802000 60.0864 183.208 55.755 0.40095 -0.0342988
802200 60.0864 183.221 55.755 0.40105 -0.0571441
802400 60.0864 183.234 55.755 0.40115 -0.0366124
802600 60.0864 183.247 55.755 0.40125 -0.0462767
802800 60.0864 183.26 55.755 0.40135 -0.0426969
803000 60.0864 183.273 55.755 0.40145 -0.0531904
803200 60.0864 183.286 55.755 0.40155 -0.0445731
803400 60.0864 183.299 55.755 0.40165 -0.00382026
803600 60.0864 183.312 55.755 0.40175 0.00137269
803800 60.0864 183.325 55.755 0.40185 0.0048248
804000 60.0864 183.339 55.755 0.40195 0.0374199
804200 60.0864 183.352 55.755 0.40205 0.0453292
804400 60.0864 183.365 55.755 0.40215 0.0563924
804600 60.0864 183.378 55.755 0.40225 0.0450023
804800 60.0864 183.391 55.755 0.40235 0.0422867
805000 60.0864 183.404 55.755 0.40245 0.0616266
805200 60.0864 183.417 55.755 0.40255 0.0342736
805400 60.0864 183.43 55.755 0.40265 0.0251732
805600 60.0864 183.443 55.755 0.40275 -0.00448406
805800 60.0864 183.456 55.755 0.40285 0.00414453
806000 60.0864 183.469 55.755 0.40295 -0.0250688
806200 60.0864 183.482 55.755 0.40305 -0.0479754
806400 60.0864 183.495 55.755 0.40315 -0.0520601
806600 60.0864 183.509 55.755 0.40325 -0.0463684
806800 60.0864 183.522 55.755 0.40335 -0.049866
807000 60.0864 183.535 55.755 0.40345 -0.0450585
807200 60.0864 183.548 55.755 0.40355 -0.0315788
807400 60.0864 183.561 55.755 0.40365 -0.0267382
807600 60.0864 183.574 55.755 0.40375 0.012052
807800 60.0864 183.587 55.755 0.40385 -0.0131462
808000 60.0864 183.6 55.755 0.40395 0.0496064
808200 60.0864 183.613 55.755 0.40405 0.057678
808400 60.0864 183.626 55.755 0.40415 0.0584155
808600 60.0864 183.639 55.755 0.40425 0.0513924
808800 60.0864 183.652 55.755 0.40435 0.0219244
809000 60.0864 183.665 55.755 0.40445 0.0491151
809200 60.0864 183.679 55.755 0.40455 0.0280845
809400 60.0864 183.692 55.755 0.40465 0.0427416
809600 60.0864 183.705 55.755 0.40475 -0.0107104
809800 60.0864 183.718 55.755 0.40485 -0.00736836
810000 60.0864 183.731 55.755 0.40495 -0.0406367
810200 60.0864 183.744 55.755 0.40505 -0.0412112
810400 60.0864 183.757 55.755 0.40515 -0.0493187
810600 60.0864 183.77 55.755 0.40525 -0.0443085
810800 60.0864 183.783 55.755 0.40535 -0.0430668
811000 60.0864 183.796 55.755 0.40545 -0.0497794
811200 60.0864 183.809 55.755 0.40555 -0.0316807
811400 60.0864 183.822 55.755 0.40565 -0.00757282
811600 60.0864 183.835 55.755 0.40575 0.00179948
811800 60.0864 183.849 55.755 0.40585 0.0270239
812000 60.0864 183.862 55.755 0.40595 0.034394
812200 60.0864 183.875 55.755 0.40605 0.0521889
812400 60.0864 183.888 55.755 0.40615 0.045563
812600 60.0864 183.901 55.755 0.40625 0.0619786
812800 60.0864 183.914 55.755 0.40635 0.0350915
813000 60.0864 183.927 55.755 0.40645 0.0469152
813200 60.0864 183.94 55.755 0.40655 0.0194525
813400 60.0864 183.953 55.755 0.40665 0.030819
813600 60.0864 183.966 55.755 0.40675 -0.00342662
813800 60.0864 183.979 55.755 0.40685 -0.027738
814000 60.0864 183.992 55.755 0.40695 -0.0223432
814200 60.0864 184.005 55.755 0.40705 -0.0576257
814400 60.0864 184.019 55.755 0.40715 -0.0545935
814600 60.0864 184.032 55.755 0.40725 -0.0440521
814800 60.0864 184.045 55.755 0.40735 -0.0312823
815000 60.0864 184.058 55.755 0.40745 -0.0372787
815200 60.0864 184.071 55.755 0.40755 -0.0260854
815400 60.0864 184.084 55.755 0.40765 -0.01135
815600 60.0864 184.097 55.755 0.40775 0.00942342
815800 60.0864 184.11 55.755 0.40785 -0.00629362
816000 60.0864 184.123 55.755 0.40795 0.060259
816200 60.0864 184.136 55.755 0.40805 0.0537235
816400 60.0864 184.149 55.755 0.40815 0.05486
816600 60.0864 184.162 55.755 0.40825 0.0520146
816800 60.0864 184.175 55.755 0.40835 0.0423037
817000 60.0864 184.189 55.755 0.40845 0.0157951
817200 60.0864 184.202 55.755 0.40855 0.0283581
817400 60.0864 184.215 55.755 0.40865 0.00426822
817600 60.0864 184.228 55.755 0.40875 -0.000380303
817800 60.0864 184.241 55.755 0.40885 -0.0136391
818000 60.0864 184.254 55.755 0.40895 -0.0206716
818200 60.0864 184.267 55.755 0.40905 -0.0388254
818400 60.0864 184.28 55.755 0.40915 -0.0514618
818600 60.0864 184.293 55.755 0.40925 -0.0647537
818800 60.0864 184.306 55.755 0.40935 -0.0224605
819000 60.0864 184.319 55.755 0.40945 -0.0135822
819200 60.0864 184.332 55.755 0.40955 -0.0113453
819400 60.0864 184.345 55.755 0.40965 -0.00661814
819600 60.0864 184.359 55.755 0.40975 -0.026451
819800 60.0864 184.372 55.755 0.40985 0.000120321
820000 60.0864 184.385 55.755 0.40995 0.033034
820200 60.0864 184.398 55.755 0.41005 0.0386629
820400 60.0864 184.411 55.755 0.41015 0.051509
820600 60.0864 184.424 55.755 0.41025 0.052526
820800 60.0864 184.437 55.755 0.41035 0.0557772
821000 60.0864 184.45 55.755 0.41045 0.02743
821200 60.0864 184.463 55.755 0.41055 0.0330248
821400 60.0864 184.476 55.755 0.41065 0.00788331
821600 60.0864 184.489 55.755 0.41075 0.0124707
821800 60.0864 184.502 55.755 0.41085 -0.0162222
822000 60.0864 184.515 55.755 0.41095 -0.0167477
822200 60.0864 184.529 55.755 0.41105 -0.0372647
822400 60.0864 184.542 55.755 0.41115 -0.0455364
822600 60.0864 184.555 55.755 0.41125 -0.0629385
822800 60.0864 184.568 55.755 0.41135 -0.0416442
823000 60.0864 184.581 55.755 0.41145 -0.0330019
823200 60.0864 184.594 55.755 0.41155 -0.0198066
823400 60.0864 184.607 55.755 0.41165 -0.00411474
823600 60.0864 184.62 55.755 0.41175 -0.00805382
823800 60.0864 184.633 55.755 0.41185 -0.00223872
824000 60.0864 184.646 55.755 0.41195 0.0307311
824200 60.0864 184.659 55.755 0.41205 0.0567706
824400 60.0864 184.672 55.755 0.41215 0.0470898
824600 60.0864 184.685 55.755 0.41225 0.0537529
824800 60.0864 184.699 55.755 0.41235 0.0204842
825000 60.0864 184.712 55.755 0.41245 0.0389099
825200 60.0864 184.725 55.755 0.41255 0.0355564
825400 60.0864 184.738 55.755 0.41265 0.0073201
825600 60.0864 184.751 55.755 0.41275 0.0149948
825800 60.0864 184.764 55.755 0.41285 -0.00437728
826000 60.0864 184.777 55.755 0.41295 -0.0140714
826200 60.0864 184.79 55.755 0.41305 -0.0431868
826400 60.0864 184.803 55.755 0.41315 -0.0489724
826600 60.0864 184.816 55.755 0.41325 -0.0362902
826800 60.0864 184.829 55.755 0.41335 -0.0371704
827000 60.0864 184.842 55.755 0.41345 -0.0257896
827200 60.0864 184.856 55.755 0.41355 -0.0106001
827400 60.0864 184.869 55.755 0.41365 -0.0208349
827600 60.0864 184.882 55.755 0.41375 -0.0143027
827800 60.0864 184.895 55.755 0.41385 0.0184196
828000 60.0864 184.908 55.755 0.41395 0.0289823
828200 60.0864 184.921 55.755 0.41405 0.00444884
828400 60.0864 184.934 55.755 0.41415 0.0450128
828600 60.0864 184.947 55.755 0.41425 0.0473372
828800 60.0864 184.96 55.755 0.41435 0.033188
829000 60.0864 184.973 55.755 0.41445 0.0253469
829200 60.0864 184.986 55.755 0.41455 0.0160257
829400 60.0864 184.999 55.755 0.41465 0.00416864
829600 60.0864 185.012 55.755 0.41475 0.0302404
829800 60.0864 185.026 55.755 0.41485 0.000560939
830000 60.0864 185.039 55.755 0.41495 0.000522678
830200 60.0864 185.052 55.755 0.41505 -0.020441
830400 60.0864 185.065 55.755 0.41515 -0.0387917
830600 60.0864 185.078 55.755 0.41525 -0.0316086
830800 60.0864 185.091 55.755 0.41535 -0.0209603
831000 60.0864 185.104 55.755 0.41545 -0.0262052
831200 60.0864 185.117 55.755 0.41555 -0.0409044
831400 60.0864 185.13 55.755 0.41565 0.00131916
831600 60.0864 185.143 55.755 0.41575 -0.0253574
831800 60.0864 185.156 55.755 0.41585 -0.0109563
832000 60.0864 185.169 55.755 0.41595 0.0303055
832200 60.0864 185.182 55.755 0.41605 0.00422669
832400 60.0864 185.196 55.755 0.41615 0.0431468
832600 60.0864 185.209 55.755 0.41625 0.023475
832800 60.0864 185.222 55.755 0.41635 0.0506806
833000 60.0864 185.235 55.755 0.41645 0.0380811
833200 60.0864 185.248 55.755 0.41655 0.0287624
833400 60.0864 185.261 55.755 0.41665 0.0257082
833600 60.0864 185.274 55.755 0.41675 0.0114074
833800 60.0864 185.287 55.755 0.41685 0.00572305
834000 60.0864 185.3 55.755 0.41695 -0.0240811
834200 60.0864 185.313 55.755 0.41705 -0.0156109
834400 60.0864 185.326 55.755 0.41715 -0.0209929
834600 60.0864 185.339 55.755 0.41725 -0.033363
834800 60.0864 185.352 55.755 0.41735 -0.0465237
835000 60.0864 185.366 55.755 0.41745 -0.0261477
835200 60.0864 185.379 55.755 0.41755 -0.029928
835400 60.0864 185.392 55.755 0.41765 -0.0157596
835600 60.0864 185.405 55.755 0.41775 -0.0142204
835800 60.0864 185.418 55.755 0.41785 0.0042014
836000 60.0864 185.431 55.755 0.41795 0.0255216
836200 60.0864 185.444 55.755 0.41805 0.000130728
836400 60.0864 185.457 55.755 0.41815 0.0392508
836600 60.0864 185.47 55.755 0.41825 0.0253155
836800 60.0864 185.483 55.755 0.41835 0.0359483
837000 60.0864 185.496 55.755 0.41845 0.0381391
837200 60.0864 185.509 55.755 0.41855 0.0431968
837400 60.0864 185.522 55.755 0.41865 0.0041026
837600 60.0864 185.536 55.755 0.41875 0.0341319
837800 60.0864 185.549 55.755 0.41885 -0.0141383
838000 60.0864 185.562 55.755 0.41895 -0.0112637
838200 60.0864 185.575 55.755 0.41905 -0.0124338
838400 60.0864 185.588 55.755 0.41915 -0.0219972
838600 60.0864 185.601 55.755 0.41925 -0.0168778
838800 60.0864 185.614 55.755 0.41935 -0.0211765
839000 60.0864 185.627 55.755 0.41945 -0.0362494
839200 60.0864 185.64 55.755 0.41955 -0.0291823
839400 60.0864 185.653 55.755 0.41965 -0.0316198
839600 60.0864 185.666 55.755 0.41975 -0.0207142
839800 60.0864 185.679 55.755 0.41985 -0.00242459
840000 60.0864 185.692 55.755 0.41995 0.00966463
840200 60.0864 185.706 55.755 0.42005 0.0266288
840400 60.0864 185.719 55.755 0.42015 0.044884
840600 60.0864 185.732 55.755 0.42025 0.0099088
840800 60.0864 185.745 55.755 0.42035 0.0371815
841000 60.0864 185.758 55.755 0.42045 0.0539837
841200 60.0864 185.771 55.755 0.42055 0.0206823
841400 60.0864 185.784 55.755 0.42065 0.00940496
841600 60.0864 185.797 55.755 0.42075 0.0384508
841800 60.0864 185.81 55.755 0.42085 -0.00191899
842000 60.0864 185.823 55.755 0.42095 -0.00793304
842200 60.0864 185.836 55.755 0.42105 -0.0197454
842400 60.0864 185.849 55.755 0.42115 -0.0394927
842600 60.0864 185.862 55.755 0.42125 -0.0214173
842800 60.0864 185.876 55.755 0.42135 -0.036056
843000 60.0864 185.889 55.755 0.42145 -0.0161509
843200 60.0864 185.902 55.755 0.42155 -0.0181559
843400 60.0864 185.915 55.755 0.42165 -0.0396936
843600 60.0864 185.928 55.755 0.42175 -0.0381565
843800 60.0864 185.941 55.755 0.42185 0.0221235
844000 60.0864 185.954 55.755 0.42195 0.00473504
844200 60.0864 185.967 55.755 0.42205 0.0485581
844400 60.0864 185.98 55.755 0.42215 0.0204405
844600 60.0864 185.993 55.755 0.42225 0.0312127
844800 60.0864 186.006 55.755 0.42235 0.0274787
845000 60.0864 186.019 55.755 0.42245 0.0318453
845200 60.0864 186.032 55.755 0.42255 0.037225
845400 60.0864 186.046 55.755 0.42265 0.0314912
845600 60.0864 186.059 55.755 0.42275 0.0354429
845800 60.0864 186.072 55.755 0.42285 -0.0210459
846000 60.0864 186.085 55.755 0.42295 0.00844126
846200 60.0864 186.098 55.755 0.42305 -0.0113212
846400 60.0864 186.111 55.755 0.42315 -0.041699
846600 60.0864 186.124 55.755 0.42325 -0.0362762
846800 60.0864 186.137 55.755 0.42335 -0.0320091
847000 60.0864 186.15 55.755 0.42345 -0.0370473
847200 60.0864 186.163 55.755 0.42355 -0.0527845
847400 60.0864 186.176 55.755 0.42365 -0.0178986
847600 60.0864 186.189 55.755 0.42375 0.00348756
847800 60.0864 186.202 55.755 0.42385 -0.0102529
848000 60.0864 186.216 55.755 0.42395 0.0163625
848200 60.0864 186.229 55.755 0.42405 0.0145853
848400 60.0864 186.242 55.755 0.42415 0.0382686
848600 60.0864 186.255 55.755 0.42425 0.0377466
848800 60.0864 186.268 55.755 0.42435 0.0349372
849000 60.0864 186.281 55.755 0.42445 0.0552423
849200 60.0864 186.294 55.755 0.42455 0.0317119
849400 60.0864 186.307 55.755 0.42465 0.0373023
849600 60.0864 186.32 55.755 0.42475 0.0129993
849800 60.0864 186.333 55.755 0.42485 -0.0172523
850000 60.0864 186.346 55.755 0.42495 -0.00135215
850200 60.0864 186.359 55.755 0.42505 -0.0159125
850400 60.0864 186.372 55.755 0.42515 -0.0358011
850600 60.0864 186.386 55.755 0.42525 -0.0293464
850800 60.0864 186.399 55.755 0.42535 -0.041276
851000 60.0864 186.412 55.755 0.42545 -0.0338705
851200 60.0864 186.425 55.755 0.42555 -0.0385943
851400 60.0864 186.438 55.755 0.42565 -0.0137081
851600 60.0864 186.451 55.755 0.42575 -0.0276816
851800 60.0864 186.464 55.755 0.42585 0.00848161
852000 60.0864 186.477 55.755 0.42595 0.0104993
852200 60.0864 186.49 55.755 0.42605 0.0292058
852400 60.0864 186.503 55.755 0.42615 0.049426
852600 60.0864 186.516 55.755 0.42625 0.0194699
852800 60.0864 186.529 55.755 0.42635 0.0360072
853000 60.0864 186.542 55.755 0.42645 0.0374528
853200 60.0864 186.556 55.755 0.42655 0.0567505
853400 60.0864 186.569 55.755 0.42665 0.027684
853600 60.0864 186.582 55.755 0.42675 0.00407689
853800 60.0864 186.595 55.755 0.42685 -0.0182123
854000 60.0864 186.608 55.755 0.42695 -0.00225146
854200 60.0864 186.621 55.755 0.42705 -0.020231
854400 60.0864 186.634 55.755 0.42715 -0.0310254
854600 60.0864 186.647 55.755 0.42725 -0.0427565
854800 60.0864 186.66 55.755 0.42735 -0.0322847
855000 60.0864 186.673 55.755 0.42745 -0.0246792
855200 60.0864 186.686 55.755 0.42755 -0.0168122
855400 60.0864 186.699 55.755 0.42765 -0.0137417
855600 60.0864 186.712 55.755 0.42775 -0.0239418
855800 60.0864 186.726 55.755 0.42785 -0.00283301
856000 60.0864 186.739 55.755 0.42795 0.0265813
856200 60.0864 186.752 55.755 0.42805 0.0219467
856400 60.0864 186.765 55.755 0.42815 0.0467944
856600 60.0864 186.778 55.755 0.42825 0.00941408
856800 60.0864 186.791 55.755 0.42835 0.0427383
857000 60.0864 186.804 55.755 0.42845 0.0293444
857200 60.0864 186.817 55.755 0.42855 0.037016
857400 60.0864 186.83 55.755 0.42865 0.0124871
857600 60.0864 186.843 55.755 0.42875 -0.0122396
857800 60.0864 186.856 55.755 0.42885 0.00685921
858000 60.0864 186.869 55.755 0.42895 0.00977036
858200 60.0864 186.882 55.755 0.42905 -0.00937429
858400 60.0864 186.896 55.755 0.42915 -0.00531774
858600 60.0864 186.909 55.755 0.42925 -0.0319083
858800 60.0864 186.922 55.755 0.42935 -0.0173901
859000 60.0864 186.935 55.755 0.42945 -0.0335361
859200 60.0864 186.948 55.755 0.42955 -0.0552243
859400 60.0864 186.961 55.755 0.42965 -0.0114211
859600 60.0864 186.974 55.755 0.42975 0.000214665
859800 60.0864 186.987 55.755 0.42985 -0.00493248
860000 60.0864 187 55.755 0.42995 -0.0125922
860200 60.0864 187.013 55.755 0.43005 0.01469
860400 60.0864 187.026 55.755 0.43015 0.0221221
860600 60.0864 187.039 55.755 0.43025 0.0383333
860800 60.0864 187.053 55.755 0.43035 0.0204283
861000 60.0864 187.066 55.755 0.43045 0.0334128
861200 60.0864 187.079 55.755 0.43055 0.0382028
861400 60.0864 187.092 55.755 0.43065 0.0128129
861600 60.0864 187.105 55.755 0.43075 0.0209496
861800 60.0864 187.118 55.755 0.43085 -0.00260485
862000 60.0864 187.131 55.755 0.43095 -0.00542368
862200 60.0864 187.144 55.755 0.43105 0.00626973
862400 60.0864 187.157 55.755 0.43115 0.00572485
862600 60.0864 187.17 55.755 0.43125 -0.0294556
862800 60.0864 187.183 55.755 0.43135 -0.0347663
863000 60.0864 187.196 55.755 0.43145 -0.0448361
863200 60.0864 187.209 55.755 0.43155 -0.00818918
863400 60.0864 187.223 55.755 0.43165 -0.0223667
863600 60.0864 187.236 55.755 0.43175 0.00398964
863800 60.0864 187.249 55.755 0.43185 0.000322101
864000 60.0864 187.262 55.755 0.43195 -0.00320725
864200 60.0864 187.275 55.755 0.43205 0.00314994
864400 60.0864 187.288 55.755 0.43215 0.0237258
864600 60.0864 187.301 55.755 0.43225 0.0139625
864800 60.0864 187.314 55.755 0.43235 0.0189492
865000 60.0864 187.327 55.755 0.43245 0.0209964
865200 60.0864 187.34 55.755 0.43255 0.032469
865400 60.0864 187.353 55.755 0.43265 0.0286154
865600 60.0864 187.366 55.755 0.43275 0.00288306
865800 60.0864 187.379 55.755 0.43285 0.0154176
866000 60.0864 187.393 55.755 0.43295 -0.0173617
866200 60.0864 187.406 55.755 0.43305 -0.0092309
866400 60.0864 187.419 55.755 0.43315 -0.00358826
866600 60.0864 187.432 55.755 0.43325 -0.00380937
866800 60.0864 187.445 55.755 0.43335 -0.0134844
867000 60.0864 187.458 55.755 0.43345 -0.0209911
867200 60.0864 187.471 55.755 0.43355 -0.0136319
867400 60.0864 187.484 55.755 0.43365 -0.0267845
867600 60.0864 187.497 55.755 0.43375 -0.0101158
867800 60.0864 187.51 55.755 0.43385 -0.00740702
868000 60.0864 187.523 55.755 0.43395 -0.00734603
868200 60.0864 187.536 55.755 0.43405 0.0300944
868400 60.0864 187.549 55.755 0.43415 0.0170055
868600 60.0864 187.563 55.755 0.43425 0.0123553
868800 60.0864 187.576 55.755 0.43435 0.0312387
869000 60.0864 187.589 55.755 0.43445 -0.0129071
869200 60.0864 187.602 55.755 0.43455 0.0185687
869400 60.0864 187.615 55.755 0.43465 0.0273012
869600 60.0864 187.628 55.755 0.43475 0.0116349
869800 60.0864 187.641 55.755 0.43485 0.0172271
870000 60.0864 187.654 55.755 0.43495 0.00438188
870200 60.0864 187.667 55.755 0.43505 -0.0163803
870400 60.0864 187.68 55.755 0.43515 -0.0145062
870600 60.0864 187.693 55.755 0.43525 -0.0278029
870800 60.0864 187.706 55.755 0.43535 0.00588253
871000 60.0864 187.719 55.755 0.43545 0.00478919
871200 60.0864 187.733 55.755 0.43555 -0.0116791
871400 60.0864 187.746 55.755 0.43565 -0.0132956
871600 60.0864 187.759 55.755 0.43575 -0.0096104
871800 60.0864 187.772 55.755 0.43585 -0.0160161
872000 60.0864 187.785 55.755 0.43595 -0.01778
872200 60.0864 187.798 55.755 0.43605 0.0115703
872400 60.0864 187.811 55.755 0.43615 0.0356714
872600 60.0864 187.824 55.755 0.43625 0.0252261
872800 60.0864 187.837 55.755 0.43635 0.00143055
873000 60.0864 187.85 55.755 0.43645 0.00368231
873200 60.0864 187.863 55.755 0.43655 0.0078297
873400 60.0864 187.876 55.755 0.43665 0.00807146
873600 60.0864 187.889 55.755 0.43675 0.0180788
873800 60.0864 187.903 55.755 0.43685 0.0327845
874000 60.0864 187.916 55.755 0.43695 0.0139233
874200 60.0864 187.929 55.755 0.43705 -0.0045462
874400 60.0864 187.942 55.755 0.43715 -0.00200016
874600 60.0864 187.955 55.755 0.43725 -0.0340932
874800 60.0864 187.968 55.755 0.43735 -0.00768653
875000 60.0864 187.981 55.755 0.43745 -0.0170408
875200 60.0864 187.994 55.755 0.43755 -0.0204061
875400 60.0864 188.007 55.755 0.43765 -0.0100475
875600 60.0864 188.02 55.755 0.43775 -0.0134369
875800 60.0864 188.033 55.755 0.43785 -0.0189616
876000 60.0864 188.046 55.755 0.43795 -0.0171864
876200 60.0864 188.059 55.755 0.43805 0.006974
876400 60.0864 188.073 55.755 0.43815 0.00279526
876600 60.0864 188.086 55.755 0.43825 0.0268678
876800 60.0864 188.099 55.755 0.43835 0.0273983
877000 60.0864 188.112 55.755 0.43845 0.0317707
877200 60.0864 188.125 55.755 0.43855 0.0151567
877400 60.0864 188.138 55.755 0.43865 0.0147327
877600 60.0864 188.151 55.755 0.43875 0.0324987
877800 60.0864 188.164 55.755 0.43885 -0.00111225
878000 60.0864 188.177 55.755 0.43895 0.0288193
878200 60.0864 188.19 55.755 0.43905 -0.0105537
878400 60.0864 188.203 55.755 0.43915 0.00641905
878600 60.0864 188.216 55.755 0.43925 -0.0263357
878800 60.0864 188.229 55.755 0.43935 -0.0171253
879000 60.0864 188.243 55.755 0.43945 -0.0135245
879200 60.0864 188.256 55.755 0.43955 -0.0191316
879400 60.0864 188.269 55.755 0.43965 -0.0232789
879600 60.0864 188.282 55.755 0.43975 -0.0107078
879800 60.0864 188.295 55.755 0.43985 0.00644987
880000 60.0864 188.308 55.755 0.43995 -0.0389612
880200 60.0864 188.321 55.755 0.44005 -0.00582864
880400 60.0864 188.334 55.755 0.44015 0.00389933
880600 60.0864 188.347 55.755 0.44025 0.0267546
880800 60.0864 188.36 55.755 0.44035 0.0173165
881000 60.0864 188.373 55.755 0.44045 0.0372354
881200 60.0864 188.386 55.755 0.44055 0.00181893
881400 60.0864 188.399 55.755 0.44065 0.0227734
881600 60.0864 188.413 55.755 0.44075 0.0278927
881800 60.0864 188.426 55.755 0.44085 0.0265903
882000 60.0864 188.439 55.755 0.44095 0.00788569
882200 60.0864 188.452 55.755 0.44105 0.0113885
882400 60.0864 188.465 55.755 0.44115 -0.00424714
882600 60.0864 188.478 55.755 0.44125 -0.00571899
882800 60.0864 188.491 55.755 0.44135 -0.0200336
883000 60.0864 188.504 55.755 0.44145 -0.0294659
883200 60.0864 188.517 55.755 0.44155 -0.00445085
883400 60.0864 188.53 55.755 0.44165 -0.0140492
883600 60.0864 188.543 55.755 0.44175 -0.0243928
883800 60.0864 188.556 55.755 0.44185 -0.0142892
884000 60.0864 188.569 55.755 0.44195 -0.0138706
884200 60.0864 188.583 55.755 0.44205 -0.0068423
884400 60.0864 188.596 55.755 0.44215 0.00697873
884600 60.0864 188.609 55.755 0.44225 0.0169066
884800 60.0864 188.622 55.755 0.44235 0.0136582
885000 60.0864 188.635 55.755 0.44245 0.0251422
885200 60.0864 188.648 55.755 0.44255 0.0280396
885400 60.0864 188.661 55.755 0.44265 0.00149973
885600 60.0864 188.674 55.755 0.44275 0.0104189
885800 60.0864 188.687 55.755 0.44285 0.021585
886000 60.0864 188.7 55.755 0.44295 0.0261672
886200 60.0864 188.713 55.755 0.44305 0.0242482
886400 60.0864 188.726 55.755 0.44315 0.0118379
886600 60.0864 188.739 55.755 0.44325 -0.0206611
886800 60.0864 188.753 55.755 0.44335 -0.0187725
887000 60.0864 188.766 55.755 0.44345 -0.0263833
887200 60.0864 188.779 55.755 0.44355 -0.0331698
887400 60.0864 188.792 55.755 0.44365 -0.0149032
887600 60.0864 188.805 55.755 0.44375 -0.0197135
887800 60.0864 188.818 55.755 0.44385 -0.0212036
888000 60.0864 188.831 55.755 0.44395 -0.00773204
888200 60.0864 188.844 55.755 0.44405 -0.00234298
888400 60.0864 188.857 55.755 0.44415 -0.00689681
888600 60.0864 188.87 55.755 0.44425 0.018886
888800 60.0864 188.883 55.755 0.44435 0.021698
889000 60.0864 188.896 55.755 0.44445 0.0400465
889200 60.0864 188.909 55.755 0.44455 0.0331401
889400 60.0864 188.923 55.755 0.44465 0.0162105
889600 60.0864 188.936 55.755 0.44475 0.0167252
889800 60.0864 188.949 55.755 0.44485 0.0116834
890000 60.0864 188.962 55.755 0.44495 0.0135643
890200 60.0864 188.975 55.755 0.44505 0.0152876
890400 60.0864 188.988 55.755 0.44515 0.00700723
890600 60.0864 189.001 55.755 0.44525 -0.0094668
890800 60.0864 189.014 55.755 0.44535 -0.0172419
891000 60.0864 189.027 55.755 0.44545 -0.0286734
891200 60.0864 189.04 55.755 0.44555 -0.036946
891400 60.0864 189.053 55.755 0.44565 -0.0325323
891600 60.0864 189.066 55.755 0.44575 0.00449719
891800 60.0864 189.079 55.755 0.44585 -0.021207
892000 60.0864 189.093 55.755 0.44595 -0.0161307
892200 60.0864 189.106 55.755 0.44605 -0.00886653
892400 60.0864 189.119 55.755 0.44615 0.0178764
892600 60.0864 189.132 55.755 0.44625 0.00425556
892800 60.0864 189.145 55.755 0.44635 0.0236466
893000 60.0864 189.158 55.755 0.44645 0.0125979
893200 60.0864 189.171 55.755 0.44655 0.0450555
893400 60.0864 189.184 55.755 0.44665 0.012797
893600 60.0864 189.197 55.755 0.44675 0.0455586
893800 60.0864 189.21 55.755 0.44685 0.0153847
894000 60.0864 189.223 55.755 0.44695 0.0158214
894200 60.0864 189.236 55.755 0.44705 0.00776824
894400 60.0864 189.25 55.755 0.44715 -0.0133503
894600 60.0864 189.263 55.755 0.44725 -0.00645161
894800 60.0864 189.276 55.755 0.44735 0.00319417
895000 60.0864 189.289 55.755 0.44745 -0.00864138
895200 60.0864 189.302 55.755 0.44755 -0.0412703
895400 60.0864 189.315 55.755 0.44765 -0.0332006
895600 60.0864 189.328 55.755 0.44775 -0.044009
895800 60.0864 189.341 55.755 0.44785 -0.00469486
896000 60.0864 189.354 55.755 0.44795 -0.013797
896200 60.0864 189.367 55.755 0.44805 -0.0251626
896400 60.0864 189.38 55.755 0.44815 0.0068267
896600 60.0864 189.393 55.755 0.44825 0.0214651
896800 60.0864 189.406 55.755 0.44835 0.0290283
897000 60.0864 189.42 55.755 0.44845 0.0278857
897200 60.0864 189.433 55.755 0.44855 0.0205954
897400 60.0864 189.446 55.755 0.44865 0.0340231
897600 60.0864 189.459 55.755 0.44875 0.0425195
897800 60.0864 189.472 55.755 0.44885 0.025388
898000 60.0864 189.485 55.755 0.44895 0.0218172
898200 60.0864 189.498 55.755 0.44905 -0.00346276
898400 60.0864 189.511 55.755 0.44915 -0.0106644
898600 60.0864 189.524 55.755 0.44925 0.00697852
898800 60.0864 189.537 55.755 0.44935 -0.0199436
899000 60.0864 189.55 55.755 0.44945 -0.0349377
899200 60.0864 189.563 55.755 0.44955 -0.0332138
899400 60.0864 189.576 55.755 0.44965 -0.016242
899600 60.0864 189.59 55.755 0.44975 -0.0349022
899800 60.0864 189.603 55.755 0.44985 -0.0245786
900000 60.0864 189.616 55.755 0.44995 -0.0223849
900200 60.0864 189.629 55.755 0.45005 0.00300094
900400 60.0864 189.642 55.755 0.45015 0.0189194
900600 60.0864 189.655 55.755 0.45025 0.0184115
900800 60.0864 189.668 55.755 0.45035 0.0288182
901000 60.0864 189.681 55.755 0.45045 0.0209817
901200 60.0864 189.694 55.755 0.45055 0.0248605
901400 60.0864 189.707 55.755 0.45065 0.0221665
901600 60.0864 189.72 55.755 0.45075 0.0210132
901800 60.0864 189.733 55.755 0.45085 0.0263353
902000 60.0864 189.746 55.755 0.45095 0.0203589
902200 60.0864 189.76 55.755 0.45105 0.0201267
902400 60.0864 189.773 55.755 0.45115 -0.0238598
902600 60.0864 189.786 55.755 0.45125 -0.0306744
902800 60.0864 189.799 55.755 0.45135 -0.00105239
903000 60.0864 189.812 55.755 0.45145 -0.0234788
903200 60.0864 189.825 55.755 0.45155 -0.0253627
903400 60.0864 189.838 55.755 0.45165 -0.0129302
903600 60.0864 189.851 55.755 0.45175 -0.0154504
903800 60.0864 189.864 55.755 0.45185 -0.0167641
904000 60.0864 189.877 55.755 0.45195 -0.000601362
904200 60.0864 189.89 55.755 0.45205 0.000482748
904400 60.0864 189.903 55.755 0.45215 0.0187127
904600 60.0864 189.916 55.755 0.45225 0.0155973
904800 60.0864 189.93 55.755 0.45235 0.0123888
905000 60.0864 189.943 55.755 0.45245 -0.00836188
905200 60.0864 189.956 55.755 0.45255 0.0279523
905400 60.0864 189.969 55.755 0.45265 0.0360776
905600 60.0864 189.982 55.755 0.45275 0.0209472
905800 60.0864 189.995 55.755 0.45285 -0.00122931
906000 60.0864 190.008 55.755 0.45295 0.0146736
906200 60.0864 190.021 55.755 0.45305 -0.000933396
906400 60.0864 190.034 55.755 0.45315 0.00480044
906600 60.0864 190.047 55.755 0.45325 0.000804453
906800 60.0864 190.06 55.755 0.45335 -0.0143786
907000 60.0864 190.073 55.755 0.45345 -0.0152631
907200 60.0864 190.086 55.755 0.45355 -0.00296824
907400 60.0864 190.1 55.755 0.45365 -0.0256917
907600 60.0864 190.113 55.755 0.45375 -0.0203979
907800 60.0864 190.126 55.755 0.45385 -0.0209385
908000 60.0864 190.139 55.755 0.45395 -0.0133954
908200 60.0864 190.152 55.755 0.45405 -0.00919492
908400 60.0864 190.165 55.755 0.45415 0.00839763
908600 60.0864 190.178 55.755 0.45425 0.0204022
908800 60.0864 190.191 55.755 0.45435 0.0104412
909000 60.0864 190.204 55.755 0.45445 0.02778
909200 60.0864 190.217 55.755 0.45455 0.0134826
909400 60.0864 190.23 55.755 0.45465 0.0113353
909600 60.0864 190.243 55.755 0.45475 0.0175624
909800 60.0864 190.256 55.755 0.45485 0.0351344
910000 60.0864 190.27 55.755 0.45495 0.0145079
910200 60.0864 190.283 55.755 0.45505 -0.000937523
910400 60.0864 190.296 55.755 0.45515 -0.0198489
910600 60.0864 190.309 55.755 0.45525 -0.000106542
910800 60.0864 190.322 55.755 0.45535 -0.00886859
911000 60.0864 190.335 55.755 0.45545 -0.0148578
911200 60.0864 190.348 55.755 0.45555 -0.0141622
911400 60.0864 190.361 55.755 0.45565 -0.00926242
911600 60.0864 190.374 55.755 0.45575 -0.0137958
911800 60.0864 190.387 55.755 0.45585 -0.00461346
912000 60.0864 190.4 55.755 0.45595 0.00628881
912200 60.0864 190.413 55.755 0.45605 -0.0253376
912400 60.0864 190.426 55.755 0.45615 0.010081
912600 60.0864 190.44 55.755 0.45625 0.024369
912800 60.0864 190.453 55.755 0.45635 0.0151731
913000 60.0864 190.466 55.755 0.45645 0.00603614
913200 60.0864 190.479 55.755 0.45655 0.0038175
913400 60.0864 190.492 55.755 0.45665 -0.0115576
913600 60.0864 190.505 55.755 0.45675 0.0272004
913800 60.0864 190.518 55.755 0.45685 0.0255864
914000 60.0864 190.531 55.755 0.45695 0.00435549
914200 60.0864 190.544 55.755 0.45705 0.0160958
914400 60.0864 190.557 55.755 0.45715 -0.00606988
914600 60.0864 190.57 55.755 0.45725 -0.00583855
914800 60.0864 190.583 55.755 0.45735 -0.0253362
915000 60.0864 190.596 55.755 0.45745 -0.0177208
915200 60.0864 190.61 55.755 0.45755 -0.00711392
915400 60.0864 190.623 55.755 0.45765 -0.0129569
915600 60.0864 190.636 55.755 0.45775 0.017089
915800 60.0864 190.649 55.755 0.45785 0.00511348
916000 60.0864 190.662 55.755 0.45795 -0.00469076
916200 60.0864 190.675 55.755 0.45805 0.000692222
916400 60.0864 190.688 55.755 0.45815 -0.00912888
916600 60.0864 190.701 55.755 0.45825 0.00763802
916800 60.0864 190.714 55.755 0.45835 0.0418261
917000 60.0864 190.727 55.755 0.45845 0.00243181
917200 60.0864 190.74 55.755 0.45855 0.00732253
917400 60.0864 190.753 55.755 0.45865 0.00388148
917600 60.0864 190.766 55.755 0.45875 -0.0183063
917800 60.0864 190.78 55.755 0.45885 -0.00568371
918000 60.0864 190.793 55.755 0.45895 0.0146088
918200 60.0864 190.806 55.755 0.45905 0.0124627
918400 60.0864 190.819 55.755 0.45915 0.0230768
918600 60.0864 190.832 55.755 0.45925 -0.0190943
918800 60.0864 190.845 55.755 0.45935 -0.0224202
919000 60.0864 190.858 55.755 0.45945 -0.0202356
919200 60.0864 190.871 55.755 0.45955 0.00233126
919400 60.0864 190.884 55.755 0.45965 0.0122957
919600 60.0864 190.897 55.755 0.45975 0.00930998
919800 60.0864 190.91 55.755 0.45985 0.0218909
920000 60.0864 190.923 55.755 0.45995 -0.00883094
920200 60.0864 190.936 55.755 0.46005 -0.0212128
920400 60.0864 190.95 55.755 0.46015 0.0132153
920600 60.0864 190.963 55.755 0.46025 0.00339509
920800 60.0864 190.976 55.755 0.46035 0.0118022
921000 60.0864 190.989 55.755 0.46045 0.0103198
921200 60.0864 191.002 55.755 0.46055 0.0190959
921400 60.0864 191.015 55.755 0.46065 0.00243297
921600 60.0864 191.028 55.755 0.46075 -0.0105386
921800 60.0864 191.041 55.755 0.46085 -0.0226309
922000 60.0864 191.054 55.755 0.46095 0.00358315
922200 60.0864 191.067 55.755 0.46105 0.0122039
922400 60.0864 191.08 55.755 0.46115 0.00252969
922600 60.0864 191.093 55.755 0.46125 0.0117097
922800 60.0864 191.106 55.755 0.46135 -0.0153655
923000 60.0864 191.12 55.755 0.46145 -0.0138734
923200 60.0864 191.133 55.755 0.46155 -0.0133151
923400 60.0864 191.146 55.755 0.46165 0.0168031
923600 60.0864 191.159 55.755 0.46175 -0.000748704
923800 60.0864 191.172 55.755 0.46185 0.00168956
924000 60.0864 191.185 55.755 0.46195 0.00715796
924200 60.0864 191.198 55.755 0.46205 0.00527679
924400 60.0864 191.211 55.755 0.46215 -0.00442136
924600 60.0864 191.224 55.755 0.46225 0.00160692
924800 60.0864 191.237 55.755 0.46235 0.0205101
925000 60.0864 191.25 55.755 0.46245 0.00998406
925200 60.0864 191.263 55.755 0.46255 0.0188863
925400 60.0864 191.276 55.755 0.46265 0.0167905
925600 60.0864 191.29 55.755 0.46275 0.0114899
925800 60.0864 191.303 55.755 0.46285 -0.0224442
926000 60.0864 191.316 55.755 0.46295 -0.01139
926200 60.0864 191.329 55.755 0.46305 0.00138381
926400 60.0864 191.342 55.755 0.46315 -0.00972936
926600 60.0864 191.355 55.755 0.46325 -0.0080682
926800 60.0864 191.368 55.755 0.46335 0.00190643
927000 60.0864 191.381 55.755 0.46345 -0.00263126
927200 60.0864 191.394 55.755 0.46355 -0.0148618
927400 60.0864 191.407 55.755 0.46365 -0.00170811
927600 60.0864 191.42 55.755 0.46375 -0.0031008
927800 60.0864 191.433 55.755 0.46385 0.0142384
928000 60.0864 191.447 55.755 0.46395 0.0226795
928200 60.0864 191.46 55.755 0.46405 0.00437269
928400 60.0864 191.473 55.755 0.46415 0.0140706
928600 60.0864 191.486 55.755 0.46425 0.00357957
928800 60.0864 191.499 55.755 0.46435 -0.00393489
929000 60.0864 191.512 55.755 0.46445 0.0205652
929200 60.0864 191.525 55.755 0.46455 0.00476821
929400 60.0864 191.538 55.755 0.46465 0.0147285
929600 60.0864 191.551 55.755 0.46475 0.000943105
929800 60.0864 191.564 55.755 0.46485 -0.0163876
930000 60.0864 191.577 55.755 0.46495 -0.0221366
930200 60.0864 191.59 55.755 0.46505 -0.0265327
930400 60.0864 191.603 55.755 0.46515 -0.00729917
930600 60.0864 191.617 55.755 0.46525 0.00085571
930800 60.0864 191.63 55.755 0.46535 -0.00415419
931000 60.0864 191.643 55.755 0.46545 0.0325498
931200 60.0864 191.656 55.755 0.46555 -0.0344039
931400 60.0864 191.669 55.755 0.46565 0.0015634
931600 60.0864 191.682 55.755 0.46575 -0.00248036
931800 60.0864 191.695 55.755 0.46585 0.00822057
932000 60.0864 191.708 55.755 0.46595 0.0214525
932200 60.0864 191.721 55.755 0.46605 0.0558907
932400 60.0864 191.734 55.755 0.46615 0.00379777
932600 60.0864 191.747 55.755 0.46625 0.00402571
932800 60.0864 191.76 55.755 0.46635 0.0167152
933000 60.0864 191.773 55.755 0.46645 -0.00332226
933200 60.0864 191.787 55.755 0.46655 -0.00954201
933400 60.0864 191.8 55.755 0.46665 0.0181578
933600 60.0864 191.813 55.755 0.46675 0.00216493
933800 60.0864 191.826 55.755 0.46685 -0.0101559
934000 60.0864 191.839 55.755 0.46695 -0.0323182
934200 60.0864 191.852 55.755 0.46705 -0.0165722
934400 60.0864 191.865 55.755 0.46715 -0.0135694
934600 60.0864 191.878 55.755 0.46725 -0.0211096
934800 60.0864 191.891 55.755 0.46735 0.0215647
935000 60.0864 191.904 55.755 0.46745 -0.0157756
935200 60.0864 191.917 55.755 0.46755 0.0112793
935400 60.0864 191.93 55.755 0.46765 0.00593193
935600 60.0864 191.943 55.755 0.46775 -0.00386191
935800 60.0864 191.957 55.755 0.46785 0.0068279
936000 60.0864 191.97 55.755 0.46795 0.0311027
936200 60.0864 191.983 55.755 0.46805 0.0112568
936400 60.0864 191.996 55.755 0.46815 0.0233517
936600 60.0864 192.009 55.755 0.46825 0.0178146
936800 60.0864 192.022 55.755 0.46835 -0.000440543
937000 60.0864 192.035 55.755 0.46845 -0.0101175
937200 60.0864 192.048 55.755 0.46855 -0.000205568
937400 60.0864 192.061 55.755 0.46865 0.0191418
937600 60.0864 192.074 55.755 0.46875 -0.00550441
937800 60.0864 192.087 55.755 0.46885 -0.00307396
938000 60.0864 192.1 55.755 0.46895 -0.0227267
938200 60.0864 192.113 55.755 0.46905 0.0120276
938400 60.0864 192.127 55.755 0.46915 -0.0157541
938600 60.0864 192.14 55.755 0.46925 -0.0164243
938800 60.0864 192.153 55.755 0.46935 -0.0113193
939000 60.0864 192.166 55.755 0.46945 0.00387798
939200 60.0864 192.179 55.755 0.46955 0.0141343
939400 60.0864 192.192 55.755 0.46965 -0.00980029
939600 60.0864 192.205 55.755 0.46975 0.0128071
939800 60.0864 192.218 55.755 0.46985 0.0044014
940000 60.0864 192.231 55.755 0.46995 0.0132057
940200 60.0864 192.244 55.755 0.47005 0.00614707
940400 60.0864 192.257 55.755 0.47015 0.0297519
940600 60.0864 192.27 55.755 0.47025 -0.00751522
940800 60.0864 192.283 55.755 0.47035 0.00512975
941000 60.0864 192.297 55.755 0.47045 -0.00430599
941200 60.0864 192.31 55.755 0.47055 -0.0103573
941400 60.0864 192.323 55.755 0.47065 -0.019573
941600 60.0864 192.336 55.755 0.47075 -0.00187718
941800 60.0864 192.349 55.755 0.47085 0.0155968
942000 60.0864 192.362 55.755 0.47095 -0.000889186
942200 60.0864 192.375 55.755 0.47105 -0.0285596
942400 60.0864 192.388 55.755 0.47115 0.0127264
942600 60.0864 192.401 55.755 0.47125 0.0017441
942800 60.0864 192.414 55.755 0.47135 0.0131179
943000 60.0864 192.427 55.755 0.47145 0.014363
943200 60.0864 192.44 55.755 0.47155 0.00195778
943400 60.0864 192.453 55.755 0.47165 0.0190123
943600 60.0864 192.467 55.755 0.47175 0.00529635
943800 60.0864 192.48 55.755 0.47185 0.0115325
944000 60.0864 192.493 55.755 0.47195 0.0067798
944200 60.0864 192.506 55.755 0.47205 0.0300079
944400 60.0864 192.519 55.755 0.47215 -0.0124109
944600 60.0864 192.532 55.755 0.47225 -0.00383126
944800 60.0864 192.545 55.755 0.47235 -0.0265743
945000 60.0864 192.558 55.755 0.47245 0.000257513
945200 60.0864 192.571 55.755 0.47255 -0.0036318
945400 60.0864 192.584 55.755 0.47265 -0.00515783
945600 60.0864 192.597 55.755 0.47275 -0.0127832
945800 60.0864 192.61 55.755 0.47285 -0.0234091
946000 60.0864 192.623 55.755 0.47295 0.00914642
946200 60.0864 192.637 55.755 0.47305 -0.00524339
946400 60.0864 192.65 55.755 0.47315 0.00148278
946600 60.0864 192.663 55.755 0.47325 0.00324156
946800 60.0864 192.676 55.755 0.47335 0.0251414
947000 60.0864 192.689 55.755 0.47345 0.0183635
947200 60.0864 192.702 55.755 0.47355 0.0105324
947400 60.0864 192.715 55.755 0.47365 0.0106845
947600 60.0864 192.728 55.755 0.47375 -0.000379115
947800 60.0864 192.741 55.755 0.47385 0.00652174
948000 60.0864 192.754 55.755 0.47395 0.0202563
948200 60.0864 192.767 55.755 0.47405 -0.00618801
948400 60.0864 192.78 55.755 0.47415 0.00562125
948600 60.0864 192.793 55.755 0.47425 -0.00582478
948800 60.0864 192.807 55.755 0.47435 -0.00898644
949000 60.0864 192.82 55.755 0.47445 -2.86392e-05
949200 60.0864 192.833 55.755 0.47455 -0.0335623
949400 60.0864 192.846 55.755 0.47465 0.000377975
949600 60.0864 192.859 55.755 0.47475 0.0092551
949800 60.0864 192.872 55.755 0.47485 -0.00925252
950000 60.0864 192.885 55.755 0.47495 -0.0135548
950200 60.0864 192.898 55.755 0.47505 -0.00801812
950400 60.0864 192.911 55.755 0.47515 0.000374629
950600 60.0864 192.924 55.755 0.47525 0.0215244
950800 60.0864 192.937 55.755 0.47535 -0.00391385
951000 60.0864 192.95 55.755 0.47545 0.0330391
951200 60.0864 192.963 55.755 0.47555 0.0095881
951400 60.0864 192.977 55.755 0.47565 -0.00639771
951600 60.0864 192.99 55.755 0.47575 0.0387293
951800 60.0864 193.003 55.755 0.47585 0.00234936
952000 60.0864 193.016 55.755 0.47595 0.00128107
952200 60.0864 193.029 55.755 0.47605 0.0165673
952400 60.0864 193.042 55.755 0.47615 -0.0115375
952600 60.0864 193.055 55.755 0.47625 -0.00533075
952800 60.0864 193.068 55.755 0.47635 -0.0126114
953000 60.0864 193.081 55.755 0.47645 -0.00742029
953200 60.0864 193.094 55.755 0.47655 0.00187719
953400 60.0864 193.107 55.755 0.47665 0.000956899
953600 60.0864 193.12 55.755 0.47675 0.00487254
953800 60.0864 193.133 55.755 0.47685 -0.0251995
954000 60.0864 193.147 55.755 0.47695 -0.00758293
954200 60.0864 193.16 55.755 0.47705 0.00362851
954400 60.0864 193.173 55.755 0.47715 -0.000505236
954600 60.0864 193.186 55.755 0.47725 -0.00263208
954800 60.0864 193.199 55.755 0.47735 0.00932489
955000 60.0864 193.212 55.755 0.47745 0.0293978
955200 60.0864 193.225 55.755 0.47755 0.0120304
955400 60.0864 193.238 55.755 0.47765 -0.00439271
955600 60.0864 193.251 55.755 0.47775 -0.00960467
955800 60.0864 193.264 55.755 0.47785 -0.000779496
956000 60.0864 193.277 55.755 0.47795 0.0112801
956200 60.0864 193.29 55.755 0.47805 0.0157141
956400 60.0864 193.303 55.755 0.47815 0.031345
956600 60.0864 193.317 55.755 0.47825 -0.0182483
956800 60.0864 193.33 55.755 0.47835 -0.0107703
957000 60.0864 193.343 55.755 0.47845 -0.00866163
957200 60.0864 193.356 55.755 0.47855 -0.0100758
957400 60.0864 193.369 55.755 0.47865 0.0213938
957600 60.0864 193.382 55.755 0.47875 0.00751607
957800 60.0864 193.395 55.755 0.47885 0.00063327
958000 60.0864 193.408 55.755 0.47895 -0.00200433
958200 60.0864 193.421 55.755 0.47905 -0.0125102
958400 60.0864 193.434 55.755 0.47915 -0.00996383
958600 60.0864 193.447 55.755 0.47925 0.00107831
958800 60.0864 193.46 55.755 0.47935 -0.0100241
959000 60.0864 193.474 55.755 0.47945 -4.57e-05
959200 60.0864 193.487 55.755 0.47955 0.0264223
959400 60.0864 193.5 55.755 0.47965 0.0127647
959600 60.0864 193.513 55.755 0.47975 -0.0184355
959800 60.0864 193.526 55.755 0.47985 0.0207162
960000 60.0864 193.539 55.755 0.47995 -0.00673092
960200 60.0864 193.552 55.755 0.48005 0.0336757
960400 60.0864 193.565 55.755 0.48015 0.00161527
960600 60.0864 193.578 55.755 0.48025 0.00225046
960800 60.0864 193.591 55.755 0.48035 -0.0035637
961000 60.0864 193.604 55.755 0.48045 -0.0122174
961200 60.0864 193.617 55.755 0.48055 0.0093032
961400 60.0864 193.63 55.755 0.48065 -0.015529
961600 60.0864 193.644 55.755 0.48075 -0.0134917
961800 60.0864 193.657 55.755 0.48085 0.0110711
962000 60.0864 193.67 55.755 0.48095 0.00582239
962200 60.0864 193.683 55.755 0.48105 -0.0132398
962400 60.0864 193.696 55.755 0.48115 -0.0204143
962600 60.0864 193.709 55.755 0.48125 0.00504631
962800 60.0864 193.722 55.755 0.48135 0.0195768
963000 60.0864 193.735 55.755 0.48145 0.00868679
963200 60.0864 193.748 55.755 0.48155 0.0192419
963400 60.0864 193.761 55.755 0.48165 0.0118989
963600 60.0864 193.774 55.755 0.48175 -0.0107939
963800 60.0864 193.787 55.755 0.48185 0.00801016
964000 60.0864 193.8 55.755 0.48195 0.00647859
964200 60.0864 193.814 55.755 0.48205 0.0097603
964400 60.0864 193.827 55.755 0.48215 0.0168691
964600 60.0864 193.84 55.755 0.48225 0.00194611
964800 60.0864 193.853 55.755 0.48235 0.00124542
965000 60.0864 193.866 55.755 0.48245 -0.0186762
965200 60.0864 193.879 55.755 0.48255 -0.0152942
965400 60.0864 193.892 55.755 0.48265 -0.000248352
965600 60.0864 193.905 55.755 0.48275 -0.0156552
965800 60.0864 193.918 55.755 0.48285 0.0107618
966000 60.0864 193.931 55.755 0.48295 -0.0081053
966200 60.0864 193.944 55.755 0.48305 -0.0049426
966400 60.0864 193.957 55.755 0.48315 -0.00243937
966600 60.0864 193.97 55.755 0.48325 -0.00716412
966800 60.0864 193.984 55.755 0.48335 0.0132101
967000 60.0864 193.997 55.755 0.48345 0.0173944
967200 60.0864 194.01 55.755 0.48355 0.0162024
967400 60.0864 194.023 55.755 0.48365 0.0195666
967600 60.0864 194.036 55.755 0.48375 0.0152309
967800 60.0864 194.049 55.755 0.48385 0.0159533
968000 60.0864 194.062 55.755 0.48395 0.00554052
968200 60.0864 194.075 55.755 0.48405 -0.00836331
968400 60.0864 194.088 55.755 0.48415 0.0137907
968600 60.0864 194.101 55.755 0.48425 -0.0123386
968800 60.0864 194.114 55.755 0.48435 -0.0152198
969000 60.0864 194.127 55.755 0.48445 0.00330262
969200 60.0864 194.14 55.755 0.48455 -0.0203172
969400 60.0864 194.154 55.755 0.48465 -0.0175254
969600 60.0864 194.167 55.755 0.48475 -0.0205835
969800 60.0864 194.18 55.755 0.48485 0.00807529
970000 60.0864 194.193 55.755 0.48495 -0.00212327
970200 60.0864 194.206 55.755 0.48505 -3.02802e-05
970400 60.0864 194.219 55.755 0.48515 -0.00633017
970600 60.0864 194.232 55.755 0.48525 0.0153567
970800 60.0864 194.245 55.755 0.48535 0.00686274
971000 60.0864 194.258 55.755 0.48545 0.0217031
971200 60.0864 194.271 55.755 0.48555 0.0118156
971400 60.0864 194.284 55.755 0.48565 0.035194
971600 60.0864 194.297 55.755 0.48575 0.00586668
971800 60.0864 194.31 55.755 0.48585 0.0293776
972000 60.0864 194.324 55.755 0.48595 0.00874727
972200 60.0864 194.337 55.755 0.48605 0.00683911
972400 60.0864 194.35 55.755 0.48615 0.00841499
972600 60.0864 194.363 55.755 0.48625 -0.0209118
972800 60.0864 194.376 55.755 0.48635 -0.0348501
973000 60.0864 194.389 55.755 0.48645 -0.0259463
973200 60.0864 194.402 55.755 0.48655 -0.0122156
973400 60.0864 194.415 55.755 0.48665 -0.0094288
973600 60.0864 194.428 55.755 0.48675 -0.0312183
973800 60.0864 194.441 55.755 0.48685 -0.0028901
974000 60.0864 194.454 55.755 0.48695 -0.00726871
974200 60.0864 194.467 55.755 0.48705 -0.000453048
974400 60.0864 194.48 55.755 0.48715 0.00695817
974600 60.0864 194.494 55.755 0.48725 0.0258003
974800 60.0864 194.507 55.755 0.48735 0.0208295
975000 60.0864 194.52 55.755 0.48745 0.0273953
975200 60.0864 194.533 55.755 0.48755 0.0263168
975400 60.0864 194.546 55.755 0.48765 0.017041
975600 60.0864 194.559 55.755 0.48775 0.0128509
975800 60.0864 194.572 55.755 0.48785 0.0282055
976000 60.0864 194.585 55.755 0.48795 0.0197117
976200 60.0864 194.598 55.755 0.48805 0.0120544
976400 60.0864 194.611 55.755 0.48815 -0.0141304
976600 60.0864 194.624 55.755 0.48825 -0.0100765
976800 60.0864 194.637 55.755 0.48835 -0.0204534
977000 60.0864 194.65 55.755 0.48845 -0.0400666
977200 60.0864 194.664 55.755 0.48855 -0.0115406
977400 60.0864 194.677 55.755 0.48865 -0.0231171
977600 60.0864 194.69 55.755 0.48875 -0.0130888
977800 60.0864 194.703 55.755 0.48885 -0.029773
978000 60.0864 194.716 55.755 0.48895 -0.0128015
978200 60.0864 194.729 55.755 0.48905 0.0135233
978400 60.0864 194.742 55.755 0.48915 0.00241202
978600 60.0864 194.755 55.755 0.48925 0.023444
978800 60.0864 194.768 55.755 0.48935 0.0229502
979000 60.0864 194.781 55.755 0.48945 0.025565
979200 60.0864 194.794 55.755 0.48955 0.0382337
979400 60.0864 194.807 55.755 0.48965 0.0266647
979600 60.0864 194.82 55.755 0.48975 0.000615258
979800 60.0864 194.834 55.755 0.48985 0.0163514
980000 60.0864 194.847 55.755 0.48995 0.0151846
980200 60.0864 194.86 55.755 0.49005 -0.0180741
980400 60.0864 194.873 55.755 0.49015 0.00619873
980600 60.0864 194.886 55.755 0.49025 -0.0140644
980800 60.0864 194.899 55.755 0.49035 -0.000962765
981000 60.0864 194.912 55.755 0.49045 -0.0259099
981200 60.0864 194.925 55.755 0.49055 -0.0275679
981400 60.0864 194.938 55.755 0.49065 -0.01246
981600 60.0864 194.951 55.755 0.49075 -0.0104961
981800 60.0864 194.964 55.755 0.49085 -0.0116405
982000 60.0864 194.977 55.755 0.49095 -0.000520657
982200 60.0864 194.99 55.755 0.49105 -0.000772428
982400 60.0864 195.004 55.755 0.49115 -0.00327486
982600 60.0864 195.017 55.755 0.49125 0.00232969
982800 60.0864 195.03 55.755 0.49135 0.0130346
983000 60.0864 195.043 55.755 0.49145 0.0291806
983200 60.0864 195.056 55.755 0.49155 0.0286378
983400 60.0864 195.069 55.755 0.49165 0.0292199
983600 60.0864 195.082 55.755 0.49175 0.0128889
983800 60.0864 195.095 55.755 0.49185 0.0134535
984000 60.0864 195.108 55.755 0.49195 0.00612927
984200 60.0864 195.121 55.755 0.49205 0.0130847
984400 60.0864 195.134 55.755 0.49215 0.00451837
984600 60.0864 195.147 55.755 0.49225 -0.016712
984800 60.0864 195.16 55.755 0.49235 -0.0138981
985000 60.0864 195.174 55.755 0.49245 -0.0117444
985200 60.0864 195.187 55.755 0.49255 -0.00551069
985400 60.0864 195.2 55.755 0.49265 -0.0316093
985600 60.0864 195.213 55.755 0.49275 -0.0217031
985800 60.0864 195.226 55.755 0.49285 -0.0057502
986000 60.0864 195.239 55.755 0.49295 -0.000799989
986200 60.0864 195.252 55.755 0.49305 0.00677694
986400 60.0864 195.265 55.755 0.49315 -0.00725754
986600 60.0864 195.278 55.755 0.49325 0.00377667
986800 60.0864 195.291 55.755 0.49335 0.00887356
987000 60.0864 195.304 55.755 0.49345 0.0303811
987200 60.0864 195.317 55.755 0.49355 0.0141561
987400 60.0864 195.33 55.755 0.49365 0.0377745
987600 60.0864 195.344 55.755 0.49375 0.026418
987800 60.0864 195.357 55.755 0.49385 0.00977895
988000 60.0864 195.37 55.755 0.49395 0.00736123
988200 60.0864 195.383 55.755 0.49405 0.00967726
988400 60.0864 195.396 55.755 0.49415 -0.0119457
988600 60.0864 195.409 55.755 0.49425 -0.00997464
988800 60.0864 195.422 55.755 0.49435 0.00976978
989000 60.0864 195.435 55.755 0.49445 -0.0184493
989200 60.0864 195.448 55.755 0.49455 -0.0411729
989400 60.0864 195.461 55.755 0.49465 -0.020744
989600 60.0864 195.474 55.755 0.49475 -0.0214703
989800 60.0864 195.487 55.755 0.49485 -0.0250075
990000 60.0864 195.5 55.755 0.49495 0.0218763
990200 60.0864 195.514 55.755 0.49505 0.012632
990400 60.0864 195.527 55.755 0.49515 0.000932543
990600 60.0864 195.54 55.755 0.49525 0.0168973
990800 60.0864 195.553 55.755 0.49535 -0.00726886
991000 60.0864 195.566 55.755 0.49545 0.023553
991200 60.0864 195.579 55.755 0.49555 0.0168116
991400 60.0864 195.592 55.755 0.49565 0.022424
991600 60.0864 195.605 55.755 0.49575 0.0264949
991800 60.0864 195.618 55.755 0.49585 0.0289121
992000 60.0864 195.631 55.755 0.49595 0.0105507
992200 60.0864 195.644 55.755 0.49605 -0.0156335
992400 60.0864 195.657 55.755 0.49615 -0.00525222
992600 60.0864 195.671 55.755 0.49625 0.0219501
992800 60.0864 195.684 55.755 0.49635 -0.00470007
993000 60.0864 195.697 55.755 0.49645 -0.0368117
993200 60.0864 195.71 55.755 0.49655 -0.0151909
993400 60.0864 195.723 55.755 0.49665 -0.0129181
993600 60.0864 195.736 55.755 0.49675 -0.0285559
993800 60.0864 195.749 55.755 0.49685 -0.0125443
994000 60.0864 195.762 55.755 0.49695 -0.0242601
994200 60.0864 195.775 55.755 0.49705 0.03373
994400 60.0864 195.788 55.755 0.49715 -0.00719747
994600 60.0864 195.801 55.755 0.49725 0.0113325
994800 60.0864 195.814 55.755 0.49735 0.0288929
995000 60.0864 195.827 55.755 0.49745 0.000560107
995200 60.0864 195.841 55.755 0.49755 0.0140158
995400 60.0864 195.854 55.755 0.49765 0.0226137
995600 60.0864 195.867 55.755 0.49775 0.0268541
995800 60.0864 195.88 55.755 0.49785 0.011708
996000 60.0864 195.893 55.755 0.49795 0.00722243
996200 60.0864 195.906 55.755 0.49805 -0.00975002
996400 60.0864 195.919 55.755 0.49815 0.00704733
996600 60.0864 195.932 55.755 0.49825 0.000413489
996800 60.0864 195.945 55.755 0.49835 -0.0140543
997000 60.0864 195.958 55.755 0.49845 -0.0217819
997200 60.0864 195.971 55.755 0.49855 -0.00361888
997400 60.0864 195.984 55.755 0.49865 -0.00406868
997600 60.0864 195.997 55.755 0.49875 -0.0187048
997800 60.0864 196.011 55.755 0.49885 -0.0190288
998000 60.0864 196.024 55.755 0.49895 -0.0100136
998200 60.0864 196.037 55.755 0.49905 0.00223129
998400 60.0864 196.05 55.755 0.49915 0.0128338
998600 60.0864 196.063 55.755 0.49925 0.0109185
998800 60.0864 196.076 55.755 0.49935 0.00515807
999000 60.0864 196.089 55.755 0.49945 0.0133318
999200 60.0864 196.102 55.755 0.49955 0.0129648
999400 60.0864 196.115 55.755 0.49965 0.0164469
999600 60.0864 196.128 55.755 0.49975 0.028534
999800 60.0864 196.141 55.755 0.49985 0.017032
1000000 60.0864 196.154 55.755 0.49995 0.00926636
1000200 60.0864 196.167 55.755 0.50005 0.022172
1000400 60.0864 196.181 55.755 0.50015 -0.0184611
1000600 60.0864 196.194 55.755 0.50025 -0.00857495
1000800 60.0864 196.207 55.755 0.50035 -0.0148315
1001000 60.0864 196.22 55.755 0.50045 0.0024847
1001200 60.0864 196.233 55.755 0.50055 -0.026224
1001400 60.0864 196.246 55.755 0.50065 -0.0111402
1001600 60.0864 196.259 55.755 0.50075 0.00716253
1001800 60.0864 196.272 55.755 0.50085 -0.0328109
1002000 60.0864 196.285 55.755 0.50095 -0.0233648
1002200 60.0864 196.298 55.755 0.50105 0.0131643
1002400 60.0864 196.311 55.755 0.50115 0.0125505
1002600 60.0864 196.324 55.755 0.50125 0.0189474
1002800 60.0864 196.337 55.755 0.50135 0.0105312
1003000 60.0864 196.351 55.755 0.50145 0.00679801
1003200 60.0864 196.364 55.755 0.50155 0.0174978
1003400 60.0864 196.377 55.755 0.50165 0.0294337
1003600 60.0864 196.39 55.755 0.50175 0.01283
1003800 60.0864 196.403 55.755 0.50185 0.0269906
1004000 60.0864 196.416 55.755 0.50195 -0.00870598
1004200 60.0864 196.429 55.755 0.50205 0.0165299
1004400 60.0864 196.442 55.755 0.50215 -0.00926853
1004600 60.0864 196.455 55.755 0.50225 -0.0195943
1004800 60.0864 196.468 55.755 0.50235 -0.0155377
1005000 60.0864 196.481 55.755 0.50245 -0.0023298
1005200 60.0864 196.494 55.755 0.50255 -0.0199041
1005400 60.0864 196.507 55.755 0.50265 -0.000618524
1005600 60.0864 196.521 55.755 0.50275 -0.0197865
1005800 60.0864 196.534 55.755 0.50285 -0.0145258
1006000 60.0864 196.547 55.755 0.50295 0.00583428
1006200 60.0864 196.56 55.755 0.50305 0.00483962
1006400 60.0864 196.573 55.755 0.50315 0.000716094
1006600 60.0864 196.586 55.755 0.50325 0.0175327
1006800 60.0864 196.599 55.755 0.50335 0.0197904
1007000 60.0864 196.612 55.755 0.50345 0.0336137
1007200 60.0864 196.625 55.755 0.50355 0.00105728
1007400 60.0864 196.638 55.755 0.50365 0.00723502
1007600 60.0864 196.651 55.755 0.50375 0.00796358
1007800 60.0864 196.664 55.755 0.50385 0.0198511
1008000 60.0864 196.677 55.755 0.50395 0.0108781
1008200 60.0864 196.691 55.755 0.50405 -0.00807003
1008400 60.0864 196.704 55.755 0.50415 0.00247795
1008600 60.0864 196.717 55.755 0.50425 -0.0232937
1008800 60.0864 196.73 55.755 0.50435 -0.0264739
1009000 60.0864 196.743 55.755 0.50445 -0.0245675
1009200 60.0864 196.756 55.755 0.50455 -0.00311371
1009400 60.0864 196.769 55.755 0.50465 -0.0118693
1009600 60.0864 196.782 55.755 0.50475 0.00160317
1009800 60.0864 196.795 55.755 0.50485 -0.00989998
1010000 60.0864 196.808 55.755 0.50495 -0.00768964
1010200 60.0864 196.821 55.755 0.50505 0.0128881
1010400 60.0864 196.834 55.755 0.50515 0.0109591
1010600 60.0864 196.847 55.755 0.50525 0.0334906
1010800 60.0864 196.861 55.755 0.50535 0.0276742
1011000 60.0864 196.874 55.755 0.50545 0.0336899
1011200 60.0864 196.887 55.755 0.50555 0.0265487
1011400 60.0864 196.9 55.755 0.50565 0.00164346
1011600 60.0864 196.913 55.755 0.50575 0.0010374
1011800 60.0864 196.926 55.755 0.50585 0.0055765
1012000 60.0864 196.939 55.755 0.50595 -0.02619
1012200 60.0864 196.952 55.755 0.50605 0.00863876
1012400 60.0864 196.965 55.755 0.50615 -0.0158697
1012600 60.0864 196.978 55.755 0.50625 -0.0216137
1012800 60.0864 196.991 55.755 0.50635 -0.026465
1013000 60.0864 197.004 55.755 0.50645 -0.00369345
1013200 60.0864 197.017 55.755 0.50655 -0.00505112
1013400 60.0864 197.031 55.755 0.50665 -0.0145055
1013600 60.0864 197.044 55.755 0.50675 0.00643622
1013800 60.0864 197.057 55.755 0.50685 0.0255441
1014000 60.0864 197.07 55.755 0.50695 0.0155794
1014200 60.0864 197.083 55.755 0.50705 0.00343665
1014400 60.0864 197.096 55.755 0.50715 -0.00263658
1014600 60.0864 197.109 55.755 0.50725 0.00239712
1014800 60.0864 197.122 55.755 0.50735 0.0337398
1015000 60.0864 197.135 55.755 0.50745 0.0101075
1015200 60.0864 197.148 55.755 0.50755 0.0236604
1015400 60.0864 197.161 55.755 0.50765 0.0121456
1015600 60.0864 197.174 55.755 0.50775 -0.00328889
1015800 60.0864 197.187 55.755 0.50785 -0.0353791
1016000 60.0864 197.201 55.755 0.50795 -0.00553016
1016200 60.0864 197.214 55.755 0.50805 -0.00931581
1016400 60.0864 197.227 55.755 0.50815 0.0039649
1016600 60.0864 197.24 55.755 0.50825 0.00768888
1016800 60.0864 197.253 55.755 0.50835 0.00010056
1017000 60.0864 197.266 55.755 0.50845 -0.0164445
1017200 60.0864 197.279 55.755 0.50855 -0.0125905
1017400 60.0864 197.292 55.755 0.50865 -0.00456091
1017600 60.0864 197.305 55.755 0.50875 6.04559e-05
1017800 60.0864 197.318 55.755 0.50885 0.0126873
1018000 60.0864 197.331 55.755 0.50895 0.0287029
1018200 60.0864 197.344 55.755 0.50905 0.0228278
1018400 60.0864 197.357 55.755 0.50915 -0.00135937
1018600 60.0864 197.371 55.755 0.50925 -0.00698007
1018800 60.0864 197.384 55.755 0.50935 0.00337441
1019000 60.0864 197.397 55.755 0.50945 0.01377
1019200 60.0864 197.41 55.755 0.50955 0.0135225
1019400 60.0864 197.423 55.755 0.50965 -0.00175001
1019600 60.0864 197.436 55.755 0.50975 -0.00748467
1019800 60.0864 197.449 55.755 0.50985 -0.00711204
1020000 60.0864 197.462 55.755 0.50995 0.00653522
1020200 60.0864 197.475 55.755 0.51005 -0.012046
1020400 60.0864 197.488 55.755 0.51015 -0.00284521
1020600 60.0864 197.501 55.755 0.51025 0.00171504
1020800 60.0864 197.514 55.755 0.51035 0.000419789
1021000 60.0864 197.527 55.755 0.51045 -0.000386734
1021200 60.0864 197.541 55.755 0.51055 -0.000680464
1021400 60.0864 197.554 55.755 0.51065 0.000602592
1021600 60.0864 197.567 55.755 0.51075 -0.00165669
1021800 60.0864 197.58 55.755 0.51085 0.0110962
1022000 60.0864 197.593 55.755 0.51095 0.0129791
1022200 60.0864 197.606 55.755 0.51105 -0.00161064
1022400 60.0864 197.619 55.755 0.51115 0.000634146
1022600 60.0864 197.632 55.755 0.51125 0.00621987
1022800 60.0864 197.645 55.755 0.51135 0.0157655
1023000 60.0864 197.658 55.755 0.51145 0.0131704
1023200 60.0864 197.671 55.755 0.51155 -0.0132921
1023400 60.0864 197.684 55.755 0.51165 0.0281194
1023600 60.0864 197.697 55.755 0.51175 -0.00789496
1023800 60.0864 197.711 55.755 0.51185 -0.00250776
1024000 60.0864 197.724 55.755 0.51195 -0.00784834
1024200 60.0864 197.737 55.755 0.51205 -0.00197727
1024400 60.0864 197.75 55.755 0.51215 -0.00422428
1024600 60.0864 197.763 55.755 0.51225 0.00157438
1024800 60.0864 197.776 55.755 0.51235 0.00254988
1025000 60.0864 197.789 55.755 0.51245 -0.0156415
1025200 60.0864 197.802 55.755 0.51255 0.00600785
1025400 60.0864 197.815 55.755 0.51265 -0.00974868
1025600 60.0864 197.828 55.755 0.51275 0.0112178
1025800 60.0864 197.841 55.755 0.51285 -0.00389917
1026000 60.0864 197.854 55.755 0.51295 0.0152601
1026200 60.0864 197.868 55.755 0.51305 0.00907573
1026400 60.0864 197.881 55.755 0.51315 0.00392855
1026600 60.0864 197.894 55.755 0.51325 0.0103666
1026800 60.0864 197.907 55.755 0.51335 0.00954979
1027000 60.0864 197.92 55.755 0.51345 0.00854491
1027200 60.0864 197.933 55.755 0.51355 0.0247497
1027400 60.0864 197.946 55.755 0.51365 0.00592136
1027600 60.0864 197.959 55.755 0.51375 -0.0165767
1027800 60.0864 197.972 55.755 0.51385 -0.00587392
1028000 60.0864 197.985 55.755 0.51395 -0.00747421
1028200 60.0864 197.998 55.755 0.51405 0.00523403
1028400 60.0864 198.011 55.755 0.51415 -0.00513195
1028600 60.0864 198.024 55.755 0.51425 -0.0138108
1028800 60.0864 198.038 55.755 0.51435 0.00275943
1029000 60.0864 198.051 55.755 0.51445 -0.000992873
1029200 60.0864 198.064 55.755 0.51455 -0.0178097
1029400 60.0864 198.077 55.755 0.51465 0.00206563
1029600 60.0864 198.09 55.755 0.51475 -0.00791408
1029800 60.0864 198.103 55.755 0.51485 0.0236438
1030000 60.0864 198.116 55.755 0.51495 0.0196086
1030200 60.0864 198.129 55.755 0.51505 -0.0128905
1030400 60.0864 198.142 55.755 0.51515 0.00594525
1030600 60.0864 198.155 55.755 0.51525 0.0144096
1030800 60.0864 198.168 55.755 0.51535 -0.00238918
1031000 60.0864 198.181 55.755 0.51545 0.0306484
1031200 60.0864 198.194 55.755 0.51555 0.00888093
1031400 60.0864 198.208 55.755 0.51565 0.0107768
1031600 60.0864 198.221 55.755 0.51575 -0.0114282
1031800 60.0864 198.234 55.755 0.51585 -0.0229379
1032000 60.0864 198.247 55.755 0.51595 0.00681794
1032200 60.0864 198.26 55.755 0.51605 -0.00168488
1032400 60.0864 198.273 55.755 0.51615 0.0171861
1032600 60.0864 198.286 55.755 0.51625 -0.0014666
1032800 60.0864 198.299 55.755 0.51635 -0.0212773
1033000 60.0864 198.312 55.755 0.51645 -0.017058
1033200 60.0864 198.325 55.755 0.51655 0.00537276
1033400 60.0864 198.338 55.755 0.51665 0.00113593
1033600 60.0864 198.351 55.755 0.51675 0.00274367
1033800 60.0864 198.364 55.755 0.51685 0.0289895
1034000 60.0864 198.378 55.755 0.51695 0.00412847
1034200 60.0864 198.391 55.755 0.51705 -0.000466022
1034400 60.0864 198.404 55.755 0.51715 0.0117976
1034600 60.0864 198.417 55.755 0.51725 -0.0107251
1034800 60.0864 198.43 55.755 0.51735 0.00604355
1035000 60.0864 198.443 55.755 0.51745 0.0017039
1035200 60.0864 198.456 55.755 0.51755 -0.00473947
1035400 60.0864 198.469 55.755 0.51765 0.0271151
1035600 60.0864 198.482 55.755 0.51775 -0.00527398
1035800 60.0864 198.495 55.755 0.51785 0.004332
1036000 60.0864 198.508 55.755 0.51795 -0.0137188
1036200 60.0864 198.521 55.755 0.51805 0.00360828
1036400 60.0864 198.534 55.755 0.51815 -0.00422238
1036600 60.0864 198.548 55.755 0.51825 0.0222799
1036800 60.0864 198.561 55.755 0.51835 -0.00510865
1037000 60.0864 198.574 55.755 0.51845 -0.0145924
1037200 60.0864 198.587 55.755 0.51855 -0.00729395
1037400 60.0864 198.6 55.755 0.51865 0.00597849
1037600 60.0864 198.613 55.755 0.51875 0.0137534
1037800 60.0864 198.626 55.755 0.51885 0.00347071
1038000 60.0864 198.639 55.755 0.51895 0.0248162
1038200 60.0864 198.652 55.755 0.51905 -0.00200973
1038400 60.0864 198.665 55.755 0.51915 0.00111111
1038600 60.0864 198.678 55.755 0.51925 0.0188885
1038800 60.0864 198.691 55.755 0.51935 -0.0231271
1039000 60.0864 198.704 55.755 0.51945 -0.00144991
1039200 60.0864 198.718 55.755 0.51955 0.024474
1039400 60.0864 198.731 55.755 0.51965 -0.0105202
1039600 60.0864 198.744 55.755 0.51975 -0.00703258
1039800 60.0864 198.757 55.755 0.51985 -0.00757124
1040000 60.0864 198.77 55.755 0.51995 -0.0106915
1040200 60.0864 198.783 55.755 0.52005 0.00746974
1040400 60.0864 198.796 55.755 0.52015 0.000700486
1040600 60.0864 198.809 55.755 0.52025 0.0202961
1040800 60.0864 198.822 55.755 0.52035 0.0127216
1041000 60.0864 198.835 55.755 0.52045 -0.00275347
1041200 60.0864 198.848 55.755 0.52055 0.0111501
1041400 60.0864 198.861 55.755 0.52065 0.0180496
1041600 60.0864 198.874 55.755 0.52075 -0.00412029
1041800 60.0864 198.888 55.755 0.52085 -0.0107745
1042000 60.0864 198.901 55.755 0.52095 0.00048663
1042200 60.0864 198.914 55.755 0.52105 -0.0100123
1042400 60.0864 198.927 55.755 0.52115 -0.00290714
1042600 60.0864 198.94 55.755 0.52125 0.00410428
1042800 60.0864 198.953 55.755 0.52135 -0.00147554
1043000 60.0864 198.966 55.755 0.52145 -0.00867909
1043200 60.0864 198.979 55.755 0.52155 0.00778416
1043400 60.0864 198.992 55.755 0.52165 0.00927147
1043600 60.0864 199.005 55.755 0.52175 0.000318039
1043800 60.0864 199.018 55.755 0.52185 -0.00217002
1044000 60.0864 199.031 55.755 0.52195 -0.00122757
1044200 60.0864 199.044 55.755 0.52205 0.0175338
1044400 60.0864 199.058 55.755 0.52215 0.0129799
1044600 60.0864 199.071 55.755 0.52225 -0.00583626
1044800 60.0864 199.084 55.755 0.52235 -0.00128876
1045000 60.0864 199.097 55.755 0.52245 0.00217701
1045200 60.0864 199.11 55.755 0.52255 0.0128381
1045400 60.0864 199.123 55.755 0.52265 0.0048273
1045600 60.0864 199.136 55.755 0.52275 0.0166785
1045800 60.0864 199.149 55.755 0.52285 -0.00556786
1046000 60.0864 199.162 55.755 0.52295 0.0084941
1046200 60.0864 199.175 55.755 0.52305 0.000794803
1046400 60.0864 199.188 55.755 0.52315 -0.0059166
1046600 60.0864 199.201 55.755 0.52325 -2.90358e-05
1046800 60.0864 199.214 55.755 0.52335 -0.0117751
1047000 60.0864 199.228 55.755 0.52345 0.00442258
1047200 60.0864 199.241 55.755 0.52355 0.0028496
1047400 60.0864 199.254 55.755 0.52365 0.0118278
1047600 60.0864 199.267 55.755 0.52375 -0.022266
1047800 60.0864 199.28 55.755 0.52385 -0.00925736
1048000 60.0864 199.293 55.755 0.52395 0.000584013
1048200 60.0864 199.306 55.755 0.52405 0.0163763
1048400 60.0864 199.319 55.755 0.52415 0.0171421
1048600 60.0864 199.332 55.755 0.52425 0.00150121
1048800 60.0864 199.345 55.755 0.52435 -0.000348643
1049000 60.0864 199.358 55.755 0.52445 -0.0117888
1049200 60.0864 199.371 55.755 0.52455 0.040144
1049400 60.0864 199.384 55.755 0.52465 -0.00191584
1049600 60.0864 199.398 55.755 0.52475 -0.000250503
1049800 60.0864 199.411 55.755 0.52485 -0.0106355
1050000 60.0864 199.424 55.755 0.52495 0.0152392
1050200 60.0864 199.437 55.755 0.52505 -0.00645511
1050400 60.0864 199.45 55.755 0.52515 -0.00832525
1050600 60.0864 199.463 55.755 0.52525 0.00318336
1050800 60.0864 199.476 55.755 0.52535 -0.0207946
1051000 60.0864 199.489 55.755 0.52545 -0.00427074
1051200 60.0864 199.502 55.755 0.52555 0.0301666
1051400 60.0864 199.515 55.755 0.52565 -0.0201319
1051600 60.0864 199.528 55.755 0.52575 0.0136766
1051800 60.0864 199.541 55.755 0.52585 -0.00309018
1052000 60.0864 199.554 55.755 0.52595 0.0130129
1052200 60.0864 199.568 55.755 0.52605 0.0118554
1052400 60.0864 199.581 55.755 0.52615 0.00533338
1052600 60.0864 199.594 55.755 0.52625 0.00129413
1052800 60.0864 199.607 55.755 0.52635 0.0264225
1053000 60.0864 199.62 55.755 0.52645 -0.00669411
1053200 60.0864 199.633 55.755 0.52655 0.000665335
1053400 60.0864 199.646 55.755 0.52665 -0.00452788
1053600 60.0864 199.659 55.755 0.52675 -0.00628597
1053800 60.0864 199.672 55.755 0.52685 0.0123027
1054000 60.0864 199.685 55.755 0.52695 -0.000244899
1054200 60.0864 199.698 55.755 0.52705 0.00913633
1054400 60.0864 199.711 55.755 0.52715 -0.0136714
1054600 60.0864 199.724 55.755 0.52725 -0.0048599
1054800 60.0864 199.738 55.755 0.52735 0.0105688
1055000 60.0864 199.751 55.755 0.52745 -0.00515234
1055200 60.0864 199.764 55.755 0.52755 0.00164957
1055400 60.0864 199.777 55.755 0.52765 0.0132731
1055600 60.0864 199.79 55.755 0.52775 -0.0220933
1055800 60.0864 199.803 55.755 0.52785 -0.000333825
1056000 60.0864 199.816 55.755 0.52795 0.010021
1056200 60.0864 199.829 55.755 0.52805 0.0101556
1056400 60.0864 199.842 55.755 0.52815 0.00563889
1056600 60.0864 199.855 55.755 0.52825 0.016528
1056800 60.0864 199.868 55.755 0.52835 -0.0149758
1057000 60.0864 199.881 55.755 0.52845 0.0073806
1057200 60.0864 199.895 55.755 0.52855 0.0146648
1057400 60.0864 199.908 55.755 0.52865 0.000256951
1057600 60.0864 199.921 55.755 0.52875 -0.00634076
1057800 60.0864 199.934 55.755 0.52885 0.00784955
1058000 60.0864 199.947 55.755 0.52895 -0.00543069
1058200 60.0864 199.96 55.755 0.52905 0.00378825
1058400 60.0864 199.973 55.755 0.52915 -0.00657085
1058600 60.0864 199.986 55.755 0.52925 0.00167996
1058800 60.0864 199.999 55.755 0.52935 0.000688657
1059000 60.0864 200.012 55.755 0.52945 -0.00278219
1059200 60.0864 200.025 55.755 0.52955 -0.00704093
1059400 60.0864 200.038 55.755 0.52965 0.0120628
1059600 60.0864 200.051 55.755 0.52975 0.000873111
1059800 60.0864 200.065 55.755 0.52985 0.0168059
1060000 60.0864 200.078 55.755 0.52995 -0.000325184
1060200 60.0864 200.091 55.755 0.53005 0.00696816
1060400 60.0864 200.104 55.755 0.53015 -0.013051
1060600 60.0864 200.117 55.755 0.53025 0.0252471
1060800 60.0864 200.13 55.755 0.53035 -0.00424236
1061000 60.0864 200.143 55.755 0.53045 0.0171843
1061200 60.0864 200.156 55.755 0.53055 -0.0103076
1061400 60.0864 200.169 55.755 0.53065 0.0129452
1061600 60.0864 200.182 55.755 0.53075 -0.00797723
1061800 60.0864 200.195 55.755 0.53085 0.008792
1062000 60.0864 200.208 55.755 0.53095 0.00368855
1062200 60.0864 200.221 55.755 0.53105 -0.0220434
1062400 60.0864 200.235 55.755 0.53115 0.0110538
1062600 60.0864 200.248 55.755 0.53125 0.00773645
1062800 60.0864 200.261 55.755 0.53135 -0.00495969
1063000 60.0864 200.274 55.755 0.53145 -0.00751465
1063200 60.0864 200.287 55.755 0.53155 -0.00747513
1063400 60.0864 200.3 55.755 0.53165 -0.000528545
1063600 60.0864 200.313 55.755 0.53175 0.00794894
1063800 60.0864 200.326 55.755 0.53185 0.004035
1064000 60.0864 200.339 55.755 0.53195 0.00944163
1064200 60.0864 200.352 55.755 0.53205 -0.00230777
1064400 60.0864 200.365 55.755 0.53215 0.0125639
1064600 60.0864 200.378 55.755 0.53225 0.00728562
1064800 60.0864 200.391 55.755 0.53235 -0.00188799
1065000 60.0864 200.405 55.755 0.53245 0.024374
1065200 60.0864 200.418 55.755 0.53255 0.0139226
1065400 60.0864 200.431 55.755 0.53265 0.00344061
1065600 60.0864 200.444 55.755 0.53275 -0.0193389
1065800 60.0864 200.457 55.755 0.53285 0.00261549
1066000 60.0864 200.47 55.755 0.53295 -0.000155244
1066200 60.0864 200.483 55.755 0.53305 -0.0153768
1066400 60.0864 200.496 55.755 0.53315 0.00733713
1066600 60.0864 200.509 55.755 0.53325 -0.0176451
1066800 60.0864 200.522 55.755 0.53335 0.0120374
1067000 60.0864 200.535 55.755 0.53345 -0.00943739
1067200 60.0864 200.548 55.755 0.53355 0.0144013
1067400 60.0864 200.561 55.755 0.53365 0.00922442
1067600 60.0864 200.575 55.755 0.53375 0.00977731
1067800 60.0864 200.588 55.755 0.53385 -0.0143278
1068000 60.0864 200.601 55.755 0.53395 0.0190049
1068200 60.0864 200.614 55.755 0.53405 0.00478376
1068400 60.0864 200.627 55.755 0.53415 0.0111564
1068600 60.0864 200.64 55.755 0.53425 -0.0127745
1068800 60.0864 200.653 55.755 0.53435 0.0132109
1069000 60.0864 200.666 55.755 0.53445 0.0136315
1069200 60.0864 200.679 55.755 0.53455 0.0127373
1069400 60.0864 200.692 55.755 0.53465 -0.0113074
1069600 60.0864 200.705 55.755 0.53475 -0.00614024
1069800 60.0864 200.718 55.755 0.53485 -0.00915537
1070000 60.0864 200.731 55.755 0.53495 -0.00941325
1070200 60.0864 200.745 55.755 0.53505 0.0222746
1070400 60.0864 200.758 55.755 0.53515 0.0201737
1070600 60.0864 200.771 55.755 0.53525 -0.0157085
1070800 60.0864 200.784 55.755 0.53535 -0.00781992
1071000 60.0864 200.797 55.755 0.53545 -0.00735283
1071200 60.0864 200.81 55.755 0.53555 0.00835676
1071400 60.0864 200.823 55.755 0.53565 -0.0133716
1071600 60.0864 200.836 55.755 0.53575 -0.000373429
1071800 60.0864 200.849 55.755 0.53585 -0.00277355
1072000 60.0864 200.862 55.755 0.53595 0.00258356
1072200 60.0864 200.875 55.755 0.53605 0.0130089
1072400 60.0864 200.888 55.755 0.53615 -0.00163208
1072600 60.0864 200.901 55.755 0.53625 0.0169782
1072800 60.0864 200.915 55.755 0.53635 -0.000187939
1073000 60.0864 200.928 55.755 0.53645 0.0127877
1073200 60.0864 200.941 55.755 0.53655 0.00614379
1073400 60.0864 200.954 55.755 0.53665 0.0108277
1073600 60.0864 200.967 55.755 0.53675 0.02387
1073800 60.0864 200.98 55.755 0.53685 -0.00646175
1074000 60.0864 200.993 55.755 0.53695 -0.00141711
1074200 60.0864 201.006 55.755 0.53705 -0.00979164
1074400 60.0864 201.019 55.755 0.53715 -0.00108467
1074600 60.0864 201.032 55.755 0.53725 -0.00983128
1074800 60.0864 201.045 55.755 0.53735 0.0188954
1075000 60.0864 201.058 55.755 0.53745 -0.0198373
1075200 60.0864 201.071 55.755 0.53755 0.0103972
1075400 60.0864 201.085 55.755 0.53765 -0.0156485
1075600 60.0864 201.098 55.755 0.53775 0.00454395
1075800 60.0864 201.111 55.755 0.53785 -0.0149328
1076000 60.0864 201.124 55.755 0.53795 0.0118629
1076200 60.0864 201.137 55.755 0.53805 0.0264323
1076400 60.0864 201.15 55.755 0.53815 -0.0030231
1076600 60.0864 201.163 55.755 0.53825 -0.00645967
1076800 60.0864 201.176 55.755 0.53835 0.000551164
1077000 60.0864 201.189 55.755 0.53845 0.00544194
1077200 60.0864 201.202 55.755 0.53855 0.0137248
1077400 60.0864 201.215 55.755 0.53865 0.0115391
1077600 60.0864 201.228 55.755 0.53875 0.0334432
1077800 60.0864 201.241 55.755 0.53885 0.00968635
1078000 60.0864 201.255 55.755 0.53895 -0.0163672
1078200 60.0864 201.268 55.755 0.53905 0.00215971
1078400 60.0864 201.281 55.755 0.53915 -0.0162615
1078600 60.0864 201.294 55.755 0.53925 -0.00161132
1078800 60.0864 201.307 55.755 0.53935 0.00672305
1079000 60.0864 201.32 55.755 0.53945 -0.00759788
1079200 60.0864 201.333 55.755 0.53955 0.00144536
1079400 60.0864 201.346 55.755 0.53965 -0.0166206
1079600 60.0864 201.359 55.755 0.53975 -0.00580078
1079800 60.0864 201.372 55.755 0.53985 0.000223966
1080000 60.0864 201.385 55.755 0.53995 0.00682192
1080200 60.0864 201.398 55.755 0.54005 0.0105838
1080400 60.0864 201.411 55.755 0.54015 0.00681159
1080600 60.0864 201.425 55.755 0.54025 0.0118143
1080800 60.0864 201.438 55.755 0.54035 0.0165211
1081000 60.0864 201.451 55.755 0.54045 -0.00331702
1081200 60.0864 201.464 55.755 0.54055 0.00831387
1081400 60.0864 201.477 55.755 0.54065 0.0107651
1081600 60.0864 201.49 55.755 0.54075 0.00461196
1081800 60.0864 201.503 55.755 0.54085 0.00218645
1082000 60.0864 201.516 55.755 0.54095 -0.00444733
1082200 60.0864 201.529 55.755 0.54105 -0.00972707
1082400 60.0864 201.542 55.755 0.54115 0.0116999
1082600 60.0864 201.555 55.755 0.54125 -0.00148654
1082800 60.0864 201.568 55.755 0.54135 -0.0224529
1083000 60.0864 201.581 55.755 0.54145 0.00115208
1083200 60.0864 201.595 55.755 0.54155 0.00724201
1083400 60.0864 201.608 55.755 0.54165 -0.000341624
1083600 60.0864 201.621 55.755 0.54175 0.00728048
1083800 60.0864 201.634 55.755 0.54185 -0.000141444
1084000 60.0864 201.647 55.755 0.54195 -0.00396885
1084200 60.0864 201.66 55.755 0.54205 0.000787631
1084400 60.0864 201.673 55.755 0.54215 0.00402104
1084600 60.0864 201.686 55.755 0.54225 0.00893565
1084800 60.0864 201.699 55.755 0.54235 -0.00249849
1085000 60.0864 201.712 55.755 0.54245 0.0222343
1085200 60.0864 201.725 55.755 0.54255 -0.00151181
1085400 60.0864 201.738 55.755 0.54265 0.0147597
1085600 60.0864 201.751 55.755 0.54275 0.0052309
1085800 60.0864 201.765 55.755 0.54285 -0.00427828
1086000 60.0864 201.778 55.755 0.54295 0.00941241
1086200 60.0864 201.791 55.755 0.54305 0.00674497
1086400 60.0864 201.804 55.755 0.54315 -0.00469871
1086600 60.0864 201.817 55.755 0.54325 -0.00131111
1086800 60.0864 201.83 55.755 0.54335 -0.0013985
1087000 60.0864 201.843 55.755 0.54345 -0.00432119
1087200 60.0864 201.856 55.755 0.54355 -0.0144141
1087400 60.0864 201.869 55.755 0.54365 -0.00588815
1087600 60.0864 201.882 55.755 0.54375 0.0105614
1087800 60.0864 201.895 55.755 0.54385 0.00259338
1088000 60.0864 201.908 55.755 0.54395 0.00433477
1088200 60.0864 201.921 55.755 0.54405 0.0174749
1088400 60.0864 201.935 55.755 0.54415 0.00129387
1088600 60.0864 201.948 55.755 0.54425 -0.0107186
1088800 60.0864 201.961 55.755 0.54435 0.033152
1089000 60.0864 201.974 55.755 0.54445 0.0026469
1089200 60.0864 201.987 55.755 0.54455 -0.00121332
1089400 60.0864 202 55.755 0.54465 0.0126687
1089600 60.0864 202.013 55.755 0.54475 -0.00622153
1089800 60.0864 202.026 55.755 0.54485 0.0134782
1090000 60.0864 202.039 55.755 0.54495 0.00399536
1090200 60.0864 202.052 55.755 0.54505 -0.0178869
1090400 60.0864 202.065 55.755 0.54515 0.00810371
1090600 60.0864 202.078 55.755 0.54525 -0.0146184
1090800 60.0864 202.092 55.755 0.54535 -0.00515675
1091000 60.0864 202.105 55.755 0.54545 -0.00645847
1091200 60.0864 202.118 55.755 0.54555 0.00141921
1091400 60.0864 202.131 55.755 0.54565 0.00301093
1091600 60.0864 202.144 55.755 0.54575 -0.0020099
1091800 60.0864 202.157 55.755 0.54585 0.0163623
1092000 60.0864 202.17 55.755 0.54595 0.00731856
1092200 60.0864 202.183 55.755 0.54605 -0.00107992
1092400 60.0864 202.196 55.755 0.54615 -0.00718632
1092600 60.0864 202.209 55.755 0.54625 0.0291778
1092800 60.0864 202.222 55.755 0.54635 0.011411
1093000 60.0864 202.235 55.755 0.54645 0.0122599
1093200 60.0864 202.248 55.755 0.54655 0.00670583
1093400 60.0864 202.262 55.755 0.54665 -0.0026695
1093600 60.0864 202.275 55.755 0.54675 -0.0035183
1093800 60.0864 202.288 55.755 0.54685 -0.00416537
1094000 60.0864 202.301 55.755 0.54695 -0.00639663
1094200 60.0864 202.314 55.755 0.54705 0.00307482
1094400 60.0864 202.327 55.755 0.54715 -0.000160134
1094600 60.0864 202.34 55.755 0.54725 -0.0212261
1094800 60.0864 202.353 55.755 0.54735 0.000469559
1095000 60.0864 202.366 55.755 0.54745 0.00398496
1095200 60.0864 202.379 55.755 0.54755 0.000808174
1095400 60.0864 202.392 55.755 0.54765 -0.000371091
1095600 60.0864 202.405 55.755 0.54775 -0.0061598
1095800 60.0864 202.418 55.755 0.54785 0.0197868
1096000 60.0864 202.432 55.755 0.54795 0.00262961
1096200 60.0864 202.445 55.755 0.54805 0.0139311
1096400 60.0864 202.458 55.755 0.54815 0.00818486
1096600 60.0864 202.471 55.755 0.54825 0.0148525
1096800 60.0864 202.484 55.755 0.54835 0.0182429
1097000 60.0864 202.497 55.755 0.54845 0.0176385
1097200 60.0864 202.51 55.755 0.54855 -0.0142913
1097400 60.0864 202.523 55.755 0.54865 0.0108252
1097600 60.0864 202.536 55.755 0.54875 -0.0053418
1097800 60.0864 202.549 55.755 0.54885 0.00593167
1098000 60.0864 202.562 55.755 0.54895 0.000393225
1098200 60.0864 202.575 55.755 0.54905 -0.0166506
1098400 60.0864 202.588 55.755 0.54915 -0.00821239
1098600 60.0864 202.602 55.755 0.54925 -0.00432075
1098800 60.0864 202.615 55.755 0.54935 -0.016493
1099000 60.0864 202.628 55.755 0.54945 0.000627472
1099200 60.0864 202.641 55.755 0.54955 -0.00140976
1099400 60.0864 202.654 55.755 0.54965 0.00569784
1099600 60.0864 202.667 55.755 0.54975 -0.00694314
1099800 60.0864 202.68 55.755 0.54985 -0.0134596
1100000 60.0864 202.693 55.755 0.54995 0.0192942
1100200 60.0864 202.706 55.755 0.55005 0.0224494
1100400 60.0864 202.719 55.755 0.55015 0.0103678
1100600 60.0864 202.732 55.755 0.55025 0.014715
1100800 60.0864 202.745 55.755 0.55035 0.0176211
1101000 60.0864 202.758 55.755 0.55045 0.00631853
1101200 60.0864 202.772 55.755 0.55055 0.00880635
1101400 60.0864 202.785 55.755 0.55065 -0.000308168
1101600 60.0864 202.798 55.755 0.55075 0.0232799
1101800 60.0864 202.811 55.755 0.55085 -0.00333356
1102000 60.0864 202.824 55.755 0.55095 0.00970336
1102200 60.0864 202.837 55.755 0.55105 -0.0108288
1102400 60.0864 202.85 55.755 0.55115 -0.0163502
1102600 60.0864 202.863 55.755 0.55125 -0.00294017
1102800 60.0864 202.876 55.755 0.55135 -0.00260019
1103000 60.0864 202.889 55.755 0.55145 -0.0244611
1103200 60.0864 202.902 55.755 0.55155 -0.00544114
1103400 60.0864 202.915 55.755 0.55165 0.00903971
1103600 60.0864 202.928 55.755 0.55175 -0.0147504
1103800 60.0864 202.942 55.755 0.55185 -0.0052254
1104000 60.0864 202.955 55.755 0.55195 0.00286767
1104200 60.0864 202.968 55.755 0.55205 0.0182551
1104400 60.0864 202.981 55.755 0.55215 0.0116194
1104600 60.0864 202.994 55.755 0.55225 0.0201591
1104800 60.0864 203.007 55.755 0.55235 0.0166427
1105000 60.0864 203.02 55.755 0.55245 0.018827
1105200 60.0864 203.033 55.755 0.55255 -0.00558852
1105400 60.0864 203.046 55.755 0.55265 0.00419363
1105600 60.0864 203.059 55.755 0.55275 0.0178636
1105800 60.0864 203.072 55.755 0.55285 -0.0012269
1106000 60.0864 203.085 55.755 0.55295 0.0112034
1106200 60.0864 203.098 55.755 0.55305 -0.00581661
1106400 60.0864 203.112 55.755 0.55315 0.00500121
1106600 60.0864 203.125 55.755 0.55325 -0.0297121
1106800 60.0864 203.138 55.755 0.55335 -0.00258359
1107000 60.0864 203.151 55.755 0.55345 0.00263029
1107200 60.0864 203.164 55.755 0.55355 -0.017513
1107400 60.0864 203.177 55.755 0.55365 0.00782386
1107600 60.0864 203.19 55.755 0.55375 -0.00973897
1107800 60.0864 203.203 55.755 0.55385 -0.00706468
1108000 60.0864 203.216 55.755 0.55395 0.00264243
1108200 60.0864 203.229 55.755 0.55405 -0.0223813
1108400 60.0864 203.242 55.755 0.55415 0.0402595
1108600 60.0864 203.255 55.755 0.55425 0.0141102
1108800 60.0864 203.268 55.755 0.55435 0.0157035
1109000 60.0864 203.282 55.755 0.55445 0.0100259
1109200 60.0864 203.295 55.755 0.55455 0.0105019
1109400 60.0864 203.308 55.755 0.55465 0.0186444
1109600 60.0864 203.321 55.755 0.55475 0.0184222
1109800 60.0864 203.334 55.755 0.55485 0.00550839
1110000 60.0864 203.347 55.755 0.55495 -0.00419513
1110200 60.0864 203.36 55.755 0.55505 0.0119898
1110400 60.0864 203.373 55.755 0.55515 -0.0106186
1110600 60.0864 203.386 55.755 0.55525 -0.0183604
1110800 60.0864 203.399 55.755 0.55535 -0.0318044
1111000 60.0864 203.412 55.755 0.55545 0.00643696
1111200 60.0864 203.425 55.755 0.55555 -0.00128631
1111400 60.0864 203.438 55.755 0.55565 -0.00144114
1111600 60.0864 203.452 55.755 0.55575 -0.025078
1111800 60.0864 203.465 55.755 0.55585 0.00421265
1112000 60.0864 203.478 55.755 0.55595 0.00324108
1112200 60.0864 203.491 55.755 0.55605 0.000212544
1112400 60.0864 203.504 55.755 0.55615 0.0168094
1112600 60.0864 203.517 55.755 0.55625 0.00493044
1112800 60.0864 203.53 55.755 0.55635 0.0238961
1113000 60.0864 203.543 55.755 0.55645 0.0106593
1113200 60.0864 203.556 55.755 0.55655 0.0250167
1113400 60.0864 203.569 55.755 0.55665 0.0114396
1113600 60.0864 203.582 55.755 0.55675 -0.00153408
1113800 60.0864 203.595 55.755 0.55685 0.0224
1114000 60.0864 203.608 55.755 0.55695 0.00505378
1114200 60.0864 203.622 55.755 0.55705 -5.6265e-05
1114400 60.0864 203.635 55.755 0.55715 -0.013316
1114600 60.0864 203.648 55.755 0.55725 -0.0109174
1114800 60.0864 203.661 55.755 0.55735 -0.0155721
1115000 60.0864 203.674 55.755 0.55745 -0.0163563
1115200 60.0864 203.687 55.755 0.55755 -0.0113471
1115400 60.0864 203.7 55.755 0.55765 0.00507206
1115600 60.0864 203.713 55.755 0.55775 0.00513089
1115800 60.0864 203.726 55.755 0.55785 0.0098737
1116000 60.0864 203.739 55.755 0.55795 -0.0173243
1116200 60.0864 203.752 55.755 0.55805 0.0106059
1116400 60.0864 203.765 55.755 0.55815 0.00272783
1116600 60.0864 203.778 55.755 0.55825 0.0136094
1116800 60.0864 203.792 55.755 0.55835 0.0107676
1117000 60.0864 203.805 55.755 0.55845 0.0155681
1117200 60.0864 203.818 55.755 0.55855 0.024194
1117400 60.0864 203.831 55.755 0.55865 0.0199545
1117600 60.0864 203.844 55.755 0.55875 0.0083143
1117800 60.0864 203.857 55.755 0.55885 -0.00344561
1118000 60.0864 203.87 55.755 0.55895 -0.00707617
1118200 60.0864 203.883 55.755 0.55905 0.00589438
1118400 60.0864 203.896 55.755 0.55915 -0.00520198
1118600 60.0864 203.909 55.755 0.55925 -0.0098516
1118800 60.0864 203.922 55.755 0.55935 -0.0202894
1119000 60.0864 203.935 55.755 0.55945 -0.000433894
1119200 60.0864 203.948 55.755 0.55955 -0.0245558
1119400 60.0864 203.962 55.755 0.55965 -0.000835789
1119600 60.0864 203.975 55.755 0.55975 -0.000117667
1119800 60.0864 203.988 55.755 0.55985 3.83344e-05
1120000 60.0864 204.001 55.755 0.55995 0.000301614
1120200 60.0864 204.014 55.755 0.56005 0.0241781
1120400 60.0864 204.027 55.755 0.56015 -0.000322581
1120600 60.0864 204.04 55.755 0.56025 0.0250258
1120800 60.0864 204.053 55.755 0.56035 0.0259507
1121000 60.0864 204.066 55.755 0.56045 0.0206606
1121200 60.0864 204.079 55.755 0.56055 0.0101878
1121400 60.0864 204.092 55.755 0.56065 0.000139741
1121600 60.0864 204.105 55.755 0.56075 0.0036573
1121800 60.0864 204.118 55.755 0.56085 0.00631248
1122000 60.0864 204.132 55.755 0.56095 0.0024462
1122200 60.0864 204.145 55.755 0.56105 -0.00816841
1122400 60.0864 204.158 55.755 0.56115 -0.0112844
1122600 60.0864 204.171 55.755 0.56125 -0.0168882
1122800 60.0864 204.184 55.755 0.56135 -0.00783378
1123000 60.0864 204.197 55.755 0.56145 -0.0204523
1123200 60.0864 204.21 55.755 0.56155 -0.0123611
1123400 60.0864 204.223 55.755 0.56165 0.00227373
1123600 60.0864 204.236 55.755 0.56175 0.000184695
1123800 60.0864 204.249 55.755 0.56185 0.0159048
1124000 60.0864 204.262 55.755 0.56195 -0.004043
1124200 60.0864 204.275 55.755 0.56205 0.0132641
1124400 60.0864 204.289 55.755 0.56215 0.0216168
1124600 60.0864 204.302 55.755 0.56225 0.0176594
1124800 60.0864 204.315 55.755 0.56235 0.0073661
1125000 60.0864 204.328 55.755 0.56245 0.015905
1125200 60.0864 204.341 55.755 0.56255 0.0115562
1125400 60.0864 204.354 55.755 0.56265 0.0225371
1125600 60.0864 204.367 55.755 0.56275 0.00118074
1125800 60.0864 204.38 55.755 0.56285 -0.00630947
1126000 60.0864 204.393 55.755 0.56295 0.00167278
1126200 60.0864 204.406 55.755 0.56305 -0.00356017
1126400 60.0864 204.419 55.755 0.56315 -0.0110622
1126600 60.0864 204.432 55.755 0.56325 -0.0137102
1126800 60.0864 204.445 55.755 0.56335 -0.0204826
1127000 60.0864 204.459 55.755 0.56345 -0.00317682
1127200 60.0864 204.472 55.755 0.56355 -0.00968756
1127400 60.0864 204.485 55.755 0.56365 0.000357458
1127600 60.0864 204.498 55.755 0.56375 -0.0107318
1127800 60.0864 204.511 55.755 0.56385 -0.0129864
1128000 60.0864 204.524 55.755 0.56395 0.0216272
1128200 60.0864 204.537 55.755 0.56405 0.0104118
1128400 60.0864 204.55 55.755 0.56415 0.0151928
1128600 60.0864 204.563 55.755 0.56425 0.0236251
1128800 60.0864 204.576 55.755 0.56435 0.0256047
1129000 60.0864 204.589 55.755 0.56445 0.0112223
1129200 60.0864 204.602 55.755 0.56455 0.021243
1129400 60.0864 204.615 55.755 0.56465 0.000515438
1129600 60.0864 204.629 55.755 0.56475 0.0122967
1129800 60.0864 204.642 55.755 0.56485 -0.00187525
1130000 60.0864 204.655 55.755 0.56495 -0.0041041
1130200 60.0864 204.668 55.755 0.56505 -0.0015565
1130400 60.0864 204.681 55.755 0.56515 -0.0199273
1130600 60.0864 204.694 55.755 0.56525 -0.00641921
1130800 60.0864 204.707 55.755 0.56535 0.00130658
1131000 60.0864 204.72 55.755 0.56545 -0.013878
1131200 60.0864 204.733 55.755 0.56555 -0.0211246
1131400 60.0864 204.746 55.755 0.56565 0.00111532
1131600 60.0864 204.759 55.755 0.56575 -0.0158782
1131800 60.0864 204.772 55.755 0.56585 -0.00724081
1132000 60.0864 204.785 55.755 0.56595 0.0092077
1132200 60.0864 204.799 55.755 0.56605 0.00420042
1132400 60.0864 204.812 55.755 0.56615 0.019816
1132600 60.0864 204.825 55.755 0.56625 0.00196177
1132800 60.0864 204.838 55.755 0.56635 0.0189595
1133000 60.0864 204.851 55.755 0.56645 0.0174128
1133200 60.0864 204.864 55.755 0.56655 0.0174251
1133400 60.0864 204.877 55.755 0.56665 0.0121416
1133600 60.0864 204.89 55.755 0.56675 0.0213771
1133800 60.0864 204.903 55.755 0.56685 0.0181942
1134000 60.0864 204.916 55.755 0.56695 -0.00266106
1134200 60.0864 204.929 55.755 0.56705 0.00211581
1134400 60.0864 204.942 55.755 0.56715 -0.00168219
1134600 60.0864 204.955 55.755 0.56725 -0.0124694
1134800 60.0864 204.969 55.755 0.56735 -0.0191061
1135000 60.0864 204.982 55.755 0.56745 -0.0132422
1135200 60.0864 204.995 55.755 0.56755 -0.0081074
1135400 60.0864 205.008 55.755 0.56765 -0.0116899
1135600 60.0864 205.021 55.755 0.56775 -0.0299778
1135800 60.0864 205.034 55.755 0.56785 0.00029835
1136000 60.0864 205.047 55.755 0.56795 -0.0133578
1136200 60.0864 205.06 55.755 0.56805 0.0296287
1136400 60.0864 205.073 55.755 0.56815 0.0166244
1136600 60.0864 205.086 55.755 0.56825 0.0240462
1136800 60.0864 205.099 55.755 0.56835 0.0151857
1137000 60.0864 205.112 55.755 0.56845 0.0226929
1137200 60.0864 205.125 55.755 0.56855 0.0158918
1137400 60.0864 205.139 55.755 0.56865 0.0300553
1137600 60.0864 205.152 55.755 0.56875 0.00101217
1137800 60.0864 205.165 55.755 0.56885 0.00980183
1138000 60.0864 205.178 55.755 0.56895 -0.00574076
1138200 60.0864 205.191 55.755 0.56905 0.00881544
1138400 60.0864 205.204 55.755 0.56915 -0.0140541
1138600 60.0864 205.217 55.755 0.56925 -0.0131013
1138800 60.0864 205.23 55.755 0.56935 -0.0119106
1139000 60.0864 205.243 55.755 0.56945 -0.023805
1139200 60.0864 205.256 55.755 0.56955 -0.00920735
1139400 60.0864 205.269 55.755 0.56965 -0.0275
1139600 60.0864 205.282 55.755 0.56975 -0.0106311
1139800 60.0864 205.295 55.755 0.56985 -0.00588935
1140000 60.0864 205.309 55.755 0.56995 0.00414488
1140200 60.0864 205.322 55.755 0.57005 0.0147383
1140400 60.0864 205.335 55.755 0.57015 0.0128189
1140600 60.0864 205.348 55.755 0.57025 0.0125208
1140800 60.0864 205.361 55.755 0.57035 0.0329468
1141000 60.0864 205.374 55.755 0.57045 0.0317741
1141200 60.0864 205.387 55.755 0.57055 0.0161917
1141400 60.0864 205.4 55.755 0.57065 0.0346273
1141600 60.0864 205.413 55.755 0.57075 0.0224639
1141800 60.0864 205.426 55.755 0.57085 0.00406075
1142000 60.0864 205.439 55.755 0.57095 -0.0108961
1142200 60.0864 205.452 55.755 0.57105 -0.0236758
1142400 60.0864 205.465 55.755 0.57115 -0.00862947
1142600 60.0864 205.479 55.755 0.57125 -0.00853752
1142800 60.0864 205.492 55.755 0.57135 -0.0213912
1143000 60.0864 205.505 55.755 0.57145 -0.011037
1143200 60.0864 205.518 55.755 0.57155 -0.0334025
1143400 60.0864 205.531 55.755 0.57165 -0.00339769
1143600 60.0864 205.544 55.755 0.57175 -0.0195071
1143800 60.0864 205.557 55.755 0.57185 -0.00300228
1144000 60.0864 205.57 55.755 0.57195 0.00682382
1144200 60.0864 205.583 55.755 0.57205 0.0250334
1144400 60.0864 205.596 55.755 0.57215 0.00142823
1144600 60.0864 205.609 55.755 0.57225 0.0292516
1144800 60.0864 205.622 55.755 0.57235 0.00456552
1145000 60.0864 205.635 55.755 0.57245 0.0268767
1145200 60.0864 205.649 55.755 0.57255 0.0318437
1145400 60.0864 205.662 55.755 0.57265 0.0423295
1145600 60.0864 205.675 55.755 0.57275 0.0181137
1145800 60.0864 205.688 55.755 0.57285 -0.000206762
1146000 60.0864 205.701 55.755 0.57295 -0.00095506
1146200 60.0864 205.714 55.755 0.57305 0.00178022
1146400 60.0864 205.727 55.755 0.57315 -0.00734975
1146600 60.0864 205.74 55.755 0.57325 -0.023443
1146800 60.0864 205.753 55.755 0.57335 -0.0128451
1147000 60.0864 205.766 55.755 0.57345 -0.0103684
1147200 60.0864 205.779 55.755 0.57355 -0.048308
1147400 60.0864 205.792 55.755 0.57365 -0.0199499
1147600 60.0864 205.805 55.755 0.57375 -0.00384365
1147800 60.0864 205.819 55.755 0.57385 -0.0100146
1148000 60.0864 205.832 55.755 0.57395 -0.0116692
1148200 60.0864 205.845 55.755 0.57405 0.0107752
1148400 60.0864 205.858 55.755 0.57415 0.0240943
1148600 60.0864 205.871 55.755 0.57425 0.00483321
1148800 60.0864 205.884 55.755 0.57435 0.03867
1149000 60.0864 205.897 55.755 0.57445 0.0249512
1149200 60.0864 205.91 55.755 0.57455 0.0264381
1149400 60.0864 205.923 55.755 0.57465 0.0402204
1149600 60.0864 205.936 55.755 0.57475 0.0257796
1149800 60.0864 205.949 55.755 0.57485 0.0021013
1150000 60.0864 205.962 55.755 0.57495 -0.00213441
1150200 60.0864 205.975 55.755 0.57505 -0.0137813
1150400 60.0864 205.989 55.755 0.57515 -0.0118022
1150600 60.0864 206.002 55.755 0.57525 -0.0193361
1150800 60.0864 206.015 55.755 0.57535 -0.0112038
1151000 60.0864 206.028 55.755 0.57545 -0.0132405
1151200 60.0864 206.041 55.755 0.57555 -0.0278655
1151400 60.0864 206.054 55.755 0.57565 -0.0207093
1151600 60.0864 206.067 55.755 0.57575 -0.00191634
1151800 60.0864 206.08 55.755 0.57585 -0.0254608
1152000 60.0864 206.093 55.755 0.57595 0.0243781
1152200 60.0864 206.106 55.755 0.57605 0.013905
1152400 60.0864 206.119 55.755 0.57615 0.00423127
1152600 60.0864 206.132 55.755 0.57625 0.0151866
1152800 60.0864 206.145 55.755 0.57635 0.00533661
1153000 60.0864 206.159 55.755 0.57645 0.0324395
1153200 60.0864 206.172 55.755 0.57655 0.0375266
1153400 60.0864 206.185 55.755 0.57665 0.0235689
1153600 60.0864 206.198 55.755 0.57675 0.0235894
1153800 60.0864 206.211 55.755 0.57685 0.0115979
1154000 60.0864 206.224 55.755 0.57695 0.000728399
1154200 60.0864 206.237 55.755 0.57705 -0.0021581
1154400 60.0864 206.25 55.755 0.57715 -0.0190562
1154600 60.0864 206.263 55.755 0.57725 -0.0104246
1154800 60.0864 206.276 55.755 0.57735 -0.0187283
1155000 60.0864 206.289 55.755 0.57745 -0.0147507
1155200 60.0864 206.302 55.755 0.57755 -0.024851
1155400 60.0864 206.316 55.755 0.57765 -0.00853421
1155600 60.0864 206.329 55.755 0.57775 -0.0271935
1155800 60.0864 206.342 55.755 0.57785 -0.0261981
1156000 60.0864 206.355 55.755 0.57795 0.00761887
1156200 60.0864 206.368 55.755 0.57805 0.0245236
1156400 60.0864 206.381 55.755 0.57815 0.00289292
1156600 60.0864 206.394 55.755 0.57825 0.0376003
1156800 60.0864 206.407 55.755 0.57835 0.0250342
1157000 60.0864 206.42 55.755 0.57845 0.0374867
1157200 60.0864 206.433 55.755 0.57855 0.00118543
1157400 60.0864 206.446 55.755 0.57865 0.0310756
1157600 60.0864 206.459 55.755 0.57875 0.0193566
1157800 60.0864 206.472 55.755 0.57885 0.00445806
1158000 60.0864 206.486 55.755 0.57895 0.0126439
1158200 60.0864 206.499 55.755 0.57905 0.00525943
1158400 60.0864 206.512 55.755 0.57915 -0.0332551
1158600 60.0864 206.525 55.755 0.57925 -0.00644453
1158800 60.0864 206.538 55.755 0.57935 -0.00192795
1159000 60.0864 206.551 55.755 0.57945 -0.0320456
1159200 60.0864 206.564 55.755 0.57955 -0.00223586
1159400 60.0864 206.577 55.755 0.57965 -0.0314185
1159600 60.0864 206.59 55.755 0.57975 -0.00862044
1159800 60.0864 206.603 55.755 0.57985 -0.0274397
1160000 60.0864 206.616 55.755 0.57995 -0.00687832
1160200 60.0864 206.629 55.755 0.58005 7.64615e-05
1160400 60.0864 206.642 55.755 0.58015 0.0290615
1160600 60.0864 206.656 55.755 0.58025 0.0220688
1160800 60.0864 206.669 55.755 0.58035 0.0390475
1161000 60.0864 206.682 55.755 0.58045 0.0405491
1161200 60.0864 206.695 55.755 0.58055 0.00859703
1161400 60.0864 206.708 55.755 0.58065 0.00196006
1161600 60.0864 206.721 55.755 0.58075 0.0106172
1161800 60.0864 206.734 55.755 0.58085 0.0223429
1162000 60.0864 206.747 55.755 0.58095 0.0338378
1162200 60.0864 206.76 55.755 0.58105 -0.00238386
1162400 60.0864 206.773 55.755 0.58115 -0.00952469
1162600 60.0864 206.786 55.755 0.58125 -0.0267862
1162800 60.0864 206.799 55.755 0.58135 -0.039811
1163000 60.0864 206.812 55.755 0.58145 -0.0258962
1163200 60.0864 206.826 55.755 0.58155 -0.00377046
1163400 60.0864 206.839 55.755 0.58165 0.00282383
1163600 60.0864 206.852 55.755 0.58175 -0.00420855
1163800 60.0864 206.865 55.755 0.58185 -0.0228646
1164000 60.0864 206.878 55.755 0.58195 -0.00628405
1164200 60.0864 206.891 55.755 0.58205 -0.00941211
1164400 60.0864 206.904 55.755 0.58215 0.0229326
1164600 60.0864 206.917 55.755 0.58225 0.0326321
1164800 60.0864 206.93 55.755 0.58235 0.0271556
1165000 60.0864 206.943 55.755 0.58245 0.0385088
1165200 60.0864 206.956 55.755 0.58255 0.0160986
1165400 60.0864 206.969 55.755 0.58265 0.0125494
1165600 60.0864 206.982 55.755 0.58275 0.00359927
1165800 60.0864 206.996 55.755 0.58285 0.00985306
1166000 60.0864 207.009 55.755 0.58295 0.00526774
1166200 60.0864 207.022 55.755 0.58305 0.00480689
1166400 60.0864 207.035 55.755 0.58315 -0.00298464
1166600 60.0864 207.048 55.755 0.58325 -0.0054189
1166800 60.0864 207.061 55.755 0.58335 -0.0402385
1167000 60.0864 207.074 55.755 0.58345 -0.0212444
1167200 60.0864 207.087 55.755 0.58355 -0.00298382
1167400 60.0864 207.1 55.755 0.58365 0.00119747
1167600 60.0864 207.113 55.755 0.58375 -0.000634555
1167800 60.0864 207.126 55.755 0.58385 -0.0219141
1168000 60.0864 207.139 55.755 0.58395 -0.00154409
1168200 60.0864 207.152 55.755 0.58405 -0.00823892
1168400 60.0864 207.166 55.755 0.58415 0.00756018
1168600 60.0864 207.179 55.755 0.58425 0.0129187
1168800 60.0864 207.192 55.755 0.58435 0.0454503
1169000 60.0864 207.205 55.755 0.58445 0.00722733
1169200 60.0864 207.218 55.755 0.58455 0.0417164
1169400 60.0864 207.231 55.755 0.58465 0.00370226
1169600 60.0864 207.244 55.755 0.58475 0.0237572
1169800 60.0864 207.257 55.755 0.58485 -0.00594554
1170000 60.0864 207.27 55.755 0.58495 0.0232089
1170200 60.0864 207.283 55.755 0.58505 0.0226601
1170400 60.0864 207.296 55.755 0.58515 -0.00921339
1170600 60.0864 207.309 55.755 0.58525 -0.0131157
1170800 60.0864 207.322 55.755 0.58535 -0.0317385
1171000 60.0864 207.336 55.755 0.58545 -0.0216862
1171200 60.0864 207.349 55.755 0.58555 -0.0143515
1171400 60.0864 207.362 55.755 0.58565 -0.0199996
1171600 60.0864 207.375 55.755 0.58575 -0.0185917
1171800 60.0864 207.388 55.755 0.58585 -0.00811135
1172000 60.0864 207.401 55.755 0.58595 -0.00882519
1172200 60.0864 207.414 55.755 0.58605 0.0101132
1172400 60.0864 207.427 55.755 0.58615 0.00912957
1172600 60.0864 207.44 55.755 0.58625 0.00767342
1172800 60.0864 207.453 55.755 0.58635 0.0528446
1173000 60.0864 207.466 55.755 0.58645 0.0214047
1173200 60.0864 207.479 55.755 0.58655 0.0344397
1173400 60.0864 207.492 55.755 0.58665 0.037161
1173600 60.0864 207.506 55.755 0.58675 0.00819411
1173800 60.0864 207.519 55.755 0.58685 0.0134368
1174000 60.0864 207.532 55.755 0.58695 0.00936817
1174200 60.0864 207.545 55.755 0.58705 0.0139419
1174400 60.0864 207.558 55.755 0.58715 -0.00478254
1174600 60.0864 207.571 55.755 0.58725 -0.0211361
1174800 60.0864 207.584 55.755 0.58735 -0.025514
1175000 60.0864 207.597 55.755 0.58745 -0.0505129
1175200 60.0864 207.61 55.755 0.58755 -0.0241955
1175400 60.0864 207.623 55.755 0.58765 -0.00712881
1175600 60.0864 207.636 55.755 0.58775 -0.0317679
1175800 60.0864 207.649 55.755 0.58785 -0.012362
1176000 60.0864 207.662 55.755 0.58795 0.0123391
1176200 60.0864 207.676 55.755 0.58805 -0.00473332
1176400 60.0864 207.689 55.755 0.58815 0.0059885
1176600 60.0864 207.702 55.755 0.58825 0.0187926
1176800 60.0864 207.715 55.755 0.58835 0.0366918
1177000 60.0864 207.728 55.755 0.58845 0.037094
1177200 60.0864 207.741 55.755 0.58855 0.0219698
1177400 60.0864 207.754 55.755 0.58865 0.0206509
1177600 60.0864 207.767 55.755 0.58875 0.0289394
1177800 60.0864 207.78 55.755 0.58885 0.0249446
1178000 60.0864 207.793 55.755 0.58895 0.00361112
1178200 60.0864 207.806 55.755 0.58905 0.0140098
1178400 60.0864 207.819 55.755 0.58915 -0.0041034
1178600 60.0864 207.832 55.755 0.58925 -0.0324187
1178800 60.0864 207.846 55.755 0.58935 -0.0171976
1179000 60.0864 207.859 55.755 0.58945 -0.0192654
1179200 60.0864 207.872 55.755 0.58955 -0.0270691
1179400 60.0864 207.885 55.755 0.58965 -0.0195542
1179600 60.0864 207.898 55.755 0.58975 -0.0055049
1179800 60.0864 207.911 55.755 0.58985 -0.00543282
1180000 60.0864 207.924 55.755 0.58995 0.00363815
1180200 60.0864 207.937 55.755 0.59005 0.00451946
1180400 60.0864 207.95 55.755 0.59015 -0.000361926
1180600 60.0864 207.963 55.755 0.59025 0.00708292
1180800 60.0864 207.976 55.755 0.59035 0.0232104
1181000 60.0864 207.989 55.755 0.59045 0.0343422
1181200 60.0864 208.002 55.755 0.59055 0.0201531
1181400 60.0864 208.016 55.755 0.59065 0.0221386
1181600 60.0864 208.029 55.755 0.59075 0.00450612
1181800 60.0864 208.042 55.755 0.59085 0.0224849
1182000 60.0864 208.055 55.755 0.59095 0.0111551
1182200 60.0864 208.068 55.755 0.59105 0.0131271
1182400 60.0864 208.081 55.755 0.59115 -0.00380477
1182600 60.0864 208.094 55.755 0.59125 -0.000491332
1182800 60.0864 208.107 55.755 0.59135 -0.00492192
1183000 60.0864 208.12 55.755 0.59145 -0.0122417
1183200 60.0864 208.133 55.755 0.59155 -0.0453048
1183400 60.0864 208.146 55.755 0.59165 -0.0248667
1183600 60.0864 208.159 55.755 0.59175 -0.0187526
1183800 60.0864 208.172 55.755 0.59185 0.00513656
1184000 60.0864 208.186 55.755 0.59195 -0.0122724
1184200 60.0864 208.199 55.755 0.59205 0.016863
1184400 60.0864 208.212 55.755 0.59215 0.00674522
1184600 60.0864 208.225 55.755 0.59225 0.00746893
1184800 60.0864 208.238 55.755 0.59235 0.0260488
1185000 60.0864 208.251 55.755 0.59245 0.00485555
1185200 60.0864 208.264 55.755 0.59255 0.0339084
1185400 60.0864 208.277 55.755 0.59265 0.0377229
1185600 60.0864 208.29 55.755 0.59275 0.0110349
1185800 60.0864 208.303 55.755 0.59285 0.0198919
1186000 60.0864 208.316 55.755 0.59295 -0.00329069
1186200 60.0864 208.329 55.755 0.59305 -0.0114864
1186400 60.0864 208.342 55.755 0.59315 0.00341453
1186600 60.0864 208.356 55.755 0.59325 0.00242451
1186800 60.0864 208.369 55.755 0.59335 -0.0202699
1187000 60.0864 208.382 55.755 0.59345 0.000829906
1187200 60.0864 208.395 55.755 0.59355 -0.0110381
1187400 60.0864 208.408 55.755 0.59365 -0.0376359
1187600 60.0864 208.421 55.755 0.59375 -0.00757809
1187800 60.0864 208.434 55.755 0.59385 -0.015873
1188000 60.0864 208.447 55.755 0.59395 0.00444881
1188200 60.0864 208.46 55.755 0.59405 0.0136931
1188400 60.0864 208.473 55.755 0.59415 -0.00176078
1188600 60.0864 208.486 55.755 0.59425 -0.00150953
1188800 60.0864 208.499 55.755 0.59435 0.0145458
1189000 60.0864 208.513 55.755 0.59445 0.0253743
1189200 60.0864 208.526 55.755 0.59455 0.0258955
1189400 60.0864 208.539 55.755 0.59465 0.0353098
1189600 60.0864 208.552 55.755 0.59475 0.0193818
1189800 60.0864 208.565 55.755 0.59485 0.0212176
1190000 60.0864 208.578 55.755 0.59495 0.00443107
1190200 60.0864 208.591 55.755 0.59505 -0.00452729
1190400 60.0864 208.604 55.755 0.59515 0.015848
1190600 60.0864 208.617 55.755 0.59525 -0.00389952
1190800 60.0864 208.63 55.755 0.59535 -0.0121357
1191000 60.0864 208.643 55.755 0.59545 -0.0211493
1191200 60.0864 208.656 55.755 0.59555 -0.011178
1191400 60.0864 208.669 55.755 0.59565 -0.0209612
1191600 60.0864 208.683 55.755 0.59575 -0.028108
1191800 60.0864 208.696 55.755 0.59585 -0.00823894
1192000 60.0864 208.709 55.755 0.59595 -0.0126613
1192200 60.0864 208.722 55.755 0.59605 -0.00412374
1192400 60.0864 208.735 55.755 0.59615 0.0188961
1192600 60.0864 208.748 55.755 0.59625 0.00887176
1192800 60.0864 208.761 55.755 0.59635 0.0211726
1193000 60.0864 208.774 55.755 0.59645 0.00510516
1193200 60.0864 208.787 55.755 0.59655 0.01589
1193400 60.0864 208.8 55.755 0.59665 0.0350141
1193600 60.0864 208.813 55.755 0.59675 0.0318235
1193800 60.0864 208.826 55.755 0.59685 0.0185501
1194000 60.0864 208.839 55.755 0.59695 0.00646618
1194200 60.0864 208.853 55.755 0.59705 -0.00805756
1194400 60.0864 208.866 55.755 0.59715 0.00584322
1194600 60.0864 208.879 55.755 0.59725 -0.00129184
1194800 60.0864 208.892 55.755 0.59735 -0.0106247
1195000 60.0864 208.905 55.755 0.59745 0.00442407
1195200 60.0864 208.918 55.755 0.59755 -0.01628
1195400 60.0864 208.931 55.755 0.59765 -0.012052
1195600 60.0864 208.944 55.755 0.59775 -0.0180329
1195800 60.0864 208.957 55.755 0.59785 -0.0392081
1196000 60.0864 208.97 55.755 0.59795 0.0059978
1196200 60.0864 208.983 55.755 0.59805 -0.00532685
1196400 60.0864 208.996 55.755 0.59815 0.00178058
1196600 60.0864 209.009 55.755 0.59825 0.0210679
1196800 60.0864 209.023 55.755 0.59835 0.00324821
1197000 60.0864 209.036 55.755 0.59845 0.000261554
1197200 60.0864 209.049 55.755 0.59855 0.00740974
1197400 60.0864 209.062 55.755 0.59865 0.0328484
1197600 60.0864 209.075 55.755 0.59875 0.0455627
1197800 60.0864 209.088 55.755 0.59885 0.0342174
1198000 60.0864 209.101 55.755 0.59895 0.0170602
1198200 60.0864 209.114 55.755 0.59905 -0.00522527
1198400 60.0864 209.127 55.755 0.59915 0.0124703
1198600 60.0864 209.14 55.755 0.59925 -0.00459428
1198800 60.0864 209.153 55.755 0.59935 -0.0134059
1199000 60.0864 209.166 55.755 0.59945 0.0194552
1199200 60.0864 209.179 55.755 0.59955 -0.0171434
1199400 60.0864 209.193 55.755 0.59965 -0.0162026
1199600 60.0864 209.206 55.755 0.59975 -0.0341595
1199800 60.0864 209.219 55.755 0.59985 -0.056137
1200000 60.0864 209.232 55.755 0.59995 -0.0164988
1200200 60.0864 209.245 55.755 0.60005 -0.0158871
1200400 60.0864 209.258 55.755 0.60015 0.0194198
1200600 60.0864 209.271 55.755 0.60025 -0.00129181
1200800 60.0864 209.284 55.755 0.60035 0.0181692
1201000 60.0864 209.297 55.755 0.60045 0.01874
1201200 60.0864 209.31 55.755 0.60055 0.0127787
1201400 60.0864 209.323 55.755 0.60065 0.03757
1201600 60.0864 209.336 55.755 0.60075 0.0276054
1201800 60.0864 209.349 55.755 0.60085 0.0533923
1202000 60.0864 209.363 55.755 0.60095 0.0451063
1202200 60.0864 209.376 55.755 0.60105 0.00936921
1202400 60.0864 209.389 55.755 0.60115 -0.00287993
1202600 60.0864 209.402 55.755 0.60125 -0.0149045
1202800 60.0864 209.415 55.755 0.60135 -0.00394394
1203000 60.0864 209.428 55.755 0.60145 -0.00855895
1203200 60.0864 209.441 55.755 0.60155 -0.0117742
1203400 60.0864 209.454 55.755 0.60165 -0.0270106
1203600 60.0864 209.467 55.755 0.60175 -0.0277051
1203800 60.0864 209.48 55.755 0.60185 -0.0410306
1204000 60.0864 209.493 55.755 0.60195 -0.0280783
1204200 60.0864 209.506 55.755 0.60205 -0.0210233
1204400 60.0864 209.519 55.755 0.60215 0.00828044
1204600 60.0864 209.533 55.755 0.60225 0.0158001
1204800 60.0864 209.546 55.755 0.60235 0.00289338
1205000 60.0864 209.559 55.755 0.60245 0.0221542
1205200 60.0864 209.572 55.755 0.60255 0.0510861
1205400 60.0864 209.585 55.755 0.60265 0.00451583
1205600 60.0864 209.598 55.755 0.60275 0.0501151
1205800 60.0864 209.611 55.755 0.60285 0.0330319
1206000 60.0864 209.624 55.755 0.60295 0.0203499
1206200 60.0864 209.637 55.755 0.60305 0.025258
1206400 60.0864 209.65 55.755 0.60315 0.0143086
1206600 60.0864 209.663 55.755 0.60325 -0.00695851
1206800 60.0864 209.676 55.755 0.60335 -0.00169261
1207000 60.0864 209.689 55.755 0.60345 -0.0217267
1207200 60.0864 209.703 55.755 0.60355 -0.0195361
1207400 60.0864 209.716 55.755 0.60365 -0.038937
1207600 60.0864 209.729 55.755 0.60375 -0.0295604
1207800 60.0864 209.742 55.755 0.60385 -0.0284824
1208000 60.0864 209.755 55.755 0.60395 -0.0153814
1208200 60.0864 209.768 55.755 0.60405 -0.013496
1208400 60.0864 209.781 55.755 0.60415 0.000504773
1208600 60.0864 209.794 55.755 0.60425 0.00623967
1208800 60.0864 209.807 55.755 0.60435 0.00061543
1209000 60.0864 209.82 55.755 0.60445 0.0239972
1209200 60.0864 209.833 55.755 0.60455 0.0270446
1209400 60.0864 209.846 55.755 0.60465 0.0358583
1209600 60.0864 209.859 55.755 0.60475 0.0458165
1209800 60.0864 209.873 55.755 0.60485 0.0271315
1210000 60.0864 209.886 55.755 0.60495 0.0328676
1210200 60.0864 209.899 55.755 0.60505 0.024974
1210400 60.0864 209.912 55.755 0.60515 -0.00206242
1210600 60.0864 209.925 55.755 0.60525 0.0198355
1210800 60.0864 209.938 55.755 0.60535 -0.020067
1211000 60.0864 209.951 55.755 0.60545 -0.00840412
1211200 60.0864 209.964 55.755 0.60555 -0.0184385
1211400 60.0864 209.977 55.755 0.60565 -0.0163335
1211600 60.0864 209.99 55.755 0.60575 -0.0411734
1211800 60.0864 210.003 55.755 0.60585 -0.0458062
1212000 60.0864 210.016 55.755 0.60595 -0.0122834
1212200 60.0864 210.029 55.755 0.60605 -0.0189292
1212400 60.0864 210.043 55.755 0.60615 -0.00137031
1212600 60.0864 210.056 55.755 0.60625 0.00772323
1212800 60.0864 210.069 55.755 0.60635 0.0017219
1213000 60.0864 210.082 55.755 0.60645 0.0201567
1213200 60.0864 210.095 55.755 0.60655 0.023592
1213400 60.0864 210.108 55.755 0.60665 0.0261307
1213600 60.0864 210.121 55.755 0.60675 0.0570419
1213800 60.0864 210.134 55.755 0.60685 0.0357549
1214000 60.0864 210.147 55.755 0.60695 0.0233824
1214200 60.0864 210.16 55.755 0.60705 0.0233788
1214400 60.0864 210.173 55.755 0.60715 0.0134451
1214600 60.0864 210.186 55.755 0.60725 -0.0181024
1214800 60.0864 210.199 55.755 0.60735 -0.0104113
1215000 60.0864 210.213 55.755 0.60745 -0.015066
1215200 60.0864 210.226 55.755 0.60755 -0.00623541
1215400 60.0864 210.239 55.755 0.60765 -0.0249443
1215600 60.0864 210.252 55.755 0.60775 -0.037503
1215800 60.0864 210.265 55.755 0.60785 -0.0297474
1216000 60.0864 210.278 55.755 0.60795 -0.0274625
1216200 60.0864 210.291 55.755 0.60805 -0.00710704
1216400 60.0864 210.304 55.755 0.60815 0.0101789
1216600 60.0864 210.317 55.755 0.60825 0.0175207
1216800 60.0864 210.33 55.755 0.60835 0.0169129
1217000 60.0864 210.343 55.755 0.60845 0.0132633
1217200 60.0864 210.356 55.755 0.60855 0.0168947
1217400 60.0864 210.369 55.755 0.60865 0.0209197
1217600 60.0864 210.383 55.755 0.60875 0.0484201
1217800 60.0864 210.396 55.755 0.60885 0.0239629
1218000 60.0864 210.409 55.755 0.60895 0.0168479
1218200 60.0864 210.422 55.755 0.60905 0.0143294
1218400 60.0864 210.435 55.755 0.60915 0.0116177
1218600 60.0864 210.448 55.755 0.60925 0.0168633
1218800 60.0864 210.461 55.755 0.60935 -0.0385044
1219000 60.0864 210.474 55.755 0.60945 -0.0116607
1219200 60.0864 210.487 55.755 0.60955 -0.00409224
1219400 60.0864 210.5 55.755 0.60965 -0.0110949
1219600 60.0864 210.513 55.755 0.60975 -0.02609
1219800 60.0864 210.526 55.755 0.60985 -0.0343516
1220000 60.0864 210.539 55.755 0.60995 -0.0216468
1220200 60.0864 210.553 55.755 0.61005 -0.00722759
1220400 60.0864 210.566 55.755 0.61015 -0.00212219
1220600 60.0864 210.579 55.755 0.61025 0.00487186
1220800 60.0864 210.592 55.755 0.61035 0.00480154
1221000 60.0864 210.605 55.755 0.61045 0.00919383
1221200 60.0864 210.618 55.755 0.61055 0.043536
1221400 60.0864 210.631 55.755 0.61065 0.0255437
1221600 60.0864 210.644 55.755 0.61075 0.0390291
1221800 60.0864 210.657 55.755 0.61085 0.0172791
1222000 60.0864 210.67 55.755 0.61095 0.0309173
1222200 60.0864 210.683 55.755 0.61105 0.0129249
1222400 60.0864 210.696 55.755 0.61115 0.0257588
1222600 60.0864 210.71 55.755 0.61125 -0.00660902
1222800 60.0864 210.723 55.755 0.61135 -0.0125209
1223000 60.0864 210.736 55.755 0.61145 -0.00572174
1223200 60.0864 210.749 55.755 0.61155 -0.0379869
1223400 60.0864 210.762 55.755 0.61165 -0.0278106
1223600 60.0864 210.775 55.755 0.61175 -0.0188856
1223800 60.0864 210.788 55.755 0.61185 -0.0181424
1224000 60.0864 210.801 55.755 0.61195 -0.0158075
1224200 60.0864 210.814 55.755 0.61205 -0.00506047
1224400 60.0864 210.827 55.755 0.61215 -0.0135378
1224600 60.0864 210.84 55.755 0.61225 0.00686438
1224800 60.0864 210.853 55.755 0.61235 0.00782063
1225000 60.0864 210.866 55.755 0.61245 0.0278637
1225200 60.0864 210.88 55.755 0.61255 0.0373572
1225400 60.0864 210.893 55.755 0.61265 0.02406
1225600 60.0864 210.906 55.755 0.61275 0.0372344
1225800 60.0864 210.919 55.755 0.61285 0.0188928
1226000 60.0864 210.932 55.755 0.61295 0.0353256
1226200 60.0864 210.945 55.755 0.61305 0.00892805
1226400 60.0864 210.958 55.755 0.61315 -0.00309815
1226600 60.0864 210.971 55.755 0.61325 0.00108374
1226800 60.0864 210.984 55.755 0.61335 -0.012884
1227000 60.0864 210.997 55.755 0.61345 -0.0348721
1227200 60.0864 211.01 55.755 0.61355 -0.0180982
1227400 60.0864 211.023 55.755 0.61365 -0.0207923
1227600 60.0864 211.036 55.755 0.61375 -0.0165493
1227800 60.0864 211.05 55.755 0.61385 -0.0170633
1228000 60.0864 211.063 55.755 0.61395 -0.016168
1228200 60.0864 211.076 55.755 0.61405 -0.00592635
1228400 60.0864 211.089 55.755 0.61415 0.0136773
1228600 60.0864 211.102 55.755 0.61425 0.00164333
1228800 60.0864 211.115 55.755 0.61435 0.0212522
1229000 60.0864 211.128 55.755 0.61445 0.00889925
1229200 60.0864 211.141 55.755 0.61455 0.0493267
1229400 60.0864 211.154 55.755 0.61465 0.0224623
1229600 60.0864 211.167 55.755 0.61475 0.0309715
1229800 60.0864 211.18 55.755 0.61485 0.0133345
1230000 60.0864 211.193 55.755 0.61495 0.01494
1230200 60.0864 211.206 55.755 0.61505 0.0141797
1230400 60.0864 211.22 55.755 0.61515 0.00634919
1230600 60.0864 211.233 55.755 0.61525 0.00546888
1230800 60.0864 211.246 55.755 0.61535 -0.0123213
1231000 60.0864 211.259 55.755 0.61545 -0.0282072
1231200 60.0864 211.272 55.755 0.61555 -0.00457802
1231400 60.0864 211.285 55.755 0.61565 -0.0267175
1231600 60.0864 211.298 55.755 0.61575 -0.018932
1231800 60.0864 211.311 55.755 0.61585 -0.00466313
1232000 60.0864 211.324 55.755 0.61595 -0.0182237
1232200 60.0864 211.337 55.755 0.61605 -0.0131184
1232400 60.0864 211.35 55.755 0.61615 0.00475498
1232600 60.0864 211.363 55.755 0.61625 -0.0181045
1232800 60.0864 211.376 55.755 0.61635 0.00206688
1233000 60.0864 211.39 55.755 0.61645 0.0166486
1233200 60.0864 211.403 55.755 0.61655 0.0487995
1233400 60.0864 211.416 55.755 0.61665 0.0318383
1233600 60.0864 211.429 55.755 0.61675 0.00960992
1233800 60.0864 211.442 55.755 0.61685 0.00961956
1234000 60.0864 211.455 55.755 0.61695 0.0157446
1234200 60.0864 211.468 55.755 0.61705 0.0201364
1234400 60.0864 211.481 55.755 0.61715 0.027735
1234600 60.0864 211.494 55.755 0.61725 0.0124867
1234800 60.0864 211.507 55.755 0.61735 0.0097304
1235000 60.0864 211.52 55.755 0.61745 -0.0244167
1235200 60.0864 211.533 55.755 0.61755 -0.0279479
1235400 60.0864 211.546 55.755 0.61765 -0.0192896
1235600 60.0864 211.56 55.755 0.61775 -0.0135072
1235800 60.0864 211.573 55.755 0.61785 -0.00813425
1236000 60.0864 211.586 55.755 0.61795 -0.00989576
1236200 60.0864 211.599 55.755 0.61805 -0.0128597
1236400 60.0864 211.612 55.755 0.61815 -0.0212196
1236600 60.0864 211.625 55.755 0.61825 0.00099748
1236800 60.0864 211.638 55.755 0.61835 0.00839341
1237000 60.0864 211.651 55.755 0.61845 0.0219212
1237200 60.0864 211.664 55.755 0.61855 0.0171114
1237400 60.0864 211.677 55.755 0.61865 0.0118053
1237600 60.0864 211.69 55.755 0.61875 0.0320824
1237800 60.0864 211.703 55.755 0.61885 0.0316611
1238000 60.0864 211.716 55.755 0.61895 0.0149537
1238200 60.0864 211.73 55.755 0.61905 0.0206949
1238400 60.0864 211.743 55.755 0.61915 0.0183663
1238600 60.0864 211.756 55.755 0.61925 -0.00855181
1238800 60.0864 211.769 55.755 0.61935 0.00440966
1239000 60.0864 211.782 55.755 0.61945 0.00832056
1239200 60.0864 211.795 55.755 0.61955 -0.0193144
1239400 60.0864 211.808 55.755 0.61965 -0.0229631
1239600 60.0864 211.821 55.755 0.61975 -0.0197855
1239800 60.0864 211.834 55.755 0.61985 -0.00459817
1240000 60.0864 211.847 55.755 0.61995 -0.0220066
1240200 60.0864 211.86 55.755 0.62005 0.0083838
1240400 60.0864 211.873 55.755 0.62015 -0.0112738
1240600 60.0864 211.886 55.755 0.62025 -0.0205026
1240800 60.0864 211.9 55.755 0.62035 0.00484212
1241000 60.0864 211.913 55.755 0.62045 0.00621428
1241200 60.0864 211.926 55.755 0.62055 0.0168707
1241400 60.0864 211.939 55.755 0.62065 0.0226592
1241600 60.0864 211.952 55.755 0.62075 0.00797796
1241800 60.0864 211.965 55.755 0.62085 0.0209458
1242000 60.0864 211.978 55.755 0.62095 0.010481
1242200 60.0864 211.991 55.755 0.62105 0.0128666
1242400 60.0864 212.004 55.755 0.62115 0.00622647
1242600 60.0864 212.017 55.755 0.62125 -0.00182606
1242800 60.0864 212.03 55.755 0.62135 0.0272499
1243000 60.0864 212.043 55.755 0.62145 0.0150409
1243200 60.0864 212.056 55.755 0.62155 -0.0041976
1243400 60.0864 212.07 55.755 0.62165 -0.018276
1243600 60.0864 212.083 55.755 0.62175 -0.0158264
1243800 60.0864 212.096 55.755 0.62185 -0.00858027
1244000 60.0864 212.109 55.755 0.62195 0.00811519
1244200 60.0864 212.122 55.755 0.62205 0.0136946
1244400 60.0864 212.135 55.755 0.62215 -0.0176678
1244600 60.0864 212.148 55.755 0.62225 -0.0179245
1244800 60.0864 212.161 55.755 0.62235 -0.0003653
1245000 60.0864 212.174 55.755 0.62245 -0.00549129
1245200 60.0864 212.187 55.755 0.62255 -0.00364518
1245400 60.0864 212.2 55.755 0.62265 0.0167496
1245600 60.0864 212.213 55.755 0.62275 0.0181845
1245800 60.0864 212.226 55.755 0.62285 0.0196657
1246000 60.0864 212.24 55.755 0.62295 0.0163189
1246200 60.0864 212.253 55.755 0.62305 -0.00740259
1246400 60.0864 212.266 55.755 0.62315 0.0195907
1246600 60.0864 212.279 55.755 0.62325 0.00788979
1246800 60.0864 212.292 55.755 0.62335 0.0234013
1247000 60.0864 212.305 55.755 0.62345 0.0321007
1247200 60.0864 212.318 55.755 0.62355 -0.00203719
1247400 60.0864 212.331 55.755 0.62365 0.000260924
1247600 60.0864 212.344 55.755 0.62375 -0.0317134
1247800 60.0864 212.357 55.755 0.62385 -0.0192624
1248000 60.0864 212.37 55.755 0.62395 -0.0121862
1248200 60.0864 212.383 55.755 0.62405 0.0199608
1248400 60.0864 212.396 55.755 0.62415 0.00355815
1248600 60.0864 212.41 55.755 0.62425 0.00272262
1248800 60.0864 212.423 55.755 0.62435 -0.0359144
1249000 60.0864 212.436 55.755 0.62445 -0.015686
1249200 60.0864 212.449 55.755 0.62455 -0.00246361
1249400 60.0864 212.462 55.755 0.62465 0.0189533
1249600 60.0864 212.475 55.755 0.62475 0.0181808
1249800 60.0864 212.488 55.755 0.62485 0.0131101
1250000 60.0864 212.501 55.755 0.62495 0.0187518
1250200 60.0864 212.514 55.755 0.62505 -0.00652681
1250400 60.0864 212.527 55.755 0.62515 0.0058
1250600 60.0864 212.54 55.755 0.62525 0.0207346
1250800 60.0864 212.553 55.755 0.62535 0.0217579
1251000 60.0864 212.566 55.755 0.62545 0.0269954
1251200 60.0864 212.58 55.755 0.62555 0.00815646
1251400 60.0864 212.593 55.755 0.62565 -0.00963538
1251600 60.0864 212.606 55.755 0.62575 -0.0124395
1251800 60.0864 212.619 55.755 0.62585 -0.0190229
1252000 60.0864 212.632 55.755 0.62595 -0.0132972
1252200 60.0864 212.645 55.755 0.62605 0.0204866
1252400 60.0864 212.658 55.755 0.62615 -0.00113282
1252600 60.0864 212.671 55.755 0.62625 0.0112734
1252800 60.0864 212.684 55.755 0.62635 -0.0165854
1253000 60.0864 212.697 55.755 0.62645 -0.0277268
1253200 60.0864 212.71 55.755 0.62655 -0.020635
1253400 60.0864 212.723 55.755 0.62665 -0.00707909
1253600 60.0864 212.736 55.755 0.62675 0.0330431
1253800 60.0864 212.75 55.755 0.62685 0.0337619
1254000 60.0864 212.763 55.755 0.62695 0.0141499
1254200 60.0864 212.776 55.755 0.62705 -0.0230459
1254400 60.0864 212.789 55.755 0.62715 0.007874
1254600 60.0864 212.802 55.755 0.62725 0.0185469
1254800 60.0864 212.815 55.755 0.62735 0.0167013
1255000 60.0864 212.828 55.755 0.62745 0.0238551
1255200 60.0864 212.841 55.755 0.62755 0.0104244
1255400 60.0864 212.854 55.755 0.62765 0.0171309
1255600 60.0864 212.867 55.755 0.62775 -0.00446311
1255800 60.0864 212.88 55.755 0.62785 -0.0181602
1256000 60.0864 212.893 55.755 0.62795 -0.00243271
1256200 60.0864 212.907 55.755 0.62805 -0.0113187
1256400 60.0864 212.92 55.755 0.62815 0.00712445
1256600 60.0864 212.933 55.755 0.62825 0.0186245
1256800 60.0864 212.946 55.755 0.62835 -0.00906276
1257000 60.0864 212.959 55.755 0.62845 -0.0320946
1257200 60.0864 212.972 55.755 0.62855 -0.0212421
1257400 60.0864 212.985 55.755 0.62865 -0.0140296
1257600 60.0864 212.998 55.755 0.62875 0.0210726
1257800 60.0864 213.011 55.755 0.62885 0.0309014
1258000 60.0864 213.024 55.755 0.62895 0.00945478
1258200 60.0864 213.037 55.755 0.62905 0.00497576
1258400 60.0864 213.05 55.755 0.62915 0.00671476
1258600 60.0864 213.063 55.755 0.62925 0.0177829
1258800 60.0864 213.077 55.755 0.62935 -0.0126113
1259000 60.0864 213.09 55.755 0.62945 0.0281386
1259200 60.0864 213.103 55.755 0.62955 0.012585
1259400 60.0864 213.116 55.755 0.62965 0.0248218
1259600 60.0864 213.129 55.755 0.62975 0.00139032
1259800 60.0864 213.142 55.755 0.62985 0.00245507
1260000 60.0864 213.155 55.755 0.62995 -0.00979854
1260200 60.0864 213.168 55.755 0.63005 -0.0312465
1260400 60.0864 213.181 55.755 0.63015 -0.00512462
1260600 60.0864 213.194 55.755 0.63025 2.67311e-05
1260800 60.0864 213.207 55.755 0.63035 0.0034902
1261000 60.0864 213.22 55.755 0.63045 -0.0031147
1261200 60.0864 213.233 55.755 0.63055 -0.0187513
1261400 60.0864 213.247 55.755 0.63065 -0.0195255
1261600 60.0864 213.26 55.755 0.63075 0.0120285
1261800 60.0864 213.273 55.755 0.63085 0.0244113
1262000 60.0864 213.286 55.755 0.63095 0.028781
1262200 60.0864 213.299 55.755 0.63105 0.00764411
1262400 60.0864 213.312 55.755 0.63115 0.0143208
1262600 60.0864 213.325 55.755 0.63125 -0.00563371
1262800 60.0864 213.338 55.755 0.63135 0.00994533
1263000 60.0864 213.351 55.755 0.63145 0.0206459
1263200 60.0864 213.364 55.755 0.63155 0.0172499
1263400 60.0864 213.377 55.755 0.63165 0.0163746
1263600 60.0864 213.39 55.755 0.63175 0.00736723
1263800 60.0864 213.403 55.755 0.63185 -0.0106995
1264000 60.0864 213.417 55.755 0.63195 -0.0132586
1264200 60.0864 213.43 55.755 0.63205 -0.023736
1264400 60.0864 213.443 55.755 0.63215 0.00530273
1264600 60.0864 213.456 55.755 0.63225 0.000609084
1264800 60.0864 213.469 55.755 0.63235 -0.000767169
1265000 60.0864 213.482 55.755 0.63245 -0.00417922
1265200 60.0864 213.495 55.755 0.63255 -0.0316533
1265400 60.0864 213.508 55.755 0.63265 -0.00703432
1265600 60.0864 213.521 55.755 0.63275 0.0193575
1265800 60.0864 213.534 55.755 0.63285 0.00379894
1266000 60.0864 213.547 55.755 0.63295 -0.0061023
1266200 60.0864 213.56 55.755 0.63305 0.0354925
1266400 60.0864 213.573 55.755 0.63315 0.0182375
1266600 60.0864 213.587 55.755 0.63325 0.0095167
1266800 60.0864 213.6 55.755 0.63335 0.00265335
1267000 60.0864 213.613 55.755 0.63345 0.0141595
1267200 60.0864 213.626 55.755 0.63355 0.0245919
1267400 60.0864 213.639 55.755 0.63365 0.00677976
1267600 60.0864 213.652 55.755 0.63375 0.00130156
1267800 60.0864 213.665 55.755 0.63385 0.00918009
1268000 60.0864 213.678 55.755 0.63395 -0.0200138
1268200 60.0864 213.691 55.755 0.63405 0.000897913
1268400 60.0864 213.704 55.755 0.63415 -0.00383888
1268600 60.0864 213.717 55.755 0.63425 0.000732167
1268800 60.0864 213.73 55.755 0.63435 -0.0176603
1269000 60.0864 213.743 55.755 0.63445 -0.000443995
1269200 60.0864 213.757 55.755 0.63455 0.00909085
1269400 60.0864 213.77 55.755 0.63465 -0.0134991
1269600 60.0864 213.783 55.755 0.63475 0.0104252
1269800 60.0864 213.796 55.755 0.63485 0.0104593
1270000 60.0864 213.809 55.755 0.63495 0.00254132
1270200 60.0864 213.822 55.755 0.63505 -0.0125878
1270400 60.0864 213.835 55.755 0.63515 0.0253275
1270600 60.0864 213.848 55.755 0.63525 0.0206737
1270800 60.0864 213.861 55.755 0.63535 -0.0133984
1271000 60.0864 213.874 55.755 0.63545 0.00656008
1271200 60.0864 213.887 55.755 0.63555 0.00829773
1271400 60.0864 213.9 55.755 0.63565 0.0237865
1271600 60.0864 213.913 55.755 0.63575 -0.0014587
1271800 60.0864 213.927 55.755 0.63585 -0.000147488
1272000 60.0864 213.94 55.755 0.63595 -0.0089888
1272200 60.0864 213.953 55.755 0.63605 0.00428107
1272400 60.0864 213.966 55.755 0.63615 0.00796976
1272600 60.0864 213.979 55.755 0.63625 -0.00893699
1272800 60.0864 213.992 55.755 0.63635 0.00589712
1273000 60.0864 214.005 55.755 0.63645 -0.00189616
1273200 60.0864 214.018 55.755 0.63655 -0.00793903
1273400 60.0864 214.031 55.755 0.63665 0.00245421
1273600 60.0864 214.044 55.755 0.63675 0.00473401
1273800 60.0864 214.057 55.755 0.63685 -0.000441703
1274000 60.0864 214.07 55.755 0.63695 0.00664893
1274200 60.0864 214.083 55.755 0.63705 0.0092016
1274400 60.0864 214.097 55.755 0.63715 0.0176619
1274600 60.0864 214.11 55.755 0.63725 -0.00292691
1274800 60.0864 214.123 55.755 0.63735 0.000225123
1275000 60.0864 214.136 55.755 0.63745 0.00691103
1275200 60.0864 214.149 55.755 0.63755 0.00943629
1275400 60.0864 214.162 55.755 0.63765 -0.00738003
1275600 60.0864 214.175 55.755 0.63775 0.0150189
1275800 60.0864 214.188 55.755 0.63785 0.00339921
1276000 60.0864 214.201 55.755 0.63795 0.0136507
1276200 60.0864 214.214 55.755 0.63805 -0.0135926
1276400 60.0864 214.227 55.755 0.63815 0.0117471
1276600 60.0864 214.24 55.755 0.63825 -0.0109441
1276800 60.0864 214.253 55.755 0.63835 -0.0007574
1277000 60.0864 214.267 55.755 0.63845 0.00694591
1277200 60.0864 214.28 55.755 0.63855 -0.00761683
1277400 60.0864 214.293 55.755 0.63865 0.00809698
1277600 60.0864 214.306 55.755 0.63875 0.00819999
1277800 60.0864 214.319 55.755 0.63885 -0.00280674
1278000 60.0864 214.332 55.755 0.63895 0.000978855
1278200 60.0864 214.345 55.755 0.63905 0.00151641
1278400 60.0864 214.358 55.755 0.63915 -0.00130634
1278600 60.0864 214.371 55.755 0.63925 0.00928118
1278800 60.0864 214.384 55.755 0.63935 0.01934
1279000 60.0864 214.397 55.755 0.63945 0.0151554
1279200 60.0864 214.41 55.755 0.63955 0.0149213
1279400 60.0864 214.423 55.755 0.63965 -0.0111416
1279600 60.0864 214.437 55.755 0.63975 0.01012
1279800 60.0864 214.45 55.755 0.63985 0.000107257
1280000 60.0864 214.463 55.755 0.63995 -0.00627361
1280200 60.0864 214.476 55.755 0.64005 0.00499681
1280400 60.0864 214.489 55.755 0.64015 -0.00910501
1280600 60.0864 214.502 55.755 0.64025 0.00573157
1280800 60.0864 214.515 55.755 0.64035 -0.0100882
1281000 60.0864 214.528 55.755 0.64045 -0.00163368
1281200 60.0864 214.541 55.755 0.64055 0.00219337
1281400 60.0864 214.554 55.755 0.64065 0.00230903
1281600 60.0864 214.567 55.755 0.64075 0.00822707
1281800 60.0864 214.58 55.755 0.64085 0.00622676
1282000 60.0864 214.593 55.755 0.64095 -0.00488096
1282200 60.0864 214.607 55.755 0.64105 -0.000423041
1282400 60.0864 214.62 55.755 0.64115 0.0353173
1282600 60.0864 214.633 55.755 0.64125 0.0062701
1282800 60.0864 214.646 55.755 0.64135 0.0209173
1283000 60.0864 214.659 55.755 0.64145 -0.00489414
1283200 60.0864 214.672 55.755 0.64155 -0.0243321
1283400 60.0864 214.685 55.755 0.64165 0.0117273
1283600 60.0864 214.698 55.755 0.64175 -0.00633328
1283800 60.0864 214.711 55.755 0.64185 0.0181561
1284000 60.0864 214.724 55.755 0.64195 0.010724
1284200 60.0864 214.737 55.755 0.64205 -0.0141452
1284400 60.0864 214.75 55.755 0.64215 0.00176569
1284600 60.0864 214.763 55.755 0.64225 0.00285746
1284800 60.0864 214.777 55.755 0.64235 -0.00840883
1285000 60.0864 214.79 55.755 0.64245 0.00481581
1285200 60.0864 214.803 55.755 0.64255 0.00747662
1285400 60.0864 214.816 55.755 0.64265 0.00736224
1285600 60.0864 214.829 55.755 0.64275 0.00333858
1285800 60.0864 214.842 55.755 0.64285 0.0138785
1286000 60.0864 214.855 55.755 0.64295 -0.022916
1286200 60.0864 214.868 55.755 0.64305 0.00894927
1286400 60.0864 214.881 55.755 0.64315 0.0236273
1286600 60.0864 214.894 55.755 0.64325 0.0203464
1286800 60.0864 214.907 55.755 0.64335 0.0167124
1287000 60.0864 214.92 55.755 0.64345 0.00111002
1287200 60.0864 214.934 55.755 0.64355 -0.0119508
1287400 60.0864 214.947 55.755 0.64365 0.00360094
1287600 60.0864 214.96 55.755 0.64375 -0.010907
1287800 60.0864 214.973 55.755 0.64385 0.0189908
1288000 60.0864 214.986 55.755 0.64395 0.00356066
1288200 60.0864 214.999 55.755 0.64405 0.00572728
1288400 60.0864 215.012 55.755 0.64415 -0.0213246
1288600 60.0864 215.025 55.755 0.64425 -0.0226657
1288800 60.0864 215.038 55.755 0.64435 -0.0167291
1289000 60.0864 215.051 55.755 0.64445 0.00964409
1289200 60.0864 215.064 55.755 0.64455 -0.000925469
1289400 60.0864 215.077 55.755 0.64465 0.0308428
1289600 60.0864 215.09 55.755 0.64475 0.017153
1289800 60.0864 215.104 55.755 0.64485 0.0154237
1290000 60.0864 215.117 55.755 0.64495 -0.0034089
1290200 60.0864 215.13 55.755 0.64505 -0.0156253
1290400 60.0864 215.143 55.755 0.64515 0.0227385
1290600 60.0864 215.156 55.755 0.64525 0.0281045
1290800 60.0864 215.169 55.755 0.64535 0.0240519
1291000 60.0864 215.182 55.755 0.64545 0.00704544
1291200 60.0864 215.195 55.755 0.64555 -0.0214139
1291400 60.0864 215.208 55.755 0.64565 -0.0155037
1291600 60.0864 215.221 55.755 0.64575 -0.00457808
1291800 60.0864 215.234 55.755 0.64585 0.00795086
1292000 60.0864 215.247 55.755 0.64595 -0.00418607
1292200 60.0864 215.26 55.755 0.64605 0.00826535
1292400 60.0864 215.274 55.755 0.64615 0.015402
1292600 60.0864 215.287 55.755 0.64625 -0.0224174
1292800 60.0864 215.3 55.755 0.64635 -0.0190306
1293000 60.0864 215.313 55.755 0.64645 0.00639302
1293200 60.0864 215.326 55.755 0.64655 -0.0024639
1293400 60.0864 215.339 55.755 0.64665 0.0120075
1293600 60.0864 215.352 55.755 0.64675 0.0193612
1293800 60.0864 215.365 55.755 0.64685 0.0166881
1294000 60.0864 215.378 55.755 0.64695 -0.00799432
1294200 60.0864 215.391 55.755 0.64705 0.0127934
1294400 60.0864 215.404 55.755 0.64715 0.00879061
1294600 60.0864 215.417 55.755 0.64725 0.0138561
1294800 60.0864 215.43 55.755 0.64735 0.0179955
1295000 60.0864 215.444 55.755 0.64745 0.0183733
1295200 60.0864 215.457 55.755 0.64755 -0.00135743
1295400 60.0864 215.47 55.755 0.64765 0.00278214
1295600 60.0864 215.483 55.755 0.64775 -0.0134018
1295800 60.0864 215.496 55.755 0.64785 -0.0202237
1296000 60.0864 215.509 55.755 0.64795 -0.0070083
1296200 60.0864 215.522 55.755 0.64805 0.00093567
1296400 60.0864 215.535 55.755 0.64815 0.00344376
1296600 60.0864 215.548 55.755 0.64825 0.00948905
1296800 60.0864 215.561 55.755 0.64835 -0.0138485
1297000 60.0864 215.574 55.755 0.64845 -0.00180157
1297200 60.0864 215.587 55.755 0.64855 0.0077769
1297400 60.0864 215.6 55.755 0.64865 0.0166281
1297600 60.0864 215.614 55.755 0.64875 0.00714551
1297800 60.0864 215.627 55.755 0.64885 0.0160112
1298000 60.0864 215.64 55.755 0.64895 0.0123647
1298200 60.0864 215.653 55.755 0.64905 0.00219014
1298400 60.0864 215.666 55.755 0.64915 -0.00187356
1298600 60.0864 215.679 55.755 0.64925 0.0109652
1298800 60.0864 215.692 55.755 0.64935 0.0117813
1299000 60.0864 215.705 55.755 0.64945 0.0106006
1299200 60.0864 215.718 55.755 0.64955 -0.0140912
1299400 60.0864 215.731 55.755 0.64965 0.00658241
1299600 60.0864 215.744 55.755 0.64975 -0.00943061
1299800 60.0864 215.757 55.755 0.64985 0.00446377
1300000 60.0864 215.77 55.755 0.64995 -0.00443446
1300200 60.0864 215.784 55.755 0.65005 -0.00183218
1300400 60.0864 215.797 55.755 0.65015 -0.00732573
1300600 60.0864 215.81 55.755 0.65025 -0.0049844
1300800 60.0864 215.823 55.755 0.65035 0.00757438
1301000 60.0864 215.836 55.755 0.65045 0.00907519
1301200 60.0864 215.849 55.755 0.65055 -0.00574482
1301400 60.0864 215.862 55.755 0.65065 0.0132021
1301600 60.0864 215.875 55.755 0.65075 0.00394722
1301800 60.0864 215.888 55.755 0.65085 0.00983222
1302000 60.0864 215.901 55.755 0.65095 0.0243777
1302200 60.0864 215.914 55.755 0.65105 0.0100214
1302400 60.0864 215.927 55.755 0.65115 -6.32928e-05
1302600 60.0864 215.94 55.755 0.65125 0.00745044
1302800 60.0864 215.954 55.755 0.65135 0.0019382
1303000 60.0864 215.967 55.755 0.65145 -0.000848747
1303200 60.0864 215.98 55.755 0.65155 -0.00336711
1303400 60.0864 215.993 55.755 0.65165 0.0201787
1303600 60.0864 216.006 55.755 0.65175 0.00401052
1303800 60.0864 216.019 55.755 0.65185 -0.0220318
1304000 60.0864 216.032 55.755 0.65195 -0.0113179
1304200 60.0864 216.045 55.755 0.65205 -0.00759967
1304400 60.0864 216.058 55.755 0.65215 -0.00271002
1304600 60.0864 216.071 55.755 0.65225 0.0257215
1304800 60.0864 216.084 55.755 0.65235 -0.00443085
1305000 60.0864 216.097 55.755 0.65245 -0.00494915
1305200 60.0864 216.11 55.755 0.65255 0.014029
1305400 60.0864 216.124 55.755 0.65265 0.000452796
1305600 60.0864 216.137 55.755 0.65275 0.00722779
1305800 60.0864 216.15 55.755 0.65285 0.0252474
1306000 60.0864 216.163 55.755 0.65295 0.00280686
1306200 60.0864 216.176 55.755 0.65305 0.0258273
1306400 60.0864 216.189 55.755 0.65315 0.00186423
1306600 60.0864 216.202 55.755 0.65325 0.00192431
1306800 60.0864 216.215 55.755 0.65335 -0.0112321
1307000 60.0864 216.228 55.755 0.65345 -0.0105339
1307200 60.0864 216.241 55.755 0.65355 0.0213283
1307400 60.0864 216.254 55.755 0.65365 0.0116436
1307600 60.0864 216.267 55.755 0.65375 -0.00779523
1307800 60.0864 216.28 55.755 0.65385 0.00116099
1308000 60.0864 216.294 55.755 0.65395 0.00193366
1308200 60.0864 216.307 55.755 0.65405 -0.0124341
1308400 60.0864 216.32 55.755 0.65415 -0.00146942
1308600 60.0864 216.333 55.755 0.65425 0.0108043
1308800 60.0864 216.346 55.755 0.65435 0.0178378
1309000 60.0864 216.359 55.755 0.65445 -0.0142213
1309200 60.0864 216.372 55.755 0.65455 -0.00333207
1309400 60.0864 216.385 55.755 0.65465 -0.00565112
1309600 60.0864 216.398 55.755 0.65475 -0.0112945
1309800 60.0864 216.411 55.755 0.65485 0.0168361
1310000 60.0864 216.424 55.755 0.65495 0.0095745
1310200 60.0864 216.437 55.755 0.65505 0.019688
1310400 60.0864 216.45 55.755 0.65515 0.0153805
1310600 60.0864 216.464 55.755 0.65525 0.00897244
1310800 60.0864 216.477 55.755 0.65535 -0.00519523
1311000 60.0864 216.49 55.755 0.65545 -0.00527734
1311200 60.0864 216.503 55.755 0.65555 0.0185368
1311400 60.0864 216.516 55.755 0.65565 0.0143768
1311600 60.0864 216.529 55.755 0.65575 0.0254717
1311800 60.0864 216.542 55.755 0.65585 0.0122698
1312000 60.0864 216.555 55.755 0.65595 -0.0208152
1312200 60.0864 216.568 55.755 0.65605 -0.00306613
1312400 60.0864 216.581 55.755 0.65615 -0.00925004
1312600 60.0864 216.594 55.755 0.65625 -0.00395774
1312800 60.0864 216.607 55.755 0.65635 0.0189152
1313000 60.0864 216.62 55.755 0.65645 -1.73309e-05
1313200 60.0864 216.634 55.755 0.65655 -0.00779131
1313400 60.0864 216.647 55.755 0.65665 -0.0238561
1313600 60.0864 216.66 55.755 0.65675 -0.0122947
1313800 60.0864 216.673 55.755 0.65685 0.00115026
1314000 60.0864 216.686 55.755 0.65695 0.000862496
1314200 60.0864 216.699 55.755 0.65705 0.0154677
1314400 60.0864 216.712 55.755 0.65715 -0.00229779
1314600 60.0864 216.725 55.755 0.65725 0.00366069
1314800 60.0864 216.738 55.755 0.65735 0.00127778
1315000 60.0864 216.751 55.755 0.65745 0.0156873
1315200 60.0864 216.764 55.755 0.65755 0.0185074
1315400 60.0864 216.777 55.755 0.65765 0.0414462
1315600 60.0864 216.79 55.755 0.65775 0.0206398
1315800 60.0864 216.804 55.755 0.65785 0.0126771
1316000 60.0864 216.817 55.755 0.65795 -0.0180092
1316200 60.0864 216.83 55.755 0.65805 -0.00940314
1316400 60.0864 216.843 55.755 0.65815 0.0176629
1316600 60.0864 216.856 55.755 0.65825 0.00935555
1316800 60.0864 216.869 55.755 0.65835 0.00858538
1317000 60.0864 216.882 55.755 0.65845 -0.00628508
1317200 60.0864 216.895 55.755 0.65855 -0.0155911
1317400 60.0864 216.908 55.755 0.65865 -0.0230148
1317600 60.0864 216.921 55.755 0.65875 -0.0119586
1317800 60.0864 216.934 55.755 0.65885 0.00251473
1318000 60.0864 216.947 55.755 0.65895 -0.00939018
1318200 60.0864 216.96 55.755 0.65905 0.00332059
1318400 60.0864 216.974 55.755 0.65915 0.0249872
1318600 60.0864 216.987 55.755 0.65925 -0.0116848
1318800 60.0864 217 55.755 0.65935 0.00617155
1319000 60.0864 217.013 55.755 0.65945 -0.00222431
1319200 60.0864 217.026 55.755 0.65955 0.0243914
1319400 60.0864 217.039 55.755 0.65965 0.0374043
1319600 60.0864 217.052 55.755 0.65975 0.022382
1319800 60.0864 217.065 55.755 0.65985 0.00373819
1320000 60.0864 217.078 55.755 0.65995 0.0186844
1320200 60.0864 217.091 55.755 0.66005 -0.0100499
1320400 60.0864 217.104 55.755 0.66015 -0.0137387
1320600 60.0864 217.117 55.755 0.66025 -0.00405521
1320800 60.0864 217.131 55.755 0.66035 -0.0139849
1321000 60.0864 217.144 55.755 0.66045 0.0232429
1321200 60.0864 217.157 55.755 0.66055 -0.017237
1321400 60.0864 217.17 55.755 0.66065 0.00220398
1321600 60.0864 217.183 55.755 0.66075 -0.0275214
1321800 60.0864 217.196 55.755 0.66085 -0.00773763
1322000 60.0864 217.209 55.755 0.66095 -0.00977257
1322200 60.0864 217.222 55.755 0.66105 0.00465404
1322400 60.0864 217.235 55.755 0.66115 0.0228841
1322600 60.0864 217.248 55.755 0.66125 0.0189388
1322800 60.0864 217.261 55.755 0.66135 0.00736284
1323000 60.0864 217.274 55.755 0.66145 0.0016627
1323200 60.0864 217.287 55.755 0.66155 0.0135303
1323400 60.0864 217.301 55.755 0.66165 0.0214782
1323600 60.0864 217.314 55.755 0.66175 0.0447593
1323800 60.0864 217.327 55.755 0.66185 0.0099489
1324000 60.0864 217.34 55.755 0.66195 0.0159351
1324200 60.0864 217.353 55.755 0.66205 0.00433544
1324400 60.0864 217.366 55.755 0.66215 -0.0128057
1324600 60.0864 217.379 55.755 0.66225 -0.00509116
1324800 60.0864 217.392 55.755 0.66235 -0.0101477
1325000 60.0864 217.405 55.755 0.66245 0.000145865
1325200 60.0864 217.418 55.755 0.66255 -0.0126785
1325400 60.0864 217.431 55.755 0.66265 -0.0203946
1325600 60.0864 217.444 55.755 0.66275 -0.0217835
1325800 60.0864 217.457 55.755 0.66285 -0.0065025
1326000 60.0864 217.471 55.755 0.66295 2.28995e-05
1326200 60.0864 217.484 55.755 0.66305 -0.000751566
1326400 60.0864 217.497 55.755 0.66315 0.0146709
1326600 60.0864 217.51 55.755 0.66325 0.00911553
1326800 60.0864 217.523 55.755 0.66335 -0.00221866
1327000 60.0864 217.536 55.755 0.66345 0.0139311
1327200 60.0864 217.549 55.755 0.66355 0.0248002
1327400 60.0864 217.562 55.755 0.66365 0.0248173
1327600 60.0864 217.575 55.755 0.66375 0.0195617
1327800 60.0864 217.588 55.755 0.66385 0.0208615
1328000 60.0864 217.601 55.755 0.66395 0.0330633
1328200 60.0864 217.614 55.755 0.66405 -0.0137315
1328400 60.0864 217.627 55.755 0.66415 0.00573753
1328600 60.0864 217.641 55.755 0.66425 -0.000222
1328800 60.0864 217.654 55.755 0.66435 -0.0196424
1329000 60.0864 217.667 55.755 0.66445 -0.00527371
1329200 60.0864 217.68 55.755 0.66455 -0.0140099
1329400 60.0864 217.693 55.755 0.66465 -0.00525243
1329600 60.0864 217.706 55.755 0.66475 -0.00326202
1329800 60.0864 217.719 55.755 0.66485 -0.025766
1330000 60.0864 217.732 55.755 0.66495 -0.00806041
1330200 60.0864 217.745 55.755 0.66505 0.00857
1330400 60.0864 217.758 55.755 0.66515 0.00454495
1330600 60.0864 217.771 55.755 0.66525 0.0142592
1330800 60.0864 217.784 55.755 0.66535 0.0210248
1331000 60.0864 217.797 55.755 0.66545 0.0230781
1331200 60.0864 217.811 55.755 0.66555 0.00267799
1331400 60.0864 217.824 55.755 0.66565 0.0275142
1331600 60.0864 217.837 55.755 0.66575 -0.000726005
1331800 60.0864 217.85 55.755 0.66585 0.0119419
1332000 60.0864 217.863 55.755 0.66595 0.0362948
1332200 60.0864 217.876 55.755 0.66605 0.0101626
1332400 60.0864 217.889 55.755 0.66615 -0.0180221
1332600 60.0864 217.902 55.755 0.66625 -0.016695
1332800 60.0864 217.915 55.755 0.66635 -0.015411
1333000 60.0864 217.928 55.755 0.66645 -0.0105576
1333200 60.0864 217.941 55.755 0.66655 0.0147784
1333400 60.0864 217.954 55.755 0.66665 -0.00468512
1333600 60.0864 217.967 55.755 0.66675 -0.018564
1333800 60.0864 217.981 55.755 0.66685 -0.00451698
1334000 60.0864 217.994 55.755 0.66695 -0.00966476
1334200 60.0864 218.007 55.755 0.66705 0.00288296
1334400 60.0864 218.02 55.755 0.66715 0.00253036
1334600 60.0864 218.033 55.755 0.66725 0.0157975
1334800 60.0864 218.046 55.755 0.66735 0.0211391
1335000 60.0864 218.059 55.755 0.66745 0.0258865
1335200 60.0864 218.072 55.755 0.66755 -0.0027037
1335400 60.0864 218.085 55.755 0.66765 0.0163145
1335600 60.0864 218.098 55.755 0.66775 0.00277647
1335800 60.0864 218.111 55.755 0.66785 0.0230863
1336000 60.0864 218.124 55.755 0.66795 0.0160584
1336200 60.0864 218.137 55.755 0.66805 0.01744
1336400 60.0864 218.151 55.755 0.66815 0.0121752
1336600 60.0864 218.164 55.755 0.66825 -0.00171535
1336800 60.0864 218.177 55.755 0.66835 -0.0282705
1337000 60.0864 218.19 55.755 0.66845 -0.00189683
1337200 60.0864 218.203 55.755 0.66855 -0.0101892
1337400 60.0864 218.216 55.755 0.66865 -0.015576
1337600 60.0864 218.229 55.755 0.66875 -0.0034462
1337800 60.0864 218.242 55.755 0.66885 -0.0158972
1338000 60.0864 218.255 55.755 0.66895 0.00569703
1338200 60.0864 218.268 55.755 0.66905 -0.00868457
1338400 60.0864 218.281 55.755 0.66915 0.00359147
1338600 60.0864 218.294 55.755 0.66925 0.00193403
1338800 60.0864 218.307 55.755 0.66935 0.00934818
1339000 60.0864 218.321 55.755 0.66945 0.0314594
1339200 60.0864 218.334 55.755 0.66955 0.0181562
1339400 60.0864 218.347 55.755 0.66965 0.0210755
1339600 60.0864 218.36 55.755 0.66975 0.0207024
1339800 60.0864 218.373 55.755 0.66985 0.0282357
1340000 60.0864 218.386 55.755 0.66995 -0.006539
1340200 60.0864 218.399 55.755 0.67005 0.00730116
1340400 60.0864 218.412 55.755 0.67015 -0.00308354
1340600 60.0864 218.425 55.755 0.67025 -0.00455715
1340800 60.0864 218.438 55.755 0.67035 0.00678144
1341000 60.0864 218.451 55.755 0.67045 -0.00845854
1341200 60.0864 218.464 55.755 0.67055 -0.0191242
1341400 60.0864 218.477 55.755 0.67065 -0.0136046
1341600 60.0864 218.491 55.755 0.67075 -0.0291462
1341800 60.0864 218.504 55.755 0.67085 0.00452221
1342000 60.0864 218.517 55.755 0.67095 -0.0106594
1342200 60.0864 218.53 55.755 0.67105 0.0118893
1342400 60.0864 218.543 55.755 0.67115 0.0118135
1342600 60.0864 218.556 55.755 0.67125 0.000760409
1342800 60.0864 218.569 55.755 0.67135 -0.0103603
1343000 60.0864 218.582 55.755 0.67145 0.0168435
1343200 60.0864 218.595 55.755 0.67155 0.0356479
1343400 60.0864 218.608 55.755 0.67165 0.0287031
1343600 60.0864 218.621 55.755 0.67175 0.013912
1343800 60.0864 218.634 55.755 0.67185 0.0331335
1344000 60.0864 218.647 55.755 0.67195 0.0166473
1344200 60.0864 218.661 55.755 0.67205 0.0201658
1344400 60.0864 218.674 55.755 0.67215 -0.00511552
1344600 60.0864 218.687 55.755 0.67225 -0.00308892
1344800 60.0864 218.7 55.755 0.67235 -0.014097
1345000 60.0864 218.713 55.755 0.67245 -0.00477375
1345200 60.0864 218.726 55.755 0.67255 -0.0322251
1345400 60.0864 218.739 55.755 0.67265 -0.0208962
1345600 60.0864 218.752 55.755 0.67275 -0.0165349
1345800 60.0864 218.765 55.755 0.67285 -0.0215174
1346000 60.0864 218.778 55.755 0.67295 -0.001275
1346200 60.0864 218.791 55.755 0.67305 0.00134208
1346400 60.0864 218.804 55.755 0.67315 -0.000666021
1346600 60.0864 218.817 55.755 0.67325 0.0108426
1346800 60.0864 218.831 55.755 0.67335 0.0182318
1347000 60.0864 218.844 55.755 0.67345 0.0360638
1347200 60.0864 218.857 55.755 0.67355 0.0455847
1347400 60.0864 218.87 55.755 0.67365 0.0118459
1347600 60.0864 218.883 55.755 0.67375 0.0399839
1347800 60.0864 218.896 55.755 0.67385 0.00921169
1348000 60.0864 218.909 55.755 0.67395 0.00962716
1348200 60.0864 218.922 55.755 0.67405 0.0107353
1348400 60.0864 218.935 55.755 0.67415 -0.00163608
1348600 60.0864 218.948 55.755 0.67425 0.00465318
1348800 60.0864 218.961 55.755 0.67435 -0.0359405
1349000 60.0864 218.974 55.755 0.67445 -0.0136933
1349200 60.0864 218.987 55.755 0.67455 -0.036245
1349400 60.0864 219.001 55.755 0.67465 -0.0240285
1349600 60.0864 219.014 55.755 0.67475 -0.0169721
1349800 60.0864 219.027 55.755 0.67485 -0.0168008
1350000 60.0864 219.04 55.755 0.67495 -0.00129588
1350200 60.0864 219.053 55.755 0.67505 0.0109447
1350400 60.0864 219.066 55.755 0.67515 0.0157827
1350600 60.0864 219.079 55.755 0.67525 0.0129934
1350800 60.0864 219.092 55.755 0.67535 0.0306387
1351000 60.0864 219.105 55.755 0.67545 0.0381825
1351200 60.0864 219.118 55.755 0.67555 0.0385285
1351400 60.0864 219.131 55.755 0.67565 0.0160291
1351600 60.0864 219.144 55.755 0.67575 0.0252511
1351800 60.0864 219.157 55.755 0.67585 0.0122926
1352000 60.0864 219.171 55.755 0.67595 0.0152024
1352200 60.0864 219.184 55.755 0.67605 -0.001325
1352400 60.0864 219.197 55.755 0.67615 -0.0133853
1352600 60.0864 219.21 55.755 0.67625 -0.0112325
1352800 60.0864 219.223 55.755 0.67635 -0.0373763
1353000 60.0864 219.236 55.755 0.67645 -0.00778758
1353200 60.0864 219.249 55.755 0.67655 -0.0197407
1353400 60.0864 219.262 55.755 0.67665 -0.0266193
1353600 60.0864 219.275 55.755 0.67675 0.0125999
1353800 60.0864 219.288 55.755 0.67685 -0.0196166
1354000 60.0864 219.301 55.755 0.67695 0.00142809
1354200 60.0864 219.314 55.755 0.67705 -0.00896052
1354400 60.0864 219.328 55.755 0.67715 0.0298772
1354600 60.0864 219.341 55.755 0.67725 0.0265318
1354800 60.0864 219.354 55.755 0.67735 0.0138213
1355000 60.0864 219.367 55.755 0.67745 0.0181887
1355200 60.0864 219.38 55.755 0.67755 0.0345847
1355400 60.0864 219.393 55.755 0.67765 0.0291216
1355600 60.0864 219.406 55.755 0.67775 0.0123929
1355800 60.0864 219.419 55.755 0.67785 0.0141763
1356000 60.0864 219.432 55.755 0.67795 -0.00216077
1356200 60.0864 219.445 55.755 0.67805 0.0119454
1356400 60.0864 219.458 55.755 0.67815 -0.00938531
1356600 60.0864 219.471 55.755 0.67825 -0.00373911
1356800 60.0864 219.484 55.755 0.67835 -0.00392832
1357000 60.0864 219.498 55.755 0.67845 -0.0182222
1357200 60.0864 219.511 55.755 0.67855 -0.0168184
1357400 60.0864 219.524 55.755 0.67865 -0.026695
1357600 60.0864 219.537 55.755 0.67875 -0.0133862
1357800 60.0864 219.55 55.755 0.67885 -0.00892479
1358000 60.0864 219.563 55.755 0.67895 0.000914326
1358200 60.0864 219.576 55.755 0.67905 0.00539096
1358400 60.0864 219.589 55.755 0.67915 0.0243487
1358600 60.0864 219.602 55.755 0.67925 -0.000572592
1358800 60.0864 219.615 55.755 0.67935 0.0188423
1359000 60.0864 219.628 55.755 0.67945 0.0331703
1359200 60.0864 219.641 55.755 0.67955 0.0274287
1359400 60.0864 219.654 55.755 0.67965 0.0250414
1359600 60.0864 219.668 55.755 0.67975 0.0197954
1359800 60.0864 219.681 55.755 0.67985 0.0096614
1360000 60.0864 219.694 55.755 0.67995 0.00303402
1360200 60.0864 219.707 55.755 0.68005 -0.0179571
1360400 60.0864 219.72 55.755 0.68015 0.0138229
1360600 60.0864 219.733 55.755 0.68025 -0.00755958
1360800 60.0864 219.746 55.755 0.68035 -0.00573333
1361000 60.0864 219.759 55.755 0.68045 -0.0273587
1361200 60.0864 219.772 55.755 0.68055 -0.019819
1361400 60.0864 219.785 55.755 0.68065 -0.00956028
1361600 60.0864 219.798 55.755 0.68075 -0.0202041
1361800 60.0864 219.811 55.755 0.68085 -0.00447529
1362000 60.0864 219.824 55.755 0.68095 0.00724232
1362200 60.0864 219.838 55.755 0.68105 0.0176931
1362400 60.0864 219.851 55.755 0.68115 0.00572409
1362600 60.0864 219.864 55.755 0.68125 0.00639303
1362800 60.0864 219.877 55.755 0.68135 0.0123683
1363000 60.0864 219.89 55.755 0.68145 0.0319552
1363200 60.0864 219.903 55.755 0.68155 0.0248184
1363400 60.0864 219.916 55.755 0.68165 0.0277764
1363600 60.0864 219.929 55.755 0.68175 0.00923244
1363800 60.0864 219.942 55.755 0.68185 0.00988895
1364000 60.0864 219.955 55.755 0.68195 0.0172335
1364200 60.0864 219.968 55.755 0.68205 0.0141001
1364400 60.0864 219.981 55.755 0.68215 -0.00388288
1364600 60.0864 219.994 55.755 0.68225 -0.0135175
1364800 60.0864 220.008 55.755 0.68235 0.00390994
1365000 60.0864 220.021 55.755 0.68245 -0.0263939
1365200 60.0864 220.034 55.755 0.68255 -0.0131955
1365400 60.0864 220.047 55.755 0.68265 -0.012285
1365600 60.0864 220.06 55.755 0.68275 -0.0271074
1365800 60.0864 220.073 55.755 0.68285 -0.00624202
1366000 60.0864 220.086 55.755 0.68295 -0.0230525
1366200 60.0864 220.099 55.755 0.68305 -0.00127356
1366400 60.0864 220.112 55.755 0.68315 0.0177163
1366600 60.0864 220.125 55.755 0.68325 0.0206565
1366800 60.0864 220.138 55.755 0.68335 0.0239743
1367000 60.0864 220.151 55.755 0.68345 0.0192154
1367200 60.0864 220.164 55.755 0.68355 0.0316714
1367400 60.0864 220.178 55.755 0.68365 0.024397
1367600 60.0864 220.191 55.755 0.68375 0.018531
1367800 60.0864 220.204 55.755 0.68385 0.0393734
1368000 60.0864 220.217 55.755 0.68395 0.00425215
1368200 60.0864 220.23 55.755 0.68405 0.00327186
1368400 60.0864 220.243 55.755 0.68415 0.00711508
1368600 60.0864 220.256 55.755 0.68425 -0.0103343
1368800 60.0864 220.269 55.755 0.68435 -0.0172221
1369000 60.0864 220.282 55.755 0.68445 -0.00582181
1369200 60.0864 220.295 55.755 0.68455 -0.0315885
1369400 60.0864 220.308 55.755 0.68465 -0.0088652
1369600 60.0864 220.321 55.755 0.68475 -0.0199644
1369800 60.0864 220.334 55.755 0.68485 -0.0245316
1370000 60.0864 220.348 55.755 0.68495 -0.0158545
1370200 60.0864 220.361 55.755 0.68505 -0.000849651
1370400 60.0864 220.374 55.755 0.68515 0.00237431
1370600 60.0864 220.387 55.755 0.68525 0.0172206
1370800 60.0864 220.4 55.755 0.68535 0.0262092
1371000 60.0864 220.413 55.755 0.68545 0.0306336
1371200 60.0864 220.426 55.755 0.68555 0.0239557
1371400 60.0864 220.439 55.755 0.68565 0.00380434
1371600 60.0864 220.452 55.755 0.68575 0.0312615
1371800 60.0864 220.465 55.755 0.68585 0.0489203
1372000 60.0864 220.478 55.755 0.68595 0.0238065
1372200 60.0864 220.491 55.755 0.68605 0.0176685
1372400 60.0864 220.504 55.755 0.68615 -0.00467358
1372600 60.0864 220.518 55.755 0.68625 -0.0114994
1372800 60.0864 220.531 55.755 0.68635 -0.0149918
1373000 60.0864 220.544 55.755 0.68645 -0.0345882
1373200 60.0864 220.557 55.755 0.68655 -0.00727569
1373400 60.0864 220.57 55.755 0.68665 -0.00551933
1373600 60.0864 220.583 55.755 0.68675 -0.026213
1373800 60.0864 220.596 55.755 0.68685 -0.0167598
1374000 60.0864 220.609 55.755 0.68695 -0.0277251
1374200 60.0864 220.622 55.755 0.68705 0.00590897
1374400 60.0864 220.635 55.755 0.68715 -9.98701e-05
1374600 60.0864 220.648 55.755 0.68725 0.0195955
1374800 60.0864 220.661 55.755 0.68735 0.0343833
1375000 60.0864 220.674 55.755 0.68745 0.00475257
1375200 60.0864 220.688 55.755 0.68755 0.0326722
1375400 60.0864 220.701 55.755 0.68765 0.0124666
1375600 60.0864 220.714 55.755 0.68775 0.0209308
1375800 60.0864 220.727 55.755 0.68785 0.0288603
1376000 60.0864 220.74 55.755 0.68795 0.0137876
1376200 60.0864 220.753 55.755 0.68805 0.0318663
1376400 60.0864 220.766 55.755 0.68815 -0.00498264
1376600 60.0864 220.779 55.755 0.68825 -0.00451529
1376800 60.0864 220.792 55.755 0.68835 -0.0184569
1377000 60.0864 220.805 55.755 0.68845 -0.00786841
1377200 60.0864 220.818 55.755 0.68855 -0.0129049
1377400 60.0864 220.831 55.755 0.68865 -0.0169631
1377600 60.0864 220.844 55.755 0.68875 -0.0128472
1377800 60.0864 220.858 55.755 0.68885 -0.00852214
1378000 60.0864 220.871 55.755 0.68895 -0.0228155
1378200 60.0864 220.884 55.755 0.68905 -6.35033e-05
1378400 60.0864 220.897 55.755 0.68915 0.00342684
1378600 60.0864 220.91 55.755 0.68925 0.0150861
1378800 60.0864 220.923 55.755 0.68935 0.000851132
1379000 60.0864 220.936 55.755 0.68945 0.0267776
1379200 60.0864 220.949 55.755 0.68955 0.0193702
1379400 60.0864 220.962 55.755 0.68965 0.0261844
1379600 60.0864 220.975 55.755 0.68975 0.0121811
1379800 60.0864 220.988 55.755 0.68985 0.03235
1380000 60.0864 221.001 55.755 0.68995 -0.00256207
1380200 60.0864 221.014 55.755 0.69005 0.0243217
1380400 60.0864 221.028 55.755 0.69015 0.0118423
1380600 60.0864 221.041 55.755 0.69025 -0.00375492
1380800 60.0864 221.054 55.755 0.69035 0.00109932
1381000 60.0864 221.067 55.755 0.69045 -0.00411491
1381200 60.0864 221.08 55.755 0.69055 -0.0121538
1381400 60.0864 221.093 55.755 0.69065 -0.0199273
1381600 60.0864 221.106 55.755 0.69075 -0.00817959
1381800 60.0864 221.119 55.755 0.69085 -0.0158818
1382000 60.0864 221.132 55.755 0.69095 -0.0269205
1382200 60.0864 221.145 55.755 0.69105 -0.00676473
1382400 60.0864 221.158 55.755 0.69115 0.00611819
1382600 60.0864 221.171 55.755 0.69125 -0.00382915
1382800 60.0864 221.184 55.755 0.69135 0.0122398
1383000 60.0864 221.198 55.755 0.69145 0.0247433
1383200 60.0864 221.211 55.755 0.69155 0.0170004
1383400 60.0864 221.224 55.755 0.69165 0.0242021
1383600 60.0864 221.237 55.755 0.69175 0.0245053
1383800 60.0864 221.25 55.755 0.69185 0.0198765
1384000 60.0864 221.263 55.755 0.69195 0.0205564
1384200 60.0864 221.276 55.755 0.69205 0.00370926
1384400 60.0864 221.289 55.755 0.69215 0.0148454
1384600 60.0864 221.302 55.755 0.69225 0.0233633
1384800 60.0864 221.315 55.755 0.69235 -0.00227946
1385000 60.0864 221.328 55.755 0.69245 -0.00917349
1385200 60.0864 221.341 55.755 0.69255 -0.0154887
1385400 60.0864 221.355 55.755 0.69265 -0.0166353
1385600 60.0864 221.368 55.755 0.69275 -0.00658232
1385800 60.0864 221.381 55.755 0.69285 -0.0249753
1386000 60.0864 221.394 55.755 0.69295 -0.0167777
1386200 60.0864 221.407 55.755 0.69305 -0.00933516
1386400 60.0864 221.42 55.755 0.69315 0.00126557
1386600 60.0864 221.433 55.755 0.69325 -0.0146095
1386800 60.0864 221.446 55.755 0.69335 0.0139102
1387000 60.0864 221.459 55.755 0.69345 0.0135927
1387200 60.0864 221.472 55.755 0.69355 0.0357481
1387400 60.0864 221.485 55.755 0.69365 0.00888655
1387600 60.0864 221.498 55.755 0.69375 0.0241968
1387800 60.0864 221.511 55.755 0.69385 0.0270411
1388000 60.0864 221.525 55.755 0.69395 0.00675574
1388200 60.0864 221.538 55.755 0.69405 0.0236571
1388400 60.0864 221.551 55.755 0.69415 0.0168523
1388600 60.0864 221.564 55.755 0.69425 0.00505529
1388800 60.0864 221.577 55.755 0.69435 0.00302147
1389000 60.0864 221.59 55.755 0.69445 -0.0011702
1389200 60.0864 221.603 55.755 0.69455 -0.0197527
1389400 60.0864 221.616 55.755 0.69465 -0.0334986
1389600 60.0864 221.629 55.755 0.69475 -0.00389175
1389800 60.0864 221.642 55.755 0.69485 0.00724935
1390000 60.0864 221.655 55.755 0.69495 -0.0222095
1390200 60.0864 221.668 55.755 0.69505 -0.0167322
1390400 60.0864 221.681 55.755 0.69515 0.00352586
1390600 60.0864 221.695 55.755 0.69525 -0.00980405
1390800 60.0864 221.708 55.755 0.69535 -0.00222608
1391000 60.0864 221.721 55.755 0.69545 0.0207377
1391200 60.0864 221.734 55.755 0.69555 0.0334973
1391400 60.0864 221.747 55.755 0.69565 0.0205339
1391600 60.0864 221.76 55.755 0.69575 0.0348433
1391800 60.0864 221.773 55.755 0.69585 -0.00422702
1392000 60.0864 221.786 55.755 0.69595 0.0225177
1392200 60.0864 221.799 55.755 0.69605 0.0186554
1392400 60.0864 221.812 55.755 0.69615 0.0110315
1392600 60.0864 221.825 55.755 0.69625 0.0100623
1392800 60.0864 221.838 55.755 0.69635 0.0118147
1393000 60.0864 221.851 55.755 0.69645 -0.00639028
1393200 60.0864 221.865 55.755 0.69655 -0.0160051
1393400 60.0864 221.878 55.755 0.69665 -0.0239602
1393600 60.0864 221.891 55.755 0.69675 -0.0281041
1393800 60.0864 221.904 55.755 0.69685 -0.0133634
1394000 60.0864 221.917 55.755 0.69695 0.000987906
1394200 60.0864 221.93 55.755 0.69705 0.00740622
1394400 60.0864 221.943 55.755 0.69715 -0.00913357
1394600 60.0864 221.956 55.755 0.69725 0.00409117
1394800 60.0864 221.969 55.755 0.69735 0.00599026
1395000 60.0864 221.982 55.755 0.69745 0.0251826
1395200 60.0864 221.995 55.755 0.69755 0.0176322
1395400 60.0864 222.008 55.755 0.69765 0.0359929
1395600 60.0864 222.021 55.755 0.69775 0.0103034
1395800 60.0864 222.035 55.755 0.69785 0.000651931
1396000 60.0864 222.048 55.755 0.69795 0.0101817
1396200 60.0864 222.061 55.755 0.69805 0.0160654
1396400 60.0864 222.074 55.755 0.69815 0.0100736
1396600 60.0864 222.087 55.755 0.69825 0.000110614
1396800 60.0864 222.1 55.755 0.69835 -0.00343649
1397000 60.0864 222.113 55.755 0.69845 -0.011442
1397200 60.0864 222.126 55.755 0.69855 0.00896513
1397400 60.0864 222.139 55.755 0.69865 -0.00776795
1397600 60.0864 222.152 55.755 0.69875 -0.023875
1397800 60.0864 222.165 55.755 0.69885 -0.018916
1398000 60.0864 222.178 55.755 0.69895 0.00430662
1398200 60.0864 222.191 55.755 0.69905 0.00160658
1398400 60.0864 222.205 55.755 0.69915 0.00372098
1398600 60.0864 222.218 55.755 0.69925 -0.00664534
1398800 60.0864 222.231 55.755 0.69935 0.0236037
1399000 60.0864 222.244 55.755 0.69945 0.00997855
1399200 60.0864 222.257 55.755 0.69955 0.0141932
1399400 60.0864 222.27 55.755 0.69965 0.0125418
1399600 60.0864 222.283 55.755 0.69975 0.00559689
1399800 60.0864 222.296 55.755 0.69985 0.0179674
1400000 60.0864 222.309 55.755 0.69995 0.0255467
1400200 60.0864 222.322 55.755 0.70005 0.00294876
1400400 60.0864 222.335 55.755 0.70015 0.00871856
1400600 60.0864 222.348 55.755 0.70025 -0.00772595
1400800 60.0864 222.361 55.755 0.70035 -0.0163168
1401000 60.0864 222.375 55.755 0.70045 0.0185517
1401200 60.0864 222.388 55.755 0.70055 -0.00328726
1401400 60.0864 222.401 55.755 0.70065 0.0124839
1401600 60.0864 222.414 55.755 0.70075 -0.021654
1401800 60.0864 222.427 55.755 0.70085 -0.0091685
1402000 60.0864 222.44 55.755 0.70095 -0.0179316
1402200 60.0864 222.453 55.755 0.70105 -0.00206489
1402400 60.0864 222.466 55.755 0.70115 -0.00412722
1402600 60.0864 222.479 55.755 0.70125 0.0237423
1402800 60.0864 222.492 55.755 0.70135 0.00285751
1403000 60.0864 222.505 55.755 0.70145 0.0153875
1403200 60.0864 222.518 55.755 0.70155 0.0101529
1403400 60.0864 222.531 55.755 0.70165 3.06311e-05
1403600 60.0864 222.545 55.755 0.70175 0.0207917
1403800 60.0864 222.558 55.755 0.70185 0.0106646
1404000 60.0864 222.571 55.755 0.70195 0.0161142
1404200 60.0864 222.584 55.755 0.70205 0.0201352
1404400 60.0864 222.597 55.755 0.70215 0.0103492
1404600 60.0864 222.61 55.755 0.70225 0.0144305
1404800 60.0864 222.623 55.755 0.70235 -0.0216089
1405000 60.0864 222.636 55.755 0.70245 -0.0112972
1405200 60.0864 222.649 55.755 0.70255 0.00978975
1405400 60.0864 222.662 55.755 0.70265 -0.00540679
1405600 60.0864 222.675 55.755 0.70275 0.00950494
1405800 60.0864 222.688 55.755 0.70285 0.00706729
1406000 60.0864 222.701 55.755 0.70295 -0.0153539
1406200 60.0864 222.715 55.755 0.70305 -0.0134207
1406400 60.0864 222.728 55.755 0.70315 -0.0276926
1406600 60.0864 222.741 55.755 0.70325 0.00597802
1406800 60.0864 222.754 55.755 0.70335 0.00855551
1407000 60.0864 222.767 55.755 0.70345 0.000812264
1407200 60.0864 222.78 55.755 0.70355 0.0142505
1407400 60.0864 222.793 55.755 0.70365 0.0230033
1407600 60.0864 222.806 55.755 0.70375 -0.0154851
1407800 60.0864 222.819 55.755 0.70385 0.0230028
1408000 60.0864 222.832 55.755 0.70395 0.0259781
1408200 60.0864 222.845 55.755 0.70405 0.0194916
1408400 60.0864 222.858 55.755 0.70415 0.0229268
1408600 60.0864 222.871 55.755 0.70425 0.00807227
1408800 60.0864 222.885 55.755 0.70435 0.0255424
1409000 60.0864 222.898 55.755 0.70445 -0.0213073
1409200 60.0864 222.911 55.755 0.70455 -0.000844991
1409400 60.0864 222.924 55.755 0.70465 0.000867997
1409600 60.0864 222.937 55.755 0.70475 0.00253021
1409800 60.0864 222.95 55.755 0.70485 -0.01681
1410000 60.0864 222.963 55.755 0.70495 -0.0169375
1410200 60.0864 222.976 55.755 0.70505 -0.00943802
1410400 60.0864 222.989 55.755 0.70515 -0.0266437
1410600 60.0864 223.002 55.755 0.70525 -0.0100052
1410800 60.0864 223.015 55.755 0.70535 0.00300984
1411000 60.0864 223.028 55.755 0.70545 0.00555489
1411200 60.0864 223.041 55.755 0.70555 -0.00162868
1411400 60.0864 223.055 55.755 0.70565 0.0188972
1411600 60.0864 223.068 55.755 0.70575 0.0199186
1411800 60.0864 223.081 55.755 0.70585 0.00853621
1412000 60.0864 223.094 55.755 0.70595 0.027148
1412200 60.0864 223.107 55.755 0.70605 0.0403622
1412400 60.0864 223.12 55.755 0.70615 0.0340351
1412600 60.0864 223.133 55.755 0.70625 0.0274303
1412800 60.0864 223.146 55.755 0.70635 0.00657464
1413000 60.0864 223.159 55.755 0.70645 -0.000686809
1413200 60.0864 223.172 55.755 0.70655 -0.00471624
1413400 60.0864 223.185 55.755 0.70665 -0.00725287
1413600 60.0864 223.198 55.755 0.70675 -0.00548957
1413800 60.0864 223.211 55.755 0.70685 -0.00790389
1414000 60.0864 223.225 55.755 0.70695 -0.0278638
1414200 60.0864 223.238 55.755 0.70705 -0.0243529
1414400 60.0864 223.251 55.755 0.70715 -0.0386095
1414600 60.0864 223.264 55.755 0.70725 -0.0267091
1414800 60.0864 223.277 55.755 0.70735 0.0100296
1415000 60.0864 223.29 55.755 0.70745 -0.0134548
1415200 60.0864 223.303 55.755 0.70755 0.0306437
1415400 60.0864 223.316 55.755 0.70765 0.0195424
1415600 60.0864 223.329 55.755 0.70775 0.00945993
1415800 60.0864 223.342 55.755 0.70785 0.025164
1416000 60.0864 223.355 55.755 0.70795 0.0331833
1416200 60.0864 223.368 55.755 0.70805 0.0346417
1416400 60.0864 223.381 55.755 0.70815 0.0314252
1416600 60.0864 223.395 55.755 0.70825 0.0279209
1416800 60.0864 223.408 55.755 0.70835 0.025588
1417000 60.0864 223.421 55.755 0.70845 0.00527755
1417200 60.0864 223.434 55.755 0.70855 -0.0089509
1417400 60.0864 223.447 55.755 0.70865 -0.00669618
1417600 60.0864 223.46 55.755 0.70875 -0.0251182
1417800 60.0864 223.473 55.755 0.70885 -0.0149367
1418000 60.0864 223.486 55.755 0.70895 -0.0143459
1418200 60.0864 223.499 55.755 0.70905 -0.0283752
1418400 60.0864 223.512 55.755 0.70915 -0.0418239
1418600 60.0864 223.525 55.755 0.70925 0.000786077
1418800 60.0864 223.538 55.755 0.70935 -0.0274189
1419000 60.0864 223.552 55.755 0.70945 0.00314963
1419200 60.0864 223.565 55.755 0.70955 0.0173655
1419400 60.0864 223.578 55.755 0.70965 0.0279589
1419600 60.0864 223.591 55.755 0.70975 0.00623743
1419800 60.0864 223.604 55.755 0.70985 0.0464656
1420000 60.0864 223.617 55.755 0.70995 0.0251962
1420200 60.0864 223.63 55.755 0.71005 0.0370026
1420400 60.0864 223.643 55.755 0.71015 0.0180008
1420600 60.0864 223.656 55.755 0.71025 0.0348808
1420800 60.0864 223.669 55.755 0.71035 0.0193533
1421000 60.0864 223.682 55.755 0.71045 0.0119013
1421200 60.0864 223.695 55.755 0.71055 0.000649435
1421400 60.0864 223.708 55.755 0.71065 -0.0215699
1421600 60.0864 223.722 55.755 0.71075 -0.0126861
1421800 60.0864 223.735 55.755 0.71085 -0.0228445
1422000 60.0864 223.748 55.755 0.71095 -0.0230601
1422200 60.0864 223.761 55.755 0.71105 -0.0388466
1422400 60.0864 223.774 55.755 0.71115 -0.030377
1422600 60.0864 223.787 55.755 0.71125 -0.0196692
1422800 60.0864 223.8 55.755 0.71135 -0.00457231
1423000 60.0864 223.813 55.755 0.71145 -0.00835507
1423200 60.0864 223.826 55.755 0.71155 0.0113198
1423400 60.0864 223.839 55.755 0.71165 0.00960444
1423600 60.0864 223.852 55.755 0.71175 0.0372792
1423800 60.0864 223.865 55.755 0.71185 0.0356797
1424000 60.0864 223.878 55.755 0.71195 0.024607
1424200 60.0864 223.892 55.755 0.71205 0.0523625
1424400 60.0864 223.905 55.755 0.71215 0.0458751
1424600 60.0864 223.918 55.755 0.71225 0.0207096
1424800 60.0864 223.931 55.755 0.71235 0.0349789
1425000 60.0864 223.944 55.755 0.71245 0.00807038
1425200 60.0864 223.957 55.755 0.71255 -0.0128192
1425400 60.0864 223.97 55.755 0.71265 -0.0147414
1425600 60.0864 223.983 55.755 0.71275 -0.0255169
1425800 60.0864 223.996 55.755 0.71285 -0.0258401
1426000 60.0864 224.009 55.755 0.71295 -0.039234
1426200 60.0864 224.022 55.755 0.71305 -0.0391101
1426400 60.0864 224.035 55.755 0.71315 -0.0207584
1426600 60.0864 224.048 55.755 0.71325 -0.0299201
1426800 60.0864 224.062 55.755 0.71335 -0.00189745
1427000 60.0864 224.075 55.755 0.71345 0.00370739
1427200 60.0864 224.088 55.755 0.71355 0.0115031
1427400 60.0864 224.101 55.755 0.71365 0.0318224
1427600 60.0864 224.114 55.755 0.71375 0.0254364
1427800 60.0864 224.127 55.755 0.71385 0.0379456
1428000 60.0864 224.14 55.755 0.71395 0.0445647
1428200 60.0864 224.153 55.755 0.71405 0.0327063
1428400 60.0864 224.166 55.755 0.71415 0.0279505
1428600 60.0864 224.179 55.755 0.71425 0.0195158
1428800 60.0864 224.192 55.755 0.71435 0.0237329
1429000 60.0864 224.205 55.755 0.71445 0.00966396
1429200 60.0864 224.218 55.755 0.71455 -0.00566946
1429400 60.0864 224.232 55.755 0.71465 -0.00526533
1429600 60.0864 224.245 55.755 0.71475 -0.0172224
1429800 60.0864 224.258 55.755 0.71485 -0.036403
1430000 60.0864 224.271 55.755 0.71495 -0.0348982
1430200 60.0864 224.284 55.755 0.71505 -0.0407812
1430400 60.0864 224.297 55.755 0.71515 -0.0239181
1430600 60.0864 224.31 55.755 0.71525 -0.00410228
1430800 60.0864 224.323 55.755 0.71535 -0.0108481
1431000 60.0864 224.336 55.755 0.71545 -0.0133622
1431200 60.0864 224.349 55.755 0.71555 0.0205709
1431400 60.0864 224.362 55.755 0.71565 0.0166663
1431600 60.0864 224.375 55.755 0.71575 0.0282067
1431800 60.0864 224.388 55.755 0.71585 0.0510267
1432000 60.0864 224.402 55.755 0.71595 0.0459886
1432200 60.0864 224.415 55.755 0.71605 0.0336644
1432400 60.0864 224.428 55.755 0.71615 0.0175514
1432600 60.0864 224.441 55.755 0.71625 0.0270613
1432800 60.0864 224.454 55.755 0.71635 0.0208289
1433000 60.0864 224.467 55.755 0.71645 0.00768842
1433200 60.0864 224.48 55.755 0.71655 -0.0176615
1433400 60.0864 224.493 55.755 0.71665 -0.0112215
1433600 60.0864 224.506 55.755 0.71675 -0.0316057
1433800 60.0864 224.519 55.755 0.71685 -0.0138995
1434000 60.0864 224.532 55.755 0.71695 -0.029371
1434200 60.0864 224.545 55.755 0.71705 -0.0359881
1434400 60.0864 224.558 55.755 0.71715 -0.0187999
1434600 60.0864 224.572 55.755 0.71725 -0.0137523
1434800 60.0864 224.585 55.755 0.71735 -0.0160807
1435000 60.0864 224.598 55.755 0.71745 0.0133446
1435200 60.0864 224.611 55.755 0.71755 -0.0038084
1435400 60.0864 224.624 55.755 0.71765 0.0196416
1435600 60.0864 224.637 55.755 0.71775 0.0377421
1435800 60.0864 224.65 55.755 0.71785 0.0302562
1436000 60.0864 224.663 55.755 0.71795 0.0311333
1436200 60.0864 224.676 55.755 0.71805 0.0393808
1436400 60.0864 224.689 55.755 0.71815 0.038531
1436600 60.0864 224.702 55.755 0.71825 0.0198957
1436800 60.0864 224.715 55.755 0.71835 0.00991168
1437000 60.0864 224.728 55.755 0.71845 0.0127204
1437200 60.0864 224.742 55.755 0.71855 0.0077939
1437400 60.0864 224.755 55.755 0.71865 -0.0121763
1437600 60.0864 224.768 55.755 0.71875 -0.0149795
1437800 60.0864 224.781 55.755 0.71885 -0.013302
1438000 60.0864 224.794 55.755 0.71895 -0.0334584
1438200 60.0864 224.807 55.755 0.71905 -0.00778263
1438400 60.0864 224.82 55.755 0.71915 -0.0392686
1438600 60.0864 224.833 55.755 0.71925 -0.0287283
1438800 60.0864 224.846 55.755 0.71935 -0.0311411
1439000 60.0864 224.859 55.755 0.71945 0.00776893
1439200 60.0864 224.872 55.755 0.71955 0.00790017
1439400 60.0864 224.885 55.755 0.71965 -0.0121543
1439600 60.0864 224.898 55.755 0.71975 0.0236383
1439800 60.0864 224.912 55.755 0.71985 0.0357157
1440000 60.0864 224.925 55.755 0.71995 0.0469025
1440200 60.0864 224.938 55.755 0.72005 0.0395636
1440400 60.0864 224.951 55.755 0.72015 0.0359867
1440600 60.0864 224.964 55.755 0.72025 0.0459433
1440800 60.0864 224.977 55.755 0.72035 0.0190601
1441000 60.0864 224.99 55.755 0.72045 0.0181863
1441200 60.0864 225.003 55.755 0.72055 0.000999149
1441400 60.0864 225.016 55.755 0.72065 -0.011863
1441600 60.0864 225.029 55.755 0.72075 -0.00899006
1441800 60.0864 225.042 55.755 0.72085 -0.0150698
1442000 60.0864 225.055 55.755 0.72095 -0.0195859
1442200 60.0864 225.068 55.755 0.72105 -0.0498947
1442400 60.0864 225.082 55.755 0.72115 -0.0483283
1442600 60.0864 225.095 55.755 0.72125 -0.0231814
1442800 60.0864 225.108 55.755 0.72135 -0.0191068
1443000 60.0864 225.121 55.755 0.72145 -0.00507759
1443200 60.0864 225.134 55.755 0.72155 0.00946274
1443400 60.0864 225.147 55.755 0.72165 0.0162025
1443600 60.0864 225.16 55.755 0.72175 0.0114043
1443800 60.0864 225.173 55.755 0.72185 0.0288458
1444000 60.0864 225.186 55.755 0.72195 0.0334006
1444200 60.0864 225.199 55.755 0.72205 0.039639
1444400 60.0864 225.212 55.755 0.72215 0.0589292
1444600 60.0864 225.225 55.755 0.72225 0.0393706
1444800 60.0864 225.238 55.755 0.72235 0.0266333
1445000 60.0864 225.252 55.755 0.72245 0.00280881
1445200 60.0864 225.265 55.755 0.72255 0.0117746
1445400 60.0864 225.278 55.755 0.72265 -0.0039098
1445600 60.0864 225.291 55.755 0.72275 -0.0244761
1445800 60.0864 225.304 55.755 0.72285 -0.0220448
1446000 60.0864 225.317 55.755 0.72295 -0.00686077
1446200 60.0864 225.33 55.755 0.72305 -0.0466972
1446400 60.0864 225.343 55.755 0.72315 -0.0524721
1446600 60.0864 225.356 55.755 0.72325 -0.0325154
1446800 60.0864 225.369 55.755 0.72335 -0.0281259
1447000 60.0864 225.382 55.755 0.72345 0.00218102
1447200 60.0864 225.395 55.755 0.72355 0.0129097
1447400 60.0864 225.408 55.755 0.72365 0.0133173
1447600 60.0864 225.422 55.755 0.72375 0.0117016
1447800 60.0864 225.435 55.755 0.72385 0.0308915
1448000 60.0864 225.448 55.755 0.72395 0.060773
1448200 60.0864 225.461 55.755 0.72405 0.0376703
1448400 60.0864 225.474 55.755 0.72415 0.0391629
1448600 60.0864 225.487 55.755 0.72425 0.0202074
1448800 60.0864 225.5 55.755 0.72435 0.0453966
1449000 60.0864 225.513 55.755 0.72445 0.0350451
1449200 60.0864 225.526 55.755 0.72455 0.00933354
1449400 60.0864 225.539 55.755 0.72465 -0.0181351
1449600 60.0864 225.552 55.755 0.72475 -0.0236004
1449800 60.0864 225.565 55.755 0.72485 -0.0276527
1450000 60.0864 225.578 55.755 0.72495 -0.0151672
1450200 60.0864 225.592 55.755 0.72505 -0.0381376
1450400 60.0864 225.605 55.755 0.72515 -0.0506553
1450600 60.0864 225.618 55.755 0.72525 -0.0310739
1450800 60.0864 225.631 55.755 0.72535 -0.0313172
1451000 60.0864 225.644 55.755 0.72545 -0.0221623
1451200 60.0864 225.657 55.755 0.72555 -0.00785107
1451400 60.0864 225.67 55.755 0.72565 0.00742504
1451600 60.0864 225.683 55.755 0.72575 0.0507763
1451800 60.0864 225.696 55.755 0.72585 0.0506934
1452000 60.0864 225.709 55.755 0.72595 0.0198374
1452200 60.0864 225.722 55.755 0.72605 0.0437077
1452400 60.0864 225.735 55.755 0.72615 0.0587841
1452600 60.0864 225.749 55.755 0.72625 0.0459343
1452800 60.0864 225.762 55.755 0.72635 0.0294602
1453000 60.0864 225.775 55.755 0.72645 0.0408108
1453200 60.0864 225.788 55.755 0.72655 -0.00396263
1453400 60.0864 225.801 55.755 0.72665 -0.0168109
1453600 60.0864 225.814 55.755 0.72675 -0.0114131
1453800 60.0864 225.827 55.755 0.72685 -0.0270614
1454000 60.0864 225.84 55.755 0.72695 -0.0417664
1454200 60.0864 225.853 55.755 0.72705 -0.0386508
1454400 60.0864 225.866 55.755 0.72715 -0.0290311
1454600 60.0864 225.879 55.755 0.72725 -0.0493461
1454800 60.0864 225.892 55.755 0.72735 -0.0232998
1455000 60.0864 225.905 55.755 0.72745 -0.0310384
1455200 60.0864 225.919 55.755 0.72755 -0.00144008
1455400 60.0864 225.932 55.755 0.72765 0.0201075
1455600 60.0864 225.945 55.755 0.72775 0.0381449
1455800 60.0864 225.958 55.755 0.72785 0.0456135
1456000 60.0864 225.971 55.755 0.72795 0.0353383
1456200 60.0864 225.984 55.755 0.72805 0.0399434
1456400 60.0864 225.997 55.755 0.72815 0.0436758
1456600 60.0864 226.01 55.755 0.72825 0.0291174
1456800 60.0864 226.023 55.755 0.72835 0.0441792
1457000 60.0864 226.036 55.755 0.72845 0.0408503
1457200 60.0864 226.049 55.755 0.72855 0.0105923
1457400 60.0864 226.062 55.755 0.72865 -0.001024
1457600 60.0864 226.075 55.755 0.72875 -0.0256718
1457800 60.0864 226.089 55.755 0.72885 -0.0524527
1458000 60.0864 226.102 55.755 0.72895 -0.0146266
1458200 60.0864 226.115 55.755 0.72905 -0.0375824
1458400 60.0864 226.128 55.755 0.72915 -0.033809
1458600 60.0864 226.141 55.755 0.72925 -0.051396
1458800 60.0864 226.154 55.755 0.72935 -0.0291565
1459000 60.0864 226.167 55.755 0.72945 -0.0170667
1459200 60.0864 226.18 55.755 0.72955 0.0027898
1459400 60.0864 226.193 55.755 0.72965 0.0134879
1459600 60.0864 226.206 55.755 0.72975 0.0211137
1459800 60.0864 226.219 55.755 0.72985 0.048271
1460000 60.0864 226.232 55.755 0.72995 0.0464125
1460200 60.0864 226.245 55.755 0.73005 0.0449772
1460400 60.0864 226.259 55.755 0.73015 0.0175595
1460600 60.0864 226.272 55.755 0.73025 0.0477345
1460800 60.0864 226.285 55.755 0.73035 0.0371793
1461000 60.0864 226.298 55.755 0.73045 0.0272919
1461200 60.0864 226.311 55.755 0.73055 0.0109048
1461400 60.0864 226.324 55.755 0.73065 0.00297513
1461600 60.0864 226.337 55.755 0.73075 -0.0120946
1461800 60.0864 226.35 55.755 0.73085 -0.0294453
1462000 60.0864 226.363 55.755 0.73095 -0.0323874
1462200 60.0864 226.376 55.755 0.73105 -0.0309747
1462400 60.0864 226.389 55.755 0.73115 -0.0332804
1462600 60.0864 226.402 55.755 0.73125 -0.0254383
1462800 60.0864 226.415 55.755 0.73135 -0.0416153
1463000 60.0864 226.429 55.755 0.73145 -0.0240905
1463200 60.0864 226.442 55.755 0.73155 0.000725738
1463400 60.0864 226.455 55.755 0.73165 0.0157912
1463600 60.0864 226.468 55.755 0.73175 0.0167742
1463800 60.0864 226.481 55.755 0.73185 0.0174932
1464000 60.0864 226.494 55.755 0.73195 0.0368741
1464200 60.0864 226.507 55.755 0.73205 0.0394188
1464400 60.0864 226.52 55.755 0.73215 0.0315298
1464600 60.0864 226.533 55.755 0.73225 0.0402513
1464800 60.0864 226.546 55.755 0.73235 0.0389012
1465000 60.0864 226.559 55.755 0.73245 0.0273729
1465200 60.0864 226.572 55.755 0.73255 0.0249164
1465400 60.0864 226.585 55.755 0.73265 -0.00676491
1465600 60.0864 226.599 55.755 0.73275 -0.00864893
1465800 60.0864 226.612 55.755 0.73285 -0.0168081
1466000 60.0864 226.625 55.755 0.73295 -0.0287243
1466200 60.0864 226.638 55.755 0.73305 -0.029501
1466400 60.0864 226.651 55.755 0.73315 -0.0229138
1466600 60.0864 226.664 55.755 0.73325 -0.0303065
1466800 60.0864 226.677 55.755 0.73335 -0.0331467
1467000 60.0864 226.69 55.755 0.73345 -0.0260526
1467200 60.0864 226.703 55.755 0.73355 -0.0174657
1467400 60.0864 226.716 55.755 0.73365 0.013588
1467600 60.0864 226.729 55.755 0.73375 0.0109171
1467800 60.0864 226.742 55.755 0.73385 0.0221857
1468000 60.0864 226.755 55.755 0.73395 0.0450043
1468200 60.0864 226.769 55.755 0.73405 0.0460565
1468400 60.0864 226.782 55.755 0.73415 0.0267141
1468600 60.0864 226.795 55.755 0.73425 0.043595
1468800 60.0864 226.808 55.755 0.73435 0.0431215
1469000 60.0864 226.821 55.755 0.73445 0.0226386
1469200 60.0864 226.834 55.755 0.73455 0.0158387
1469400 60.0864 226.847 55.755 0.73465 0.00821128
1469600 60.0864 226.86 55.755 0.73475 -0.00175806
1469800 60.0864 226.873 55.755 0.73485 -0.0139014
1470000 60.0864 226.886 55.755 0.73495 -0.0416584
1470200 60.0864 226.899 55.755 0.73505 -0.0304757
1470400 60.0864 226.912 55.755 0.73515 -0.0356864
1470600 60.0864 226.925 55.755 0.73525 -0.0456272
1470800 60.0864 226.939 55.755 0.73535 -0.0224632
1471000 60.0864 226.952 55.755 0.73545 -0.0155533
1471200 60.0864 226.965 55.755 0.73555 -0.00935095
1471400 60.0864 226.978 55.755 0.73565 -0.00580582
1471600 60.0864 226.991 55.755 0.73575 -0.00130285
1471800 60.0864 227.004 55.755 0.73585 0.0314301
1472000 60.0864 227.017 55.755 0.73595 0.0358816
1472200 60.0864 227.03 55.755 0.73605 0.0444541
1472400 60.0864 227.043 55.755 0.73615 0.0439966
1472600 60.0864 227.056 55.755 0.73625 0.0498773
1472800 60.0864 227.069 55.755 0.73635 0.0338684
1473000 60.0864 227.082 55.755 0.73645 0.0387613
1473200 60.0864 227.095 55.755 0.73655 0.0257859
1473400 60.0864 227.109 55.755 0.73665 0.00685495
1473600 60.0864 227.122 55.755 0.73675 -0.00910323
1473800 60.0864 227.135 55.755 0.73685 -0.0148814
1474000 60.0864 227.148 55.755 0.73695 -0.0230854
1474200 60.0864 227.161 55.755 0.73705 -0.0264195
1474400 60.0864 227.174 55.755 0.73715 -0.0381769
1474600 60.0864 227.187 55.755 0.73725 -0.0500294
1474800 60.0864 227.2 55.755 0.73735 -0.0528629
1475000 60.0864 227.213 55.755 0.73745 -0.0232263
1475200 60.0864 227.226 55.755 0.73755 0.00100023
1475400 60.0864 227.239 55.755 0.73765 -0.0088124
1475600 60.0864 227.252 55.755 0.73775 0.0106944
1475800 60.0864 227.265 55.755 0.73785 0.0143193
1476000 60.0864 227.279 55.755 0.73795 0.0264076
1476200 60.0864 227.292 55.755 0.73805 0.0379486
1476400 60.0864 227.305 55.755 0.73815 0.0466612
1476600 60.0864 227.318 55.755 0.73825 0.0641348
1476800 60.0864 227.331 55.755 0.73835 0.0404404
1477000 60.0864 227.344 55.755 0.73845 0.0334816
1477200 60.0864 227.357 55.755 0.73855 0.0320824
1477400 60.0864 227.37 55.755 0.73865 0.00819513
1477600 60.0864 227.383 55.755 0.73875 0.0014476
1477800 60.0864 227.396 55.755 0.73885 -0.0021962
1478000 60.0864 227.409 55.755 0.73895 -0.034987
1478200 60.0864 227.422 55.755 0.73905 -0.031764
1478400 60.0864 227.435 55.755 0.73915 -0.0402056
1478600 60.0864 227.449 55.755 0.73925 -0.0365289
1478800 60.0864 227.462 55.755 0.73935 -0.0421341
1479000 60.0864 227.475 55.755 0.73945 -0.0328505
1479200 60.0864 227.488 55.755 0.73955 -0.0304378
1479400 60.0864 227.501 55.755 0.73965 -0.00530021
1479600 60.0864 227.514 55.755 0.73975 -0.00466153
1479800 60.0864 227.527 55.755 0.73985 0.0133957
1480000 60.0864 227.54 55.755 0.73995 0.0504401
1480200 60.0864 227.553 55.755 0.74005 0.0226581
1480400 60.0864 227.566 55.755 0.74015 0.0379519
1480600 60.0864 227.579 55.755 0.74025 0.0546428
1480800 60.0864 227.592 55.755 0.74035 0.0565107
1481000 60.0864 227.605 55.755 0.74045 0.0609338
1481200 60.0864 227.619 55.755 0.74055 0.0290169
1481400 60.0864 227.632 55.755 0.74065 0.0120776
1481600 60.0864 227.645 55.755 0.74075 0.00987128
1481800 60.0864 227.658 55.755 0.74085 -0.00995991
1482000 60.0864 227.671 55.755 0.74095 -0.020989
1482200 60.0864 227.684 55.755 0.74105 -0.0334941
1482400 60.0864 227.697 55.755 0.74115 -0.0509196
1482600 60.0864 227.71 55.755 0.74125 -0.0401503
1482800 60.0864 227.723 55.755 0.74135 -0.0405583
1483000 60.0864 227.736 55.755 0.74145 -0.0350387
1483200 60.0864 227.749 55.755 0.74155 -0.0389367
1483400 60.0864 227.762 55.755 0.74165 -0.000302449
1483600 60.0864 227.775 55.755 0.74175 0.00487664
1483800 60.0864 227.789 55.755 0.74185 0.0031199
1484000 60.0864 227.802 55.755 0.74195 0.0257762
1484200 60.0864 227.815 55.755 0.74205 0.046769
1484400 60.0864 227.828 55.755 0.74215 0.0541031
1484600 60.0864 227.841 55.755 0.74225 0.0487214
1484800 60.0864 227.854 55.755 0.74235 0.0440286
1485000 60.0864 227.867 55.755 0.74245 0.0522884
1485200 60.0864 227.88 55.755 0.74255 0.0349885
1485400 60.0864 227.893 55.755 0.74265 0.0271419
1485600 60.0864 227.906 55.755 0.74275 -0.00706541
1485800 60.0864 227.919 55.755 0.74285 -0.0124084
1486000 60.0864 227.932 55.755 0.74295 -0.0196229
1486200 60.0864 227.946 55.755 0.74305 -0.0190329
1486400 60.0864 227.959 55.755 0.74315 -0.0437664
1486600 60.0864 227.972 55.755 0.74325 -0.0644265
1486800 60.0864 227.985 55.755 0.74335 -0.0401717
1487000 60.0864 227.998 55.755 0.74345 -0.0324673
1487200 60.0864 228.011 55.755 0.74355 -0.0349813
1487400 60.0864 228.024 55.755 0.74365 -0.0141674
1487600 60.0864 228.037 55.755 0.74375 0.0150796
1487800 60.0864 228.05 55.755 0.74385 0.0371779
1488000 60.0864 228.063 55.755 0.74395 -0.000735612
1488200 60.0864 228.076 55.755 0.74405 0.0311874
1488400 60.0864 228.089 55.755 0.74415 0.0528349
1488600 60.0864 228.102 55.755 0.74425 0.0621874
1488800 60.0864 228.116 55.755 0.74435 0.0733546
1489000 60.0864 228.129 55.755 0.74445 0.0379181
1489200 60.0864 228.142 55.755 0.74455 0.0322283
1489400 60.0864 228.155 55.755 0.74465 0.0268633
1489600 60.0864 228.168 55.755 0.74475 -0.00686089
1489800 60.0864 228.181 55.755 0.74485 -0.0150743
1490000 60.0864 228.194 55.755 0.74495 -0.0290293
1490200 60.0864 228.207 55.755 0.74505 -0.0306163
1490400 60.0864 228.22 55.755 0.74515 -0.0464484
1490600 60.0864 228.233 55.755 0.74525 -0.0421326
1490800 60.0864 228.246 55.755 0.74535 -0.0551559
1491000 60.0864 228.259 55.755 0.74545 -0.0438668
1491200 60.0864 228.272 55.755 0.74555 -0.0317595
1491400 60.0864 228.286 55.755 0.74565 -0.0280947
1491600 60.0864 228.299 55.755 0.74575 0.0391359
1491800 60.0864 228.312 55.755 0.74585 0.0298554
1492000 60.0864 228.325 55.755 0.74595 0.0351259
1492200 60.0864 228.338 55.755 0.74605 0.0431706
1492400 60.0864 228.351 55.755 0.74615 0.0302339
1492600 60.0864 228.364 55.755 0.74625 0.0562391
1492800 60.0864 228.377 55.755 0.74635 0.045796
1493000 60.0864 228.39 55.755 0.74645 0.0589349
1493200 60.0864 228.403 55.755 0.74655 0.0505045
1493400 60.0864 228.416 55.755 0.74665 0.0197046
1493600 60.0864 228.429 55.755 0.74675 -0.00162709
1493800 60.0864 228.442 55.755 0.74685 -0.00369042
1494000 60.0864 228.456 55.755 0.74695 -0.0415681
1494200 60.0864 228.469 55.755 0.74705 -0.0300682
1494400 60.0864 228.482 55.755 0.74715 -0.0390087
1494600 60.0864 228.495 55.755 0.74725 -0.0365388
1494800 60.0864 228.508 55.755 0.74735 -0.0546416
1495000 60.0864 228.521 55.755 0.74745 -0.0534018
1495200 60.0864 228.534 55.755 0.74755 -0.0431087
1495400 60.0864 228.547 55.755 0.74765 -0.0266529
1495600 60.0864 228.56 55.755 0.74775 -0.0133337
1495800 60.0864 228.573 55.755 0.74785 0.0175367
1496000 60.0864 228.586 55.755 0.74795 0.0312921
1496200 60.0864 228.599 55.755 0.74805 0.0393436
1496400 60.0864 228.612 55.755 0.74815 0.0585787
1496600 60.0864 228.626 55.755 0.74825 0.0553899
1496800 60.0864 228.639 55.755 0.74835 0.080304
1497000 60.0864 228.652 55.755 0.74845 0.0494046
1497200 60.0864 228.665 55.755 0.74855 0.0366564
1497400 60.0864 228.678 55.755 0.74865 0.032164
1497600 60.0864 228.691 55.755 0.74875 0.00861754
1497800 60.0864 228.704 55.755 0.74885 0.00847908
1498000 60.0864 228.717 55.755 0.74895 -0.0159085
1498200 60.0864 228.73 55.755 0.74905 -0.0478056
1498400 60.0864 228.743 55.755 0.74915 -0.0458221
1498600 60.0864 228.756 55.755 0.74925 -0.0395959
1498800 60.0864 228.769 55.755 0.74935 -0.0615416
1499000 60.0864 228.782 55.755 0.74945 -0.045856
1499200 60.0864 228.796 55.755 0.74955 -0.0346942
1499400 60.0864 228.809 55.755 0.74965 -0.0166851
1499600 60.0864 228.822 55.755 0.74975 -0.00405532
1499800 60.0864 228.835 55.755 0.74985 0.0084587
1500000 60.0864 228.848 55.755 0.74995 0.0137026
1500200 60.0864 228.861 55.755 0.75005 0.0359705
1500400 60.0864 228.874 55.755 0.75015 0.0465372
1500600 60.0864 228.887 55.755 0.75025 0.0613966
1500800 60.0864 228.9 55.755 0.75035 0.0629886
1501000 60.0864 228.913 55.755 0.75045 0.0377754
1501200 60.0864 228.926 55.755 0.75055 0.055748
1501400 60.0864 228.939 55.755 0.75065 0.0245774
1501600 60.0864 228.952 55.755 0.75075 0.0143462
1501800 60.0864 228.966 55.755 0.75085 0.0105081
1502000 60.0864 228.979 55.755 0.75095 -0.00878507
1502200 60.0864 228.992 55.755 0.75105 -0.0277206
1502400 60.0864 229.005 55.755 0.75115 -0.0365147
1502600 60.0864 229.018 55.755 0.75125 -0.061643
1502800 60.0864 229.031 55.755 0.75135 -0.037666
1503000 60.0864 229.044 55.755 0.75145 -0.0437522
1503200 60.0864 229.057 55.755 0.75155 -0.0328763
1503400 60.0864 229.07 55.755 0.75165 -0.049733
1503600 60.0864 229.083 55.755 0.75175 -0.00454905
1503800 60.0864 229.096 55.755 0.75185 0.00451948
1504000 60.0864 229.109 55.755 0.75195 0.00424843
1504200 60.0864 229.122 55.755 0.75205 0.0291425
1504400 60.0864 229.136 55.755 0.75215 0.0424402
1504600 60.0864 229.149 55.755 0.75225 0.0466257
1504800 60.0864 229.162 55.755 0.75235 0.0591326
1505000 60.0864 229.175 55.755 0.75245 0.0599611
1505200 60.0864 229.188 55.755 0.75255 0.0482866
1505400 60.0864 229.201 55.755 0.75265 0.0464459
1505600 60.0864 229.214 55.755 0.75275 0.0254264
1505800 60.0864 229.227 55.755 0.75285 0.00583117
1506000 60.0864 229.24 55.755 0.75295 -0.0111578
1506200 60.0864 229.253 55.755 0.75305 -0.0198351
1506400 60.0864 229.266 55.755 0.75315 -0.0353339
1506600 60.0864 229.279 55.755 0.75325 -0.0416569
1506800 60.0864 229.292 55.755 0.75335 -0.0447446
1507000 60.0864 229.306 55.755 0.75345 -0.0514253
1507200 60.0864 229.319 55.755 0.75355 -0.0379141
1507400 60.0864 229.332 55.755 0.75365 -0.036388
1507600 60.0864 229.345 55.755 0.75375 -0.0119286
1507800 60.0864 229.358 55.755 0.75385 -0.00837086
1508000 60.0864 229.371 55.755 0.75395 0.0269162
1508200 60.0864 229.384 55.755 0.75405 0.0223216
1508400 60.0864 229.397 55.755 0.75415 0.0282092
1508600 60.0864 229.41 55.755 0.75425 0.0565581
1508800 60.0864 229.423 55.755 0.75435 0.0593876
1509000 60.0864 229.436 55.755 0.75445 0.0587687
1509200 60.0864 229.449 55.755 0.75455 0.0406298
1509400 60.0864 229.462 55.755 0.75465 0.0339825
1509600 60.0864 229.476 55.755 0.75475 0.0253346
1509800 60.0864 229.489 55.755 0.75485 0.000643495
1510000 60.0864 229.502 55.755 0.75495 -0.0171594
1510200 60.0864 229.515 55.755 0.75505 -0.0164318
1510400 60.0864 229.528 55.755 0.75515 -0.0282296
1510600 60.0864 229.541 55.755 0.75525 -0.046503
1510800 60.0864 229.554 55.755 0.75535 -0.0445847
1511000 60.0864 229.567 55.755 0.75545 -0.0490495
1511200 60.0864 229.58 55.755 0.75555 -0.0434102
1511400 60.0864 229.593 55.755 0.75565 -0.00832701
1511600 60.0864 229.606 55.755 0.75575 0.00837113
1511800 60.0864 229.619 55.755 0.75585 -0.0135559
1512000 60.0864 229.632 55.755 0.75595 0.00253448
1512200 60.0864 229.646 55.755 0.75605 0.0263717
1512400 60.0864 229.659 55.755 0.75615 0.0377932
1512600 60.0864 229.672 55.755 0.75625 0.0434061
1512800 60.0864 229.685 55.755 0.75635 0.0723712
1513000 60.0864 229.698 55.755 0.75645 0.0419814
1513200 60.0864 229.711 55.755 0.75655 0.0449046
1513400 60.0864 229.724 55.755 0.75665 0.0126967
1513600 60.0864 229.737 55.755 0.75675 0.0202314
1513800 60.0864 229.75 55.755 0.75685 0.00708202
1514000 60.0864 229.763 55.755 0.75695 -0.014218
1514200 60.0864 229.776 55.755 0.75705 -0.00228468
1514400 60.0864 229.789 55.755 0.75715 -0.0167884
1514600 60.0864 229.802 55.755 0.75725 -0.0426466
1514800 60.0864 229.816 55.755 0.75735 -0.049718
1515000 60.0864 229.829 55.755 0.75745 -0.0419576
1515200 60.0864 229.842 55.755 0.75755 -0.0294446
1515400 60.0864 229.855 55.755 0.75765 -0.0173424
1515600 60.0864 229.868 55.755 0.75775 -0.00247972
1515800 60.0864 229.881 55.755 0.75785 0.00852067
1516000 60.0864 229.894 55.755 0.75795 -0.0058254
1516200 60.0864 229.907 55.755 0.75805 0.0219353
1516400 60.0864 229.92 55.755 0.75815 0.0101056
1516600 60.0864 229.933 55.755 0.75825 0.0412862
1516800 60.0864 229.946 55.755 0.75835 0.0439412
1517000 60.0864 229.959 55.755 0.75845 0.0572873
1517200 60.0864 229.973 55.755 0.75855 0.0411144
1517400 60.0864 229.986 55.755 0.75865 0.0398784
1517600 60.0864 229.999 55.755 0.75875 0.012138
1517800 60.0864 230.012 55.755 0.75885 -0.00107441
1518000 60.0864 230.025 55.755 0.75895 0.00682252
1518200 60.0864 230.038 55.755 0.75905 -0.011074
1518400 60.0864 230.051 55.755 0.75915 -0.0141506
1518600 60.0864 230.064 55.755 0.75925 -0.00147141
1518800 60.0864 230.077 55.755 0.75935 -0.0396751
1519000 60.0864 230.09 55.755 0.75945 -0.0503999
1519200 60.0864 230.103 55.755 0.75955 -0.0425461
1519400 60.0864 230.116 55.755 0.75965 -0.0417939
1519600 60.0864 230.129 55.755 0.75975 -0.00966974
1519800 60.0864 230.143 55.755 0.75985 0.00298498
1520000 60.0864 230.156 55.755 0.75995 0.0122909
1520200 60.0864 230.169 55.755 0.76005 0.0176327
1520400 60.0864 230.182 55.755 0.76015 0.00348821
1520600 60.0864 230.195 55.755 0.76025 0.0406419
1520800 60.0864 230.208 55.755 0.76035 0.0491837
1521000 60.0864 230.221 55.755 0.76045 0.038867
1521200 60.0864 230.234 55.755 0.76055 0.0490235
1521400 60.0864 230.247 55.755 0.76065 0.0348164
1521600 60.0864 230.26 55.755 0.76075 0.0261077
1521800 60.0864 230.273 55.755 0.76085 0.0105067
1522000 60.0864 230.286 55.755 0.76095 0.00208396
1522200 60.0864 230.299 55.755 0.76105 -0.0137402
1522400 60.0864 230.313 55.755 0.76115 -0.0231158
1522600 60.0864 230.326 55.755 0.76125 -0.0107428
1522800 60.0864 230.339 55.755 0.76135 -0.0305154
1523000 60.0864 230.352 55.755 0.76145 -0.0525023
1523200 60.0864 230.365 55.755 0.76155 -0.0329841
1523400 60.0864 230.378 55.755 0.76165 -0.0272941
1523600 60.0864 230.391 55.755 0.76175 -0.0243681
1523800 60.0864 230.404 55.755 0.76185 -0.00571722
1524000 60.0864 230.417 55.755 0.76195 -0.000435849
1524200 60.0864 230.43 55.755 0.76205 0.00923492
1524400 60.0864 230.443 55.755 0.76215 0.0157564
1524600 60.0864 230.456 55.755 0.76225 0.0389842
1524800 60.0864 230.469 55.755 0.76235 0.0445567
1525000 60.0864 230.483 55.755 0.76245 0.0417211
1525200 60.0864 230.496 55.755 0.76255 0.0631559
1525400 60.0864 230.509 55.755 0.76265 0.0401437
1525600 60.0864 230.522 55.755 0.76275 0.019792
1525800 60.0864 230.535 55.755 0.76285 0.0225267
1526000 60.0864 230.548 55.755 0.76295 0.000158005
1526200 60.0864 230.561 55.755 0.76305 0.00130664
1526400 60.0864 230.574 55.755 0.76315 -0.00744353
1526600 60.0864 230.587 55.755 0.76325 -0.0243351
1526800 60.0864 230.6 55.755 0.76335 -0.0386334
1527000 60.0864 230.613 55.755 0.76345 -0.0374387
1527200 60.0864 230.626 55.755 0.76355 -0.0404681
1527400 60.0864 230.639 55.755 0.76365 -0.0353557
1527600 60.0864 230.653 55.755 0.76375 -0.0206757
1527800 60.0864 230.666 55.755 0.76385 -0.00963239
1528000 60.0864 230.679 55.755 0.76395 -0.0137976
1528200 60.0864 230.692 55.755 0.76405 0.0100306
1528400 60.0864 230.705 55.755 0.76415 0.0217435
1528600 60.0864 230.718 55.755 0.76425 0.04199
1528800 60.0864 230.731 55.755 0.76435 0.0341326
1529000 60.0864 230.744 55.755 0.76445 0.0457487
1529200 60.0864 230.757 55.755 0.76455 0.0455762
1529400 60.0864 230.77 55.755 0.76465 0.0353462
1529600 60.0864 230.783 55.755 0.76475 0.0304467
1529800 60.0864 230.796 55.755 0.76485 0.017831
1530000 60.0864 230.809 55.755 0.76495 0.00813529
1530200 60.0864 230.823 55.755 0.76505 -0.0009925
1530400 60.0864 230.836 55.755 0.76515 -0.00314222
1530600 60.0864 230.849 55.755 0.76525 -0.0337532
1530800 60.0864 230.862 55.755 0.76535 -0.0378626
1531000 60.0864 230.875 55.755 0.76545 -0.0309908
1531200 60.0864 230.888 55.755 0.76555 -0.0345576
1531400 60.0864 230.901 55.755 0.76565 -0.0238425
1531600 60.0864 230.914 55.755 0.76575 -0.0237874
1531800 60.0864 230.927 55.755 0.76585 -0.0158749
1532000 60.0864 230.94 55.755 0.76595 0.0138695
1532200 60.0864 230.953 55.755 0.76605 -0.00237344
1532400 60.0864 230.966 55.755 0.76615 0.0292104
1532600 60.0864 230.979 55.755 0.76625 0.0285339
1532800 60.0864 230.993 55.755 0.76635 0.0165047
1533000 60.0864 231.006 55.755 0.76645 0.0689003
1533200 60.0864 231.019 55.755 0.76655 0.0253896
1533400 60.0864 231.032 55.755 0.76665 0.0335585
1533600 60.0864 231.045 55.755 0.76675 0.0305314
1533800 60.0864 231.058 55.755 0.76685 0.0175214
1534000 60.0864 231.071 55.755 0.76695 -0.00431402
1534200 60.0864 231.084 55.755 0.76705 0.00123032
1534400 60.0864 231.097 55.755 0.76715 -0.00314204
1534600 60.0864 231.11 55.755 0.76725 -0.0125076
1534800 60.0864 231.123 55.755 0.76735 -0.03469
1535000 60.0864 231.136 55.755 0.76745 -0.0282728
1535200 60.0864 231.149 55.755 0.76755 -0.0232376
1535400 60.0864 231.163 55.755 0.76765 -0.0357768
1535600 60.0864 231.176 55.755 0.76775 -0.0267291
1535800 60.0864 231.189 55.755 0.76785 -0.0033515
1536000 60.0864 231.202 55.755 0.76795 0.0101257
1536200 60.0864 231.215 55.755 0.76805 0.0158342
1536400 60.0864 231.228 55.755 0.76815 0.0149488
1536600 60.0864 231.241 55.755 0.76825 0.0142624
1536800 60.0864 231.254 55.755 0.76835 0.0271636
1537000 60.0864 231.267 55.755 0.76845 0.0262347
1537200 60.0864 231.28 55.755 0.76855 0.0415076
1537400 60.0864 231.293 55.755 0.76865 0.0264764
1537600 60.0864 231.306 55.755 0.76875 0.0387519
1537800 60.0864 231.319 55.755 0.76885 0.0323686
1538000 60.0864 231.333 55.755 0.76895 0.00213712
1538200 60.0864 231.346 55.755 0.76905 -0.0103025
1538400 60.0864 231.359 55.755 0.76915 -0.0203533
1538600 60.0864 231.372 55.755 0.76925 -0.0178357
1538800 60.0864 231.385 55.755 0.76935 -0.0180363
1539000 60.0864 231.398 55.755 0.76945 -0.0230517
1539200 60.0864 231.411 55.755 0.76955 -0.0161478
1539400 60.0864 231.424 55.755 0.76965 -0.0257601
1539600 60.0864 231.437 55.755 0.76975 -0.0313279
1539800 60.0864 231.45 55.755 0.76985 0.00167783
1540000 60.0864 231.463 55.755 0.76995 -0.013887
1540200 60.0864 231.476 55.755 0.77005 0.0150945
1540400 60.0864 231.489 55.755 0.77015 0.0143991
1540600 60.0864 231.503 55.755 0.77025 0.0138461
1540800 60.0864 231.516 55.755 0.77035 0.037113
1541000 60.0864 231.529 55.755 0.77045 0.0234064
1541200 60.0864 231.542 55.755 0.77055 0.0430391
1541400 60.0864 231.555 55.755 0.77065 0.0391583
1541600 60.0864 231.568 55.755 0.77075 0.0380391
1541800 60.0864 231.581 55.755 0.77085 0.0111394
1542000 60.0864 231.594 55.755 0.77095 0.0125768
1542200 60.0864 231.607 55.755 0.77105 -0.0142712
1542400 60.0864 231.62 55.755 0.77115 0.000121093
1542600 60.0864 231.633 55.755 0.77125 -0.00955903
1542800 60.0864 231.646 55.755 0.77135 -0.0343091
1543000 60.0864 231.659 55.755 0.77145 -0.0215558
1543200 60.0864 231.673 55.755 0.77155 -0.0230429
1543400 60.0864 231.686 55.755 0.77165 -0.0327846
1543600 60.0864 231.699 55.755 0.77175 -0.0252837
1543800 60.0864 231.712 55.755 0.77185 -0.00454052
1544000 60.0864 231.725 55.755 0.77195 -0.0103512
1544200 60.0864 231.738 55.755 0.77205 0.0118737
1544400 60.0864 231.751 55.755 0.77215 0.0187621
1544600 60.0864 231.764 55.755 0.77225 0.0205694
1544800 60.0864 231.777 55.755 0.77235 0.0372817
1545000 60.0864 231.79 55.755 0.77245 0.0201083
1545200 60.0864 231.803 55.755 0.77255 0.0397581
1545400 60.0864 231.816 55.755 0.77265 0.0338947
1545600 60.0864 231.829 55.755 0.77275 0.036106
1545800 60.0864 231.843 55.755 0.77285 0.0103949
1546000 60.0864 231.856 55.755 0.77295 0.0159894
1546200 60.0864 231.869 55.755 0.77305 0.0140881
1546400 60.0864 231.882 55.755 0.77315 -0.0284419
1546600 60.0864 231.895 55.755 0.77325 -0.0141169
1546800 60.0864 231.908 55.755 0.77335 -0.0308959
1547000 60.0864 231.921 55.755 0.77345 -0.0135552
1547200 60.0864 231.934 55.755 0.77355 -0.00872855
1547400 60.0864 231.947 55.755 0.77365 -0.0330036
1547600 60.0864 231.96 55.755 0.77375 -0.018412
1547800 60.0864 231.973 55.755 0.77385 -0.0176029
1548000 60.0864 231.986 55.755 0.77395 -0.0119908
1548200 60.0864 231.999 55.755 0.77405 0.00724771
1548400 60.0864 232.013 55.755 0.77415 0.0239587
1548600 60.0864 232.026 55.755 0.77425 0.0166109
1548800 60.0864 232.039 55.755 0.77435 0.0177703
1549000 60.0864 232.052 55.755 0.77445 0.041921
1549200 60.0864 232.065 55.755 0.77455 0.0234436
1549400 60.0864 232.078 55.755 0.77465 0.030991
1549600 60.0864 232.091 55.755 0.77475 0.0240638
1549800 60.0864 232.104 55.755 0.77485 0.0429003
1550000 60.0864 232.117 55.755 0.77495 0.00576343
1550200 60.0864 232.13 55.755 0.77505 -0.0103604
1550400 60.0864 232.143 55.755 0.77515 -0.0171948
1550600 60.0864 232.156 55.755 0.77525 -0.0165664
1550800 60.0864 232.17 55.755 0.77535 -0.0151433
1551000 60.0864 232.183 55.755 0.77545 -0.0122982
1551200 60.0864 232.196 55.755 0.77555 -0.00823898
1551400 60.0864 232.209 55.755 0.77565 -0.0240882
1551600 60.0864 232.222 55.755 0.77575 -0.0100197
1551800 60.0864 232.235 55.755 0.77585 -0.0188265
1552000 60.0864 232.248 55.755 0.77595 -0.0106113
1552200 60.0864 232.261 55.755 0.77605 0.0108719
1552400 60.0864 232.274 55.755 0.77615 0.0298392
1552600 60.0864 232.287 55.755 0.77625 0.025683
1552800 60.0864 232.3 55.755 0.77635 0.0111824
1553000 60.0864 232.313 55.755 0.77645 0.0218725
1553200 60.0864 232.326 55.755 0.77655 0.0301524
1553400 60.0864 232.34 55.755 0.77665 0.0193312
1553600 60.0864 232.353 55.755 0.77675 0.0202146
1553800 60.0864 232.366 55.755 0.77685 0.00549479
1554000 60.0864 232.379 55.755 0.77695 0.0120333
1554200 60.0864 232.392 55.755 0.77705 0.000247046
1554400 60.0864 232.405 55.755 0.77715 -0.0156484
1554600 60.0864 232.418 55.755 0.77725 -0.00582596
1554800 60.0864 232.431 55.755 0.77735 -0.0167302
1555000 60.0864 232.444 55.755 0.77745 -0.032286
1555200 60.0864 232.457 55.755 0.77755 0.0106043
1555400 60.0864 232.47 55.755 0.77765 -0.0190816
1555600 60.0864 232.483 55.755 0.77775 0.00582014
1555800 60.0864 232.496 55.755 0.77785 -0.020198
1556000 60.0864 232.51 55.755 0.77795 -0.011801
1556200 60.0864 232.523 55.755 0.77805 0.00626094
1556400 60.0864 232.536 55.755 0.77815 0.0210509
1556600 60.0864 232.549 55.755 0.77825 0.0226817
1556800 60.0864 232.562 55.755 0.77835 0.0139944
1557000 60.0864 232.575 55.755 0.77845 0.0262374
1557200 60.0864 232.588 55.755 0.77855 0.0202411
1557400 60.0864 232.601 55.755 0.77865 0.0286868
1557600 60.0864 232.614 55.755 0.77875 0.0101624
1557800 60.0864 232.627 55.755 0.77885 0.0257034
1558000 60.0864 232.64 55.755 0.77895 0.00298951
1558200 60.0864 232.653 55.755 0.77905 0.00686912
1558400 60.0864 232.666 55.755 0.77915 0.0158697
1558600 60.0864 232.68 55.755 0.77925 -0.016537
1558800 60.0864 232.693 55.755 0.77935 -0.0327522
1559000 60.0864 232.706 55.755 0.77945 -0.00501755
1559200 60.0864 232.719 55.755 0.77955 -0.0112125
1559400 60.0864 232.732 55.755 0.77965 -0.0191216
1559600 60.0864 232.745 55.755 0.77975 -0.00203318
1559800 60.0864 232.758 55.755 0.77985 -0.0184702
1560000 60.0864 232.771 55.755 0.77995 -0.0171408
1560200 60.0864 232.784 55.755 0.78005 0.00526737
1560400 60.0864 232.797 55.755 0.78015 0.00424672
1560600 60.0864 232.81 55.755 0.78025 0.0281142
1560800 60.0864 232.823 55.755 0.78035 0.0312004
1561000 60.0864 232.836 55.755 0.78045 0.00597454
1561200 60.0864 232.85 55.755 0.78055 0.0255799
1561400 60.0864 232.863 55.755 0.78065 0.0100769
1561600 60.0864 232.876 55.755 0.78075 0.028459
1561800 60.0864 232.889 55.755 0.78085 0.0166921
1562000 60.0864 232.902 55.755 0.78095 0.00615854
1562200 60.0864 232.915 55.755 0.78105 0.0213488
1562400 60.0864 232.928 55.755 0.78115 -0.00170647
1562600 60.0864 232.941 55.755 0.78125 0.0116814
1562800 60.0864 232.954 55.755 0.78135 -0.0147146
1563000 60.0864 232.967 55.755 0.78145 -0.00783719
1563200 60.0864 232.98 55.755 0.78155 -0.0140056
1563400 60.0864 232.993 55.755 0.78165 -0.0226227
1563600 60.0864 233.006 55.755 0.78175 -0.0236275
1563800 60.0864 233.02 55.755 0.78185 8.72626e-05
1564000 60.0864 233.033 55.755 0.78195 -0.0271298
1564200 60.0864 233.046 55.755 0.78205 0.00735438
1564400 60.0864 233.059 55.755 0.78215 0.0142936
1564600 60.0864 233.072 55.755 0.78225 -0.0127221
1564800 60.0864 233.085 55.755 0.78235 0.00659033
1565000 60.0864 233.098 55.755 0.78245 0.0171201
1565200 60.0864 233.111 55.755 0.78255 0.0218633
1565400 60.0864 233.124 55.755 0.78265 0.0345361
1565600 60.0864 233.137 55.755 0.78275 0.00836241
1565800 60.0864 233.15 55.755 0.78285 0.0324231
1566000 60.0864 233.163 55.755 0.78295 0.0159878
1566200 60.0864 233.176 55.755 0.78305 0.0132547
1566400 60.0864 233.19 55.755 0.78315 0.0114006
1566600 60.0864 233.203 55.755 0.78325 -0.00726981
1566800 60.0864 233.216 55.755 0.78335 -0.00114014
1567000 60.0864 233.229 55.755 0.78345 0.0172228
1567200 60.0864 233.242 55.755 0.78355 -0.0001695
1567400 60.0864 233.255 55.755 0.78365 -0.0149695
1567600 60.0864 233.268 55.755 0.78375 -0.0273996
1567800 60.0864 233.281 55.755 0.78385 -0.0170263
1568000 60.0864 233.294 55.755 0.78395 -0.0144321
1568200 60.0864 233.307 55.755 0.78405 -0.0102323
1568400 60.0864 233.32 55.755 0.78415 -0.00696261
1568600 60.0864 233.333 55.755 0.78425 0.00401344
1568800 60.0864 233.346 55.755 0.78435 0.0148444
1569000 60.0864 233.36 55.755 0.78445 0.000697725
1569200 60.0864 233.373 55.755 0.78455 0.0278487
1569400 60.0864 233.386 55.755 0.78465 0.012885
1569600 60.0864 233.399 55.755 0.78475 0.0238302
1569800 60.0864 233.412 55.755 0.78485 0.0268362
1570000 60.0864 233.425 55.755 0.78495 0.0196143
1570200 60.0864 233.438 55.755 0.78505 0.0157323
1570400 60.0864 233.451 55.755 0.78515 0.010727
1570600 60.0864 233.464 55.755 0.78525 -0.0105109
1570800 60.0864 233.477 55.755 0.78535 -0.000468417
1571000 60.0864 233.49 55.755 0.78545 0.00360831
1571200 60.0864 233.503 55.755 0.78555 -0.00135357
1571400 60.0864 233.516 55.755 0.78565 -0.0139717
1571600 60.0864 233.53 55.755 0.78575 -0.0240765
1571800 60.0864 233.543 55.755 0.78585 -0.00333685
1572000 60.0864 233.556 55.755 0.78595 -0.00781403
1572200 60.0864 233.569 55.755 0.78605 0.0104103
1572400 60.0864 233.582 55.755 0.78615 0.00155066
1572600 60.0864 233.595 55.755 0.78625 -0.00357047
1572800 60.0864 233.608 55.755 0.78635 0.0096054
1573000 60.0864 233.621 55.755 0.78645 0.0050926
1573200 60.0864 233.634 55.755 0.78655 0.00295841
1573400 60.0864 233.647 55.755 0.78665 0.0266673
1573600 60.0864 233.66 55.755 0.78675 0.0105499
1573800 60.0864 233.673 55.755 0.78685 0.0335019
1574000 60.0864 233.686 55.755 0.78695 0.00685286
1574200 60.0864 233.7 55.755 0.78705 0.00633257
1574400 60.0864 233.713 55.755 0.78715 -0.00341181
1574600 60.0864 233.726 55.755 0.78725 -0.00160685
1574800 60.0864 233.739 55.755 0.78735 0.0126613
1575000 60.0864 233.752 55.755 0.78745 -0.00440752
1575200 60.0864 233.765 55.755 0.78755 0.00988752
1575400 60.0864 233.778 55.755 0.78765 -0.0218189
1575600 60.0864 233.791 55.755 0.78775 -0.0120068
1575800 60.0864 233.804 55.755 0.78785 -0.0183058
1576000 60.0864 233.817 55.755 0.78795 -0.0022216
1576200 60.0864 233.83 55.755 0.78805 0.00922793
1576400 60.0864 233.843 55.755 0.78815 0.0113113
1576600 60.0864 233.856 55.755 0.78825 0.00712324
1576800 60.0864 233.87 55.755 0.78835 0.000742384
1577000 60.0864 233.883 55.755 0.78845 -0.00645492
1577200 60.0864 233.896 55.755 0.78855 0.0159877
1577400 60.0864 233.909 55.755 0.78865 0.0282711
1577600 60.0864 233.922 55.755 0.78875 0.0126251
1577800 60.0864 233.935 55.755 0.78885 0.0095841
1578000 60.0864 233.948 55.755 0.78895 0.0152028
1578200 60.0864 233.961 55.755 0.78905 0.0183534
1578400 60.0864 233.974 55.755 0.78915 0.00274373
1578600 60.0864 233.987 55.755 0.78925 0.00109427
1578800 60.0864 234 55.755 0.78935 0.00639631
1579000 60.0864 234.013 55.755 0.78945 0.00209692
1579200 60.0864 234.026 55.755 0.78955 -0.0100323
1579400 60.0864 234.04 55.755 0.78965 0.00535907
1579600 60.0864 234.053 55.755 0.78975 -0.0268005
1579800 60.0864 234.066 55.755 0.78985 -0.008653
1580000 60.0864 234.079 55.755 0.78995 -0.00832322
1580200 60.0864 234.092 55.755 0.79005 0.00236856
1580400 60.0864 234.105 55.755 0.79015 0.0148753
1580600 60.0864 234.118 55.755 0.79025 0.00257962
1580800 60.0864 234.131 55.755 0.79035 0.0106416
1581000 60.0864 234.144 55.755 0.79045 -0.00462291
1581200 60.0864 234.157 55.755 0.79055 0.0125518
1581400 60.0864 234.17 55.755 0.79065 0.00853058
1581600 60.0864 234.183 55.755 0.79075 0.0164414
1581800 60.0864 234.196 55.755 0.79085 0.0251557
1582000 60.0864 234.21 55.755 0.79095 0.0034525
1582200 60.0864 234.223 55.755 0.79105 -0.0064868
1582400 60.0864 234.236 55.755 0.79115 0.00287448
1582600 60.0864 234.249 55.755 0.79125 0.00342334
1582800 60.0864 234.262 55.755 0.79135 0.00699652
1583000 60.0864 234.275 55.755 0.79145 0.00797893
1583200 60.0864 234.288 55.755 0.79155 -0.00924613
1583400 60.0864 234.301 55.755 0.79165 -0.00137605
1583600 60.0864 234.314 55.755 0.79175 -0.00063373
1583800 60.0864 234.327 55.755 0.79185 0.00363123
1584000 60.0864 234.34 55.755 0.79195 -0.0174085
1584200 60.0864 234.353 55.755 0.79205 0.00185114
1584400 60.0864 234.367 55.755 0.79215 0.0153491
1584600 60.0864 234.38 55.755 0.79225 0.0214654
1584800 60.0864 234.393 55.755 0.79235 -0.000159144
1585000 60.0864 234.406 55.755 0.79245 0.0077549
1585200 60.0864 234.419 55.755 0.79255 -0.00983171
1585400 60.0864 234.432 55.755 0.79265 0.00468378
1585600 60.0864 234.445 55.755 0.79275 0.0260637
1585800 60.0864 234.458 55.755 0.79285 0.0113272
1586000 60.0864 234.471 55.755 0.79295 0.0198912
1586200 60.0864 234.484 55.755 0.79305 -0.00178546
1586400 60.0864 234.497 55.755 0.79315 0.0165574
1586600 60.0864 234.51 55.755 0.79325 -0.0123842
1586800 60.0864 234.523 55.755 0.79335 0.00862737
1587000 60.0864 234.537 55.755 0.79345 -0.0075969
1587200 60.0864 234.55 55.755 0.79355 -0.00302213
1587400 60.0864 234.563 55.755 0.79365 0.0195753
1587600 60.0864 234.576 55.755 0.79375 -0.0167001
1587800 60.0864 234.589 55.755 0.79385 -0.0184402
1588000 60.0864 234.602 55.755 0.79395 -0.0137402
1588200 60.0864 234.615 55.755 0.79405 -0.0107194
1588400 60.0864 234.628 55.755 0.79415 0.0109574
1588600 60.0864 234.641 55.755 0.79425 0.00839082
1588800 60.0864 234.654 55.755 0.79435 0.00994078
1589000 60.0864 234.667 55.755 0.79445 0.00882153
1589200 60.0864 234.68 55.755 0.79455 0.0256108
1589400 60.0864 234.693 55.755 0.79465 0.00481527
1589600 60.0864 234.707 55.755 0.79475 0.0093932
1589800 60.0864 234.72 55.755 0.79485 0.0169374
1590000 60.0864 234.733 55.755 0.79495 0.0135727
1590200 60.0864 234.746 55.755 0.79505 0.0130299
1590400 60.0864 234.759 55.755 0.79515 0.00588472
1590600 60.0864 234.772 55.755 0.79525 -0.00434603
1590800 60.0864 234.785 55.755 0.79535 -0.00898743
1591000 60.0864 234.798 55.755 0.79545 -0.00946212
1591200 60.0864 234.811 55.755 0.79555 -0.0082175
1591400 60.0864 234.824 55.755 0.79565 0.0138739
1591600 60.0864 234.837 55.755 0.79575 0.00369736
1591800 60.0864 234.85 55.755 0.79585 -0.006237
1592000 60.0864 234.863 55.755 0.79595 -0.00438792
1592200 60.0864 234.877 55.755 0.79605 -0.0132451
1592400 60.0864 234.89 55.755 0.79615 0.0132267
1592600 60.0864 234.903 55.755 0.79625 0.0113624
1592800 60.0864 234.916 55.755 0.79635 0.00595821
1593000 60.0864 234.929 55.755 0.79645 0.00127654
1593200 60.0864 234.942 55.755 0.79655 0.00689117
1593400 60.0864 234.955 55.755 0.79665 0.00919276
1593600 60.0864 234.968 55.755 0.79675 0.00448192
1593800 60.0864 234.981 55.755 0.79685 0.0141704
1594000 60.0864 234.994 55.755 0.79695 0.0008225
1594200 60.0864 235.007 55.755 0.79705 0.0272597
1594400 60.0864 235.02 55.755 0.79715 0.0082756
1594600 60.0864 235.033 55.755 0.79725 0.0150102
1594800 60.0864 235.047 55.755 0.79735 -0.0063253
1595000 60.0864 235.06 55.755 0.79745 -0.00435541
1595200 60.0864 235.073 55.755 0.79755 -0.00709898
1595400 60.0864 235.086 55.755 0.79765 0.0156175
1595600 60.0864 235.099 55.755 0.79775 -0.0102402
1595800 60.0864 235.112 55.755 0.79785 0.00073942
1596000 60.0864 235.125 55.755 0.79795 -0.00530035
1596200 60.0864 235.138 55.755 0.79805 -0.0109559
1596400 60.0864 235.151 55.755 0.79815 -0.00295323
1596600 60.0864 235.164 55.755 0.79825 0.00581893
1596800 60.0864 235.177 55.755 0.79835 0.00458531
1597000 60.0864 235.19 55.755 0.79845 0.0116022
1597200 60.0864 235.203 55.755 0.79855 0.0153776
1597400 60.0864 235.217 55.755 0.79865 -0.0105116
1597600 60.0864 235.23 55.755 0.79875 0.00720775
1597800 60.0864 235.243 55.755 0.79885 0.00552058
1598000 60.0864 235.256 55.755 0.79895 0.00688607
1598200 60.0864 235.269 55.755 0.79905 0.0238742
1598400 60.0864 235.282 55.755 0.79915 0.0115284
1598600 60.0864 235.295 55.755 0.79925 0.0131358
1598800 60.0864 235.308 55.755 0.79935 0.0120469
1599000 60.0864 235.321 55.755 0.79945 0.00394802
1599200 60.0864 235.334 55.755 0.79955 -0.00710671
1599400 60.0864 235.347 55.755 0.79965 0.00668695
1599600 60.0864 235.36 55.755 0.79975 0.00952592
1599800 60.0864 235.373 55.755 0.79985 -0.00282861
1600000 60.0864 235.387 55.755 0.79995 -0.0124067
1600200 60.0864 235.4 55.755 0.80005 -0.0179624
1600400 60.0864 235.413 55.755 0.80015 -0.0127475
1600600 60.0864 235.426 55.755 0.80025 -0.00840245
1600800 60.0864 235.439 55.755 0.80035 0.00520281
1601000 60.0864 235.452 55.755 0.80045 0.0125543
1601200 60.0864 235.465 55.755 0.80055 0.00174325
1601400 60.0864 235.478 55.755 0.80065 0.0177297
1601600 60.0864 235.491 55.755 0.80075 0.00163981
1601800 60.0864 235.504 55.755 0.80085 0.00882088
1602000 60.0864 235.517 55.755 0.80095 0.00594207
1602200 60.0864 235.53 55.755 0.80105 0.0277993
1602400 60.0864 235.543 55.755 0.80115 0.00651251
1602600 60.0864 235.557 55.755 0.80125 0.0118607
1602800 60.0864 235.57 55.755 0.80135 0.00965485
1603000 60.0864 235.583 55.755 0.80145 0.0102563
1603200 60.0864 235.596 55.755 0.80155 0.00632634
1603400 60.0864 235.609 55.755 0.80165 -0.00567019
1603600 60.0864 235.622 55.755 0.80175 0.00198846
1603800 60.0864 235.635 55.755 0.80185 -0.00331965
1604000 60.0864 235.648 55.755 0.80195 -0.0127119
1604200 60.0864 235.661 55.755 0.80205 -0.00211719
1604400 60.0864 235.674 55.755 0.80215 0.00554006
1604600 60.0864 235.687 55.755 0.80225 -0.0181
1604800 60.0864 235.7 55.755 0.80235 -0.0115031
1605000 60.0864 235.713 55.755 0.80245 0.00261286
1605200 60.0864 235.727 55.755 0.80255 0.0226726
1605400 60.0864 235.74 55.755 0.80265 0.00439259
1605600 60.0864 235.753 55.755 0.80275 -0.00154385
1605800 60.0864 235.766 55.755 0.80285 0.0100064
1606000 60.0864 235.779 55.755 0.80295 0.0183939
1606200 60.0864 235.792 55.755 0.80305 0.0117331
1606400 60.0864 235.805 55.755 0.80315 0.00881912
1606600 60.0864 235.818 55.755 0.80325 0.00435379
1606800 60.0864 235.831 55.755 0.80335 0.0209514
1607000 60.0864 235.844 55.755 0.80345 0.0259486
1607200 60.0864 235.857 55.755 0.80355 -0.00753245
1607400 60.0864 235.87 55.755 0.80365 -0.0223222
1607600 60.0864 235.883 55.755 0.80375 0.000950721
1607800 60.0864 235.897 55.755 0.80385 0.0110173
1608000 60.0864 235.91 55.755 0.80395 0.0118855
1608200 60.0864 235.923 55.755 0.80405 -0.00580002
1608400 60.0864 235.936 55.755 0.80415 -0.0104139
1608600 60.0864 235.949 55.755 0.80425 -0.0227883
1608800 60.0864 235.962 55.755 0.80435 -0.00349509
1609000 60.0864 235.975 55.755 0.80445 0.00881968
1609200 60.0864 235.988 55.755 0.80455 0.00179152
1609400 60.0864 236.001 55.755 0.80465 -0.00401975
1609600 60.0864 236.014 55.755 0.80475 0.0193418
1609800 60.0864 236.027 55.755 0.80485 0.00869952
1610000 60.0864 236.04 55.755 0.80495 -0.00281625
1610200 60.0864 236.053 55.755 0.80505 0.0170564
1610400 60.0864 236.067 55.755 0.80515 0.0140267
1610600 60.0864 236.08 55.755 0.80525 0.0204912
1610800 60.0864 236.093 55.755 0.80535 0.0117689
1611000 60.0864 236.106 55.755 0.80545 0.0127749
1611200 60.0864 236.119 55.755 0.80555 0.0106117
1611400 60.0864 236.132 55.755 0.80565 -0.0050785
1611600 60.0864 236.145 55.755 0.80575 -0.00152896
1611800 60.0864 236.158 55.755 0.80585 0.00536711
1612000 60.0864 236.171 55.755 0.80595 -0.00472341
1612200 60.0864 236.184 55.755 0.80605 3.32566e-05
1612400 60.0864 236.197 55.755 0.80615 -0.0121294
1612600 60.0864 236.21 55.755 0.80625 -0.0120296
1612800 60.0864 236.223 55.755 0.80635 -0.0131361
1613000 60.0864 236.237 55.755 0.80645 -0.0086991
1613200 60.0864 236.25 55.755 0.80655 0.00451593
1613400 60.0864 236.263 55.755 0.80665 0.00295985
1613600 60.0864 236.276 55.755 0.80675 0.00629995
1613800 60.0864 236.289 55.755 0.80685 0.0121889
1614000 60.0864 236.302 55.755 0.80695 0.0076607
1614200 60.0864 236.315 55.755 0.80705 0.0148773
1614400 60.0864 236.328 55.755 0.80715 0.0113619
1614600 60.0864 236.341 55.755 0.80725 0.0171254
1614800 60.0864 236.354 55.755 0.80735 0.0318018
1615000 60.0864 236.367 55.755 0.80745 0.0152883
1615200 60.0864 236.38 55.755 0.80755 0.00223434
1615400 60.0864 236.394 55.755 0.80765 0.00442644
1615600 60.0864 236.407 55.755 0.80775 -0.00755717
1615800 60.0864 236.42 55.755 0.80785 0.00717602
1616000 60.0864 236.433 55.755 0.80795 0.00195755
1616200 60.0864 236.446 55.755 0.80805 -0.00760345
1616400 60.0864 236.459 55.755 0.80815 -0.000896839
1616600 60.0864 236.472 55.755 0.80825 -0.0203442
1616800 60.0864 236.485 55.755 0.80835 -0.0106403
1617000 60.0864 236.498 55.755 0.80845 -0.0281732
1617200 60.0864 236.511 55.755 0.80855 0.00842946
1617400 60.0864 236.524 55.755 0.80865 -0.00439149
1617600 60.0864 236.537 55.755 0.80875 0.0214563
1617800 60.0864 236.55 55.755 0.80885 0.00830743
1618000 60.0864 236.564 55.755 0.80895 -0.00744193
1618200 60.0864 236.577 55.755 0.80905 0.0165256
1618400 60.0864 236.59 55.755 0.80915 0.0127511
1618600 60.0864 236.603 55.755 0.80925 0.0305706
1618800 60.0864 236.616 55.755 0.80935 0.0281273
1619000 60.0864 236.629 55.755 0.80945 0.00144597
1619200 60.0864 236.642 55.755 0.80955 0.0184888
1619400 60.0864 236.655 55.755 0.80965 0.00609541
1619600 60.0864 236.668 55.755 0.80975 0.00251005
1619800 60.0864 236.681 55.755 0.80985 0.00632688
1620000 60.0864 236.694 55.755 0.80995 -0.00432736
1620200 60.0864 236.707 55.755 0.81005 -0.0199116
1620400 60.0864 236.72 55.755 0.81015 -0.00652123
1620600 60.0864 236.734 55.755 0.81025 -0.0157657
1620800 60.0864 236.747 55.755 0.81035 -0.00553528
1621000 60.0864 236.76 55.755 0.81045 -0.00638692
1621200 60.0864 236.773 55.755 0.81055 -0.0147092
1621400 60.0864 236.786 55.755 0.81065 -0.0112929
1621600 60.0864 236.799 55.755 0.81075 0.0157667
1621800 60.0864 236.812 55.755 0.81085 0.013737
1622000 60.0864 236.825 55.755 0.81095 0.00440893
1622200 60.0864 236.838 55.755 0.81105 0.0188803
1622400 60.0864 236.851 55.755 0.81115 0.00669353
1622600 60.0864 236.864 55.755 0.81125 0.0332568
1622800 60.0864 236.877 55.755 0.81135 0.0472863
1623000 60.0864 236.89 55.755 0.81145 -0.0066219
1623200 60.0864 236.904 55.755 0.81155 0.00271114
1623400 60.0864 236.917 55.755 0.81165 0.0152414
1623600 60.0864 236.93 55.755 0.81175 0.00477794
1623800 60.0864 236.943 55.755 0.81185 -0.00617438
1624000 60.0864 236.956 55.755 0.81195 -0.00775972
1624200 60.0864 236.969 55.755 0.81205 -0.00673286
1624400 60.0864 236.982 55.755 0.81215 -0.0175289
1624600 60.0864 236.995 55.755 0.81225 -0.0145306
1624800 60.0864 237.008 55.755 0.81235 -0.025654
1625000 60.0864 237.021 55.755 0.81245 -0.00809989
1625200 60.0864 237.034 55.755 0.81255 0.00331874
1625400 60.0864 237.047 55.755 0.81265 0.000788085
1625600 60.0864 237.06 55.755 0.81275 0.0145358
1625800 60.0864 237.074 55.755 0.81285 -0.00767473
1626000 60.0864 237.087 55.755 0.81295 0.0128241
1626200 60.0864 237.1 55.755 0.81305 0.0181812
1626400 60.0864 237.113 55.755 0.81315 0.0249633
1626600 60.0864 237.126 55.755 0.81325 0.0361916
1626800 60.0864 237.139 55.755 0.81335 0.0197258
1627000 60.0864 237.152 55.755 0.81345 0.0174805
1627200 60.0864 237.165 55.755 0.81355 0.0103733
1627400 60.0864 237.178 55.755 0.81365 0.00226139
1627600 60.0864 237.191 55.755 0.81375 -0.00682139
1627800 60.0864 237.204 55.755 0.81385 0.0134031
1628000 60.0864 237.217 55.755 0.81395 0.00204537
1628200 60.0864 237.23 55.755 0.81405 -0.00967198
1628400 60.0864 237.244 55.755 0.81415 -0.0246381
1628600 60.0864 237.257 55.755 0.81425 0.00241886
1628800 60.0864 237.27 55.755 0.81435 -0.0217986
1629000 60.0864 237.283 55.755 0.81445 -0.0231788
1629200 60.0864 237.296 55.755 0.81455 0.00125698
1629400 60.0864 237.309 55.755 0.81465 -0.00777602
1629600 60.0864 237.322 55.755 0.81475 0.00596029
1629800 60.0864 237.335 55.755 0.81485 -0.0148855
1630000 60.0864 237.348 55.755 0.81495 0.00730675
1630200 60.0864 237.361 55.755 0.81505 0.0142898
1630400 60.0864 237.374 55.755 0.81515 0.0161516
1630600 60.0864 237.387 55.755 0.81525 0.0395496
1630800 60.0864 237.4 55.755 0.81535 0.0136511
1631000 60.0864 237.414 55.755 0.81545 0.0275612
1631200 60.0864 237.427 55.755 0.81555 0.0137963
1631400 60.0864 237.44 55.755 0.81565 0.0329479
1631600 60.0864 237.453 55.755 0.81575 0.0139502
1631800 60.0864 237.466 55.755 0.81585 0.00925727
1632000 60.0864 237.479 55.755 0.81595 -0.00331201
1632200 60.0864 237.492 55.755 0.81605 0.00487037
1632400 60.0864 237.505 55.755 0.81615 -0.0261725
1632600 60.0864 237.518 55.755 0.81625 -0.0181388
1632800 60.0864 237.531 55.755 0.81635 -0.0135111
1633000 60.0864 237.544 55.755 0.81645 -0.0298271
1633200 60.0864 237.557 55.755 0.81655 -0.0195044
1633400 60.0864 237.57 55.755 0.81665 -0.0100698
1633600 60.0864 237.584 55.755 0.81675 -0.0117876
1633800 60.0864 237.597 55.755 0.81685 -0.0264526
1634000 60.0864 237.61 55.755 0.81695 0.0134848
1634200 60.0864 237.623 55.755 0.81705 0.0125877
1634400 60.0864 237.636 55.755 0.81715 0.0303986
1634600 60.0864 237.649 55.755 0.81725 0.0321359
1634800 60.0864 237.662 55.755 0.81735 0.0202255
1635000 60.0864 237.675 55.755 0.81745 0.03889
1635200 60.0864 237.688 55.755 0.81755 0.0179675
1635400 60.0864 237.701 55.755 0.81765 0.0394759
1635600 60.0864 237.714 55.755 0.81775 0.0157723
1635800 60.0864 237.727 55.755 0.81785 0.0179069
1636000 60.0864 237.74 55.755 0.81795 -0.00489967
1636200 60.0864 237.754 55.755 0.81805 -0.0161154
1636400 60.0864 237.767 55.755 0.81815 -0.0274049
1636600 60.0864 237.78 55.755 0.81825 -0.00728831
1636800 60.0864 237.793 55.755 0.81835 -0.032835
1637000 60.0864 237.806 55.755 0.81845 0.00178725
1637200 60.0864 237.819 55.755 0.81855 -0.0240744
1637400 60.0864 237.832 55.755 0.81865 -0.022362
1637600 60.0864 237.845 55.755 0.81875 -0.0164773
1637800 60.0864 237.858 55.755 0.81885 0.00161973
1638000 60.0864 237.871 55.755 0.81895 0.00147966
1638200 60.0864 237.884 55.755 0.81905 0.000675114
1638400 60.0864 237.897 55.755 0.81915 0.0339762
1638600 60.0864 237.91 55.755 0.81925 0.0170097
1638800 60.0864 237.924 55.755 0.81935 0.0329824
1639000 60.0864 237.937 55.755 0.81945 0.0243521
1639200 60.0864 237.95 55.755 0.81955 0.022473
1639400 60.0864 237.963 55.755 0.81965 0.0127598
1639600 60.0864 237.976 55.755 0.81975 0.00893348
1639800 60.0864 237.989 55.755 0.81985 0.0371858
1640000 60.0864 238.002 55.755 0.81995 0.00670551
1640200 60.0864 238.015 55.755 0.82005 0.0161404
1640400 60.0864 238.028 55.755 0.82015 -0.0186852
1640600 60.0864 238.041 55.755 0.82025 -0.0127043
1640800 60.0864 238.054 55.755 0.82035 -0.0222754
1641000 60.0864 238.067 55.755 0.82045 -0.0254729
1641200 60.0864 238.08 55.755 0.82055 -0.0223048
1641400 60.0864 238.094 55.755 0.82065 -0.00487696
1641600 60.0864 238.107 55.755 0.82075 -0.016564
1641800 60.0864 238.12 55.755 0.82085 -0.0132839
1642000 60.0864 238.133 55.755 0.82095 -0.00467646
1642200 60.0864 238.146 55.755 0.82105 0.00843977
1642400 60.0864 238.159 55.755 0.82115 -0.00344595
1642600 60.0864 238.172 55.755 0.82125 0.0215505
1642800 60.0864 238.185 55.755 0.82135 0.0275499
1643000 60.0864 238.198 55.755 0.82145 0.0239185
1643200 60.0864 238.211 55.755 0.82155 0.0182288
1643400 60.0864 238.224 55.755 0.82165 0.0268203
1643600 60.0864 238.237 55.755 0.82175 0.0155073
1643800 60.0864 238.25 55.755 0.82185 0.0278894
1644000 60.0864 238.264 55.755 0.82195 0.00365646
1644200 60.0864 238.277 55.755 0.82205 0.0256501
1644400 60.0864 238.29 55.755 0.82215 0.000811397
1644600 60.0864 238.303 55.755 0.82225 0.000587653
1644800 60.0864 238.316 55.755 0.82235 -0.0159363
1645000 60.0864 238.329 55.755 0.82245 -0.0263018
1645200 60.0864 238.342 55.755 0.82255 -0.0219996
1645400 60.0864 238.355 55.755 0.82265 -0.0137369
1645600 60.0864 238.368 55.755 0.82275 -0.0241712
1645800 60.0864 238.381 55.755 0.82285 -0.0228374
1646000 60.0864 238.394 55.755 0.82295 -0.000685671
1646200 60.0864 238.407 55.755 0.82305 0.0177422
1646400 60.0864 238.42 55.755 0.82315 -0.00101515
1646600 60.0864 238.434 55.755 0.82325 0.00821179
1646800 60.0864 238.447 55.755 0.82335 0.00283227
1647000 60.0864 238.46 55.755 0.82345 0.0496082
1647200 60.0864 238.473 55.755 0.82355 0.0176895
1647400 60.0864 238.486 55.755 0.82365 0.035019
1647600 60.0864 238.499 55.755 0.82375 0.00810219
1647800 60.0864 238.512 55.755 0.82385 0.0276002
1648000 60.0864 238.525 55.755 0.82395 -0.00453541
1648200 60.0864 238.538 55.755 0.82405 0.0121868
1648400 60.0864 238.551 55.755 0.82415 0.0119819
1648600 60.0864 238.564 55.755 0.82425 0.00979341
1648800 60.0864 238.577 55.755 0.82435 -0.0194534
1649000 60.0864 238.591 55.755 0.82445 -0.0176346
1649200 60.0864 238.604 55.755 0.82455 -0.0362954
1649400 60.0864 238.617 55.755 0.82465 -0.0191893
1649600 60.0864 238.63 55.755 0.82475 -0.0234885
1649800 60.0864 238.643 55.755 0.82485 -0.00890455
1650000 60.0864 238.656 55.755 0.82495 -0.000781814
1650200 60.0864 238.669 55.755 0.82505 -0.0171786
1650400 60.0864 238.682 55.755 0.82515 0.00909695
1650600 60.0864 238.695 55.755 0.82525 0.0117038
1650800 60.0864 238.708 55.755 0.82535 0.0137883
1651000 60.0864 238.721 55.755 0.82545 0.0272989
1651200 60.0864 238.734 55.755 0.82555 0.0300173
1651400 60.0864 238.747 55.755 0.82565 0.0247384
1651600 60.0864 238.761 55.755 0.82575 0.027647
1651800 60.0864 238.774 55.755 0.82585 0.0205946
1652000 60.0864 238.787 55.755 0.82595 0.0270093
1652200 60.0864 238.8 55.755 0.82605 0.0117465
1652400 60.0864 238.813 55.755 0.82615 0.0112252
1652600 60.0864 238.826 55.755 0.82625 0.00511854
1652800 60.0864 238.839 55.755 0.82635 -0.025426
1653000 60.0864 238.852 55.755 0.82645 -0.0148528
1653200 60.0864 238.865 55.755 0.82655 -0.0278503
1653400 60.0864 238.878 55.755 0.82665 -0.0229698
1653600 60.0864 238.891 55.755 0.82675 -0.0337119
1653800 60.0864 238.904 55.755 0.82685 -0.0163093
1654000 60.0864 238.917 55.755 0.82695 -0.00325804
1654200 60.0864 238.931 55.755 0.82705 -0.0138489
1654400 60.0864 238.944 55.755 0.82715 0.0112569
1654600 60.0864 238.957 55.755 0.82725 0.014505
1654800 60.0864 238.97 55.755 0.82735 0.0227653
1655000 60.0864 238.983 55.755 0.82745 0.0210444
1655200 60.0864 238.996 55.755 0.82755 0.0246594
1655400 60.0864 239.009 55.755 0.82765 0.0367714
1655600 60.0864 239.022 55.755 0.82775 0.0185116
1655800 60.0864 239.035 55.755 0.82785 0.0209398
1656000 60.0864 239.048 55.755 0.82795 0.0282061
1656200 60.0864 239.061 55.755 0.82805 0.0122979
1656400 60.0864 239.074 55.755 0.82815 -0.00814984
1656600 60.0864 239.087 55.755 0.82825 -0.0029753
1656800 60.0864 239.101 55.755 0.82835 -0.0115508
1657000 60.0864 239.114 55.755 0.82845 -0.0241964
1657200 60.0864 239.127 55.755 0.82855 -0.0133034
1657400 60.0864 239.14 55.755 0.82865 -0.0229071
1657600 60.0864 239.153 55.755 0.82875 -0.0198437
1657800 60.0864 239.166 55.755 0.82885 -0.0138519
1658000 60.0864 239.179 55.755 0.82895 -0.0152721
1658200 60.0864 239.192 55.755 0.82905 -0.00229996
1658400 60.0864 239.205 55.755 0.82915 -0.000485338
1658600 60.0864 239.218 55.755 0.82925 0.0212909
1658800 60.0864 239.231 55.755 0.82935 0.0012674
1659000 60.0864 239.244 55.755 0.82945 0.041086
1659200 60.0864 239.257 55.755 0.82955 0.0227942
1659400 60.0864 239.271 55.755 0.82965 0.0298207
1659600 60.0864 239.284 55.755 0.82975 0.0277556
1659800 60.0864 239.297 55.755 0.82985 0.0127474
1660000 60.0864 239.31 55.755 0.82995 0.0062652
1660200 60.0864 239.323 55.755 0.83005 0.0247722
1660400 60.0864 239.336 55.755 0.83015 0.0112541
1660600 60.0864 239.349 55.755 0.83025 -0.000771876
1660800 60.0864 239.362 55.755 0.83035 -0.0142548
1661000 60.0864 239.375 55.755 0.83045 -0.0159309
1661200 60.0864 239.388 55.755 0.83055 -0.0323637
1661400 60.0864 239.401 55.755 0.83065 -0.0159821
1661600 60.0864 239.414 55.755 0.83075 -0.0119661
1661800 60.0864 239.427 55.755 0.83085 -0.0142806
1662000 60.0864 239.441 55.755 0.83095 -0.0188152
1662200 60.0864 239.454 55.755 0.83105 -0.0125867
1662400 60.0864 239.467 55.755 0.83115 0.00285496
1662600 60.0864 239.48 55.755 0.83125 -0.00292551
1662800 60.0864 239.493 55.755 0.83135 0.0093763
1663000 60.0864 239.506 55.755 0.83145 0.0342063
1663200 60.0864 239.519 55.755 0.83155 0.0237709
1663400 60.0864 239.532 55.755 0.83165 0.044774
1663600 60.0864 239.545 55.755 0.83175 0.0205736
1663800 60.0864 239.558 55.755 0.83185 0.0148599
1664000 60.0864 239.571 55.755 0.83195 0.0227927
1664200 60.0864 239.584 55.755 0.83205 0.0177156
1664400 60.0864 239.597 55.755 0.83215 0.0148214
1664600 60.0864 239.611 55.755 0.83225 0.0139029
1664800 60.0864 239.624 55.755 0.83235 -0.0140718
1665000 60.0864 239.637 55.755 0.83245 -0.00620773
1665200 60.0864 239.65 55.755 0.83255 -0.0305232
1665400 60.0864 239.663 55.755 0.83265 -0.0398653
1665600 60.0864 239.676 55.755 0.83275 -0.019864
1665800 60.0864 239.689 55.755 0.83285 -0.00705671
1666000 60.0864 239.702 55.755 0.83295 -0.00954201
1666200 60.0864 239.715 55.755 0.83305 -0.0114743
1666400 60.0864 239.728 55.755 0.83315 -0.0230988
1666600 60.0864 239.741 55.755 0.83325 -0.0101774
1666800 60.0864 239.754 55.755 0.83335 0.0245398
1667000 60.0864 239.767 55.755 0.83345 0.0339955
1667200 60.0864 239.781 55.755 0.83355 0.0309617
1667400 60.0864 239.794 55.755 0.83365 0.0337485
1667600 60.0864 239.807 55.755 0.83375 0.0386574
1667800 60.0864 239.82 55.755 0.83385 0.0199783
1668000 60.0864 239.833 55.755 0.83395 -0.00789549
1668200 60.0864 239.846 55.755 0.83405 0.0244874
1668400 60.0864 239.859 55.755 0.83415 0.0145666
1668600 60.0864 239.872 55.755 0.83425 0.00855586
1668800 60.0864 239.885 55.755 0.83435 0.00731458
1669000 60.0864 239.898 55.755 0.83445 -0.0132682
1669200 60.0864 239.911 55.755 0.83455 -0.0351173
1669400 60.0864 239.924 55.755 0.83465 -0.0409715
1669600 60.0864 239.937 55.755 0.83475 -0.0152728
1669800 60.0864 239.951 55.755 0.83485 -0.0187418
1670000 60.0864 239.964 55.755 0.83495 -0.0168319
1670200 60.0864 239.977 55.755 0.83505 0.00801597
1670400 60.0864 239.99 55.755 0.83515 -0.00375354
1670600 60.0864 240.003 55.755 0.83525 -0.00736142
1670800 60.0864 240.016 55.755 0.83535 0.0184677
1671000 60.0864 240.029 55.755 0.83545 0.0134393
1671200 60.0864 240.042 55.755 0.83555 0.0267358
1671400 60.0864 240.055 55.755 0.83565 0.0380391
1671600 60.0864 240.068 55.755 0.83575 0.0318225
1671800 60.0864 240.081 55.755 0.83585 0.0291087
1672000 60.0864 240.094 55.755 0.83595 0.00381826
1672200 60.0864 240.107 55.755 0.83605 0.0241987
1672400 60.0864 240.121 55.755 0.83615 -0.00331925
1672600 60.0864 240.134 55.755 0.83625 0.00748152
1672800 60.0864 240.147 55.755 0.83635 -0.000716708
1673000 60.0864 240.16 55.755 0.83645 -0.00421479
1673200 60.0864 240.173 55.755 0.83655 -0.0182556
1673400 60.0864 240.186 55.755 0.83665 -0.0230514
1673600 60.0864 240.199 55.755 0.83675 -0.0347191
1673800 60.0864 240.212 55.755 0.83685 -0.0154525
1674000 60.0864 240.225 55.755 0.83695 -0.00829671
1674200 60.0864 240.238 55.755 0.83705 -0.00523158
1674400 60.0864 240.251 55.755 0.83715 -0.00677441
1674600 60.0864 240.264 55.755 0.83725 -0.00273018
1674800 60.0864 240.277 55.755 0.83735 -6.26334e-05
1675000 60.0864 240.291 55.755 0.83745 0.0153203
1675200 60.0864 240.304 55.755 0.83755 0.0280472
1675400 60.0864 240.317 55.755 0.83765 0.0409214
1675600 60.0864 240.33 55.755 0.83775 0.0194206
1675800 60.0864 240.343 55.755 0.83785 0.0312653
1676000 60.0864 240.356 55.755 0.83795 0.0296204
1676200 60.0864 240.369 55.755 0.83805 0.00939853
1676400 60.0864 240.382 55.755 0.83815 0.0149009
1676600 60.0864 240.395 55.755 0.83825 0.00278035
1676800 60.0864 240.408 55.755 0.83835 -0.0111798
1677000 60.0864 240.421 55.755 0.83845 -0.00181334
1677200 60.0864 240.434 55.755 0.83855 -0.0228621
1677400 60.0864 240.447 55.755 0.83865 -0.0323389
1677600 60.0864 240.461 55.755 0.83875 -0.0184851
1677800 60.0864 240.474 55.755 0.83885 -0.0215119
1678000 60.0864 240.487 55.755 0.83895 -0.012874
1678200 60.0864 240.5 55.755 0.83905 0.00247711
1678400 60.0864 240.513 55.755 0.83915 0.00189428
1678600 60.0864 240.526 55.755 0.83925 -0.00937728
1678800 60.0864 240.539 55.755 0.83935 0.00762182
1679000 60.0864 240.552 55.755 0.83945 0.0227522
1679200 60.0864 240.565 55.755 0.83955 0.0285173
1679400 60.0864 240.578 55.755 0.83965 0.0262466
1679600 60.0864 240.591 55.755 0.83975 0.0347291
1679800 60.0864 240.604 55.755 0.83985 0.0136182
1680000 60.0864 240.617 55.755 0.83995 0.0239063
1680200 60.0864 240.631 55.755 0.84005 0.0134039
1680400 60.0864 240.644 55.755 0.84015 0.0101133
1680600 60.0864 240.657 55.755 0.84025 -0.0150373
1680800 60.0864 240.67 55.755 0.84035 -0.00426368
1681000 60.0864 240.683 55.755 0.84045 -0.00534626
1681200 60.0864 240.696 55.755 0.84055 -0.0197611
1681400 60.0864 240.709 55.755 0.84065 -0.0228752
1681600 60.0864 240.722 55.755 0.84075 -0.00737681
1681800 60.0864 240.735 55.755 0.84085 -0.0339361
1682000 60.0864 240.748 55.755 0.84095 -0.00584463
1682200 60.0864 240.761 55.755 0.84105 -0.00174959
1682400 60.0864 240.774 55.755 0.84115 0.00374429
1682600 60.0864 240.788 55.755 0.84125 0.0149943
1682800 60.0864 240.801 55.755 0.84135 0.0217006
1683000 60.0864 240.814 55.755 0.84145 0.0149092
1683200 60.0864 240.827 55.755 0.84155 0.0151881
1683400 60.0864 240.84 55.755 0.84165 0.00855612
1683600 60.0864 240.853 55.755 0.84175 0.0203036
1683800 60.0864 240.866 55.755 0.84185 0.0101662
1684000 60.0864 240.879 55.755 0.84195 0.0375553
1684200 60.0864 240.892 55.755 0.84205 0.0142036
1684400 60.0864 240.905 55.755 0.84215 -0.00901708
1684600 60.0864 240.918 55.755 0.84225 0.0069183
1684800 60.0864 240.931 55.755 0.84235 -0.00224199
1685000 60.0864 240.944 55.755 0.84245 -0.0205252
1685200 60.0864 240.958 55.755 0.84255 -0.00934811
1685400 60.0864 240.971 55.755 0.84265 -0.00420666
1685600 60.0864 240.984 55.755 0.84275 -0.0189897
1685800 60.0864 240.997 55.755 0.84285 -0.0137258
1686000 60.0864 241.01 55.755 0.84295 -0.0201632
1686200 60.0864 241.023 55.755 0.84305 0.00993234
1686400 60.0864 241.036 55.755 0.84315 -0.000549909
1686600 60.0864 241.049 55.755 0.84325 0.007004
1686800 60.0864 241.062 55.755 0.84335 0.019427
1687000 60.0864 241.075 55.755 0.84345 0.0155561
1687200 60.0864 241.088 55.755 0.84355 0.0262401
1687400 60.0864 241.101 55.755 0.84365 -0.000986631
1687600 60.0864 241.114 55.755 0.84375 0.0167278
1687800 60.0864 241.128 55.755 0.84385 0.0114413
1688000 60.0864 241.141 55.755 0.84395 0.0355491
1688200 60.0864 241.154 55.755 0.84405 0.0229315
1688400 60.0864 241.167 55.755 0.84415 0.0121065
1688600 60.0864 241.18 55.755 0.84425 -0.0298555
1688800 60.0864 241.193 55.755 0.84435 -0.020909
1689000 60.0864 241.206 55.755 0.84445 -0.0194872
1689200 60.0864 241.219 55.755 0.84455 -0.00119528
1689400 60.0864 241.232 55.755 0.84465 -0.0171904
1689600 60.0864 241.245 55.755 0.84475 0.00158976
1689800 60.0864 241.258 55.755 0.84485 0.0110363
1690000 60.0864 241.271 55.755 0.84495 -0.0167942
1690200 60.0864 241.284 55.755 0.84505 -0.00798808
1690400 60.0864 241.298 55.755 0.84515 0.00400697
1690600 60.0864 241.311 55.755 0.84525 0.0112966
1690800 60.0864 241.324 55.755 0.84535 0.0354197
1691000 60.0864 241.337 55.755 0.84545 0.0288684
1691200 60.0864 241.35 55.755 0.84555 0.021519
1691400 60.0864 241.363 55.755 0.84565 -0.00661615
1691600 60.0864 241.376 55.755 0.84575 0.000669026
1691800 60.0864 241.389 55.755 0.84585 -0.00353778
1692000 60.0864 241.402 55.755 0.84595 0.00385619
1692200 60.0864 241.415 55.755 0.84605 0.0214747
1692400 60.0864 241.428 55.755 0.84615 -0.00777469
1692600 60.0864 241.441 55.755 0.84625 -0.0125289
1692800 60.0864 241.454 55.755 0.84635 -0.0171501
1693000 60.0864 241.468 55.755 0.84645 -0.0143417
1693200 60.0864 241.481 55.755 0.84655 0.0122659
1693400 60.0864 241.494 55.755 0.84665 0.00147579
1693600 60.0864 241.507 55.755 0.84675 0.0155313
1693800 60.0864 241.52 55.755 0.84685 -0.0112747
1694000 60.0864 241.533 55.755 0.84695 0.0231411
1694200 60.0864 241.546 55.755 0.84705 -0.0177503
1694400 60.0864 241.559 55.755 0.84715 0.00942531
1694600 60.0864 241.572 55.755 0.84725 0.00115119
1694800 60.0864 241.585 55.755 0.84735 0.0276009
1695000 60.0864 241.598 55.755 0.84745 0.012176
1695200 60.0864 241.611 55.755 0.84755 0.0184984
1695400 60.0864 241.624 55.755 0.84765 -0.0118461
1695600 60.0864 241.638 55.755 0.84775 -0.012389
1695800 60.0864 241.651 55.755 0.84785 0.0131864
1696000 60.0864 241.664 55.755 0.84795 -0.00510822
1696200 60.0864 241.677 55.755 0.84805 0.0120283
1696400 60.0864 241.69 55.755 0.84815 0.0118936
1696600 60.0864 241.703 55.755 0.84825 -0.00515648
1696800 60.0864 241.716 55.755 0.84835 -0.00520327
1697000 60.0864 241.729 55.755 0.84845 0.00615808
1697200 60.0864 241.742 55.755 0.84855 -0.0167682
1697400 60.0864 241.755 55.755 0.84865 -0.00740992
1697600 60.0864 241.768 55.755 0.84875 0.0109144
1697800 60.0864 241.781 55.755 0.84885 0.00681296
1698000 60.0864 241.794 55.755 0.84895 0.0229512
1698200 60.0864 241.808 55.755 0.84905 -0.0173057
1698400 60.0864 241.821 55.755 0.84915 -0.0090494
1698600 60.0864 241.834 55.755 0.84925 0.00939845
1698800 60.0864 241.847 55.755 0.84935 0.00690222
1699000 60.0864 241.86 55.755 0.84945 0.0190242
1699200 60.0864 241.873 55.755 0.84955 0.0128408
1699400 60.0864 241.886 55.755 0.84965 0.00491309
1699600 60.0864 241.899 55.755 0.84975 0.016298
1699800 60.0864 241.912 55.755 0.84985 -0.00941684
1700000 60.0864 241.925 55.755 0.84995 0.00762932
1700200 60.0864 241.938 55.755 0.85005 -0.00450103
1700400 60.0864 241.951 55.755 0.85015 0.00626084
1700600 60.0864 241.964 55.755 0.85025 0.00652018
1700800 60.0864 241.978 55.755 0.85035 0.00276512
1701000 60.0864 241.991 55.755 0.85045 -0.0122613
1701200 60.0864 242.004 55.755 0.85055 -0.0107284
1701400 60.0864 242.017 55.755 0.85065 -0.00735556
1701600 60.0864 242.03 55.755 0.85075 -0.00675548
1701800 60.0864 242.043 55.755 0.85085 0.00968215
1702000 60.0864 242.056 55.755 0.85095 0.0152071
1702200 60.0864 242.069 55.755 0.85105 -0.00214317
1702400 60.0864 242.082 55.755 0.85115 0.00804868
1702600 60.0864 242.095 55.755 0.85125 0.00088203
1702800 60.0864 242.108 55.755 0.85135 0.0165383
1703000 60.0864 242.121 55.755 0.85145 0.0168703
1703200 60.0864 242.134 55.755 0.85155 0.0111006
1703400 60.0864 242.148 55.755 0.85165 0.012032
1703600 60.0864 242.161 55.755 0.85175 0.00583843
1703800 60.0864 242.174 55.755 0.85185 0.0079624
1704000 60.0864 242.187 55.755 0.85195 -0.000989657
1704200 60.0864 242.2 55.755 0.85205 -0.00148397
1704400 60.0864 242.213 55.755 0.85215 -0.00573946
1704600 60.0864 242.226 55.755 0.85225 0.00391122
1704800 60.0864 242.239 55.755 0.85235 -0.0076354
1705000 60.0864 242.252 55.755 0.85245 0.00497749
1705200 60.0864 242.265 55.755 0.85255 -0.00127712
1705400 60.0864 242.278 55.755 0.85265 -0.0203082
1705600 60.0864 242.291 55.755 0.85275 -0.0131241
1705800 60.0864 242.304 55.755 0.85285 0.0127812
1706000 60.0864 242.318 55.755 0.85295 0.00388422
1706200 60.0864 242.331 55.755 0.85305 0.00586875
1706400 60.0864 242.344 55.755 0.85315 0.0018036
1706600 60.0864 242.357 55.755 0.85325 0.019423
1706800 60.0864 242.37 55.755 0.85335 0.0195355
1707000 60.0864 242.383 55.755 0.85345 -0.00964446
1707200 60.0864 242.396 55.755 0.85355 0.00509939
1707400 60.0864 242.409 55.755 0.85365 0.00942386
1707600 60.0864 242.422 55.755 0.85375 0.0051151
1707800 60.0864 242.435 55.755 0.85385 0.0134815
1708000 60.0864 242.448 55.755 0.85395 -0.00776704
1708200 60.0864 242.461 55.755 0.85405 0.00426556
1708400 60.0864 242.474 55.755 0.85415 0.010229
1708600 60.0864 242.488 55.755 0.85425 0.000875376
1708800 60.0864 242.501 55.755 0.85435 -0.0172089
1709000 60.0864 242.514 55.755 0.85445 0.0126147
1709200 60.0864 242.527 55.755 0.85455 0.0217732
1709400 60.0864 242.54 55.755 0.85465 -0.00777241
1709600 60.0864 242.553 55.755 0.85475 -0.00464327
1709800 60.0864 242.566 55.755 0.85485 -0.00601897
1710000 60.0864 242.579 55.755 0.85495 0.0142403
1710200 60.0864 242.592 55.755 0.85505 0.0107499
1710400 60.0864 242.605 55.755 0.85515 -0.00678882
1710600 60.0864 242.618 55.755 0.85525 0.0061066
1710800 60.0864 242.631 55.755 0.85535 0.0081975
1711000 60.0864 242.644 55.755 0.85545 0.000481673
1711200 60.0864 242.658 55.755 0.85555 -0.010386
1711400 60.0864 242.671 55.755 0.85565 -0.0206966
1711600 60.0864 242.684 55.755 0.85575 0.0200598
1711800 60.0864 242.697 55.755 0.85585 0.00600357
1712000 60.0864 242.71 55.755 0.85595 0.00689799
1712200 60.0864 242.723 55.755 0.85605 0.00540437
1712400 60.0864 242.736 55.755 0.85615 0.0105912
1712600 60.0864 242.749 55.755 0.85625 -0.0135752
1712800 60.0864 242.762 55.755 0.85635 0.0160142
1713000 60.0864 242.775 55.755 0.85645 0.00722735
1713200 60.0864 242.788 55.755 0.85655 -0.00197906
1713400 60.0864 242.801 55.755 0.85665 0.00972129
1713600 60.0864 242.814 55.755 0.85675 0.00281412
1713800 60.0864 242.828 55.755 0.85685 0.00051986
1714000 60.0864 242.841 55.755 0.85695 0.000658785
1714200 60.0864 242.854 55.755 0.85705 0.00355168
1714400 60.0864 242.867 55.755 0.85715 0.0029526
1714600 60.0864 242.88 55.755 0.85725 -0.00781248
1714800 60.0864 242.893 55.755 0.85735 0.0140016
1715000 60.0864 242.906 55.755 0.85745 -0.00365216
1715200 60.0864 242.919 55.755 0.85755 -0.00369022
1715400 60.0864 242.932 55.755 0.85765 0.00232466
1715600 60.0864 242.945 55.755 0.85775 0.0197615
1715800 60.0864 242.958 55.755 0.85785 0.0187361
1716000 60.0864 242.971 55.755 0.85795 0.00601233
1716200 60.0864 242.985 55.755 0.85805 -0.00952735
1716400 60.0864 242.998 55.755 0.85815 0.0174868
1716600 60.0864 243.011 55.755 0.85825 -0.0142212
1716800 60.0864 243.024 55.755 0.85835 -0.000659544
1717000 60.0864 243.037 55.755 0.85845 0.0194424
1717200 60.0864 243.05 55.755 0.85855 -0.0081
1717400 60.0864 243.063 55.755 0.85865 -0.000559683
1717600 60.0864 243.076 55.755 0.85875 -0.013323
1717800 60.0864 243.089 55.755 0.85885 -0.00400471
1718000 60.0864 243.102 55.755 0.85895 -0.0084667
1718200 60.0864 243.115 55.755 0.85905 0.0133997
1718400 60.0864 243.128 55.755 0.85915 0.00261735
1718600 60.0864 243.141 55.755 0.85925 0.00774285
1718800 60.0864 243.155 55.755 0.85935 0.00943844
1719000 60.0864 243.168 55.755 0.85945 0.0135178
1719200 60.0864 243.181 55.755 0.85955 -0.0136574
1719400 60.0864 243.194 55.755 0.85965 0.00971563
1719600 60.0864 243.207 55.755 0.85975 0.0312859
1719800 60.0864 243.22 55.755 0.85985 0.0114067
1720000 60.0864 243.233 55.755 0.85995 0.00184493
1720200 60.0864 243.246 55.755 0.86005 -0.00606602
1720400 60.0864 243.259 55.755 0.86015 -0.00956342
1720600 60.0864 243.272 55.755 0.86025 0.00322251
1720800 60.0864 243.285 55.755 0.86035 0.0189943
1721000 60.0864 243.298 55.755 0.86045 -0.000769961
1721200 60.0864 243.311 55.755 0.86055 -0.00926046
1721400 60.0864 243.325 55.755 0.86065 -0.000870423
1721600 60.0864 243.338 55.755 0.86075 -0.0140177
1721800 60.0864 243.351 55.755 0.86085 0.00426546
1722000 60.0864 243.364 55.755 0.86095 0.00396763
1722200 60.0864 243.377 55.755 0.86105 0.0148692
1722400 60.0864 243.39 55.755 0.86115 -9.88902e-05
1722600 60.0864 243.403 55.755 0.86125 -0.00625151
1722800 60.0864 243.416 55.755 0.86135 0.00245781
1723000 60.0864 243.429 55.755 0.86145 -0.00189245
1723200 60.0864 243.442 55.755 0.86155 0.00212041
1723400 60.0864 243.455 55.755 0.86165 0.00236975
1723600 60.0864 243.468 55.755 0.86175 0.027748
1723800 60.0864 243.481 55.755 0.86185 0.00520355
1724000 60.0864 243.495 55.755 0.86195 0.0132006
1724200 60.0864 243.508 55.755 0.86205 0.00497482
1724400 60.0864 243.521 55.755 0.86215 -3.85185e-05
1724600 60.0864 243.534 55.755 0.86225 0.0135006
1724800 60.0864 243.547 55.755 0.86235 0.0106868
1725000 60.0864 243.56 55.755 0.86245 0.0071899
1725200 60.0864 243.573 55.755 0.86255 -0.000875347
1725400 60.0864 243.586 55.755 0.86265 0.000382202
1725600 60.0864 243.599 55.755 0.86275 0.00825337
1725800 60.0864 243.612 55.755 0.86285 -0.022939
1726000 60.0864 243.625 55.755 0.86295 -0.00735469
1726200 60.0864 243.638 55.755 0.86305 -0.0169822
1726400 60.0864 243.651 55.755 0.86315 0.0136305
1726600 60.0864 243.665 55.755 0.86325 0.00211816
1726800 60.0864 243.678 55.755 0.86335 -0.00797469
1727000 60.0864 243.691 55.755 0.86345 -0.00828832
1727200 60.0864 243.704 55.755 0.86355 0.00813496
1727400 60.0864 243.717 55.755 0.86365 -0.00396396
1727600 60.0864 243.73 55.755 0.86375 0.0109078
1727800 60.0864 243.743 55.755 0.86385 0.0154152
1728000 60.0864 243.756 55.755 0.86395 0.0119097
1728200 60.0864 243.769 55.755 0.86405 0.00982487
1728400 60.0864 243.782 55.755 0.86415 0.000873805
1728600 60.0864 243.795 55.755 0.86425 0.00706492
1728800 60.0864 243.808 55.755 0.86435 0.0163195
1729000 60.0864 243.821 55.755 0.86445 0.00289523
1729200 60.0864 243.835 55.755 0.86455 0.0192373
1729400 60.0864 243.848 55.755 0.86465 0.00607841
1729600 60.0864 243.861 55.755 0.86475 -0.008556
1729800 60.0864 243.874 55.755 0.86485 0.000866537
1730000 60.0864 243.887 55.755 0.86495 0.0102681
1730200 60.0864 243.9 55.755 0.86505 -0.0129289
1730400 60.0864 243.913 55.755 0.86515 0.00550387
1730600 60.0864 243.926 55.755 0.86525 -0.00648564
1730800 60.0864 243.939 55.755 0.86535 -0.00719215
1731000 60.0864 243.952 55.755 0.86545 -0.00274577
1731200 60.0864 243.965 55.755 0.86555 -0.0140277
1731400 60.0864 243.978 55.755 0.86565 0.00010719
1731600 60.0864 243.991 55.755 0.86575 -0.00141636
1731800 60.0864 244.005 55.755 0.86585 0.0287155
1732000 60.0864 244.018 55.755 0.86595 0.00303579
1732200 60.0864 244.031 55.755 0.86605 0.00652929
1732400 60.0864 244.044 55.755 0.86615 0.0155015
1732600 60.0864 244.057 55.755 0.86625 -0.000835148
1732800 60.0864 244.07 55.755 0.86635 0.0149537
1733000 60.0864 244.083 55.755 0.86645 0.0137364
1733200 60.0864 244.096 55.755 0.86655 0.00161737
1733400 60.0864 244.109 55.755 0.86665 0.0116021
1733600 60.0864 244.122 55.755 0.86675 -0.00166971
1733800 60.0864 244.135 55.755 0.86685 -0.0109549
1734000 60.0864 244.148 55.755 0.86695 -0.00529467
1734200 60.0864 244.161 55.755 0.86705 0.00582146
1734400 60.0864 244.175 55.755 0.86715 -0.00652332
1734600 60.0864 244.188 55.755 0.86725 0.0183943
1734800 60.0864 244.201 55.755 0.86735 0.000674247
1735000 60.0864 244.214 55.755 0.86745 -0.0163723
1735200 60.0864 244.227 55.755 0.86755 -0.0108594
1735400 60.0864 244.24 55.755 0.86765 -0.00614166
1735600 60.0864 244.253 55.755 0.86775 0.0266112
1735800 60.0864 244.266 55.755 0.86785 0.00558972
1736000 60.0864 244.279 55.755 0.86795 -0.0030406
1736200 60.0864 244.292 55.755 0.86805 0.00912634
1736400 60.0864 244.305 55.755 0.86815 0.0100907
1736600 60.0864 244.318 55.755 0.86825 -0.00532376
1736800 60.0864 244.331 55.755 0.86835 0.0061967
1737000 60.0864 244.345 55.755 0.86845 0.0108575
1737200 60.0864 244.358 55.755 0.86855 0.023272
1737400 60.0864 244.371 55.755 0.86865 0.0109203
1737600 60.0864 244.384 55.755 0.86875 -0.00588737
1737800 60.0864 244.397 55.755 0.86885 -0.00907733
1738000 60.0864 244.41 55.755 0.86895 0.00230208
1738200 60.0864 244.423 55.755 0.86905 -0.0122022
1738400 60.0864 244.436 55.755 0.86915 0.0121728
1738600 60.0864 244.449 55.755 0.86925 0.00526555
1738800 60.0864 244.462 55.755 0.86935 -0.00210911
1739000 60.0864 244.475 55.755 0.86945 -0.0125752
1739200 60.0864 244.488 55.755 0.86955 -0.00287643
1739400 60.0864 244.501 55.755 0.86965 0.00763389
1739600 60.0864 244.515 55.755 0.86975 -0.00189241
1739800 60.0864 244.528 55.755 0.86985 0.00777161
1740000 60.0864 244.541 55.755 0.86995 0.0196564
1740200 60.0864 244.554 55.755 0.87005 0.0174514
1740400 60.0864 244.567 55.755 0.87015 0.000140393
1740600 60.0864 244.58 55.755 0.87025 -0.00184681
1740800 60.0864 244.593 55.755 0.87035 0.00734491
1741000 60.0864 244.606 55.755 0.87045 -0.000278665
1741200 60.0864 244.619 55.755 0.87055 0.0101119
1741400 60.0864 244.632 55.755 0.87065 -0.000978439
1741600 60.0864 244.645 55.755 0.87075 -0.00589425
1741800 60.0864 244.658 55.755 0.87085 0.00609761
1742000 60.0864 244.671 55.755 0.87095 0.00343297
1742200 60.0864 244.685 55.755 0.87105 -0.00881936
1742400 60.0864 244.698 55.755 0.87115 -0.0100368
1742600 60.0864 244.711 55.755 0.87125 0.00694568
1742800 60.0864 244.724 55.755 0.87135 0.00619833
1743000 60.0864 244.737 55.755 0.87145 0.0067258
1743200 60.0864 244.75 55.755 0.87155 0.0134167
1743400 60.0864 244.763 55.755 0.87165 -0.00922681
1743600 60.0864 244.776 55.755 0.87175 0.0157592
1743800 60.0864 244.789 55.755 0.87185 0.00381252
1744000 60.0864 244.802 55.755 0.87195 -0.00043657
1744200 60.0864 244.815 55.755 0.87205 -0.00148037
1744400 60.0864 244.828 55.755 0.87215 0.0132768
1744600 60.0864 244.841 55.755 0.87225 -0.00292826
1744800 60.0864 244.855 55.755 0.87235 0.0106737
1745000 60.0864 244.868 55.755 0.87245 0.0312764
1745200 60.0864 244.881 55.755 0.87255 -0.0124795
1745400 60.0864 244.894 55.755 0.87265 -0.0126012
1745600 60.0864 244.907 55.755 0.87275 0.0070359
1745800 60.0864 244.92 55.755 0.87285 -0.000214293
1746000 60.0864 244.933 55.755 0.87295 -0.00298837
1746200 60.0864 244.946 55.755 0.87305 -0.00350023
1746400 60.0864 244.959 55.755 0.87315 -0.00848991
1746600 60.0864 244.972 55.755 0.87325 -0.00319973
1746800 60.0864 244.985 55.755 0.87335 0.0104685
1747000 60.0864 244.998 55.755 0.87345 -0.000593695
1747200 60.0864 245.012 55.755 0.87355 0.000244892
1747400 60.0864 245.025 55.755 0.87365 0.0218866
1747600 60.0864 245.038 55.755 0.87375 0.0116094
1747800 60.0864 245.051 55.755 0.87385 0.0108507
1748000 60.0864 245.064 55.755 0.87395 0.0109233
1748200 60.0864 245.077 55.755 0.87405 0.000886644
1748400 60.0864 245.09 55.755 0.87415 0.0175994
1748600 60.0864 245.103 55.755 0.87425 0.0122028
1748800 60.0864 245.116 55.755 0.87435 0.00753886
1749000 60.0864 245.129 55.755 0.87445 -0.00451777
1749200 60.0864 245.142 55.755 0.87455 -0.00234816
1749400 60.0864 245.155 55.755 0.87465 -0.026536
1749600 60.0864 245.168 55.755 0.87475 0.00599008
1749800 60.0864 245.182 55.755 0.87485 -0.00576472
1750000 60.0864 245.195 55.755 0.87495 -0.0142319
1750200 60.0864 245.208 55.755 0.87505 -0.0139918
1750400 60.0864 245.221 55.755 0.87515 -0.00662958
1750600 60.0864 245.234 55.755 0.87525 0.00924555
1750800 60.0864 245.247 55.755 0.87535 0.00970919
1751000 60.0864 245.26 55.755 0.87545 0.00268294
1751200 60.0864 245.273 55.755 0.87555 0.0195656
1751400 60.0864 245.286 55.755 0.87565 0.0114468
1751600 60.0864 245.299 55.755 0.87575 0.029931
1751800 60.0864 245.312 55.755 0.87585 0.00676506
1752000 60.0864 245.325 55.755 0.87595 0.00441036
1752200 60.0864 245.338 55.755 0.87605 0.0149967
1752400 60.0864 245.352 55.755 0.87615 0.0129407
1752600 60.0864 245.365 55.755 0.87625 -0.00517616
1752800 60.0864 245.378 55.755 0.87635 0.00302736
1753000 60.0864 245.391 55.755 0.87645 -0.00395128
1753200 60.0864 245.404 55.755 0.87655 -0.0124615
1753400 60.0864 245.417 55.755 0.87665 -0.0117567
1753600 60.0864 245.43 55.755 0.87675 -0.00820095
1753800 60.0864 245.443 55.755 0.87685 -0.014372
1754000 60.0864 245.456 55.755 0.87695 -0.00948634
1754200 60.0864 245.469 55.755 0.87705 -0.00214752
1754400 60.0864 245.482 55.755 0.87715 0.00609541
1754600 60.0864 245.495 55.755 0.87725 0.0140094
1754800 60.0864 245.508 55.755 0.87735 0.0056845
1755000 60.0864 245.522 55.755 0.87745 0.00456798
1755200 60.0864 245.535 55.755 0.87755 0.00448057
1755400 60.0864 245.548 55.755 0.87765 0.00934273
1755600 60.0864 245.561 55.755 0.87775 0.0401844
1755800 60.0864 245.574 55.755 0.87785 0.0148138
1756000 60.0864 245.587 55.755 0.87795 0.0196949
1756200 60.0864 245.6 55.755 0.87805 0.0154711
1756400 60.0864 245.613 55.755 0.87815 -0.00454068
1756600 60.0864 245.626 55.755 0.87825 -0.00165331
1756800 60.0864 245.639 55.755 0.87835 0.00392424
1757000 60.0864 245.652 55.755 0.87845 -0.00928097
1757200 60.0864 245.665 55.755 0.87855 -0.00618773
1757400 60.0864 245.678 55.755 0.87865 -0.0232311
1757600 60.0864 245.692 55.755 0.87875 -0.0156059
1757800 60.0864 245.705 55.755 0.87885 -0.0077147
1758000 60.0864 245.718 55.755 0.87895 -0.0144064
1758200 60.0864 245.731 55.755 0.87905 -0.007733
1758400 60.0864 245.744 55.755 0.87915 0.0171914
1758600 60.0864 245.757 55.755 0.87925 0.0207373
1758800 60.0864 245.77 55.755 0.87935 -0.00368471
1759000 60.0864 245.783 55.755 0.87945 -0.00359369
1759200 60.0864 245.796 55.755 0.87955 0.021222
1759400 60.0864 245.809 55.755 0.87965 0.0153195
1759600 60.0864 245.822 55.755 0.87975 0.0162466
1759800 60.0864 245.835 55.755 0.87985 0.010951
1760000 60.0864 245.848 55.755 0.87995 0.0354731
1760200 60.0864 245.862 55.755 0.88005 0.0105618
1760400 60.0864 245.875 55.755 0.88015 0.0118505
1760600 60.0864 245.888 55.755 0.88025 -0.00454321
1760800 60.0864 245.901 55.755 0.88035 -0.0158192
1761000 60.0864 245.914 55.755 0.88045 -0.00431055
1761200 60.0864 245.927 55.755 0.88055 0.00136847
1761400 60.0864 245.94 55.755 0.88065 -0.0090191
1761600 60.0864 245.953 55.755 0.88075 -0.00980658
1761800 60.0864 245.966 55.755 0.88085 -0.0160073
1762000 60.0864 245.979 55.755 0.88095 -0.00776381
1762200 60.0864 245.992 55.755 0.88105 -0.017342
1762400 60.0864 246.005 55.755 0.88115 0.0205477
1762600 60.0864 246.018 55.755 0.88125 0.00741613
1762800 60.0864 246.032 55.755 0.88135 0.00689496
1763000 60.0864 246.045 55.755 0.88145 0.00171343
1763200 60.0864 246.058 55.755 0.88155 -0.00148889
1763400 60.0864 246.071 55.755 0.88165 0.00951026
1763600 60.0864 246.084 55.755 0.88175 0.0229916
1763800 60.0864 246.097 55.755 0.88185 0.0189649
1764000 60.0864 246.11 55.755 0.88195 0.0079371
1764200 60.0864 246.123 55.755 0.88205 0.0212459
1764400 60.0864 246.136 55.755 0.88215 -0.00453771
1764600 60.0864 246.149 55.755 0.88225 0.00434182
1764800 60.0864 246.162 55.755 0.88235 0.00277326
1765000 60.0864 246.175 55.755 0.88245 -0.00521144
1765200 60.0864 246.188 55.755 0.88255 1.68238e-05
1765400 60.0864 246.202 55.755 0.88265 0.0208796
1765600 60.0864 246.215 55.755 0.88275 -0.0217635
1765800 60.0864 246.228 55.755 0.88285 -0.0153981
1766000 60.0864 246.241 55.755 0.88295 -0.0142865
1766200 60.0864 246.254 55.755 0.88305 0.00406954
1766400 60.0864 246.267 55.755 0.88315 -0.00782959
1766600 60.0864 246.28 55.755 0.88325 0.0232591
1766800 60.0864 246.293 55.755 0.88335 -0.00661864
1767000 60.0864 246.306 55.755 0.88345 -0.00560126
1767200 60.0864 246.319 55.755 0.88355 0.00365365
1767400 60.0864 246.332 55.755 0.88365 0.00149426
1767600 60.0864 246.345 55.755 0.88375 0.0173
1767800 60.0864 246.358 55.755 0.88385 0.0191518
1768000 60.0864 246.372 55.755 0.88395 0.0187664
1768200 60.0864 246.385 55.755 0.88405 0.0107733
1768400 60.0864 246.398 55.755 0.88415 0.0168078
1768600 60.0864 246.411 55.755 0.88425 0.00671415
1768800 60.0864 246.424 55.755 0.88435 0.00495446
1769000 60.0864 246.437 55.755 0.88445 -0.00483356
1769200 60.0864 246.45 55.755 0.88455 -0.000518886
1769400 60.0864 246.463 55.755 0.88465 0.0125957
1769600 60.0864 246.476 55.755 0.88475 -0.0163973
1769800 60.0864 246.489 55.755 0.88485 -0.00785543
1770000 60.0864 246.502 55.755 0.88495 -0.00719905
1770200 60.0864 246.515 55.755 0.88505 -0.0259342
1770400 60.0864 246.528 55.755 0.88515 0.00716358
1770600 60.0864 246.542 55.755 0.88525 -0.00946259
1770800 60.0864 246.555 55.755 0.88535 0.0175705
1771000 60.0864 246.568 55.755 0.88545 0.00419339
1771200 60.0864 246.581 55.755 0.88555 0.0127973
1771400 60.0864 246.594 55.755 0.88565 -0.0132168
1771600 60.0864 246.607 55.755 0.88575 0.009274
1771800 60.0864 246.62 55.755 0.88585 0.00339343
1772000 60.0864 246.633 55.755 0.88595 0.0134651
1772200 60.0864 246.646 55.755 0.88605 0.0240392
1772400 60.0864 246.659 55.755 0.88615 0.0150393
1772600 60.0864 246.672 55.755 0.88625 0.003528
1772800 60.0864 246.685 55.755 0.88635 0.00536562
1773000 60.0864 246.698 55.755 0.88645 -0.00808435
1773200 60.0864 246.712 55.755 0.88655 0.00189228
1773400 60.0864 246.725 55.755 0.88665 0.00815639
1773600 60.0864 246.738 55.755 0.88675 0.00848366
1773800 60.0864 246.751 55.755 0.88685 -0.000491196
1774000 60.0864 246.764 55.755 0.88695 -0.0152059
1774200 60.0864 246.777 55.755 0.88705 -0.0076571
1774400 60.0864 246.79 55.755 0.88715 -0.0103188
1774600 60.0864 246.803 55.755 0.88725 0.00329372
1774800 60.0864 246.816 55.755 0.88735 0.0132669
1775000 60.0864 246.829 55.755 0.88745 0.00338027
1775200 60.0864 246.842 55.755 0.88755 0.00998904
1775400 60.0864 246.855 55.755 0.88765 -0.00952561
1775600 60.0864 246.868 55.755 0.88775 0.00682582
1775800 60.0864 246.882 55.755 0.88785 0.00140368
1776000 60.0864 246.895 55.755 0.88795 0.0160846
1776200 60.0864 246.908 55.755 0.88805 0.0257956
1776400 60.0864 246.921 55.755 0.88815 0.0113517
1776600 60.0864 246.934 55.755 0.88825 0.000312513
1776800 60.0864 246.947 55.755 0.88835 0.00462008
1777000 60.0864 246.96 55.755 0.88845 -0.0168582
1777200 60.0864 246.973 55.755 0.88855 -0.00595597
1777400 60.0864 246.986 55.755 0.88865 0.0019022
1777600 60.0864 246.999 55.755 0.88875 0.0139703
1777800 60.0864 247.012 55.755 0.88885 -0.0020901
1778000 60.0864 247.025 55.755 0.88895 -0.00576601
1778200 60.0864 247.038 55.755 0.88905 -0.0187426
1778400 60.0864 247.052 55.755 0.88915 -0.000922829
1778600 60.0864 247.065 55.755 0.88925 0.00118705
1778800 60.0864 247.078 55.755 0.88935 0.00945898
1779000 60.0864 247.091 55.755 0.88945 -0.00283159
1779200 60.0864 247.104 55.755 0.88955 0.0150543
1779400 60.0864 247.117 55.755 0.88965 0.0135317
1779600 60.0864 247.13 55.755 0.88975 0.00907933
1779800 60.0864 247.143 55.755 0.88985 0.0112097
1780000 60.0864 247.156 55.755 0.88995 0.00355756
1780200 60.0864 247.169 55.755 0.89005 0.0165959
1780400 60.0864 247.182 55.755 0.89015 0.0125546
1780600 60.0864 247.195 55.755 0.89025 0.00579783
1780800 60.0864 247.209 55.755 0.89035 -0.00658953
1781000 60.0864 247.222 55.755 0.89045 0.00708286
1781200 60.0864 247.235 55.755 0.89055 -0.0187572
1781400 60.0864 247.248 55.755 0.89065 0.00253359
1781600 60.0864 247.261 55.755 0.89075 0.00646373
1781800 60.0864 247.274 55.755 0.89085 -0.00574713
1782000 60.0864 247.287 55.755 0.89095 -0.00800678
1782200 60.0864 247.3 55.755 0.89105 -0.0175924
1782400 60.0864 247.313 55.755 0.89115 0.00667019
1782600 60.0864 247.326 55.755 0.89125 -0.0112308
1782800 60.0864 247.339 55.755 0.89135 0.0044688
1783000 60.0864 247.352 55.755 0.89145 0.0104626
1783200 60.0864 247.365 55.755 0.89155 0.0156195
1783400 60.0864 247.379 55.755 0.89165 0.00752097
1783600 60.0864 247.392 55.755 0.89175 0.00299916
1783800 60.0864 247.405 55.755 0.89185 0.00998387
1784000 60.0864 247.418 55.755 0.89195 0.00931216
1784200 60.0864 247.431 55.755 0.89205 0.0153045
1784400 60.0864 247.444 55.755 0.89215 0.0208244
1784600 60.0864 247.457 55.755 0.89225 0.0246373
1784800 60.0864 247.47 55.755 0.89235 0.0157116
1785000 60.0864 247.483 55.755 0.89245 -0.00883079
1785200 60.0864 247.496 55.755 0.89255 -0.0268326
1785400 60.0864 247.509 55.755 0.89265 -0.00647917
1785600 60.0864 247.522 55.755 0.89275 -0.00426365
1785800 60.0864 247.535 55.755 0.89285 -0.00510276
1786000 60.0864 247.549 55.755 0.89295 -0.000130828
1786200 60.0864 247.562 55.755 0.89305 -0.00749497
1786400 60.0864 247.575 55.755 0.89315 -0.00632369
1786600 60.0864 247.588 55.755 0.89325 -0.0108695
1786800 60.0864 247.601 55.755 0.89335 -0.00695556
1787000 60.0864 247.614 55.755 0.89345 0.0022563
1787200 60.0864 247.627 55.755 0.89355 0.0168566
1787400 60.0864 247.64 55.755 0.89365 0.0194952
1787600 60.0864 247.653 55.755 0.89375 0.00778172
1787800 60.0864 247.666 55.755 0.89385 -0.00282129
1788000 60.0864 247.679 55.755 0.89395 0.0136537
1788200 60.0864 247.692 55.755 0.89405 0.0264251
1788400 60.0864 247.705 55.755 0.89415 0.00725067
1788600 60.0864 247.719 55.755 0.89425 0.00283167
1788800 60.0864 247.732 55.755 0.89435 0.0085975
1789000 60.0864 247.745 55.755 0.89445 0.00231972
1789200 60.0864 247.758 55.755 0.89455 0.00461408
1789400 60.0864 247.771 55.755 0.89465 0.00114335
1789600 60.0864 247.784 55.755 0.89475 -0.0109533
1789800 60.0864 247.797 55.755 0.89485 0.00528743
1790000 60.0864 247.81 55.755 0.89495 -0.0162374
1790200 60.0864 247.823 55.755 0.89505 -0.00197294
1790400 60.0864 247.836 55.755 0.89515 -0.00636188
1790600 60.0864 247.849 55.755 0.89525 -0.00210385
1790800 60.0864 247.862 55.755 0.89535 0.0045774
1791000 60.0864 247.875 55.755 0.89545 -0.0101664
1791200 60.0864 247.889 55.755 0.89555 0.0110738
1791400 60.0864 247.902 55.755 0.89565 0.0153311
1791600 60.0864 247.915 55.755 0.89575 -0.000970347
1791800 60.0864 247.928 55.755 0.89585 0.00267349
1792000 60.0864 247.941 55.755 0.89595 0.0115589
1792200 60.0864 247.954 55.755 0.89605 0.011193
1792400 60.0864 247.967 55.755 0.89615 0.0226163
1792600 60.0864 247.98 55.755 0.89625 0.00520343
1792800 60.0864 247.993 55.755 0.89635 -0.00131218
1793000 60.0864 248.006 55.755 0.89645 0.00294604
1793200 60.0864 248.019 55.755 0.89655 0.0076369
1793400 60.0864 248.032 55.755 0.89665 -0.00119293
1793600 60.0864 248.045 55.755 0.89675 -0.003296
1793800 60.0864 248.059 55.755 0.89685 0.00657432
1794000 60.0864 248.072 55.755 0.89695 -0.00359181
1794200 60.0864 248.085 55.755 0.89705 -0.00524077
1794400 60.0864 248.098 55.755 0.89715 -0.0131025
1794600 60.0864 248.111 55.755 0.89725 -0.00491729
1794800 60.0864 248.124 55.755 0.89735 -0.0160476
1795000 60.0864 248.137 55.755 0.89745 0.00784813
1795200 60.0864 248.15 55.755 0.89755 0.00112894
1795400 60.0864 248.163 55.755 0.89765 0.0123464
1795600 60.0864 248.176 55.755 0.89775 0.0164112
1795800 60.0864 248.189 55.755 0.89785 0.000546762
1796000 60.0864 248.202 55.755 0.89795 0.000946584
1796200 60.0864 248.215 55.755 0.89805 0.0109296
1796400 60.0864 248.229 55.755 0.89815 0.0174402
1796600 60.0864 248.242 55.755 0.89825 0.0121074
1796800 60.0864 248.255 55.755 0.89835 0.00150617
1797000 60.0864 248.268 55.755 0.89845 0.00146887
1797200 60.0864 248.281 55.755 0.89855 0.0154232
1797400 60.0864 248.294 55.755 0.89865 -0.00575773
1797600 60.0864 248.307 55.755 0.89875 0.00715143
1797800 60.0864 248.32 55.755 0.89885 -0.00789565
1798000 60.0864 248.333 55.755 0.89895 -0.0103837
1798200 60.0864 248.346 55.755 0.89905 0.00356994
1798400 60.0864 248.359 55.755 0.89915 0.014232
1798600 60.0864 248.372 55.755 0.89925 -0.00679204
1798800 60.0864 248.385 55.755 0.89935 -0.0121471
1799000 60.0864 248.399 55.755 0.89945 -0.00980477
1799200 60.0864 248.412 55.755 0.89955 0.00694416
1799400 60.0864 248.425 55.755 0.89965 0.00893813
1799600 60.0864 248.438 55.755 0.89975 0.00325521
1799800 60.0864 248.451 55.755 0.89985 0.00920946
1800000 60.0864 248.464 55.755 0.89995 0.0109285
1800200 60.0864 248.477 55.755 0.90005 0.00455831
1800400 60.0864 248.49 55.755 0.90015 0.00504835
1800600 60.0864 248.503 55.755 0.90025 0.0166455
1800800 60.0864 248.516 55.755 0.90035 -0.00826135
1801000 60.0864 248.529 55.755 0.90045 0.0139917
1801200 60.0864 248.542 55.755 0.90055 -0.00987525
1801400 60.0864 248.555 55.755 0.90065 -0.0144269
1801600 60.0864 248.569 55.755 0.90075 -0.00361266
1801800 60.0864 248.582 55.755 0.90085 0.000116857
1802000 60.0864 248.595 55.755 0.90095 0.00783111
1802200 60.0864 248.608 55.755 0.90105 -0.00273981
1802400 60.0864 248.621 55.755 0.90115 0.00377504
1802600 60.0864 248.634 55.755 0.90125 0.0144755
1802800 60.0864 248.647 55.755 0.90135 0.000681703
1803000 60.0864 248.66 55.755 0.90145 0.00526524
1803200 60.0864 248.673 55.755 0.90155 0.00803398
1803400 60.0864 248.686 55.755 0.90165 0.013932
1803600 60.0864 248.699 55.755 0.90175 0.0169619
1803800 60.0864 248.712 55.755 0.90185 -0.00240635
1804000 60.0864 248.725 55.755 0.90195 -0.00366737
1804200 60.0864 248.739 55.755 0.90205 0.00195927
1804400 60.0864 248.752 55.755 0.90215 -0.00940507
1804600 60.0864 248.765 55.755 0.90225 0.00137311
1804800 60.0864 248.778 55.755 0.90235 0.0041613
1805000 60.0864 248.791 55.755 0.90245 -0.00487675
1805200 60.0864 248.804 55.755 0.90255 0.00798189
1805400 60.0864 248.817 55.755 0.90265 0.00705863
1805600 60.0864 248.83 55.755 0.90275 -0.00912665
1805800 60.0864 248.843 55.755 0.90285 0.000480322
1806000 60.0864 248.856 55.755 0.90295 -0.0050819
1806200 60.0864 248.869 55.755 0.90305 -0.00396301
1806400 60.0864 248.882 55.755 0.90315 0.0101526
1806600 60.0864 248.895 55.755 0.90325 0.0178939
1806800 60.0864 248.909 55.755 0.90335 -0.012374
1807000 60.0864 248.922 55.755 0.90345 0.0174363
1807200 60.0864 248.935 55.755 0.90355 -0.000363211
1807400 60.0864 248.948 55.755 0.90365 0.00419148
1807600 60.0864 248.961 55.755 0.90375 0.0137394
1807800 60.0864 248.974 55.755 0.90385 0.00229369
1808000 60.0864 248.987 55.755 0.90395 -0.00192172
1808200 60.0864 249 55.755 0.90405 0.00811592
1808400 60.0864 249.013 55.755 0.90415 0.000117441
1808600 60.0864 249.026 55.755 0.90425 -0.00434841
1808800 60.0864 249.039 55.755 0.90435 0.007076
1809000 60.0864 249.052 55.755 0.90445 0.00797025
1809200 60.0864 249.065 55.755 0.90455 0.0102867
1809400 60.0864 249.079 55.755 0.90465 -0.00379904
1809600 60.0864 249.092 55.755 0.90475 -0.00108378
1809800 60.0864 249.105 55.755 0.90485 -0.00134351
1810000 60.0864 249.118 55.755 0.90495 -0.00731707
1810200 60.0864 249.131 55.755 0.90505 -0.00589736
1810400 60.0864 249.144 55.755 0.90515 -0.00571474
1810600 60.0864 249.157 55.755 0.90525 -0.00625118
1810800 60.0864 249.17 55.755 0.90535 0.0224336
1811000 60.0864 249.183 55.755 0.90545 0.0031873
1811200 60.0864 249.196 55.755 0.90555 0.00218512
1811400 60.0864 249.209 55.755 0.90565 0.00127316
1811600 60.0864 249.222 55.755 0.90575 -0.00301762
1811800 60.0864 249.235 55.755 0.90585 0.0143158
1812000 60.0864 249.249 55.755 0.90595 0.00598121
1812200 60.0864 249.262 55.755 0.90605 -0.0088756
1812400 60.0864 249.275 55.755 0.90615 0.0075551
1812600 60.0864 249.288 55.755 0.90625 0.0199914
1812800 60.0864 249.301 55.755 0.90635 0.00971458
1813000 60.0864 249.314 55.755 0.90645 -0.00850747
1813200 60.0864 249.327 55.755 0.90655 0.00428522
1813400 60.0864 249.34 55.755 0.90665 0.0066538
1813600 60.0864 249.353 55.755 0.90675 -0.00676859
1813800 60.0864 249.366 55.755 0.90685 0.00714921
1814000 60.0864 249.379 55.755 0.90695 0.0122472
1814200 60.0864 249.392 55.755 0.90705 -0.0025939
1814400 60.0864 249.406 55.755 0.90715 -0.0207679
1814600 60.0864 249.419 55.755 0.90725 -0.0083235
1814800 60.0864 249.432 55.755 0.90735 0.00517966
1815000 60.0864 249.445 55.755 0.90745 0.000264708
1815200 60.0864 249.458 55.755 0.90755 0.00121299
1815400 60.0864 249.471 55.755 0.90765 0.00464681
1815600 60.0864 249.484 55.755 0.90775 0.0144298
1815800 60.0864 249.497 55.755 0.90785 0.0132359
1816000 60.0864 249.51 55.755 0.90795 -0.00921442
1816200 60.0864 249.523 55.755 0.90805 0.00987782
1816400 60.0864 249.536 55.755 0.90815 0.00722761
1816600 60.0864 249.549 55.755 0.90825 0.00858964
1816800 60.0864 249.562 55.755 0.90835 0.00226515
1817000 60.0864 249.576 55.755 0.90845 0.00151352
1817200 60.0864 249.589 55.755 0.90855 0.00939416
1817400 60.0864 249.602 55.755 0.90865 0.00761311
1817600 60.0864 249.615 55.755 0.90875 -0.00632265
1817800 60.0864 249.628 55.755 0.90885 -0.00505203
1818000 60.0864 249.641 55.755 0.90895 -0.0145282
1818200 60.0864 249.654 55.755 0.90905 -0.00316774
1818400 60.0864 249.667 55.755 0.90915 0.0125854
1818600 60.0864 249.68 55.755 0.90925 0.000712385
1818800 60.0864 249.693 55.755 0.90935 -0.00483546
1819000 60.0864 249.706 55.755 0.90945 -0.00984297
1819200 60.0864 249.719 55.755 0.90955 -0.0145658
1819400 60.0864 249.732 55.755 0.90965 0.00339011
1819600 60.0864 249.746 55.755 0.90975 0.0230161
1819800 60.0864 249.759 55.755 0.90985 0.0193306
1820000 60.0864 249.772 55.755 0.90995 0.0170236
1820200 60.0864 249.785 55.755 0.91005 -0.00733903
1820400 60.0864 249.798 55.755 0.91015 -0.00544039
1820600 60.0864 249.811 55.755 0.91025 0.0118829
1820800 60.0864 249.824 55.755 0.91035 0.0191568
1821000 60.0864 249.837 55.755 0.91045 0.0149978
1821200 60.0864 249.85 55.755 0.91055 0.00281855
1821400 60.0864 249.863 55.755 0.91065 0.014797
1821600 60.0864 249.876 55.755 0.91075 -0.0120696
1821800 60.0864 249.889 55.755 0.91085 -0.0260244
1822000 60.0864 249.902 55.755 0.91095 -0.000808579
1822200 60.0864 249.916 55.755 0.91105 -0.00596696
1822400 60.0864 249.929 55.755 0.91115 0.00385961
1822600 60.0864 249.942 55.755 0.91125 0.0186907
1822800 60.0864 249.955 55.755 0.91135 -0.0130847
1823000 60.0864 249.968 55.755 0.91145 -0.0184745
1823200 60.0864 249.981 55.755 0.91155 -0.00954764
1823400 60.0864 249.994 55.755 0.91165 -0.00789926
1823600 60.0864 250.007 55.755 0.91175 0.0224112
1823800 60.0864 250.02 55.755 0.91185 0.0140605
1824000 60.0864 250.033 55.755 0.91195 0.0156899
1824200 60.0864 250.046 55.755 0.91205 0.0087733
1824400 60.0864 250.059 55.755 0.91215 0.0184676
1824600 60.0864 250.072 55.755 0.91225 0.000678088
1824800 60.0864 250.086 55.755 0.91235 0.0107599
1825000 60.0864 250.099 55.755 0.91245 0.00831501
1825200 60.0864 250.112 55.755 0.91255 0.00267677
1825400 60.0864 250.125 55.755 0.91265 0.00338764
1825600 60.0864 250.138 55.755 0.91275 0.00578696
1825800 60.0864 250.151 55.755 0.91285 -0.00873569
1826000 60.0864 250.164 55.755 0.91295 -0.0213695
1826200 60.0864 250.177 55.755 0.91305 -0.00687911
1826400 60.0864 250.19 55.755 0.91315 0.000451492
1826600 60.0864 250.203 55.755 0.91325 -0.00680667
1826800 60.0864 250.216 55.755 0.91335 -0.00331935
1827000 60.0864 250.229 55.755 0.91345 -0.00880711
1827200 60.0864 250.242 55.755 0.91355 -0.00513573
1827400 60.0864 250.256 55.755 0.91365 -0.00895486
1827600 60.0864 250.269 55.755 0.91375 0.0211333
1827800 60.0864 250.282 55.755 0.91385 0.025209
1828000 60.0864 250.295 55.755 0.91395 0.0088795
1828200 60.0864 250.308 55.755 0.91405 0.00230952
1828400 60.0864 250.321 55.755 0.91415 0.0123132
1828600 60.0864 250.334 55.755 0.91425 0.00344649
1828800 60.0864 250.347 55.755 0.91435 0.00186235
1829000 60.0864 250.36 55.755 0.91445 0.0228155
1829200 60.0864 250.373 55.755 0.91455 0.0154607
1829400 60.0864 250.386 55.755 0.91465 0.00249484
1829600 60.0864 250.399 55.755 0.91475 -0.017641
1829800 60.0864 250.412 55.755 0.91485 0.00622152
1830000 60.0864 250.426 55.755 0.91495 -0.0172897
1830200 60.0864 250.439 55.755 0.91505 -0.0102971
1830400 60.0864 250.452 55.755 0.91515 0.00361911
1830600 60.0864 250.465 55.755 0.91525 0.00796485
1830800 60.0864 250.478 55.755 0.91535 -0.016889
1831000 60.0864 250.491 55.755 0.91545 -0.00100631
1831200 60.0864 250.504 55.755 0.91555 -0.0127557
1831400 60.0864 250.517 55.755 0.91565 0.00758389
1831600 60.0864 250.53 55.755 0.91575 -0.00433061
1831800 60.0864 250.543 55.755 0.91585 0.0177115
1832000 60.0864 250.556 55.755 0.91595 0.0239728
1832200 60.0864 250.569 55.755 0.91605 0.00144368
1832400 60.0864 250.582 55.755 0.91615 0.00362782
1832600 60.0864 250.596 55.755 0.91625 0.00247924
1832800 60.0864 250.609 55.755 0.91635 0.00283761
1833000 60.0864 250.622 55.755 0.91645 0.0207456
1833200 60.0864 250.635 55.755 0.91655 0.00755279
1833400 60.0864 250.648 55.755 0.91665 0.0134552
1833600 60.0864 250.661 55.755 0.91675 -0.0128447
1833800 60.0864 250.674 55.755 0.91685 -0.0104438
1834000 60.0864 250.687 55.755 0.91695 -0.0114895
1834200 60.0864 250.7 55.755 0.91705 0.00855784
1834400 60.0864 250.713 55.755 0.91715 -0.000541706
1834600 60.0864 250.726 55.755 0.91725 0.00706624
1834800 60.0864 250.739 55.755 0.91735 -0.00505886
1835000 60.0864 250.752 55.755 0.91745 -0.0163095
1835200 60.0864 250.766 55.755 0.91755 0.00930813
1835400 60.0864 250.779 55.755 0.91765 -0.0020655
1835600 60.0864 250.792 55.755 0.91775 -0.00286471
1835800 60.0864 250.805 55.755 0.91785 0.00826867
1836000 60.0864 250.818 55.755 0.91795 0.00713926
1836200 60.0864 250.831 55.755 0.91805 0.0100508
1836400 60.0864 250.844 55.755 0.91815 0.00607559
1836600 60.0864 250.857 55.755 0.91825 0.0018567
1836800 60.0864 250.87 55.755 0.91835 -0.00213654
1837000 60.0864 250.883 55.755 0.91845 0.0189513
1837200 60.0864 250.896 55.755 0.91855 6.56998e-05
1837400 60.0864 250.909 55.755 0.91865 0.0131038
1837600 60.0864 250.922 55.755 0.91875 -0.00193268
1837800 60.0864 250.936 55.755 0.91885 -0.00489308
1838000 60.0864 250.949 55.755 0.91895 0.0153779
1838200 60.0864 250.962 55.755 0.91905 -0.00559932
1838400 60.0864 250.975 55.755 0.91915 -0.00553391
1838600 60.0864 250.988 55.755 0.91925 0.00647366
1838800 60.0864 251.001 55.755 0.91935 -0.011763
1839000 60.0864 251.014 55.755 0.91945 0.00250253
1839200 60.0864 251.027 55.755 0.91955 -0.0159862
1839400 60.0864 251.04 55.755 0.91965 0.00206612
1839600 60.0864 251.053 55.755 0.91975 -0.0104543
1839800 60.0864 251.066 55.755 0.91985 0.013877
1840000 60.0864 251.079 55.755 0.91995 0.000562951
1840200 60.0864 251.092 55.755 0.92005 0.00832894
1840400 60.0864 251.106 55.755 0.92015 0.00686801
1840600 60.0864 251.119 55.755 0.92025 -0.00424203
1840800 60.0864 251.132 55.755 0.92035 0.00878672
1841000 60.0864 251.145 55.755 0.92045 0.000157716
1841200 60.0864 251.158 55.755 0.92055 0.0173659
1841400 60.0864 251.171 55.755 0.92065 0.0151628
1841600 60.0864 251.184 55.755 0.92075 0.0128863
1841800 60.0864 251.197 55.755 0.92085 0.000312981
1842000 60.0864 251.21 55.755 0.92095 -0.00646714
1842200 60.0864 251.223 55.755 0.92105 -0.00374707
1842400 60.0864 251.236 55.755 0.92115 0.00807766
1842600 60.0864 251.249 55.755 0.92125 -0.00231363
1842800 60.0864 251.262 55.755 0.92135 -0.00307869
1843000 60.0864 251.276 55.755 0.92145 -0.00301346
1843200 60.0864 251.289 55.755 0.92155 -0.00634792
1843400 60.0864 251.302 55.755 0.92165 -0.000499185
1843600 60.0864 251.315 55.755 0.92175 -0.0145412
1843800 60.0864 251.328 55.755 0.92185 0.00174657
1844000 60.0864 251.341 55.755 0.92195 -0.00127296
1844200 60.0864 251.354 55.755 0.92205 0.00448882
1844400 60.0864 251.367 55.755 0.92215 0.0140553
1844600 60.0864 251.38 55.755 0.92225 0.00499231
1844800 60.0864 251.393 55.755 0.92235 0.000723412
1845000 60.0864 251.406 55.755 0.92245 -0.00359462
1845200 60.0864 251.419 55.755 0.92255 0.0309043
1845400 60.0864 251.433 55.755 0.92265 0.000476952
1845600 60.0864 251.446 55.755 0.92275 0.0092828
1845800 60.0864 251.459 55.755 0.92285 0.00676696
1846000 60.0864 251.472 55.755 0.92295 0.0102548
1846200 60.0864 251.485 55.755 0.92305 -0.0244695
1846400 60.0864 251.498 55.755 0.92315 0.0014027
1846600 60.0864 251.511 55.755 0.92325 0.00693193
1846800 60.0864 251.524 55.755 0.92335 -0.00076046
1847000 60.0864 251.537 55.755 0.92345 0.00867283
1847200 60.0864 251.55 55.755 0.92355 0.00429428
1847400 60.0864 251.563 55.755 0.92365 -0.00804501
1847600 60.0864 251.576 55.755 0.92375 -0.0176678
1847800 60.0864 251.589 55.755 0.92385 -0.0151897
1848000 60.0864 251.603 55.755 0.92395 -0.00500015
1848200 60.0864 251.616 55.755 0.92405 0.0141162
1848400 60.0864 251.629 55.755 0.92415 0.0137298
1848600 60.0864 251.642 55.755 0.92425 0.00991729
1848800 60.0864 251.655 55.755 0.92435 -1.01992e-05
1849000 60.0864 251.668 55.755 0.92445 -0.00542843
1849200 60.0864 251.681 55.755 0.92455 0.0025065
1849400 60.0864 251.694 55.755 0.92465 0.00654902
1849600 60.0864 251.707 55.755 0.92475 0.013818
1849800 60.0864 251.72 55.755 0.92485 0.0128901
1850000 60.0864 251.733 55.755 0.92495 0.009552
1850200 60.0864 251.746 55.755 0.92505 0.00358986
1850400 60.0864 251.759 55.755 0.92515 -0.00333423
1850600 60.0864 251.773 55.755 0.92525 0.0079753
1850800 60.0864 251.786 55.755 0.92535 0.00348098
1851000 60.0864 251.799 55.755 0.92545 -0.000447488
1851200 60.0864 251.812 55.755 0.92555 0.0077415
1851400 60.0864 251.825 55.755 0.92565 -0.0143959
1851600 60.0864 251.838 55.755 0.92575 -0.00765298
1851800 60.0864 251.851 55.755 0.92585 -0.00820485
1852000 60.0864 251.864 55.755 0.92595 -0.0163921
1852200 60.0864 251.877 55.755 0.92605 0.000610351
1852400 60.0864 251.89 55.755 0.92615 -0.00116562
1852600 60.0864 251.903 55.755 0.92625 0.00158078
1852800 60.0864 251.916 55.755 0.92635 -0.000165228
1853000 60.0864 251.929 55.755 0.92645 -0.000352156
1853200 60.0864 251.943 55.755 0.92655 0.00655655
1853400 60.0864 251.956 55.755 0.92665 0.00315808
1853600 60.0864 251.969 55.755 0.92675 0.0247767
1853800 60.0864 251.982 55.755 0.92685 0.0233915
1854000 60.0864 251.995 55.755 0.92695 0.00607848
1854200 60.0864 252.008 55.755 0.92705 0.0100875
1854400 60.0864 252.021 55.755 0.92715 0.0130219
1854600 60.0864 252.034 55.755 0.92725 0.00410634
1854800 60.0864 252.047 55.755 0.92735 -0.00931848
1855000 60.0864 252.06 55.755 0.92745 0.00193457
1855200 60.0864 252.073 55.755 0.92755 0.000541554
1855400 60.0864 252.086 55.755 0.92765 -0.00409032
1855600 60.0864 252.099 55.755 0.92775 -0.00869212
1855800 60.0864 252.113 55.755 0.92785 -0.0260904
1856000 60.0864 252.126 55.755 0.92795 -0.0163655
1856200 60.0864 252.139 55.755 0.92805 0.006409
1856400 60.0864 252.152 55.755 0.92815 0.00340911
1856600 60.0864 252.165 55.755 0.92825 -0.00632117
1856800 60.0864 252.178 55.755 0.92835 0.00681094
1857000 60.0864 252.191 55.755 0.92845 0.00480197
1857200 60.0864 252.204 55.755 0.92855 0.016998
1857400 60.0864 252.217 55.755 0.92865 0.0274698
1857600 60.0864 252.23 55.755 0.92875 0.00154392
1857800 60.0864 252.243 55.755 0.92885 -0.00464845
1858000 60.0864 252.256 55.755 0.92895 0.0182886
1858200 60.0864 252.269 55.755 0.92905 0.0188172
1858400 60.0864 252.283 55.755 0.92915 -0.000522915
1858600 60.0864 252.296 55.755 0.92925 -0.00558077
1858800 60.0864 252.309 55.755 0.92935 -0.00369852
1859000 60.0864 252.322 55.755 0.92945 -0.00762471
1859200 60.0864 252.335 55.755 0.92955 0.00420204
1859400 60.0864 252.348 55.755 0.92965 0.00438968
1859600 60.0864 252.361 55.755 0.92975 -0.0123331
1859800 60.0864 252.374 55.755 0.92985 -0.0060693
1860000 60.0864 252.387 55.755 0.92995 0.00144368
1860200 60.0864 252.4 55.755 0.93005 -0.00960891
1860400 60.0864 252.413 55.755 0.93015 -0.0076562
1860600 60.0864 252.426 55.755 0.93025 0.00735174
1860800 60.0864 252.439 55.755 0.93035 -0.00352143
1861000 60.0864 252.453 55.755 0.93045 0.0146727
1861200 60.0864 252.466 55.755 0.93055 0.0016008
1861400 60.0864 252.479 55.755 0.93065 0.00188916
1861600 60.0864 252.492 55.755 0.93075 0.0198276
1861800 60.0864 252.505 55.755 0.93085 0.00251447
1862000 60.0864 252.518 55.755 0.93095 0.0114193
1862200 60.0864 252.531 55.755 0.93105 0.00378675
1862400 60.0864 252.544 55.755 0.93115 0.00294182
1862600 60.0864 252.557 55.755 0.93125 0.00302933
1862800 60.0864 252.57 55.755 0.93135 0.00878078
1863000 60.0864 252.583 55.755 0.93145 -0.0042784
1863200 60.0864 252.596 55.755 0.93155 -0.000278989
1863400 60.0864 252.609 55.755 0.93165 -0.00228229
1863600 60.0864 252.623 55.755 0.93175 -0.00889053
1863800 60.0864 252.636 55.755 0.93185 -0.00799421
1864000 60.0864 252.649 55.755 0.93195 -0.00490869
1864200 60.0864 252.662 55.755 0.93205 -0.0109747
1864400 60.0864 252.675 55.755 0.93215 0.00577565
1864600 60.0864 252.688 55.755 0.93225 -0.00852318
1864800 60.0864 252.701 55.755 0.93235 -0.00213178
1865000 60.0864 252.714 55.755 0.93245 -0.00492203
1865200 60.0864 252.727 55.755 0.93255 0.00736813
1865400 60.0864 252.74 55.755 0.93265 0.0137552
1865600 60.0864 252.753 55.755 0.93275 0.025231
1865800 60.0864 252.766 55.755 0.93285 0.014807
1866000 60.0864 252.779 55.755 0.93295 0.00807341
1866200 60.0864 252.793 55.755 0.93305 0.0186781
1866400 60.0864 252.806 55.755 0.93315 0.0129122
1866600 60.0864 252.819 55.755 0.93325 0.000844158
1866800 60.0864 252.832 55.755 0.93335 -0.00747309
1867000 60.0864 252.845 55.755 0.93345 0.0235204
1867200 60.0864 252.858 55.755 0.93355 -0.000186239
1867400 60.0864 252.871 55.755 0.93365 -0.0167899
1867600 60.0864 252.884 55.755 0.93375 -0.0111608
1867800 60.0864 252.897 55.755 0.93385 -0.0104106
1868000 60.0864 252.91 55.755 0.93395 -0.0182024
1868200 60.0864 252.923 55.755 0.93405 -0.00904678
1868400 60.0864 252.936 55.755 0.93415 -0.0183154
1868600 60.0864 252.949 55.755 0.93425 -0.0125386
1868800 60.0864 252.963 55.755 0.93435 0.00616529
1869000 60.0864 252.976 55.755 0.93445 0.00492607
1869200 60.0864 252.989 55.755 0.93455 0.0264195
1869400 60.0864 253.002 55.755 0.93465 0.00627297
1869600 60.0864 253.015 55.755 0.93475 0.0224634
1869800 60.0864 253.028 55.755 0.93485 0.00943583
1870000 60.0864 253.041 55.755 0.93495 0.0130009
1870200 60.0864 253.054 55.755 0.93505 0.0130555
1870400 60.0864 253.067 55.755 0.93515 0.0202161
1870600 60.0864 253.08 55.755 0.93525 0.0148721
1870800 60.0864 253.093 55.755 0.93535 -0.00609442
1871000 60.0864 253.106 55.755 0.93545 -0.00759
1871200 60.0864 253.119 55.755 0.93555 -0.0100842
1871400 60.0864 253.133 55.755 0.93565 -0.0142646
1871600 60.0864 253.146 55.755 0.93575 -0.0011165
1871800 60.0864 253.159 55.755 0.93585 -0.0110286
1872000 60.0864 253.172 55.755 0.93595 -0.0179265
1872200 60.0864 253.185 55.755 0.93605 -0.00960155
1872400 60.0864 253.198 55.755 0.93615 -0.0157235
1872600 60.0864 253.211 55.755 0.93625 0.00670444
1872800 60.0864 253.224 55.755 0.93635 0.0099199
1873000 60.0864 253.237 55.755 0.93645 0.0125435
1873200 60.0864 253.25 55.755 0.93655 0.0105959
1873400 60.0864 253.263 55.755 0.93665 -0.00194352
1873600 60.0864 253.276 55.755 0.93675 0.00547831
1873800 60.0864 253.289 55.755 0.93685 0.0157196
1874000 60.0864 253.303 55.755 0.93695 0.0149605
1874200 60.0864 253.316 55.755 0.93705 0.0234386
1874400 60.0864 253.329 55.755 0.93715 0.00847645
1874600 60.0864 253.342 55.755 0.93725 0.000885458
1874800 60.0864 253.355 55.755 0.93735 -0.00755069
1875000 60.0864 253.368 55.755 0.93745 -0.00685316
1875200 60.0864 253.381 55.755 0.93755 0.00269785
1875400 60.0864 253.394 55.755 0.93765 -0.0093878
1875600 60.0864 253.407 55.755 0.93775 0.00476469
1875800 60.0864 253.42 55.755 0.93785 -0.00692751
1876000 60.0864 253.433 55.755 0.93795 -0.013149
1876200 60.0864 253.446 55.755 0.93805 -0.00241198
1876400 60.0864 253.459 55.755 0.93815 1.58479e-05
1876600 60.0864 253.473 55.755 0.93825 -0.00919136
1876800 60.0864 253.486 55.755 0.93835 -0.00193569
1877000 60.0864 253.499 55.755 0.93845 0.0267744
1877200 60.0864 253.512 55.755 0.93855 -0.000972919
1877400 60.0864 253.525 55.755 0.93865 0.0216307
1877600 60.0864 253.538 55.755 0.93875 -0.00526541
1877800 60.0864 253.551 55.755 0.93885 -0.00870641
1878000 60.0864 253.564 55.755 0.93895 0.0135906
1878200 60.0864 253.577 55.755 0.93905 0.00569925
1878400 60.0864 253.59 55.755 0.93915 0.0139649
1878600 60.0864 253.603 55.755 0.93925 0.00621899
1878800 60.0864 253.616 55.755 0.93935 -0.0080351
1879000 60.0864 253.63 55.755 0.93945 -0.00464392
1879200 60.0864 253.643 55.755 0.93955 0.00282745
1879400 60.0864 253.656 55.755 0.93965 -0.00414983
1879600 60.0864 253.669 55.755 0.93975 -0.00339695
1879800 60.0864 253.682 55.755 0.93985 0.00400094
1880000 60.0864 253.695 55.755 0.93995 -0.00845729
1880200 60.0864 253.708 55.755 0.94005 0.00483759
1880400 60.0864 253.721 55.755 0.94015 -0.00913381
1880600 60.0864 253.734 55.755 0.94025 0.00773273
1880800 60.0864 253.747 55.755 0.94035 -0.00779805
1881000 60.0864 253.76 55.755 0.94045 0.00933632
1881200 60.0864 253.773 55.755 0.94055 0.0162925
1881400 60.0864 253.786 55.755 0.94065 0.0060177
1881600 60.0864 253.8 55.755 0.94075 0.00539102
1881800 60.0864 253.813 55.755 0.94085 0.00273161
1882000 60.0864 253.826 55.755 0.94095 0.00934211
1882200 60.0864 253.839 55.755 0.94105 0.0167623
1882400 60.0864 253.852 55.755 0.94115 -0.00421726
1882600 60.0864 253.865 55.755 0.94125 -0.00885432
1882800 60.0864 253.878 55.755 0.94135 -0.00301406
1883000 60.0864 253.891 55.755 0.94145 0.00897369
1883200 60.0864 253.904 55.755 0.94155 0.00124905
1883400 60.0864 253.917 55.755 0.94165 -0.0135036
1883600 60.0864 253.93 55.755 0.94175 -0.00647482
1883800 60.0864 253.943 55.755 0.94185 -0.00652282
1884000 60.0864 253.956 55.755 0.94195 0.00676684
1884200 60.0864 253.97 55.755 0.94205 0.0034335
1884400 60.0864 253.983 55.755 0.94215 0.00360141
1884600 60.0864 253.996 55.755 0.94225 -0.0182758
1884800 60.0864 254.009 55.755 0.94235 0.00886357
1885000 60.0864 254.022 55.755 0.94245 0.0132738
1885200 60.0864 254.035 55.755 0.94255 -0.00369838
1885400 60.0864 254.048 55.755 0.94265 0.0151661
1885600 60.0864 254.061 55.755 0.94275 0.0234288
1885800 60.0864 254.074 55.755 0.94285 0.00903429
1886000 60.0864 254.087 55.755 0.94295 -0.00448706
1886200 60.0864 254.1 55.755 0.94305 0.0025107
1886400 60.0864 254.113 55.755 0.94315 -0.004528
1886600 60.0864 254.126 55.755 0.94325 0.00447853
1886800 60.0864 254.14 55.755 0.94335 0.0204303
1887000 60.0864 254.153 55.755 0.94345 -0.00172036
1887200 60.0864 254.166 55.755 0.94355 -0.0119083
1887400 60.0864 254.179 55.755 0.94365 -0.0126167
1887600 60.0864 254.192 55.755 0.94375 -0.0142345
1887800 60.0864 254.205 55.755 0.94385 -0.0138016
1888000 60.0864 254.218 55.755 0.94395 0.0056366
1888200 60.0864 254.231 55.755 0.94405 -0.00797718
1888400 60.0864 254.244 55.755 0.94415 0.0111267
1888600 60.0864 254.257 55.755 0.94425 0.00462914
1888800 60.0864 254.27 55.755 0.94435 -0.00041398
1889000 60.0864 254.283 55.755 0.94445 -0.00722306
1889200 60.0864 254.296 55.755 0.94455 0.0188524
1889400 60.0864 254.31 55.755 0.94465 0.0123086
1889600 60.0864 254.323 55.755 0.94475 0.0119105
1889800 60.0864 254.336 55.755 0.94485 0.0234496
1890000 60.0864 254.349 55.755 0.94495 0.00882649
1890200 60.0864 254.362 55.755 0.94505 -0.00408274
1890400 60.0864 254.375 55.755 0.94515 0.00621936
1890600 60.0864 254.388 55.755 0.94525 -0.00736879
1890800 60.0864 254.401 55.755 0.94535 0.0161525
1891000 60.0864 254.414 55.755 0.94545 0.011718
1891200 60.0864 254.427 55.755 0.94555 -0.00895162
1891400 60.0864 254.44 55.755 0.94565 -0.0234798
1891600 60.0864 254.453 55.755 0.94575 -0.0267091
1891800 60.0864 254.466 55.755 0.94585 -0.00876909
1892000 60.0864 254.48 55.755 0.94595 -0.00475362
1892200 60.0864 254.493 55.755 0.94605 -0.0103142
1892400 60.0864 254.506 55.755 0.94615 0.0112465
1892600 60.0864 254.519 55.755 0.94625 0.00692821
1892800 60.0864 254.532 55.755 0.94635 -0.00464725
1893000 60.0864 254.545 55.755 0.94645 0.00288927
1893200 60.0864 254.558 55.755 0.94655 0.00886284
1893400 60.0864 254.571 55.755 0.94665 0.0185897
1893600 60.0864 254.584 55.755 0.94675 0.0253753
1893800 60.0864 254.597 55.755 0.94685 0.0171083
1894000 60.0864 254.61 55.755 0.94695 0.00739549
1894200 60.0864 254.623 55.755 0.94705 0.0176178
1894400 60.0864 254.636 55.755 0.94715 -0.00715831
1894600 60.0864 254.65 55.755 0.94725 0.00424957
1894800 60.0864 254.663 55.755 0.94735 -0.0101934
1895000 60.0864 254.676 55.755 0.94745 0.00847378
1895200 60.0864 254.689 55.755 0.94755 -0.00127447
1895400 60.0864 254.702 55.755 0.94765 -0.00900143
1895600 60.0864 254.715 55.755 0.94775 -0.0235795
1895800 60.0864 254.728 55.755 0.94785 -0.0290596
1896000 60.0864 254.741 55.755 0.94795 -0.0150517
1896200 60.0864 254.754 55.755 0.94805 0.00266666
1896400 60.0864 254.767 55.755 0.94815 0.00340662
1896600 60.0864 254.78 55.755 0.94825 0.00356896
1896800 60.0864 254.793 55.755 0.94835 0.00492043
1897000 60.0864 254.806 55.755 0.94845 0.0227477
1897200 60.0864 254.82 55.755 0.94855 0.00964236
1897400 60.0864 254.833 55.755 0.94865 0.0184714
1897600 60.0864 254.846 55.755 0.94875 0.020732
1897800 60.0864 254.859 55.755 0.94885 0.024869
1898000 60.0864 254.872 55.755 0.94895 0.0150329
1898200 60.0864 254.885 55.755 0.94905 0.0124969
1898400 60.0864 254.898 55.755 0.94915 -0.00224612
1898600 60.0864 254.911 55.755 0.94925 -0.0109797
1898800 60.0864 254.924 55.755 0.94935 -0.00745799
1899000 60.0864 254.937 55.755 0.94945 -0.0167712
1899200 60.0864 254.95 55.755 0.94955 -0.0190155
1899400 60.0864 254.963 55.755 0.94965 -0.00498481
1899600 60.0864 254.976 55.755 0.94975 -0.0312266
1899800 60.0864 254.99 55.755 0.94985 -0.00920496
1900000 60.0864 255.003 55.755 0.94995 -0.0254773
1900200 60.0864 255.016 55.755 0.95005 -0.00233799
1900400 60.0864 255.029 55.755 0.95015 0.000448657
1900600 60.0864 255.042 55.755 0.95025 0.0228573
1900800 60.0864 255.055 55.755 0.95035 0.0207209
1901000 60.0864 255.068 55.755 0.95045 0.0200043
1901200 60.0864 255.081 55.755 0.95055 0.0140139
1901400 60.0864 255.094 55.755 0.95065 0.0167658
1901600 60.0864 255.107 55.755 0.95075 0.0289396
1901800 60.0864 255.12 55.755 0.95085 0.00906678
1902000 60.0864 255.133 55.755 0.95095 0.0154922
1902200 60.0864 255.146 55.755 0.95105 0.0203265
1902400 60.0864 255.16 55.755 0.95115 -0.00631129
1902600 60.0864 255.173 55.755 0.95125 -0.000631264
1902800 60.0864 255.186 55.755 0.95135 -0.0256721
1903000 60.0864 255.199 55.755 0.95145 -0.0167825
1903200 60.0864 255.212 55.755 0.95155 -0.0150309
1903400 60.0864 255.225 55.755 0.95165 -0.00926126
1903600 60.0864 255.238 55.755 0.95175 -0.0133391
1903800 60.0864 255.251 55.755 0.95185 -0.0248704
1904000 60.0864 255.264 55.755 0.95195 0.00308602
1904200 60.0864 255.277 55.755 0.95205 -0.0100318
1904400 60.0864 255.29 55.755 0.95215 0.0115381
1904600 60.0864 255.303 55.755 0.95225 -0.00748774
1904800 60.0864 255.316 55.755 0.95235 0.0188759
1905000 60.0864 255.33 55.755 0.95245 0.0333296
1905200 60.0864 255.343 55.755 0.95255 0.0290449
1905400 60.0864 255.356 55.755 0.95265 -0.00861304
1905600 60.0864 255.369 55.755 0.95275 0.0282985
1905800 60.0864 255.382 55.755 0.95285 0.00634242
1906000 60.0864 255.395 55.755 0.95295 0.00840586
1906200 60.0864 255.408 55.755 0.95305 0.0152277
1906400 60.0864 255.421 55.755 0.95315 -0.00664831
1906600 60.0864 255.434 55.755 0.95325 -0.0176402
1906800 60.0864 255.447 55.755 0.95335 0.0127072
1907000 60.0864 255.46 55.755 0.95345 -0.0257519
1907200 60.0864 255.473 55.755 0.95355 -0.0201051
1907400 60.0864 255.486 55.755 0.95365 -0.0224993
1907600 60.0864 255.5 55.755 0.95375 -0.00560063
1907800 60.0864 255.513 55.755 0.95385 0.00457794
1908000 60.0864 255.526 55.755 0.95395 -0.0133338
1908200 60.0864 255.539 55.755 0.95405 0.00728521
1908400 60.0864 255.552 55.755 0.95415 0.00712255
1908600 60.0864 255.565 55.755 0.95425 -0.00805319
1908800 60.0864 255.578 55.755 0.95435 0.0303758
1909000 60.0864 255.591 55.755 0.95445 0.0078333
1909200 60.0864 255.604 55.755 0.95455 0.0288328
1909400 60.0864 255.617 55.755 0.95465 0.0312578
1909600 60.0864 255.63 55.755 0.95475 0.00981725
1909800 60.0864 255.643 55.755 0.95485 0.00841122
1910000 60.0864 255.656 55.755 0.95495 0.00256102
1910200 60.0864 255.67 55.755 0.95505 -0.00404242
1910400 60.0864 255.683 55.755 0.95515 -0.0148962
1910600 60.0864 255.696 55.755 0.95525 0.00330901
1910800 60.0864 255.709 55.755 0.95535 -0.00632274
1911000 60.0864 255.722 55.755 0.95545 -0.0267015
1911200 60.0864 255.735 55.755 0.95555 -0.00438907
1911400 60.0864 255.748 55.755 0.95565 -0.0284931
1911600 60.0864 255.761 55.755 0.95575 0.00142566
1911800 60.0864 255.774 55.755 0.95585 -0.0127231
1912000 60.0864 255.787 55.755 0.95595 0.00690623
1912200 60.0864 255.8 55.755 0.95605 0.000247024
1912400 60.0864 255.813 55.755 0.95615 -0.00347069
1912600 60.0864 255.827 55.755 0.95625 0.00860192
1912800 60.0864 255.84 55.755 0.95635 0.0117152
1913000 60.0864 255.853 55.755 0.95645 0.009422
1913200 60.0864 255.866 55.755 0.95655 0.0308174
1913400 60.0864 255.879 55.755 0.95665 0.0102715
1913600 60.0864 255.892 55.755 0.95675 0.0179743
1913800 60.0864 255.905 55.755 0.95685 0.00477895
1914000 60.0864 255.918 55.755 0.95695 0.00559556
1914200 60.0864 255.931 55.755 0.95705 0.0300739
1914400 60.0864 255.944 55.755 0.95715 -0.0110691
1914600 60.0864 255.957 55.755 0.95725 -0.017941
1914800 60.0864 255.97 55.755 0.95735 -0.00952675
1915000 60.0864 255.983 55.755 0.95745 -0.00173321
1915200 60.0864 255.997 55.755 0.95755 -0.00632652
1915400 60.0864 256.01 55.755 0.95765 -0.0221021
1915600 60.0864 256.023 55.755 0.95775 -0.00485586
1915800 60.0864 256.036 55.755 0.95785 -0.00143628
1916000 60.0864 256.049 55.755 0.95795 -0.0167877
1916200 60.0864 256.062 55.755 0.95805 -0.00518475
1916400 60.0864 256.075 55.755 0.95815 0.0116106
1916600 60.0864 256.088 55.755 0.95825 0.00419494
1916800 60.0864 256.101 55.755 0.95835 0.00541488
1917000 60.0864 256.114 55.755 0.95845 0.00355618
1917200 60.0864 256.127 55.755 0.95855 0.0319982
1917400 60.0864 256.14 55.755 0.95865 0.0090729
1917600 60.0864 256.153 55.755 0.95875 0.0159693
1917800 60.0864 256.167 55.755 0.95885 0.00515417
1918000 60.0864 256.18 55.755 0.95895 0.0173648
1918200 60.0864 256.193 55.755 0.95905 0.00962916
1918400 60.0864 256.206 55.755 0.95915 -0.0108582
1918600 60.0864 256.219 55.755 0.95925 0.00479018
1918800 60.0864 256.232 55.755 0.95935 -0.00455714
1919000 60.0864 256.245 55.755 0.95945 -0.0115609
1919200 60.0864 256.258 55.755 0.95955 -0.0202308
1919400 60.0864 256.271 55.755 0.95965 -0.0187805
1919600 60.0864 256.284 55.755 0.95975 -0.00318886
1919800 60.0864 256.297 55.755 0.95985 0.00162613
1920000 60.0864 256.31 55.755 0.95995 -0.0152393
1920200 60.0864 256.323 55.755 0.96005 -0.00157736
1920400 60.0864 256.337 55.755 0.96015 0.0047133
1920600 60.0864 256.35 55.755 0.96025 -0.00322431
1920800 60.0864 256.363 55.755 0.96035 0.0210571
1921000 60.0864 256.376 55.755 0.96045 0.00956663
1921200 60.0864 256.389 55.755 0.96055 0.0114591
1921400 60.0864 256.402 55.755 0.96065 0.0195603
1921600 60.0864 256.415 55.755 0.96075 0.00402812
1921800 60.0864 256.428 55.755 0.96085 0.0218597
1922000 60.0864 256.441 55.755 0.96095 0.0229219
1922200 60.0864 256.454 55.755 0.96105 -0.000249807
1922400 60.0864 256.467 55.755 0.96115 -0.00547772
1922600 60.0864 256.48 55.755 0.96125 -0.00423137
1922800 60.0864 256.493 55.755 0.96135 -0.00692841
1923000 60.0864 256.507 55.755 0.96145 -0.000562882
1923200 60.0864 256.52 55.755 0.96155 -0.00757434
1923400 60.0864 256.533 55.755 0.96165 -0.0156793
1923600 60.0864 256.546 55.755 0.96175 -0.0160785
1923800 60.0864 256.559 55.755 0.96185 -0.0166967
1924000 60.0864 256.572 55.755 0.96195 -0.00815902
1924200 60.0864 256.585 55.755 0.96205 -0.00658321
1924400 60.0864 256.598 55.755 0.96215 0.00817335
1924600 60.0864 256.611 55.755 0.96225 0.00207668
1924800 60.0864 256.624 55.755 0.96235 0.00933626
1925000 60.0864 256.637 55.755 0.96245 0.0218047
1925200 60.0864 256.65 55.755 0.96255 -0.00298162
1925400 60.0864 256.663 55.755 0.96265 0.014425
1925600 60.0864 256.677 55.755 0.96275 0.0316649
1925800 60.0864 256.69 55.755 0.96285 0.0204001
1926000 60.0864 256.703 55.755 0.96295 0.00495146
1926200 60.0864 256.716 55.755 0.96305 -0.00138027
1926400 60.0864 256.729 55.755 0.96315 -0.000777449
1926600 60.0864 256.742 55.755 0.96325 -0.0113103
1926800 60.0864 256.755 55.755 0.96335 -0.00646465
1927000 60.0864 256.768 55.755 0.96345 0.00146648
1927200 60.0864 256.781 55.755 0.96355 -0.010058
1927400 60.0864 256.794 55.755 0.96365 0.00203601
1927600 60.0864 256.807 55.755 0.96375 -0.0310923
1927800 60.0864 256.82 55.755 0.96385 -0.0116598
1928000 60.0864 256.833 55.755 0.96395 -0.00168713
1928200 60.0864 256.847 55.755 0.96405 0.0051734
1928400 60.0864 256.86 55.755 0.96415 0.0186523
1928600 60.0864 256.873 55.755 0.96425 0.00739443
1928800 60.0864 256.886 55.755 0.96435 0.005139
1929000 60.0864 256.899 55.755 0.96445 -0.00779009
1929200 60.0864 256.912 55.755 0.96455 0.00333017
1929400 60.0864 256.925 55.755 0.96465 0.0111906
1929600 60.0864 256.938 55.755 0.96475 0.0166983
1929800 60.0864 256.951 55.755 0.96485 0.0209843
1930000 60.0864 256.964 55.755 0.96495 -0.00318675
1930200 60.0864 256.977 55.755 0.96505 -0.00370801
1930400 60.0864 256.99 55.755 0.96515 -0.013041
1930600 60.0864 257.003 55.755 0.96525 0.000361203
1930800 60.0864 257.017 55.755 0.96535 -0.00351453
1931000 60.0864 257.03 55.755 0.96545 0.0105529
1931200 60.0864 257.043 55.755 0.96555 0.0102356
1931400 60.0864 257.056 55.755 0.96565 0.0037494
1931600 60.0864 257.069 55.755 0.96575 -0.0206107
1931800 60.0864 257.082 55.755 0.96585 -0.0139706
1932000 60.0864 257.095 55.755 0.96595 0.0116775
1932200 60.0864 257.108 55.755 0.96605 -0.000605048
1932400 60.0864 257.121 55.755 0.96615 0.0115921
1932600 60.0864 257.134 55.755 0.96625 0.000209338
1932800 60.0864 257.147 55.755 0.96635 -0.00176664
1933000 60.0864 257.16 55.755 0.96645 0.00454479
1933200 60.0864 257.173 55.755 0.96655 -0.00782691
1933400 60.0864 257.187 55.755 0.96665 0.00825966
1933600 60.0864 257.2 55.755 0.96675 0.0124424
1933800 60.0864 257.213 55.755 0.96685 0.0122257
1934000 60.0864 257.226 55.755 0.96695 0.00716827
1934200 60.0864 257.239 55.755 0.96705 0.00714234
1934400 60.0864 257.252 55.755 0.96715 -0.0188687
1934600 60.0864 257.265 55.755 0.96725 0.000490261
1934800 60.0864 257.278 55.755 0.96735 0.00789023
1935000 60.0864 257.291 55.755 0.96745 -0.00551237
1935200 60.0864 257.304 55.755 0.96755 0.000885369
1935400 60.0864 257.317 55.755 0.96765 -0.00412951
1935600 60.0864 257.33 55.755 0.96775 -0.00921319
1935800 60.0864 257.343 55.755 0.96785 -0.00742668
1936000 60.0864 257.357 55.755 0.96795 -0.0096567
1936200 60.0864 257.37 55.755 0.96805 -0.000786869
1936400 60.0864 257.383 55.755 0.96815 0.0101418
1936600 60.0864 257.396 55.755 0.96825 0.00832085
1936800 60.0864 257.409 55.755 0.96835 0.0113229
1937000 60.0864 257.422 55.755 0.96845 -0.00884793
1937200 60.0864 257.435 55.755 0.96855 0.00667655
1937400 60.0864 257.448 55.755 0.96865 0.00913294
1937600 60.0864 257.461 55.755 0.96875 0.00637856
1937800 60.0864 257.474 55.755 0.96885 0.00896529
1938000 60.0864 257.487 55.755 0.96895 0.0182385
1938200 60.0864 257.5 55.755 0.96905 0.00182522
1938400 60.0864 257.513 55.755 0.96915 -0.00814023
1938600 60.0864 257.527 55.755 0.96925 -0.0021783
1938800 60.0864 257.54 55.755 0.96935 -0.0111822
1939000 60.0864 257.553 55.755 0.96945 0.00999514
1939200 60.0864 257.566 55.755 0.96955 -0.00467491
1939400 60.0864 257.579 55.755 0.96965 -0.00538992
1939600 60.0864 257.592 55.755 0.96975 -0.00489909
1939800 60.0864 257.605 55.755 0.96985 -0.00993235
1940000 60.0864 257.618 55.755 0.96995 -0.00359247
1940200 60.0864 257.631 55.755 0.97005 -0.00989309
1940400 60.0864 257.644 55.755 0.97015 0.0101312
1940600 60.0864 257.657 55.755 0.97025 0.0109552
1940800 60.0864 257.67 55.755 0.97035 0.0219387
1941000 60.0864 257.683 55.755 0.97045 0.00774789
1941200 60.0864 257.697 55.755 0.97055 -0.0051897
1941400 60.0864 257.71 55.755 0.97065 0.0038943
1941600 60.0864 257.723 55.755 0.97075 0.0098049
1941800 60.0864 257.736 55.755 0.97085 0.000112171
1942000 60.0864 257.749 55.755 0.97095 0.00919191
1942200 60.0864 257.762 55.755 0.97105 0.0158881
1942400 60.0864 257.775 55.755 0.97115 -0.00633194
1942600 60.0864 257.788 55.755 0.97125 0.00825302
1942800 60.0864 257.801 55.755 0.97135 -0.0147036
1943000 60.0864 257.814 55.755 0.97145 -0.00272721
1943200 60.0864 257.827 55.755 0.97155 -0.00570711
1943400 60.0864 257.84 55.755 0.97165 -0.00548134
1943600 60.0864 257.854 55.755 0.97175 -0.0185827
1943800 60.0864 257.867 55.755 0.97185 0.00684268
1944000 60.0864 257.88 55.755 0.97195 -0.00871079
1944200 60.0864 257.893 55.755 0.97205 0.00113667
1944400 60.0864 257.906 55.755 0.97215 -0.00537628
1944600 60.0864 257.919 55.755 0.97225 0.00511246
1944800 60.0864 257.932 55.755 0.97235 -0.000118572
1945000 60.0864 257.945 55.755 0.97245 0.0240471
1945200 60.0864 257.958 55.755 0.97255 0.00505947
1945400 60.0864 257.971 55.755 0.97265 0.00895358
1945600 60.0864 257.984 55.755 0.97275 0.00899583
1945800 60.0864 257.997 55.755 0.97285 0.0115265
1946000 60.0864 258.01 55.755 0.97295 -0.00348799
1946200 60.0864 258.024 55.755 0.97305 0.0107085
1946400 60.0864 258.037 55.755 0.97315 0.00694222
1946600 60.0864 258.05 55.755 0.97325 0.0103472
1946800 60.0864 258.063 55.755 0.97335 -0.00806841
1947000 60.0864 258.076 55.755 0.97345 -0.0129711
1947200 60.0864 258.089 55.755 0.97355 0.00245967
1947400 60.0864 258.102 55.755 0.97365 -0.0118473
1947600 60.0864 258.115 55.755 0.97375 -0.00723407
1947800 60.0864 258.128 55.755 0.97385 -0.0103972
1948000 60.0864 258.141 55.755 0.97395 -0.014786
1948200 60.0864 258.154 55.755 0.97405 0.0013823
1948400 60.0864 258.167 55.755 0.97415 -0.00490577
1948600 60.0864 258.18 55.755 0.97425 0.00237723
1948800 60.0864 258.194 55.755 0.97435 0.0103788
1949000 60.0864 258.207 55.755 0.97445 0.0072647
1949200 60.0864 258.22 55.755 0.97455 0.00748241
1949400 60.0864 258.233 55.755 0.97465 0.0233962
1949600 60.0864 258.246 55.755 0.97475 0.0138066
1949800 60.0864 258.259 55.755 0.97485 0.00437957
1950000 60.0864 258.272 55.755 0.97495 0.00766592
1950200 60.0864 258.285 55.755 0.97505 0.00882234
1950400 60.0864 258.298 55.755 0.97515 -0.0100908
1950600 60.0864 258.311 55.755 0.97525 0.0166349
1950800 60.0864 258.324 55.755 0.97535 -0.00691446
1951000 60.0864 258.337 55.755 0.97545 -0.0134309
1951200 60.0864 258.35 55.755 0.97555 -0.00609648
1951400 60.0864 258.364 55.755 0.97565 -0.0104521
1951600 60.0864 258.377 55.755 0.97575 -0.0106496
1951800 60.0864 258.39 55.755 0.97585 0.00216923
1952000 60.0864 258.403 55.755 0.97595 -0.0135966
1952200 60.0864 258.416 55.755 0.97605 -0.000602122
1952400 60.0864 258.429 55.755 0.97615 -0.0054917
1952600 60.0864 258.442 55.755 0.97625 -0.00168193
1952800 60.0864 258.455 55.755 0.97635 0.0097109
1953000 60.0864 258.468 55.755 0.97645 0.0110304
1953200 60.0864 258.481 55.755 0.97655 0.0203022
1953400 60.0864 258.494 55.755 0.97665 0.0260997
1953600 60.0864 258.507 55.755 0.97675 0.017407
1953800 60.0864 258.52 55.755 0.97685 -0.00447247
1954000 60.0864 258.534 55.755 0.97695 0.00354498
1954200 60.0864 258.547 55.755 0.97705 0.0128193
1954400 60.0864 258.56 55.755 0.97715 0.0136403
1954600 60.0864 258.573 55.755 0.97725 -0.00543161
1954800 60.0864 258.586 55.755 0.97735 -0.00100655
1955000 60.0864 258.599 55.755 0.97745 -0.00895686
1955200 60.0864 258.612 55.755 0.97755 -0.0223118
1955400 60.0864 258.625 55.755 0.97765 -0.0249752
1955600 60.0864 258.638 55.755 0.97775 -0.00991466
1955800 60.0864 258.651 55.755 0.97785 -0.00393966
1956000 60.0864 258.664 55.755 0.97795 -0.000363563
1956200 60.0864 258.677 55.755 0.97805 -0.0229078
1956400 60.0864 258.69 55.755 0.97815 -0.00380703
1956600 60.0864 258.704 55.755 0.97825 0.00695446
1956800 60.0864 258.717 55.755 0.97835 0.0209269
1957000 60.0864 258.73 55.755 0.97845 0.0213052
1957200 60.0864 258.743 55.755 0.97855 0.0129429
1957400 60.0864 258.756 55.755 0.97865 0.0126462
1957600 60.0864 258.769 55.755 0.97875 0.0220261
1957800 60.0864 258.782 55.755 0.97885 0.0151637
1958000 60.0864 258.795 55.755 0.97895 0.0149904
1958200 60.0864 258.808 55.755 0.97905 0.0026539
1958400 60.0864 258.821 55.755 0.97915 -0.00370676
1958600 60.0864 258.834 55.755 0.97925 0.00384272
1958800 60.0864 258.847 55.755 0.97935 -0.00427265
1959000 60.0864 258.86 55.755 0.97945 -0.0194638
1959200 60.0864 258.874 55.755 0.97955 -0.0179058
1959400 60.0864 258.887 55.755 0.97965 -0.020592
1959600 60.0864 258.9 55.755 0.97975 -0.00738229
1959800 60.0864 258.913 55.755 0.97985 -0.00639387
1960000 60.0864 258.926 55.755 0.97995 -0.00595579
1960200 60.0864 258.939 55.755 0.98005 -0.0133961
1960400 60.0864 258.952 55.755 0.98015 0.0026159
1960600 60.0864 258.965 55.755 0.98025 -0.0011641
1960800 60.0864 258.978 55.755 0.98035 0.011351
1961000 60.0864 258.991 55.755 0.98045 0.0159712
1961200 60.0864 259.004 55.755 0.98055 0.0288723
1961400 60.0864 259.017 55.755 0.98065 0.0188637
1961600 60.0864 259.03 55.755 0.98075 0.0146977
1961800 60.0864 259.044 55.755 0.98085 0.0252124
1962000 60.0864 259.057 55.755 0.98095 0.00169346
1962200 60.0864 259.07 55.755 0.98105 0.0112071
1962400 60.0864 259.083 55.755 0.98115 -6.65354e-05
1962600 60.0864 259.096 55.755 0.98125 0.00601595
1962800 60.0864 259.109 55.755 0.98135 -0.00861933
1963000 60.0864 259.122 55.755 0.98145 -0.0049014
1963200 60.0864 259.135 55.755 0.98155 -0.0188729
1963400 60.0864 259.148 55.755 0.98165 -0.0382049
1963600 60.0864 259.161 55.755 0.98175 -0.000970534
1963800 60.0864 259.174 55.755 0.98185 -0.0193088
1964000 60.0864 259.187 55.755 0.98195 -0.0239249
1964200 60.0864 259.2 55.755 0.98205 -0.00227627
1964400 60.0864 259.214 55.755 0.98215 0.00186437
1964600 60.0864 259.227 55.755 0.98225 -0.0052455
1964800 60.0864 259.24 55.755 0.98235 0.00699665
1965000 60.0864 259.253 55.755 0.98245 0.0220221
1965200 60.0864 259.266 55.755 0.98255 0.0184933
1965400 60.0864 259.279 55.755 0.98265 0.0338421
1965600 60.0864 259.292 55.755 0.98275 0.0464166
1965800 60.0864 259.305 55.755 0.98285 0.0103496
1966000 60.0864 259.318 55.755 0.98295 0.0240447
1966200 60.0864 259.331 55.755 0.98305 0.00174045
1966400 60.0864 259.344 55.755 0.98315 -0.00115593
1966600 60.0864 259.357 55.755 0.98325 -3.31254e-05
1966800 60.0864 259.37 55.755 0.98335 -0.0086218
1967000 60.0864 259.384 55.755 0.98345 -0.0153821
1967200 60.0864 259.397 55.755 0.98355 -0.0243547
1967400 60.0864 259.41 55.755 0.98365 -0.0210312
1967600 60.0864 259.423 55.755 0.98375 -0.0364105
1967800 60.0864 259.436 55.755 0.98385 -0.024174
1968000 60.0864 259.449 55.755 0.98395 -0.0165957
1968200 60.0864 259.462 55.755 0.98405 -0.0119592
1968400 60.0864 259.475 55.755 0.98415 0.0129393
1968600 60.0864 259.488 55.755 0.98425 -0.00464666
1968800 60.0864 259.501 55.755 0.98435 0.0187124
1969000 60.0864 259.514 55.755 0.98445 0.0207658
1969200 60.0864 259.527 55.755 0.98455 0.016405
1969400 60.0864 259.54 55.755 0.98465 0.0443962
1969600 60.0864 259.554 55.755 0.98475 0.0334802
1969800 60.0864 259.567 55.755 0.98485 0.0302738
1970000 60.0864 259.58 55.755 0.98495 0.00892727
1970200 60.0864 259.593 55.755 0.98505 0.0200173
1970400 60.0864 259.606 55.755 0.98515 0.00198409
1970600 60.0864 259.619 55.755 0.98525 -0.00164664
1970800 60.0864 259.632 55.755 0.98535 -0.0175132
1971000 60.0864 259.645 55.755 0.98545 -0.0323193
1971200 60.0864 259.658 55.755 0.98555 -0.00233069
1971400 60.0864 259.671 55.755 0.98565 -0.020477
1971600 60.0864 259.684 55.755 0.98575 -0.0232656
1971800 60.0864 259.697 55.755 0.98585 -0.030426
1972000 60.0864 259.71 55.755 0.98595 -0.0201416
1972200 60.0864 259.724 55.755 0.98605 -0.00419898
1972400 60.0864 259.737 55.755 0.98615 -0.0101679
1972600 60.0864 259.75 55.755 0.98625 -0.00350854
1972800 60.0864 259.763 55.755 0.98635 0.013183
1973000 60.0864 259.776 55.755 0.98645 0.00982685
1973200 60.0864 259.789 55.755 0.98655 0.0395006
1973400 60.0864 259.802 55.755 0.98665 0.0117605
1973600 60.0864 259.815 55.755 0.98675 0.0359124
1973800 60.0864 259.828 55.755 0.98685 0.0352782
1974000 60.0864 259.841 55.755 0.98695 0.0202552
1974200 60.0864 259.854 55.755 0.98705 0.0209972
1974400 60.0864 259.867 55.755 0.98715 0.00747982
1974600 60.0864 259.88 55.755 0.98725 -0.00416652
1974800 60.0864 259.894 55.755 0.98735 -0.00484883
1975000 60.0864 259.907 55.755 0.98745 -0.0183242
1975200 60.0864 259.92 55.755 0.98755 -0.025297
1975400 60.0864 259.933 55.755 0.98765 -0.0125717
1975600 60.0864 259.946 55.755 0.98775 -0.0311355
1975800 60.0864 259.959 55.755 0.98785 -0.0365378
1976000 60.0864 259.972 55.755 0.98795 -0.0250045
1976200 60.0864 259.985 55.755 0.98805 -0.00139731
1976400 60.0864 259.998 55.755 0.98815 -0.0220177
1976600 60.0864 260.011 55.755 0.98825 0.0195761
1976800 60.0864 260.024 55.755 0.98835 0.0116288
1977000 60.0864 260.037 55.755 0.98845 0.0235494
1977200 60.0864 260.051 55.755 0.98855 0.0224977
1977400 60.0864 260.064 55.755 0.98865 0.0225487
1977600 60.0864 260.077 55.755 0.98875 0.0293923
1977800 60.0864 260.09 55.755 0.98885 0.0321414
1978000 60.0864 260.103 55.755 0.98895 0.0319947
1978200 60.0864 260.116 55.755 0.98905 0.0284234
1978400 60.0864 260.129 55.755 0.98915 -0.00438124
1978600 60.0864 260.142 55.755 0.98925 -0.0177125
1978800 60.0864 260.155 55.755 0.98935 -0.0157858
1979000 60.0864 260.168 55.755 0.98945 -0.0112643
1979200 60.0864 260.181 55.755 0.98955 -0.00206903
1979400 60.0864 260.194 55.755 0.98965 -0.0199396
1979600 60.0864 260.207 55.755 0.98975 -0.0206266
1979800 60.0864 260.221 55.755 0.98985 -0.0235244
1980000 60.0864 260.234 55.755 0.98995 -0.0333108
1980200 60.0864 260.247 55.755 0.99005 -0.0258873
1980400 60.0864 260.26 55.755 0.99015 -0.00639844
1980600 60.0864 260.273 55.755 0.99025 0.00639542
1980800 60.0864 260.286 55.755 0.99035 0.0286035
1981000 60.0864 260.299 55.755 0.99045 0.0185175
1981200 60.0864 260.312 55.755 0.99055 0.0187248
1981400 60.0864 260.325 55.755 0.99065 0.0136389
1981600 60.0864 260.338 55.755 0.99075 0.0146962
1981800 60.0864 260.351 55.755 0.99085 0.0296022
1982000 60.0864 260.364 55.755 0.99095 0.0328216
1982200 60.0864 260.377 55.755 0.99105 0.0304168
1982400 60.0864 260.391 55.755 0.99115 0.023845
1982600 60.0864 260.404 55.755 0.99125 -0.024317
1982800 60.0864 260.417 55.755 0.99135 -0.00676389
1983000 60.0864 260.43 55.755 0.99145 -0.0267123
1983200 60.0864 260.443 55.755 0.99155 -0.0161711
1983400 60.0864 260.456 55.755 0.99165 -0.00889538
1983600 60.0864 260.469 55.755 0.99175 -0.0188809
1983800 60.0864 260.482 55.755 0.99185 -0.0236421
1984000 60.0864 260.495 55.755 0.99195 -0.0221075
1984200 60.0864 260.508 55.755 0.99205 -0.0275443
1984400 60.0864 260.521 55.755 0.99215 -0.0081199
1984600 60.0864 260.534 55.755 0.99225 -0.00783844
1984800 60.0864 260.547 55.755 0.99235 0.0219539
1985000 60.0864 260.561 55.755 0.99245 0.0327616
1985200 60.0864 260.574 55.755 0.99255 0.023432
1985400 60.0864 260.587 55.755 0.99265 0.0319029
1985600 60.0864 260.6 55.755 0.99275 0.00688413
1985800 60.0864 260.613 55.755 0.99285 0.0266409
1986000 60.0864 260.626 55.755 0.99295 0.0311715
1986200 60.0864 260.639 55.755 0.99305 0.0229394
1986400 60.0864 260.652 55.755 0.99315 0.0139308
1986600 60.0864 260.665 55.755 0.99325 0.00625918
1986800 60.0864 260.678 55.755 0.99335 -0.0161782
1987000 60.0864 260.691 55.755 0.99345 -0.022004
1987200 60.0864 260.704 55.755 0.99355 -0.038643
1987400 60.0864 260.717 55.755 0.99365 -0.0171078
1987600 60.0864 260.731 55.755 0.99375 -0.0117269
1987800 60.0864 260.744 55.755 0.99385 -0.0214045
1988000 60.0864 260.757 55.755 0.99395 -0.0204623
1988200 60.0864 260.77 55.755 0.99405 -0.0220289
1988400 60.0864 260.783 55.755 0.99415 -0.00617245
1988600 60.0864 260.796 55.755 0.99425 -0.00763477
1988800 60.0864 260.809 55.755 0.99435 0.0234254
1989000 60.0864 260.822 55.755 0.99445 0.0259216
1989200 60.0864 260.835 55.755 0.99455 0.0296655
1989400 60.0864 260.848 55.755 0.99465 0.0248225
1989600 60.0864 260.861 55.755 0.99475 0.0249499
1989800 60.0864 260.874 55.755 0.99485 0.0122594
1990000 60.0864 260.887 55.755 0.99495 0.0137409
1990200 60.0864 260.901 55.755 0.99505 0.0333204
1990400 60.0864 260.914 55.755 0.99515 0.00954088
1990600 60.0864 260.927 55.755 0.99525 0.00875636
1990800 60.0864 260.94 55.755 0.99535 -0.00252235
1991000 60.0864 260.953 55.755 0.99545 -0.0261469
1991200 60.0864 260.966 55.755 0.99555 -0.0312121
1991400 60.0864 260.979 55.755 0.99565 -0.0165079
1991600 60.0864 260.992 55.755 0.99575 -0.0155389
1991800 60.0864 261.005 55.755 0.99585 -0.0387019
1992000 60.0864 261.018 55.755 0.99595 -0.0167879
1992200 60.0864 261.031 55.755 0.99605 -0.0102466
1992400 60.0864 261.044 55.755 0.99615 -0.00724214
1992600 60.0864 261.057 55.755 0.99625 -0.0005737
1992800 60.0864 261.071 55.755 0.99635 -0.00430918
1993000 60.0864 261.084 55.755 0.99645 0.0254781
1993200 60.0864 261.097 55.755 0.99655 0.0305188
1993400 60.0864 261.11 55.755 0.99665 0.0399287
1993600 60.0864 261.123 55.755 0.99675 0.0310659
1993800 60.0864 261.136 55.755 0.99685 -0.00528182
1994000 60.0864 261.149 55.755 0.99695 0.0325746
1994200 60.0864 261.162 55.755 0.99705 0.0223281
1994400 60.0864 261.175 55.755 0.99715 0.0267433
1994600 60.0864 261.188 55.755 0.99725 0.00502314
1994800 60.0864 261.201 55.755 0.99735 -0.013397
1995000 60.0864 261.214 55.755 0.99745 -0.0193054
1995200 60.0864 261.227 55.755 0.99755 -0.0278943
1995400 60.0864 261.241 55.755 0.99765 -0.0131615
1995600 60.0864 261.254 55.755 0.99775 -0.0209161
1995800 60.0864 261.267 55.755 0.99785 -0.020643
1996000 60.0864 261.28 55.755 0.99795 -0.0290702
1996200 60.0864 261.293 55.755 0.99805 -0.0159515
1996400 60.0864 261.306 55.755 0.99815 -0.010153
1996600 60.0864 261.319 55.755 0.99825 -0.00506713
1996800 60.0864 261.332 55.755 0.99835 0.000564612
1997000 60.0864 261.345 55.755 0.99845 0.00856629
1997200 60.0864 261.358 55.755 0.99855 0.0326618
1997400 60.0864 261.371 55.755 0.99865 0.0346895
1997600 60.0864 261.384 55.755 0.99875 0.023611
1997800 60.0864 261.397 55.755 0.99885 0.0323012
1998000 60.0864 261.411 55.755 0.99895 0.0426959
1998200 60.0864 261.424 55.755 0.99905 0.0181897
1998400 60.0864 261.437 55.755 0.99915 0.013022
1998600 60.0864 261.45 55.755 0.99925 -0.00360505
1998800 60.0864 261.463 55.755 0.99935 -0.0179854
1999000 60.0864 261.476 55.755 0.99945 0.000317978
1999200 60.0864 261.489 55.755 0.99955 -0.0174242
1999400 60.0864 261.502 55.755 0.99965 -0.021054
1999600 60.0864 261.515 55.755 0.99975 -0.0331875
1999800 60.0864 261.528 55.755 0.99985 -0.0436208
2000000 60.0864 261.541 55.755 0.99995 -0.0272306
