# Time-averaged data for fix Re_Primary
Step Lx Ly Lz StrainY StressYY
200 60.3145 130.278 55.7548 5.025e-05 0.0283505
400 60.3145 130.291 55.7548 0.00015025 0.00666678
600 60.3145 130.304 55.7548 0.00025025 0.0400462
800 60.3145 130.317 55.7548 0.00035025 0.0590778
1000 60.3145 130.33 55.7548 0.00045025 0.0419863
1200 60.3145 130.343 55.7548 0.00055025 0.0757647
1400 60.3145 130.356 55.7548 0.00065025 0.080874
1600 60.3145 130.369 55.7548 0.00075025 0.07755
1800 60.3145 130.382 55.7548 0.00085025 0.112091
2000 60.3145 130.395 55.7548 0.00095025 0.114263
2200 60.3145 130.408 55.7548 0.00105025 0.110739
2400 60.3145 130.421 55.7548 0.00115025 0.133246
2600 60.3145 130.434 55.7548 0.00125025 0.104959
2800 60.3145 130.447 55.7548 0.00135025 0.149945
3000 60.3145 130.46 55.7548 0.00145025 0.153977
3200 60.3145 130.473 55.7548 0.00155025 0.176567
3400 60.3145 130.486 55.7548 0.00165025 0.16236
3600 60.3145 130.499 55.7548 0.00175025 0.199861
3800 60.3145 130.512 55.7548 0.00185025 0.186187
4000 60.3145 130.525 55.7548 0.00195025 0.219138
4200 60.3145 130.538 55.7548 0.00205025 0.215819
4400 60.3145 130.551 55.7548 0.00215025 0.233878
4600 60.3145 130.564 55.7548 0.00225025 0.240992
4800 60.3145 130.577 55.7548 0.00235025 0.232652
5000 60.3145 130.59 55.7548 0.00245025 0.253588
5200 60.3145 130.603 55.7548 0.00255025 0.289296
5400 60.3145 130.617 55.7548 0.00265025 0.25812
5600 60.3145 130.63 55.7548 0.00275025 0.297683
5800 60.3145 130.643 55.7548 0.00285025 0.27996
6000 60.3145 130.656 55.7548 0.00295025 0.337224
6200 60.3145 130.669 55.7548 0.00305025 0.300349
6400 60.3145 130.682 55.7548 0.00315025 0.324522
6600 60.3145 130.695 55.7548 0.00325025 0.341211
6800 60.3145 130.708 55.7548 0.00335025 0.362459
7000 60.3145 130.721 55.7548 0.00345025 0.33436
7200 60.3145 130.734 55.7548 0.00355025 0.390403
7400 60.3145 130.747 55.7548 0.00365025 0.350374
7600 60.3145 130.76 55.7548 0.00375025 0.375796
7800 60.3145 130.773 55.7548 0.00385025 0.402146
8000 60.3145 130.786 55.7548 0.00395025 0.419182
8200 60.3145 130.799 55.7548 0.00405025 0.423029
8400 60.3145 130.812 55.7548 0.00415025 0.427192
8600 60.3145 130.825 55.7548 0.00425025 0.44881
8800 60.3145 130.838 55.7548 0.00435025 0.422935
9000 60.3145 130.851 55.7548 0.00445025 0.462685
9200 60.3145 130.864 55.7548 0.00455025 0.477394
9400 60.3145 130.877 55.7548 0.00465025 0.491341
9600 60.3145 130.89 55.7548 0.00475025 0.497534
9800 60.3145 130.903 55.7548 0.00485025 0.503993
10000 60.3145 130.916 55.7548 0.00495025 0.514159
10200 60.3145 130.929 55.7548 0.00505025 0.537629
10400 60.3145 130.942 55.7548 0.00515025 0.524933
10600 60.3145 130.955 55.7548 0.00525025 0.546987
10800 60.3145 130.968 55.7548 0.00535025 0.551583
11000 60.3145 130.981 55.7548 0.00545025 0.584957
11200 60.3145 130.994 55.7548 0.00555025 0.591702
11400 60.3145 131.007 55.7548 0.00565025 0.574285
11600 60.3145 131.02 55.7548 0.00575025 0.608247
11800 60.3145 131.033 55.7548 0.00585025 0.610782
12000 60.3145 131.046 55.7548 0.00595025 0.619975
12200 60.3145 131.059 55.7548 0.00605025 0.645528
12400 60.3145 131.072 55.7548 0.00615025 0.620388
12600 60.3145 131.085 55.7548 0.00625025 0.664647
12800 60.3145 131.099 55.7548 0.00635025 0.671811
13000 60.3145 131.112 55.7548 0.00645025 0.684461
13200 60.3145 131.125 55.7548 0.00655025 0.672797
13400 60.3145 131.138 55.7548 0.00665025 0.704432
13600 60.3145 131.151 55.7548 0.00675025 0.705513
13800 60.3145 131.164 55.7548 0.00685025 0.716217
14000 60.3145 131.177 55.7548 0.00695025 0.729846
14200 60.3145 131.19 55.7548 0.00705025 0.73793
14400 60.3145 131.203 55.7548 0.00715025 0.746776
14600 60.3145 131.216 55.7548 0.00725025 0.784056
14800 60.3145 131.229 55.7548 0.00735025 0.742364
15000 60.3145 131.242 55.7548 0.00745025 0.817198
15200 60.3145 131.255 55.7548 0.00755025 0.788922
15400 60.3145 131.268 55.7548 0.00765025 0.797912
15600 60.3145 131.281 55.7548 0.00775025 0.826103
15800 60.3145 131.294 55.7548 0.00785025 0.794149
16000 60.3145 131.307 55.7548 0.00795025 0.831774
16200 60.3145 131.32 55.7548 0.00805025 0.857142
16400 60.3145 131.333 55.7548 0.00815025 0.871913
16600 60.3145 131.346 55.7548 0.00825025 0.869308
16800 60.3145 131.359 55.7548 0.00835025 0.887331
17000 60.3145 131.372 55.7548 0.00845025 0.892959
17200 60.3145 131.385 55.7548 0.00855025 0.895047
17400 60.3145 131.398 55.7548 0.00865025 0.920831
17600 60.3145 131.411 55.7548 0.00875025 0.93068
17800 60.3145 131.424 55.7548 0.00885025 0.91509
18000 60.3145 131.437 55.7548 0.00895025 0.964536
18200 60.3145 131.45 55.7548 0.00905025 0.955845
18400 60.3145 131.463 55.7548 0.00915025 0.950931
18600 60.3145 131.476 55.7548 0.00925025 0.993261
18800 60.3145 131.489 55.7548 0.00935025 0.975543
19000 60.3145 131.502 55.7548 0.00945025 1.00111
19200 60.3145 131.515 55.7548 0.00955025 1.01235
19400 60.3145 131.528 55.7548 0.00965025 1.0241
19600 60.3145 131.541 55.7548 0.00975025 1.03006
19800 60.3145 131.554 55.7548 0.00985025 1.05511
20000 60.3145 131.567 55.7548 0.00995025 1.04301
20200 60.3145 131.581 55.7548 0.0100502 1.05467
20400 60.3145 131.594 55.7548 0.0101502 1.07276
20600 60.3145 131.607 55.7548 0.0102502 1.09215
20800 60.3145 131.62 55.7548 0.0103502 1.08181
21000 60.3145 131.633 55.7548 0.0104502 1.11721
21200 60.3145 131.646 55.7548 0.0105502 1.12014
21400 60.3145 131.659 55.7548 0.0106502 1.10399
21600 60.3145 131.672 55.7548 0.0107502 1.12631
21800 60.3145 131.685 55.7548 0.0108502 1.15385
22000 60.3145 131.698 55.7548 0.0109502 1.14518
22200 60.3145 131.711 55.7548 0.0110502 1.17313
22400 60.3145 131.724 55.7548 0.0111502 1.1802
22600 60.3145 131.737 55.7548 0.0112502 1.18531
22800 60.3145 131.75 55.7548 0.0113502 1.18876
23000 60.3145 131.763 55.7548 0.0114502 1.19345
23200 60.3145 131.776 55.7548 0.0115502 1.23605
23400 60.3145 131.789 55.7548 0.0116502 1.22054
23600 60.3145 131.802 55.7548 0.0117502 1.24366
23800 60.3145 131.815 55.7548 0.0118502 1.26884
24000 60.3145 131.828 55.7548 0.0119502 1.25286
24200 60.3145 131.841 55.7548 0.0120502 1.27067
24400 60.3145 131.854 55.7548 0.0121502 1.26709
24600 60.3145 131.867 55.7548 0.0122502 1.3004
24800 60.3145 131.88 55.7548 0.0123502 1.30576
25000 60.3145 131.893 55.7548 0.0124502 1.30067
25200 60.3145 131.906 55.7548 0.0125502 1.32691
25400 60.3145 131.919 55.7548 0.0126502 1.34515
25600 60.3145 131.932 55.7548 0.0127502 1.37077
25800 60.3145 131.945 55.7548 0.0128502 1.35269
26000 60.3145 131.958 55.7548 0.0129502 1.36556
26200 60.3145 131.971 55.7548 0.0130502 1.3882
26400 60.3145 131.984 55.7548 0.0131502 1.36437
26600 60.3145 131.997 55.7548 0.0132502 1.41677
26800 60.3145 132.01 55.7548 0.0133502 1.40821
27000 60.3145 132.023 55.7548 0.0134502 1.41644
27200 60.3145 132.036 55.7548 0.0135502 1.44019
27400 60.3145 132.049 55.7548 0.0136502 1.45092
27600 60.3145 132.063 55.7548 0.0137502 1.4442
27800 60.3145 132.076 55.7548 0.0138502 1.4834
28000 60.3145 132.089 55.7548 0.0139502 1.47463
28200 60.3145 132.102 55.7548 0.0140502 1.47457
28400 60.3145 132.115 55.7548 0.0141502 1.50759
28600 60.3145 132.128 55.7548 0.0142502 1.52546
28800 60.3145 132.141 55.7548 0.0143502 1.51585
29000 60.3145 132.154 55.7548 0.0144502 1.53411
29200 60.3145 132.167 55.7548 0.0145502 1.55738
29400 60.3145 132.18 55.7548 0.0146502 1.54725
29600 60.3145 132.193 55.7548 0.0147502 1.55544
29800 60.3145 132.206 55.7548 0.0148502 1.59404
30000 60.3145 132.219 55.7548 0.0149502 1.57918
30200 60.3145 132.232 55.7548 0.0150502 1.57751
30400 60.3145 132.245 55.7548 0.0151502 1.64323
30600 60.3145 132.258 55.7548 0.0152502 1.59207
30800 60.3145 132.271 55.7548 0.0153502 1.62992
31000 60.3145 132.284 55.7548 0.0154502 1.64522
31200 60.3145 132.297 55.7548 0.0155502 1.64828
31400 60.3145 132.31 55.7548 0.0156502 1.66814
31600 60.3145 132.323 55.7548 0.0157502 1.68725
31800 60.3145 132.336 55.7548 0.0158502 1.68224
32000 60.3145 132.349 55.7548 0.0159502 1.68281
32200 60.3145 132.362 55.7548 0.0160502 1.73774
32400 60.3145 132.375 55.7548 0.0161502 1.715
32600 60.3145 132.388 55.7548 0.0162502 1.71655
32800 60.3145 132.401 55.7548 0.0163502 1.75411
33000 60.3145 132.414 55.7548 0.0164502 1.7486
33200 60.3145 132.427 55.7548 0.0165502 1.77229
33400 60.3145 132.44 55.7548 0.0166502 1.78837
33600 60.3145 132.453 55.7548 0.0167502 1.78759
33800 60.3145 132.466 55.7548 0.0168502 1.80548
34000 60.3145 132.479 55.7548 0.0169502 1.81842
34200 60.3145 132.492 55.7548 0.0170502 1.81325
34400 60.3145 132.505 55.7548 0.0171502 1.83043
34600 60.3145 132.518 55.7548 0.0172502 1.871
34800 60.3145 132.532 55.7548 0.0173502 1.83809
35000 60.3145 132.545 55.7548 0.0174502 1.87582
35200 60.3145 132.558 55.7548 0.0175502 1.87897
35400 60.3145 132.571 55.7548 0.0176502 1.90944
35600 60.3145 132.584 55.7548 0.0177502 1.89315
35800 60.3145 132.597 55.7548 0.0178502 1.91093
36000 60.3145 132.61 55.7548 0.0179502 1.92906
36200 60.3145 132.623 55.7548 0.0180502 1.92646
36400 60.3145 132.636 55.7548 0.0181502 1.9521
36600 60.3145 132.649 55.7548 0.0182502 1.96636
36800 60.3145 132.662 55.7548 0.0183502 1.96668
37000 60.3145 132.675 55.7548 0.0184502 1.9852
37200 60.3145 132.688 55.7548 0.0185502 1.99866
37400 60.3145 132.701 55.7548 0.0186502 1.98988
37600 60.3145 132.714 55.7548 0.0187502 2.01577
37800 60.3145 132.727 55.7548 0.0188502 2.02811
38000 60.3145 132.74 55.7548 0.0189502 2.04447
38200 60.3145 132.753 55.7548 0.0190502 2.05071
38400 60.3145 132.766 55.7548 0.0191502 2.05381
38600 60.3145 132.779 55.7548 0.0192502 2.07795
38800 60.3145 132.792 55.7548 0.0193502 2.08316
39000 60.3145 132.805 55.7548 0.0194502 2.08959
39200 60.3145 132.818 55.7548 0.0195502 2.09774
39400 60.3145 132.831 55.7548 0.0196502 2.13514
39600 60.3145 132.844 55.7548 0.0197502 2.11526
39800 60.3145 132.857 55.7548 0.0198502 2.15021
40000 60.3145 132.87 55.7548 0.0199502 2.1497
40200 60.3145 132.883 55.7548 0.0200502 2.15985
40400 60.3145 132.896 55.7548 0.0201502 2.16392
40600 60.3145 132.909 55.7548 0.0202502 2.17979
40800 60.3145 132.922 55.7548 0.0203502 2.20003
41000 60.3145 132.935 55.7548 0.0204502 2.2173
41200 60.3145 132.948 55.7548 0.0205502 2.21192
41400 60.3145 132.961 55.7548 0.0206502 2.20813
41600 60.3145 132.974 55.7548 0.0207502 2.27016
41800 60.3145 132.987 55.7548 0.0208502 2.22378
42000 60.3145 133 55.7548 0.0209502 2.2758
42200 60.3145 133.014 55.7548 0.0210502 2.28272
42400 60.3145 133.027 55.7548 0.0211502 2.27671
42600 60.3145 133.04 55.7548 0.0212502 2.29632
42800 60.3145 133.053 55.7548 0.0213502 2.32462
43000 60.3145 133.066 55.7548 0.0214502 2.3231
43200 60.3145 133.079 55.7548 0.0215502 2.33736
43400 60.3145 133.092 55.7548 0.0216502 2.34509
43600 60.3145 133.105 55.7548 0.0217502 2.35177
43800 60.3145 133.118 55.7548 0.0218502 2.36219
44000 60.3145 133.131 55.7548 0.0219502 2.39136
44200 60.3145 133.144 55.7548 0.0220502 2.37941
44400 60.3145 133.157 55.7548 0.0221502 2.40473
44600 60.3145 133.17 55.7548 0.0222502 2.39937
44800 60.3145 133.183 55.7548 0.0223502 2.43149
45000 60.3145 133.196 55.7548 0.0224502 2.43962
45200 60.3145 133.209 55.7548 0.0225502 2.43533
45400 60.3145 133.222 55.7548 0.0226502 2.47703
45600 60.3145 133.235 55.7548 0.0227502 2.45038
45800 60.3145 133.248 55.7548 0.0228502 2.48743
46000 60.3145 133.261 55.7548 0.0229502 2.49922
46200 60.3145 133.274 55.7548 0.0230502 2.50698
46400 60.3145 133.287 55.7548 0.0231502 2.50771
46600 60.3145 133.3 55.7548 0.0232502 2.5461
46800 60.3145 133.313 55.7548 0.0233502 2.53284
47000 60.3145 133.326 55.7548 0.0234502 2.56406
47200 60.3145 133.339 55.7548 0.0235502 2.55017
47400 60.3145 133.352 55.7548 0.0236502 2.58055
47600 60.3145 133.365 55.7548 0.0237502 2.59863
47800 60.3145 133.378 55.7548 0.0238502 2.60469
48000 60.3145 133.391 55.7548 0.0239502 2.60563
48200 60.3145 133.404 55.7548 0.0240502 2.63437
48400 60.3145 133.417 55.7548 0.0241502 2.63165
48600 60.3145 133.43 55.7548 0.0242502 2.65218
48800 60.3145 133.443 55.7548 0.0243502 2.65466
49000 60.3145 133.456 55.7548 0.0244502 2.67806
49200 60.3145 133.469 55.7548 0.0245502 2.67878
49400 60.3145 133.482 55.7548 0.0246502 2.6815
49600 60.3145 133.496 55.7548 0.0247502 2.70949
49800 60.3145 133.509 55.7548 0.0248502 2.71005
50000 60.3145 133.522 55.7548 0.0249502 2.73074
50200 60.3145 133.535 55.7548 0.0250502 2.72938
50400 60.3145 133.548 55.7548 0.0251502 2.72106
50600 60.3145 133.561 55.7548 0.0252502 2.7866
50800 60.3145 133.574 55.7548 0.0253502 2.76813
51000 60.3145 133.587 55.7548 0.0254502 2.77872
51200 60.3145 133.6 55.7548 0.0255502 2.79505
51400 60.3145 133.613 55.7548 0.0256502 2.80659
51600 60.3145 133.626 55.7548 0.0257502 2.82825
51800 60.3145 133.639 55.7548 0.0258502 2.8159
52000 60.3145 133.652 55.7548 0.0259502 2.86235
52200 60.3145 133.665 55.7548 0.0260502 2.84979
52400 60.3145 133.678 55.7548 0.0261502 2.8738
52600 60.3145 133.691 55.7548 0.0262502 2.85897
52800 60.3145 133.704 55.7548 0.0263502 2.90445
53000 60.3145 133.717 55.7548 0.0264502 2.90349
53200 60.3145 133.73 55.7548 0.0265502 2.89825
53400 60.3145 133.743 55.7548 0.0266502 2.93546
53600 60.3145 133.756 55.7548 0.0267502 2.93988
53800 60.3145 133.769 55.7548 0.0268502 2.94929
54000 60.3145 133.782 55.7548 0.0269502 2.95648
54200 60.3145 133.795 55.7548 0.0270502 2.99403
54400 60.3145 133.808 55.7548 0.0271502 2.99033
54600 60.3145 133.821 55.7548 0.0272502 2.98691
54800 60.3145 133.834 55.7548 0.0273502 3.01553
55000 60.3145 133.847 55.7548 0.0274502 3.00607
55200 60.3145 133.86 55.7548 0.0275502 3.0533
55400 60.3145 133.873 55.7548 0.0276502 3.02867
55600 60.3145 133.886 55.7548 0.0277502 3.0705
55800 60.3145 133.899 55.7548 0.0278502 3.06602
56000 60.3145 133.912 55.7548 0.0279502 3.08263
56200 60.3145 133.925 55.7548 0.0280502 3.06281
56400 60.3145 133.938 55.7548 0.0281502 3.12074
56600 60.3145 133.951 55.7548 0.0282502 3.12386
56800 60.3145 133.964 55.7548 0.0283502 3.10751
57000 60.3145 133.978 55.7548 0.0284502 3.13829
57200 60.3145 133.991 55.7548 0.0285502 3.15482
57400 60.3145 134.004 55.7548 0.0286502 3.15469
57600 60.3145 134.017 55.7548 0.0287502 3.17754
57800 60.3145 134.03 55.7548 0.0288502 3.18318
58000 60.3145 134.043 55.7548 0.0289502 3.1996
58200 60.3145 134.056 55.7548 0.0290502 3.18871
58400 60.3145 134.069 55.7548 0.0291502 3.22835
58600 60.3145 134.082 55.7548 0.0292502 3.22422
58800 60.3145 134.095 55.7548 0.0293502 3.25762
59000 60.3145 134.108 55.7548 0.0294502 3.24946
59200 60.3145 134.121 55.7548 0.0295502 3.27312
59400 60.3145 134.134 55.7548 0.0296502 3.27949
59600 60.3145 134.147 55.7548 0.0297502 3.3035
59800 60.3145 134.16 55.7548 0.0298502 3.30863
60000 60.3145 134.173 55.7548 0.0299502 3.30633
60200 60.3145 134.186 55.7548 0.0300502 3.33692
60400 60.3145 134.199 55.7548 0.0301502 3.34426
60600 60.3145 134.212 55.7548 0.0302502 3.35494
60800 60.3145 134.225 55.7548 0.0303502 3.37615
61000 60.3145 134.238 55.7548 0.0304502 3.36611
61200 60.3145 134.251 55.7548 0.0305502 3.41246
61400 60.3145 134.264 55.7548 0.0306502 3.40558
61600 60.3145 134.277 55.7548 0.0307502 3.3924
61800 60.3145 134.29 55.7548 0.0308502 3.4331
62000 60.3145 134.303 55.7548 0.0309502 3.43496
62200 60.3145 134.316 55.7548 0.0310502 3.44579
62400 60.3145 134.329 55.7548 0.0311502 3.46818
62600 60.3145 134.342 55.7548 0.0312502 3.47419
62800 60.3145 134.355 55.7548 0.0313502 3.46149
63000 60.3145 134.368 55.7548 0.0314502 3.50465
63200 60.3145 134.381 55.7548 0.0315502 3.51032
63400 60.3145 134.394 55.7548 0.0316502 3.50423
63600 60.3145 134.407 55.7548 0.0317502 3.5637
63800 60.3145 134.42 55.7548 0.0318502 3.54099
64000 60.3145 134.433 55.7548 0.0319502 3.54781
64200 60.3145 134.446 55.7548 0.0320502 3.5413
64400 60.3145 134.46 55.7548 0.0321502 3.61123
64600 60.3145 134.473 55.7548 0.0322502 3.56019
64800 60.3145 134.486 55.7548 0.0323502 3.63538
65000 60.3145 134.499 55.7548 0.0324502 3.59479
65200 60.3145 134.512 55.7548 0.0325502 3.63854
65400 60.3145 134.525 55.7548 0.0326502 3.62052
65600 60.3145 134.538 55.7548 0.0327502 3.66436
65800 60.3145 134.551 55.7548 0.0328502 3.6481
66000 60.3145 134.564 55.7548 0.0329502 3.69575
66200 60.3145 134.577 55.7548 0.0330502 3.6832
66400 60.3145 134.59 55.7548 0.0331502 3.69053
66600 60.3145 134.603 55.7548 0.0332502 3.716
66800 60.3145 134.616 55.7548 0.0333502 3.73478
67000 60.3145 134.629 55.7548 0.0334502 3.73595
67200 60.3145 134.642 55.7548 0.0335502 3.75165
67400 60.3145 134.655 55.7548 0.0336502 3.76093
67600 60.3145 134.668 55.7548 0.0337502 3.76866
67800 60.3145 134.681 55.7548 0.0338502 3.80251
68000 60.3145 134.694 55.7548 0.0339502 3.78879
68200 60.3145 134.707 55.7548 0.0340502 3.80867
68400 60.3145 134.72 55.7548 0.0341502 3.83465
68600 60.3145 134.733 55.7548 0.0342502 3.8259
68800 60.3145 134.746 55.7548 0.0343502 3.87604
69000 60.3145 134.759 55.7548 0.0344502 3.82764
69200 60.3145 134.772 55.7548 0.0345502 3.91365
69400 60.3145 134.785 55.7548 0.0346502 3.85988
69600 60.3145 134.798 55.7548 0.0347502 3.91247
69800 60.3145 134.811 55.7548 0.0348502 3.88798
70000 60.3145 134.824 55.7548 0.0349502 3.93546
70200 60.3145 134.837 55.7548 0.0350502 3.92991
70400 60.3145 134.85 55.7548 0.0351502 3.94571
70600 60.3145 134.863 55.7548 0.0352502 3.97002
70800 60.3145 134.876 55.7548 0.0353502 3.96647
71000 60.3145 134.889 55.7548 0.0354502 3.9838
71200 60.3145 134.902 55.7548 0.0355502 3.9918
71400 60.3145 134.915 55.7548 0.0356502 4.00022
71600 60.3145 134.928 55.7548 0.0357502 4.02416
71800 60.3145 134.942 55.7548 0.0358502 4.01473
72000 60.3145 134.955 55.7548 0.0359502 4.05627
72200 60.3145 134.968 55.7548 0.0360502 4.04605
72400 60.3145 134.981 55.7548 0.0361502 4.06059
72600 60.3145 134.994 55.7548 0.0362502 4.07937
72800 60.3145 135.007 55.7548 0.0363502 4.07949
73000 60.3145 135.02 55.7548 0.0364502 4.08412
73200 60.3145 135.033 55.7548 0.0365502 4.13085
73400 60.3145 135.046 55.7548 0.0366502 4.11207
73600 60.3145 135.059 55.7548 0.0367502 4.14972
73800 60.3145 135.072 55.7548 0.0368502 4.14019
74000 60.3145 135.085 55.7548 0.0369502 4.16172
74200 60.3145 135.098 55.7548 0.0370502 4.18692
74400 60.3145 135.111 55.7548 0.0371502 4.2087
74600 60.3145 135.124 55.7548 0.0372502 4.16817
74800 60.3145 135.137 55.7548 0.0373502 4.22021
75000 60.3145 135.15 55.7548 0.0374502 4.23273
75200 60.3145 135.163 55.7548 0.0375502 4.22788
75400 60.3145 135.176 55.7548 0.0376502 4.22841
75600 60.3145 135.189 55.7548 0.0377502 4.26383
75800 60.3145 135.202 55.7548 0.0378502 4.25178
76000 60.3145 135.215 55.7548 0.0379502 4.29581
76200 60.3145 135.228 55.7548 0.0380502 4.29915
76400 60.3145 135.241 55.7548 0.0381502 4.30526
76600 60.3145 135.254 55.7548 0.0382502 4.31826
76800 60.3145 135.267 55.7548 0.0383502 4.33127
77000 60.3145 135.28 55.7548 0.0384502 4.34075
77200 60.3145 135.293 55.7548 0.0385502 4.37665
77400 60.3145 135.306 55.7548 0.0386502 4.36883
77600 60.3145 135.319 55.7548 0.0387502 4.36695
77800 60.3145 135.332 55.7548 0.0388502 4.40882
78000 60.3145 135.345 55.7548 0.0389502 4.40721
78200 60.3145 135.358 55.7548 0.0390502 4.41585
78400 60.3145 135.371 55.7548 0.0391502 4.43412
78600 60.3145 135.384 55.7548 0.0392502 4.43131
78800 60.3145 135.397 55.7548 0.0393502 4.45933
79000 60.3145 135.41 55.7548 0.0394502 4.48088
79200 60.3145 135.424 55.7548 0.0395502 4.47524
79400 60.3145 135.437 55.7548 0.0396502 4.50329
79600 60.3145 135.45 55.7548 0.0397502 4.49874
79800 60.3145 135.463 55.7548 0.0398502 4.51663
80000 60.3145 135.476 55.7548 0.0399502 4.52625
80200 60.3145 135.489 55.7548 0.0400502 4.54675
80400 60.3145 135.502 55.7548 0.0401502 4.54763
80600 60.3145 135.515 55.7548 0.0402502 4.55427
80800 60.3145 135.528 55.7548 0.0403502 4.58156
81000 60.3145 135.541 55.7548 0.0404502 4.58467
81200 60.3145 135.554 55.7548 0.0405502 4.6125
81400 60.3145 135.567 55.7548 0.0406502 4.62425
81600 60.3145 135.58 55.7548 0.0407502 4.61663
81800 60.3145 135.593 55.7548 0.0408502 4.63989
82000 60.3145 135.606 55.7548 0.0409502 4.64676
82200 60.3145 135.619 55.7548 0.0410502 4.66289
82400 60.3145 135.632 55.7548 0.0411502 4.67703
82600 60.3145 135.645 55.7548 0.0412502 4.68005
82800 60.3145 135.658 55.7548 0.0413502 4.70581
83000 60.3145 135.671 55.7548 0.0414502 4.70255
83200 60.3145 135.684 55.7548 0.0415502 4.73308
83400 60.3145 135.697 55.7548 0.0416502 4.74532
83600 60.3145 135.71 55.7548 0.0417502 4.73677
83800 60.3145 135.723 55.7548 0.0418502 4.76658
84000 60.3145 135.736 55.7548 0.0419502 4.76955
84200 60.3145 135.749 55.7548 0.0420502 4.7819
84400 60.3145 135.762 55.7548 0.0421502 4.78611
84600 60.3145 135.775 55.7548 0.0422502 4.81012
84800 60.3145 135.788 55.7548 0.0423502 4.82294
85000 60.3145 135.801 55.7548 0.0424502 4.81719
85200 60.3145 135.814 55.7548 0.0425502 4.8579
85400 60.3145 135.827 55.7548 0.0426502 4.85809
85600 60.3145 135.84 55.7548 0.0427502 4.86768
85800 60.3145 135.853 55.7548 0.0428502 4.88933
86000 60.3145 135.866 55.7548 0.0429502 4.89728
86200 60.3145 135.879 55.7548 0.0430502 4.90427
86400 60.3145 135.893 55.7548 0.0431502 4.93481
86600 60.3145 135.906 55.7548 0.0432502 4.92164
86800 60.3145 135.919 55.7548 0.0433502 4.94997
87000 60.3145 135.932 55.7548 0.0434502 4.96007
87200 60.3145 135.945 55.7548 0.0435502 4.9658
87400 60.3145 135.958 55.7548 0.0436502 4.97218
87600 60.3145 135.971 55.7548 0.0437502 4.99687
87800 60.3145 135.984 55.7548 0.0438502 5.01332
88000 60.3145 135.997 55.7548 0.0439502 5.0078
88200 60.3145 136.01 55.7548 0.0440502 5.04948
88400 60.3145 136.023 55.7548 0.0441502 5.04461
88600 60.3145 136.036 55.7548 0.0442502 5.0508
88800 60.3145 136.049 55.7548 0.0443502 5.07589
89000 60.3145 136.062 55.7548 0.0444502 5.07994
89200 60.3145 136.075 55.7548 0.0445502 5.1041
89400 60.3145 136.088 55.7548 0.0446502 5.09446
89600 60.3145 136.101 55.7548 0.0447502 5.117
89800 60.3145 136.114 55.7548 0.0448502 5.14254
90000 60.3145 136.127 55.7548 0.0449502 5.14613
90200 60.3145 136.14 55.7548 0.0450502 5.16124
90400 60.3145 136.153 55.7548 0.0451502 5.16758
90600 60.3145 136.166 55.7548 0.0452502 5.17881
90800 60.3145 136.179 55.7548 0.0453502 5.19578
91000 60.3145 136.192 55.7548 0.0454502 5.20319
91200 60.3145 136.205 55.7548 0.0455502 5.20973
91400 60.3145 136.218 55.7548 0.0456502 5.25986
91600 60.3145 136.231 55.7548 0.0457502 5.23476
91800 60.3145 136.244 55.7548 0.0458502 5.25397
92000 60.3145 136.257 55.7548 0.0459502 5.29734
92200 60.3145 136.27 55.7548 0.0460502 5.25207
92400 60.3145 136.283 55.7548 0.0461502 5.32018
92600 60.3145 136.296 55.7548 0.0462502 5.3133
92800 60.3145 136.309 55.7548 0.0463502 5.3145
93000 60.3145 136.322 55.7548 0.0464502 5.3437
93200 60.3145 136.335 55.7548 0.0465502 5.35356
93400 60.3145 136.348 55.7548 0.0466502 5.35743
93600 60.3145 136.361 55.7548 0.0467502 5.37352
93800 60.3145 136.375 55.7548 0.0468502 5.398
94000 60.3145 136.388 55.7548 0.0469502 5.38951
94200 60.3145 136.401 55.7548 0.0470502 5.43036
94400 60.3145 136.414 55.7548 0.0471502 5.41658
94600 60.3145 136.427 55.7548 0.0472502 5.45456
94800 60.3145 136.44 55.7548 0.0473502 5.42512
95000 60.3145 136.453 55.7548 0.0474502 5.49344
95200 60.3145 136.466 55.7548 0.0475502 5.47073
95400 60.3145 136.479 55.7548 0.0476502 5.48728
95600 60.3145 136.492 55.7548 0.0477502 5.51236
95800 60.3145 136.505 55.7548 0.0478502 5.5136
96000 60.3145 136.518 55.7548 0.0479502 5.52115
96200 60.3145 136.531 55.7548 0.0480502 5.56367
96400 60.3145 136.544 55.7548 0.0481502 5.54239
96600 60.3145 136.557 55.7548 0.0482502 5.56337
96800 60.3145 136.57 55.7548 0.0483502 5.59114
97000 60.3145 136.583 55.7548 0.0484502 5.58398
97200 60.3145 136.596 55.7548 0.0485502 5.58745
97400 60.3145 136.609 55.7548 0.0486502 5.62029
97600 60.3145 136.622 55.7548 0.0487502 5.64464
97800 60.3145 136.635 55.7548 0.0488502 5.62692
98000 60.3145 136.648 55.7548 0.0489502 5.65415
98200 60.3145 136.661 55.7548 0.0490502 5.67742
98400 60.3145 136.674 55.7548 0.0491502 5.67581
98600 60.3145 136.687 55.7548 0.0492502 5.69607
98800 60.3145 136.7 55.7548 0.0493502 5.69942
99000 60.3145 136.713 55.7548 0.0494502 5.73271
99200 60.3145 136.726 55.7548 0.0495502 5.71192
99400 60.3145 136.739 55.7548 0.0496502 5.75914
99600 60.3145 136.752 55.7548 0.0497502 5.75145
99800 60.3145 136.765 55.7548 0.0498502 5.77253
100000 60.3145 136.778 55.7548 0.0499502 5.77437
100200 60.3145 136.791 55.7548 0.0500502 5.80607
100400 60.3145 136.804 55.7548 0.0501502 5.80095
100600 60.3145 136.817 55.7548 0.0502502 5.81901
100800 60.3145 136.83 55.7548 0.0503502 5.83577
101000 60.3145 136.843 55.7548 0.0504502 5.83399
101200 60.3145 136.857 55.7548 0.0505502 5.88122
101400 60.3145 136.87 55.7548 0.0506502 5.85209
101600 60.3145 136.883 55.7548 0.0507502 5.88169
101800 60.3145 136.896 55.7548 0.0508502 5.90006
102000 60.3145 136.909 55.7548 0.0509502 5.90874
102200 60.3145 136.922 55.7548 0.0510502 5.92335
102400 60.3145 136.935 55.7548 0.0511502 5.94376
102600 60.3145 136.948 55.7548 0.0512502 5.93899
102800 60.3145 136.961 55.7548 0.0513502 5.96487
103000 60.3145 136.974 55.7548 0.0514502 5.98725
103200 60.3145 136.987 55.7548 0.0515502 5.97573
103400 60.3145 137 55.7548 0.0516502 5.99902
103600 60.3145 137.013 55.7548 0.0517502 6.01104
103800 60.3145 137.026 55.7548 0.0518502 6.04533
104000 60.3145 137.039 55.7548 0.0519502 6.03421
104200 60.3145 137.052 55.7548 0.0520502 6.05056
104400 60.3145 137.065 55.7548 0.0521502 6.0659
104600 60.3145 137.078 55.7548 0.0522502 6.09884
104800 60.3145 137.091 55.7548 0.0523502 6.08332
105000 60.3145 137.104 55.7548 0.0524502 6.09708
105200 60.3145 137.117 55.7548 0.0525502 6.13239
105400 60.3145 137.13 55.7548 0.0526502 6.13238
105600 60.3145 137.143 55.7548 0.0527502 6.15161
105800 60.3145 137.156 55.7548 0.0528502 6.15639
106000 60.3145 137.169 55.7548 0.0529502 6.18055
106200 60.3145 137.182 55.7548 0.0530502 6.17531
106400 60.3145 137.195 55.7548 0.0531502 6.20074
106600 60.3145 137.208 55.7548 0.0532502 6.20713
106800 60.3145 137.221 55.7548 0.0533502 6.23607
107000 60.3145 137.234 55.7548 0.0534502 6.21589
107200 60.3145 137.247 55.7548 0.0535502 6.27304
107400 60.3145 137.26 55.7548 0.0536502 6.24642
107600 60.3145 137.273 55.7548 0.0537502 6.28397
107800 60.3145 137.286 55.7548 0.0538502 6.28614
108000 60.3145 137.299 55.7548 0.0539502 6.30922
108200 60.3145 137.312 55.7548 0.0540502 6.31039
108400 60.3145 137.325 55.7548 0.0541502 6.32503
108600 60.3145 137.339 55.7548 0.0542502 6.36104
108800 60.3145 137.352 55.7548 0.0543502 6.33006
109000 60.3145 137.365 55.7548 0.0544502 6.38263
109200 60.3145 137.378 55.7548 0.0545502 6.37813
109400 60.3145 137.391 55.7548 0.0546502 6.39715
109600 60.3145 137.404 55.7548 0.0547502 6.39574
109800 60.3145 137.417 55.7548 0.0548502 6.42785
110000 60.3145 137.43 55.7548 0.0549502 6.42981
110200 60.3145 137.443 55.7548 0.0550502 6.45317
110400 60.3145 137.456 55.7548 0.0551502 6.4628
110600 60.3145 137.469 55.7548 0.0552502 6.46835
110800 60.3145 137.482 55.7548 0.0553502 6.48346
111000 60.3145 137.495 55.7548 0.0554502 6.52576
111200 60.3145 137.508 55.7548 0.0555502 6.49343
111400 60.3145 137.521 55.7548 0.0556502 6.52844
111600 60.3145 137.534 55.7548 0.0557502 6.52902
111800 60.3145 137.547 55.7548 0.0558502 6.57179
112000 60.3145 137.56 55.7548 0.0559502 6.55099
112200 60.3145 137.573 55.7548 0.0560502 6.56994
112400 60.3145 137.586 55.7548 0.0561502 6.59761
112600 60.3145 137.599 55.7548 0.0562502 6.60409
112800 60.3145 137.612 55.7548 0.0563502 6.61128
113000 60.3145 137.625 55.7548 0.0564502 6.63844
113200 60.3145 137.638 55.7548 0.0565502 6.63152
113400 60.3145 137.651 55.7548 0.0566502 6.65318
113600 60.3145 137.664 55.7548 0.0567502 6.67041
113800 60.3145 137.677 55.7548 0.0568502 6.68001
114000 60.3145 137.69 55.7548 0.0569502 6.6906
114200 60.3145 137.703 55.7548 0.0570502 6.70712
114400 60.3145 137.716 55.7548 0.0571502 6.72451
114600 60.3145 137.729 55.7548 0.0572502 6.75214
114800 60.3145 137.742 55.7548 0.0573502 6.73286
115000 60.3145 137.755 55.7548 0.0574502 6.75265
115200 60.3145 137.768 55.7548 0.0575502 6.79834
115400 60.3145 137.781 55.7548 0.0576502 6.77186
115600 60.3145 137.794 55.7548 0.0577502 6.79959
115800 60.3145 137.807 55.7548 0.0578502 6.81304
116000 60.3145 137.821 55.7548 0.0579502 6.80998
116200 60.3145 137.834 55.7548 0.0580502 6.84678
116400 60.3145 137.847 55.7548 0.0581502 6.86101
116600 60.3145 137.86 55.7548 0.0582502 6.86251
116800 60.3145 137.873 55.7548 0.0583502 6.87524
117000 60.3145 137.886 55.7548 0.0584502 6.89009
117200 60.3145 137.899 55.7548 0.0585502 6.91276
117400 60.3145 137.912 55.7548 0.0586502 6.92082
117600 60.3145 137.925 55.7548 0.0587502 6.92026
117800 60.3145 137.938 55.7548 0.0588502 6.95591
118000 60.3145 137.951 55.7548 0.0589502 6.96228
118200 60.3145 137.964 55.7548 0.0590502 6.96288
118400 60.3145 137.977 55.7548 0.0591502 7.00591
118600 60.3145 137.99 55.7548 0.0592502 7.0016
118800 60.3145 138.003 55.7548 0.0593502 6.98997
119000 60.3145 138.016 55.7548 0.0594502 7.04298
119200 60.3145 138.029 55.7548 0.0595502 7.02815
119400 60.3145 138.042 55.7548 0.0596502 7.04903
119600 60.3145 138.055 55.7548 0.0597502 7.07594
119800 60.3145 138.068 55.7548 0.0598502 7.08642
120000 60.3145 138.081 55.7548 0.0599502 7.08355
120200 60.3145 138.094 55.7548 0.0600502 7.10415
120400 60.3145 138.107 55.7548 0.0601502 7.11353
120600 60.3145 138.12 55.7548 0.0602502 7.13346
120800 60.3145 138.133 55.7548 0.0603502 7.15334
121000 60.3145 138.146 55.7548 0.0604502 7.12884
121200 60.3145 138.159 55.7548 0.0605502 7.19182
121400 60.3145 138.172 55.7548 0.0606502 7.16297
121600 60.3145 138.185 55.7548 0.0607502 7.18365
121800 60.3145 138.198 55.7548 0.0608502 7.21615
122000 60.3145 138.211 55.7548 0.0609502 7.22586
122200 60.3145 138.224 55.7548 0.0610502 7.23293
122400 60.3145 138.237 55.7548 0.0611502 7.23633
122600 60.3145 138.25 55.7548 0.0612502 7.27656
122800 60.3145 138.263 55.7548 0.0613502 7.25947
123000 60.3145 138.276 55.7548 0.0614502 7.30682
123200 60.3145 138.289 55.7548 0.0615502 7.28649
123400 60.3145 138.303 55.7548 0.0616502 7.3336
123600 60.3145 138.316 55.7548 0.0617502 7.32086
123800 60.3145 138.329 55.7548 0.0618502 7.35118
124000 60.3145 138.342 55.7548 0.0619502 7.34928
124200 60.3145 138.355 55.7548 0.0620502 7.38765
124400 60.3145 138.368 55.7548 0.0621502 7.37916
124600 60.3145 138.381 55.7548 0.0622502 7.38142
124800 60.3145 138.394 55.7548 0.0623502 7.41351
125000 60.3145 138.407 55.7548 0.0624502 7.42796
125200 60.3145 138.42 55.7548 0.0625502 7.43978
125400 60.3145 138.433 55.7548 0.0626502 7.42963
125600 60.3145 138.446 55.7548 0.0627502 7.44495
125800 60.3145 138.459 55.7548 0.0628502 7.48436
126000 60.3145 138.472 55.7548 0.0629502 7.47806
126200 60.3145 138.485 55.7548 0.0630502 7.51652
126400 60.3145 138.498 55.7548 0.0631502 7.49779
126600 60.3145 138.511 55.7548 0.0632502 7.51964
126800 60.3145 138.524 55.7548 0.0633502 7.50688
127000 60.3145 138.537 55.7548 0.0634502 7.55332
127200 60.3145 138.55 55.7548 0.0635502 7.56312
127400 60.3145 138.563 55.7548 0.0636502 7.56007
127600 60.3145 138.576 55.7548 0.0637502 7.56487
127800 60.3145 138.589 55.7548 0.0638502 7.60121
128000 60.3145 138.602 55.7548 0.0639502 7.60188
128200 60.3145 138.615 55.7548 0.0640502 7.61394
128400 60.3145 138.628 55.7548 0.0641502 7.63406
128600 60.3145 138.641 55.7548 0.0642502 7.63238
128800 60.3145 138.654 55.7548 0.0643502 7.66307
129000 60.3145 138.667 55.7548 0.0644502 7.68023
129200 60.3145 138.68 55.7548 0.0645502 7.66049
129400 60.3145 138.693 55.7548 0.0646502 7.70325
129600 60.3145 138.706 55.7548 0.0647502 7.69428
129800 60.3145 138.719 55.7548 0.0648502 7.72766
130000 60.3145 138.732 55.7548 0.0649502 7.73483
130200 60.3145 138.745 55.7548 0.0650502 7.72112
130400 60.3145 138.758 55.7548 0.0651502 7.7804
130600 60.3145 138.771 55.7548 0.0652502 7.77676
130800 60.3145 138.785 55.7548 0.0653502 7.7807
131000 60.3145 138.798 55.7548 0.0654502 7.79411
131200 60.3145 138.811 55.7548 0.0655502 7.82765
131400 60.3145 138.824 55.7548 0.0656502 7.83111
131600 60.3145 138.837 55.7548 0.0657502 7.83945
131800 60.3145 138.85 55.7548 0.0658502 7.85511
132000 60.3145 138.863 55.7548 0.0659502 7.88761
132200 60.3145 138.876 55.7548 0.0660502 7.87676
132400 60.3145 138.889 55.7548 0.0661502 7.88292
132600 60.3145 138.902 55.7548 0.0662502 7.91047
132800 60.3145 138.915 55.7548 0.0663502 7.92073
133000 60.3145 138.928 55.7548 0.0664502 7.94125
133200 60.3145 138.941 55.7548 0.0665502 7.94348
133400 60.3145 138.954 55.7548 0.0666502 7.96731
133600 60.3145 138.967 55.7548 0.0667502 7.96227
133800 60.3145 138.98 55.7548 0.0668502 7.99785
134000 60.3145 138.993 55.7548 0.0669502 7.99176
134200 60.3145 139.006 55.7548 0.0670502 8.02668
134400 60.3145 139.019 55.7548 0.0671502 8.03334
134600 60.3145 139.032 55.7548 0.0672502 8.04771
134800 60.3145 139.045 55.7548 0.0673502 8.04154
135000 60.3145 139.058 55.7548 0.0674502 8.08918
135200 60.3145 139.071 55.7548 0.0675502 8.07678
135400 60.3145 139.084 55.7548 0.0676502 8.10997
135600 60.3145 139.097 55.7548 0.0677502 8.11531
135800 60.3145 139.11 55.7548 0.0678502 8.11396
136000 60.3145 139.123 55.7548 0.0679502 8.15317
136200 60.3145 139.136 55.7548 0.0680502 8.14996
136400 60.3145 139.149 55.7548 0.0681502 8.1529
136600 60.3145 139.162 55.7548 0.0682502 8.18199
136800 60.3145 139.175 55.7548 0.0683502 8.19588
137000 60.3145 139.188 55.7548 0.0684502 8.20998
137200 60.3145 139.201 55.7548 0.0685502 8.21442
137400 60.3145 139.214 55.7548 0.0686502 8.24492
137600 60.3145 139.227 55.7548 0.0687502 8.2314
137800 60.3145 139.24 55.7548 0.0688502 8.26223
138000 60.3145 139.253 55.7548 0.0689502 8.26864
138200 60.3145 139.267 55.7548 0.0690502 8.29124
138400 60.3145 139.28 55.7548 0.0691502 8.29063
138600 60.3145 139.293 55.7548 0.0692502 8.31378
138800 60.3145 139.306 55.7548 0.0693502 8.33048
139000 60.3145 139.319 55.7548 0.0694502 8.32497
139200 60.3145 139.332 55.7548 0.0695502 8.36285
139400 60.3145 139.345 55.7548 0.0696502 8.36033
139600 60.3145 139.358 55.7548 0.0697502 8.38239
139800 60.3145 139.371 55.7548 0.0698502 8.38868
140000 60.3145 139.384 55.7548 0.0699502 8.40936
140200 60.3145 139.397 55.7548 0.0700502 8.41168
140400 60.3145 139.41 55.7548 0.0701502 8.43291
140600 60.3145 139.423 55.7548 0.0702502 8.44306
140800 60.3145 139.436 55.7548 0.0703502 8.45572
141000 60.3145 139.449 55.7548 0.0704502 8.47714
141200 60.3145 139.462 55.7548 0.0705502 8.48547
141400 60.3145 139.475 55.7548 0.0706502 8.49937
141600 60.3145 139.488 55.7548 0.0707502 8.51254
141800 60.3145 139.501 55.7548 0.0708502 8.51669
142000 60.3145 139.514 55.7548 0.0709502 8.54432
142200 60.3145 139.527 55.7548 0.0710502 8.56098
142400 60.3145 139.54 55.7548 0.0711502 8.55173
142600 60.3145 139.553 55.7548 0.0712502 8.59221
142800 60.3145 139.566 55.7548 0.0713502 8.59227
143000 60.3145 139.579 55.7548 0.0714502 8.61127
143200 60.3145 139.592 55.7548 0.0715502 8.61845
143400 60.3145 139.605 55.7548 0.0716502 8.62505
143600 60.3145 139.618 55.7548 0.0717502 8.64852
143800 60.3145 139.631 55.7548 0.0718502 8.67224
144000 60.3145 139.644 55.7548 0.0719502 8.67112
144200 60.3145 139.657 55.7548 0.0720502 8.70593
144400 60.3145 139.67 55.7548 0.0721502 8.69909
144600 60.3145 139.683 55.7548 0.0722502 8.70276
144800 60.3145 139.696 55.7548 0.0723502 8.73586
145000 60.3145 139.709 55.7548 0.0724502 8.74405
145200 60.3145 139.722 55.7548 0.0725502 8.7472
145400 60.3145 139.736 55.7548 0.0726502 8.77777
145600 60.3145 139.749 55.7548 0.0727502 8.79654
145800 60.3145 139.762 55.7548 0.0728502 8.78578
146000 60.3145 139.775 55.7548 0.0729502 8.80089
146200 60.3145 139.788 55.7548 0.0730502 8.82993
146400 60.3145 139.801 55.7548 0.0731502 8.83169
146600 60.3145 139.814 55.7548 0.0732502 8.83451
146800 60.3145 139.827 55.7548 0.0733502 8.85564
147000 60.3145 139.84 55.7548 0.0734502 8.87505
147200 60.3145 139.853 55.7548 0.0735502 8.87233
147400 60.3145 139.866 55.7548 0.0736502 8.88852
147600 60.3145 139.879 55.7548 0.0737502 8.91282
147800 60.3145 139.892 55.7548 0.0738502 8.92872
148000 60.3145 139.905 55.7548 0.0739502 8.919
148200 60.3145 139.918 55.7548 0.0740502 8.97735
148400 60.3145 139.931 55.7548 0.0741502 8.94874
148600 60.3145 139.944 55.7548 0.0742502 8.98007
148800 60.3145 139.957 55.7548 0.0743502 8.98217
149000 60.3145 139.97 55.7548 0.0744502 9.00318
149200 60.3145 139.983 55.7548 0.0745502 9.01775
149400 60.3145 139.996 55.7548 0.0746502 9.02599
149600 60.3145 140.009 55.7548 0.0747502 9.04782
149800 60.3145 140.022 55.7548 0.0748502 9.06038
150000 60.3145 140.035 55.7548 0.0749502 9.07187
150200 60.3145 140.048 55.7548 0.0750502 9.0924
150400 60.3145 140.061 55.7548 0.0751502 9.10026
150600 60.3145 140.074 55.7548 0.0752502 9.10746
150800 60.3145 140.087 55.7548 0.0753502 9.12442
151000 60.3145 140.1 55.7548 0.0754502 9.13311
151200 60.3145 140.113 55.7548 0.0755502 9.14114
151400 60.3145 140.126 55.7548 0.0756502 9.13998
151600 60.3145 140.139 55.7548 0.0757502 9.19178
151800 60.3145 140.152 55.7548 0.0758502 9.17135
152000 60.3145 140.165 55.7548 0.0759502 9.17725
152200 60.3145 140.178 55.7548 0.0760502 9.21142
152400 60.3145 140.191 55.7548 0.0761502 9.20635
152600 60.3145 140.204 55.7548 0.0762502 9.21149
152800 60.3145 140.218 55.7548 0.0763502 9.26176
153000 60.3145 140.231 55.7548 0.0764502 9.23141
153200 60.3145 140.244 55.7548 0.0765502 9.26902
153400 60.3145 140.257 55.7548 0.0766502 9.29126
153600 60.3145 140.27 55.7548 0.0767502 9.29491
153800 60.3145 140.283 55.7548 0.0768502 9.30412
154000 60.3145 140.296 55.7548 0.0769502 9.32532
154200 60.3145 140.309 55.7548 0.0770502 9.33048
154400 60.3145 140.322 55.7548 0.0771502 9.34933
154600 60.3145 140.335 55.7548 0.0772502 9.35252
154800 60.3145 140.348 55.7548 0.0773502 9.37211
155000 60.3145 140.361 55.7548 0.0774502 9.38531
155200 60.3145 140.374 55.7548 0.0775502 9.39544
155400 60.3145 140.387 55.7548 0.0776502 9.43004
155600 60.3145 140.4 55.7548 0.0777502 9.41952
155800 60.3145 140.413 55.7548 0.0778502 9.45085
156000 60.3145 140.426 55.7548 0.0779502 9.44935
156200 60.3145 140.439 55.7548 0.0780502 9.47598
156400 60.3145 140.452 55.7548 0.0781502 9.47446
156600 60.3145 140.465 55.7548 0.0782502 9.4964
156800 60.3145 140.478 55.7548 0.0783502 9.52745
157000 60.3145 140.491 55.7548 0.0784502 9.51402
157200 60.3145 140.504 55.7548 0.0785502 9.54823
157400 60.3145 140.517 55.7548 0.0786502 9.53454
157600 60.3145 140.53 55.7548 0.0787502 9.58461
157800 60.3145 140.543 55.7548 0.0788502 9.57873
158000 60.3145 140.556 55.7548 0.0789502 9.58497
158200 60.3145 140.569 55.7548 0.0790502 9.61473
158400 60.3145 140.582 55.7548 0.0791502 9.63111
158600 60.3145 140.595 55.7548 0.0792502 9.628
158800 60.3145 140.608 55.7548 0.0793502 9.6488
159000 60.3145 140.621 55.7548 0.0794502 9.67034
159200 60.3145 140.634 55.7548 0.0795502 9.67154
159400 60.3145 140.647 55.7548 0.0796502 9.68691
159600 60.3145 140.66 55.7548 0.0797502 9.72285
159800 60.3145 140.673 55.7548 0.0798502 9.70062
160000 60.3145 140.686 55.7548 0.0799502 9.74791
160200 60.3145 140.7 55.7548 0.0800502 9.73251
160400 60.3145 140.713 55.7548 0.0801502 9.76599
160600 60.3145 140.726 55.7548 0.0802502 9.7733
160800 60.3145 140.739 55.7548 0.0803502 9.7914
161000 60.3145 140.752 55.7548 0.0804502 9.79439
161200 60.3145 140.765 55.7548 0.0805502 9.82143
161400 60.3145 140.778 55.7548 0.0806502 9.81642
161600 60.3145 140.791 55.7548 0.0807502 9.84455
161800 60.3145 140.804 55.7548 0.0808502 9.85823
162000 60.3145 140.817 55.7548 0.0809502 9.87565
162200 60.3145 140.83 55.7548 0.0810502 9.8809
162400 60.3145 140.843 55.7548 0.0811502 9.8904
162600 60.3145 140.856 55.7548 0.0812502 9.90544
162800 60.3145 140.869 55.7548 0.0813502 9.92076
163000 60.3145 140.882 55.7548 0.0814502 9.94697
163200 60.3145 140.895 55.7548 0.0815502 9.94304
163400 60.3145 140.908 55.7548 0.0816502 9.96389
163600 60.3145 140.921 55.7548 0.0817502 9.98563
163800 60.3145 140.934 55.7548 0.0818502 9.99366
164000 60.3145 140.947 55.7548 0.0819502 10.0087
164200 60.3145 140.96 55.7548 0.0820502 10.0265
164400 60.3145 140.973 55.7548 0.0821502 10.026
164600 60.3145 140.986 55.7548 0.0822502 10.0504
164800 60.3145 140.999 55.7548 0.0823502 10.0634
165000 60.3145 141.012 55.7548 0.0824502 10.0663
165200 60.3145 141.025 55.7548 0.0825502 10.0891
165400 60.3145 141.038 55.7548 0.0826502 10.0927
165600 60.3145 141.051 55.7548 0.0827502 10.1292
165800 60.3145 141.064 55.7548 0.0828502 10.1196
166000 60.3145 141.077 55.7548 0.0829502 10.1614
166200 60.3145 141.09 55.7548 0.0830502 10.1554
166400 60.3145 141.103 55.7548 0.0831502 10.1742
166600 60.3145 141.116 55.7548 0.0832502 10.1947
166800 60.3145 141.129 55.7548 0.0833502 10.176
167000 60.3145 141.142 55.7548 0.0834502 10.2101
167200 60.3145 141.155 55.7548 0.0835502 10.2105
167400 60.3145 141.168 55.7548 0.0836502 10.2113
167600 60.3145 141.182 55.7548 0.0837502 10.2395
167800 60.3145 141.195 55.7548 0.0838502 10.2238
168000 60.3145 141.208 55.7548 0.0839502 10.2528
168200 60.3145 141.221 55.7548 0.0840502 10.2657
168400 60.3145 141.234 55.7548 0.0841502 10.2702
168600 60.3145 141.247 55.7548 0.0842502 10.2911
168800 60.3145 141.26 55.7548 0.0843502 10.3217
169000 60.3145 141.273 55.7548 0.0844502 10.3065
169200 60.3145 141.286 55.7548 0.0845502 10.3384
169400 60.3145 141.299 55.7548 0.0846502 10.3505
169600 60.3145 141.312 55.7548 0.0847502 10.3261
169800 60.3145 141.325 55.7548 0.0848502 10.3855
170000 60.3145 141.338 55.7548 0.0849502 10.3813
170200 60.3145 141.351 55.7548 0.0850502 10.3998
170400 60.3145 141.364 55.7548 0.0851502 10.4062
170600 60.3145 141.377 55.7548 0.0852502 10.4236
170800 60.3145 141.39 55.7548 0.0853502 10.4401
171000 60.3145 141.403 55.7548 0.0854502 10.4593
171200 60.3145 141.416 55.7548 0.0855502 10.4551
171400 60.3145 141.429 55.7548 0.0856502 10.4877
171600 60.3145 141.442 55.7548 0.0857502 10.4921
171800 60.3145 141.455 55.7548 0.0858502 10.5193
172000 60.3145 141.468 55.7548 0.0859502 10.517
172200 60.3145 141.481 55.7548 0.0860502 10.5483
172400 60.3145 141.494 55.7548 0.0861502 10.5311
172600 60.3145 141.507 55.7548 0.0862502 10.5794
172800 60.3145 141.52 55.7548 0.0863502 10.5814
173000 60.3145 141.533 55.7548 0.0864502 10.5852
173200 60.3145 141.546 55.7548 0.0865502 10.616
173400 60.3145 141.559 55.7548 0.0866502 10.6146
173600 60.3145 141.572 55.7548 0.0867502 10.6281
173800 60.3145 141.585 55.7548 0.0868502 10.6471
174000 60.3145 141.598 55.7548 0.0869502 10.6756
174200 60.3145 141.611 55.7548 0.0870502 10.6673
174400 60.3145 141.624 55.7548 0.0871502 10.6997
174600 60.3145 141.637 55.7548 0.0872502 10.6965
174800 60.3145 141.65 55.7548 0.0873502 10.7299
175000 60.3145 141.664 55.7548 0.0874502 10.7269
175200 60.3145 141.677 55.7548 0.0875502 10.7447
175400 60.3145 141.69 55.7548 0.0876502 10.7653
175600 60.3145 141.703 55.7548 0.0877502 10.7367
175800 60.3145 141.716 55.7548 0.0878502 10.7732
176000 60.3145 141.729 55.7548 0.0879502 10.7618
176200 60.3145 141.742 55.7548 0.0880502 10.7848
176400 60.3145 141.755 55.7548 0.0881502 10.776
176600 60.3145 141.768 55.7548 0.0882502 10.7973
176800 60.3145 141.781 55.7548 0.0883502 10.8124
177000 60.3145 141.794 55.7548 0.0884502 10.8274
177200 60.3145 141.807 55.7548 0.0885502 10.8435
177400 60.3145 141.82 55.7548 0.0886502 10.8598
177600 60.3145 141.833 55.7548 0.0887502 10.8716
177800 60.3145 141.846 55.7548 0.0888502 10.8735
178000 60.3145 141.859 55.7548 0.0889502 10.9015
178200 60.3145 141.872 55.7548 0.0890502 10.9064
178400 60.3145 141.885 55.7548 0.0891502 10.9287
178600 60.3145 141.898 55.7548 0.0892502 10.9338
178800 60.3145 141.911 55.7548 0.0893502 10.9557
179000 60.3145 141.924 55.7548 0.0894502 10.955
179200 60.3145 141.937 55.7548 0.0895502 10.9791
179400 60.3145 141.95 55.7548 0.0896502 10.9957
179600 60.3145 141.963 55.7548 0.0897502 10.9983
179800 60.3145 141.976 55.7548 0.0898502 11.0179
180000 60.3145 141.989 55.7548 0.0899502 11.0441
180200 60.3145 142.002 55.7548 0.0900502 11.0346
180400 60.3145 142.015 55.7548 0.0901502 11.0692
180600 60.3145 142.028 55.7548 0.0902502 11.0682
180800 60.3145 142.041 55.7548 0.0903502 11.0877
181000 60.3145 142.054 55.7548 0.0904502 11.1134
181200 60.3145 142.067 55.7548 0.0905502 11.1041
181400 60.3145 142.08 55.7548 0.0906502 11.122
181600 60.3145 142.093 55.7548 0.0907502 11.1332
181800 60.3145 142.106 55.7548 0.0908502 11.1554
182000 60.3145 142.119 55.7548 0.0909502 11.1635
182200 60.3145 142.132 55.7548 0.0910502 11.1727
182400 60.3145 142.146 55.7548 0.0911502 11.2029
182600 60.3145 142.159 55.7548 0.0912502 11.1989
182800 60.3145 142.172 55.7548 0.0913502 11.2049
183000 60.3145 142.185 55.7548 0.0914502 11.2286
183200 60.3145 142.198 55.7548 0.0915502 11.2324
183400 60.3145 142.211 55.7548 0.0916502 11.2301
183600 60.3145 142.224 55.7548 0.0917502 11.2337
183800 60.3145 142.237 55.7548 0.0918502 11.2331
184000 60.3145 142.25 55.7548 0.0919502 11.2558
184200 60.3145 142.263 55.7548 0.0920502 11.2725
184400 60.3145 142.276 55.7548 0.0921502 11.2706
184600 60.3145 142.289 55.7548 0.0922502 11.3006
184800 60.3145 142.302 55.7548 0.0923502 11.2901
185000 60.3145 142.315 55.7548 0.0924502 11.3219
185200 60.3145 142.328 55.7548 0.0925502 11.342
185400 60.3145 142.341 55.7548 0.0926502 11.3514
185600 60.3145 142.354 55.7548 0.0927502 11.3603
185800 60.3145 142.367 55.7548 0.0928502 11.3807
186000 60.3145 142.38 55.7548 0.0929502 11.3801
186200 60.3145 142.393 55.7548 0.0930502 11.3847
186400 60.3145 142.406 55.7548 0.0931502 11.4355
186600 60.3145 142.419 55.7548 0.0932502 11.4304
186800 60.3145 142.432 55.7548 0.0933502 11.4374
187000 60.3145 142.445 55.7548 0.0934502 11.4609
187200 60.3145 142.458 55.7548 0.0935502 11.4732
187400 60.3145 142.471 55.7548 0.0936502 11.4713
187600 60.3145 142.484 55.7548 0.0937502 11.491
187800 60.3145 142.497 55.7548 0.0938502 11.5119
188000 60.3145 142.51 55.7548 0.0939502 11.5238
188200 60.3145 142.523 55.7548 0.0940502 11.5384
188400 60.3145 142.536 55.7548 0.0941502 11.5279
188600 60.3145 142.549 55.7548 0.0942502 11.5771
188800 60.3145 142.562 55.7548 0.0943502 11.5671
189000 60.3145 142.575 55.7548 0.0944502 11.5777
189200 60.3145 142.588 55.7548 0.0945502 11.594
189400 60.3145 142.601 55.7548 0.0946502 11.6163
189600 60.3145 142.614 55.7548 0.0947502 11.6323
189800 60.3145 142.628 55.7548 0.0948502 11.6447
190000 60.3145 142.641 55.7548 0.0949502 11.6357
190200 60.3145 142.654 55.7548 0.0950502 11.6754
190400 60.3145 142.667 55.7548 0.0951502 11.6913
190600 60.3145 142.68 55.7548 0.0952502 11.6979
190800 60.3145 142.693 55.7548 0.0953502 11.7212
191000 60.3145 142.706 55.7548 0.0954502 11.7306
191200 60.3145 142.719 55.7548 0.0955502 11.7433
191400 60.3145 142.732 55.7548 0.0956502 11.748
191600 60.3145 142.745 55.7548 0.0957502 11.7851
191800 60.3145 142.758 55.7548 0.0958502 11.7671
192000 60.3145 142.771 55.7548 0.0959502 11.7957
192200 60.3145 142.784 55.7548 0.0960502 11.8195
192400 60.3145 142.797 55.7548 0.0961502 11.819
192600 60.3145 142.81 55.7548 0.0962502 11.8399
192800 60.3145 142.823 55.7548 0.0963502 11.8477
193000 60.3145 142.836 55.7548 0.0964502 11.8621
193200 60.3145 142.849 55.7548 0.0965502 11.879
193400 60.3145 142.862 55.7548 0.0966502 11.8762
193600 60.3145 142.875 55.7548 0.0967502 11.9171
193800 60.3145 142.888 55.7548 0.0968502 11.9018
194000 60.3145 142.901 55.7548 0.0969502 11.9442
194200 60.3145 142.914 55.7548 0.0970502 11.9377
194400 60.3145 142.927 55.7548 0.0971502 11.957
194600 60.3145 142.94 55.7548 0.0972502 11.9758
194800 60.3145 142.953 55.7548 0.0973502 11.9624
195000 60.3145 142.966 55.7548 0.0974502 11.997
195200 60.3145 142.979 55.7548 0.0975502 11.9918
195400 60.3145 142.992 55.7548 0.0976502 12.0106
195600 60.3145 143.005 55.7548 0.0977502 12.0302
195800 60.3145 143.018 55.7548 0.0978502 12.0263
196000 60.3145 143.031 55.7548 0.0979502 12.0614
196200 60.3145 143.044 55.7548 0.0980502 12.0676
196400 60.3145 143.057 55.7548 0.0981502 12.0787
196600 60.3145 143.07 55.7548 0.0982502 12.0977
196800 60.3145 143.083 55.7548 0.0983502 12.11
197000 60.3145 143.097 55.7548 0.0984502 12.1163
197200 60.3145 143.11 55.7548 0.0985502 12.1305
197400 60.3145 143.123 55.7548 0.0986502 12.1605
197600 60.3145 143.136 55.7548 0.0987502 12.169
197800 60.3145 143.149 55.7548 0.0988502 12.1789
198000 60.3145 143.162 55.7548 0.0989502 12.1854
198200 60.3145 143.175 55.7548 0.0990502 12.2094
198400 60.3145 143.188 55.7548 0.0991502 12.227
198600 60.3145 143.201 55.7548 0.0992502 12.2255
198800 60.3145 143.214 55.7548 0.0993502 12.2587
199000 60.3145 143.227 55.7548 0.0994502 12.2622
199200 60.3145 143.24 55.7548 0.0995502 12.2757
199400 60.3145 143.253 55.7548 0.0996502 12.2978
199600 60.3145 143.266 55.7548 0.0997502 12.308
199800 60.3145 143.279 55.7548 0.0998502 12.3167
200000 60.3145 143.292 55.7548 0.0999502 12.3445
200200 60.3145 143.305 55.7548 0.10005 12.3336
200400 60.3145 143.318 55.7548 0.10015 12.3652
200600 60.3145 143.331 55.7548 0.10025 12.3616
200800 60.3145 143.344 55.7548 0.10035 12.3733
201000 60.3145 143.357 55.7548 0.10045 12.4014
201200 60.3145 143.37 55.7548 0.10055 12.4085
201400 60.3145 143.383 55.7548 0.10065 12.4302
201600 60.3145 143.396 55.7548 0.10075 12.4407
201800 60.3145 143.409 55.7548 0.10085 12.4451
202000 60.3145 143.422 55.7548 0.10095 12.4526
202200 60.3145 143.435 55.7548 0.10105 12.4815
202400 60.3145 143.448 55.7548 0.10115 12.482
202600 60.3145 143.461 55.7548 0.10125 12.4973
202800 60.3145 143.474 55.7548 0.10135 12.5216
203000 60.3145 143.487 55.7548 0.10145 12.5172
203200 60.3145 143.5 55.7548 0.10155 12.5529
203400 60.3145 143.513 55.7548 0.10165 12.5621
203600 60.3145 143.526 55.7548 0.10175 12.5759
203800 60.3145 143.539 55.7548 0.10185 12.5959
204000 60.3145 143.552 55.7548 0.10195 12.6003
204200 60.3145 143.565 55.7548 0.10205 12.6211
204400 60.3145 143.579 55.7548 0.10215 12.6251
204600 60.3145 143.592 55.7548 0.10225 12.6468
204800 60.3145 143.605 55.7548 0.10235 12.6709
205000 60.3145 143.618 55.7548 0.10245 12.6604
205200 60.3145 143.631 55.7548 0.10255 12.705
205400 60.3145 143.644 55.7548 0.10265 12.6897
205600 60.3145 143.657 55.7548 0.10275 12.724
205800 60.3145 143.67 55.7548 0.10285 12.7227
206000 60.3145 143.683 55.7548 0.10295 12.7603
206200 60.3145 143.696 55.7548 0.10305 12.7408
206400 60.3145 143.709 55.7548 0.10315 12.7721
206600 60.3145 143.722 55.7548 0.10325 12.7826
206800 60.3145 143.735 55.7548 0.10335 12.8017
207000 60.3145 143.748 55.7548 0.10345 12.8208
207200 60.3145 143.761 55.7548 0.10355 12.8263
207400 60.3145 143.774 55.7548 0.10365 12.8364
207600 60.3145 143.787 55.7548 0.10375 12.8573
207800 60.3145 143.8 55.7548 0.10385 12.8612
208000 60.3145 143.813 55.7548 0.10395 12.8925
208200 60.3145 143.826 55.7548 0.10405 12.8884
208400 60.3145 143.839 55.7548 0.10415 12.9147
208600 60.3145 143.852 55.7548 0.10425 12.9199
208800 60.3145 143.865 55.7548 0.10435 12.9492
209000 60.3145 143.878 55.7548 0.10445 12.9492
209200 60.3145 143.891 55.7548 0.10455 12.9633
209400 60.3145 143.904 55.7548 0.10465 12.9834
209600 60.3145 143.917 55.7548 0.10475 12.9908
209800 60.3145 143.93 55.7548 0.10485 12.9912
210000 60.3145 143.943 55.7548 0.10495 13.0032
210200 60.3145 143.956 55.7548 0.10505 13.01
210400 60.3145 143.969 55.7548 0.10515 13.0184
210600 60.3145 143.982 55.7548 0.10525 13.0365
210800 60.3145 143.995 55.7548 0.10535 13.0612
211000 60.3145 144.008 55.7548 0.10545 13.0582
211200 60.3145 144.021 55.7548 0.10555 13.0747
211400 60.3145 144.034 55.7548 0.10565 13.0998
211600 60.3145 144.047 55.7548 0.10575 13.1005
211800 60.3145 144.061 55.7548 0.10585 13.1037
212000 60.3145 144.074 55.7548 0.10595 13.1194
212200 60.3145 144.087 55.7548 0.10605 13.0757
212400 60.3145 144.1 55.7548 0.10615 13.1141
212600 60.3145 144.113 55.7548 0.10625 13.0888
212800 60.3145 144.126 55.7548 0.10635 13.1316
213000 60.3145 144.139 55.7548 0.10645 13.1635
213200 60.3145 144.152 55.7548 0.10655 13.1419
213400 60.3145 144.165 55.7548 0.10665 13.1827
213600 60.3145 144.178 55.7548 0.10675 13.1926
213800 60.3145 144.191 55.7548 0.10685 13.2044
214000 60.3145 144.204 55.7548 0.10695 13.2108
214200 60.3145 144.217 55.7548 0.10705 13.2338
214400 60.3145 144.23 55.7548 0.10715 13.2322
214600 60.3145 144.243 55.7548 0.10725 13.2572
214800 60.3145 144.256 55.7548 0.10735 13.274
215000 60.3145 144.269 55.7548 0.10745 13.2853
215200 60.3145 144.282 55.7548 0.10755 13.2897
215400 60.3145 144.295 55.7548 0.10765 13.3019
215600 60.3145 144.308 55.7548 0.10775 13.3314
215800 60.3145 144.321 55.7548 0.10785 13.334
216000 60.3145 144.334 55.7548 0.10795 13.3698
216200 60.3145 144.347 55.7548 0.10805 13.3697
216400 60.3145 144.36 55.7548 0.10815 13.3736
216600 60.3145 144.373 55.7548 0.10825 13.3984
216800 60.3145 144.386 55.7548 0.10835 13.4061
217000 60.3145 144.399 55.7548 0.10845 13.4207
217200 60.3145 144.412 55.7548 0.10855 13.4329
217400 60.3145 144.425 55.7548 0.10865 13.4547
217600 60.3145 144.438 55.7548 0.10875 13.4668
217800 60.3145 144.451 55.7548 0.10885 13.4633
218000 60.3145 144.464 55.7548 0.10895 13.4679
218200 60.3145 144.477 55.7548 0.10905 13.487
218400 60.3145 144.49 55.7548 0.10915 13.5092
218600 60.3145 144.503 55.7548 0.10925 13.4872
218800 60.3145 144.516 55.7548 0.10935 13.5059
219000 60.3145 144.529 55.7548 0.10945 13.492
219200 60.3145 144.543 55.7548 0.10955 13.5043
219400 60.3145 144.556 55.7548 0.10965 13.5259
219600 60.3145 144.569 55.7548 0.10975 13.5238
219800 60.3145 144.582 55.7548 0.10985 13.5526
220000 60.3145 144.595 55.7548 0.10995 13.5705
220200 60.3145 144.608 55.7548 0.11005 13.5729
220400 60.3145 144.621 55.7548 0.11015 13.5925
220600 60.3145 144.634 55.7548 0.11025 13.5822
220800 60.3145 144.647 55.7548 0.11035 13.5846
221000 60.3145 144.66 55.7548 0.11045 13.6263
221200 60.3145 144.673 55.7548 0.11055 13.6052
221400 60.3145 144.686 55.7548 0.11065 13.6307
221600 60.3145 144.699 55.7548 0.11075 13.642
221800 60.3145 144.712 55.7548 0.11085 13.6646
222000 60.3145 144.725 55.7548 0.11095 13.6866
222200 60.3145 144.738 55.7548 0.11105 13.6869
222400 60.3145 144.751 55.7548 0.11115 13.7057
222600 60.3145 144.764 55.7548 0.11125 13.6869
222800 60.3145 144.777 55.7548 0.11135 13.7147
223000 60.3145 144.79 55.7548 0.11145 13.7187
223200 60.3145 144.803 55.7548 0.11155 13.7515
223400 60.3145 144.816 55.7548 0.11165 13.7444
223600 60.3145 144.829 55.7548 0.11175 13.7569
223800 60.3145 144.842 55.7548 0.11185 13.7818
224000 60.3145 144.855 55.7548 0.11195 13.7843
224200 60.3145 144.868 55.7548 0.11205 13.8037
224400 60.3145 144.881 55.7548 0.11215 13.8237
224600 60.3145 144.894 55.7548 0.11225 13.82
224800 60.3145 144.907 55.7548 0.11235 13.8399
225000 60.3145 144.92 55.7548 0.11245 13.8524
225200 60.3145 144.933 55.7548 0.11255 13.8659
225400 60.3145 144.946 55.7548 0.11265 13.8692
225600 60.3145 144.959 55.7548 0.11275 13.8979
225800 60.3145 144.972 55.7548 0.11285 13.8997
226000 60.3145 144.985 55.7548 0.11295 13.9087
226200 60.3145 144.998 55.7548 0.11305 13.9412
226400 60.3145 145.011 55.7548 0.11315 13.9413
226600 60.3145 145.025 55.7548 0.11325 13.9389
226800 60.3145 145.038 55.7548 0.11335 13.9567
227000 60.3145 145.051 55.7548 0.11345 13.9554
227200 60.3145 145.064 55.7548 0.11355 13.9771
227400 60.3145 145.077 55.7548 0.11365 13.9728
227600 60.3145 145.09 55.7548 0.11375 14.0051
227800 60.3145 145.103 55.7548 0.11385 14.0028
228000 60.3145 145.116 55.7548 0.11395 14.0088
228200 60.3145 145.129 55.7548 0.11405 14.0285
228400 60.3145 145.142 55.7548 0.11415 14.0227
228600 60.3145 145.155 55.7548 0.11425 14.0268
228800 60.3145 145.168 55.7548 0.11435 14.0466
229000 60.3145 145.181 55.7548 0.11445 14.0431
229200 60.3145 145.194 55.7548 0.11455 14.0582
229400 60.3145 145.207 55.7548 0.11465 14.0501
229600 60.3145 145.22 55.7548 0.11475 14.0673
229800 60.3145 145.233 55.7548 0.11485 14.0706
230000 60.3145 145.246 55.7548 0.11495 14.1067
230200 60.3145 145.259 55.7548 0.11505 14.1066
230400 60.3145 145.272 55.7548 0.11515 14.1111
230600 60.3145 145.285 55.7548 0.11525 14.1256
230800 60.3145 145.298 55.7548 0.11535 14.1197
231000 60.3145 145.311 55.7548 0.11545 14.1116
231200 60.3145 145.324 55.7548 0.11555 14.1476
231400 60.3145 145.337 55.7548 0.11565 14.1425
231600 60.3145 145.35 55.7548 0.11575 14.1658
231800 60.3145 145.363 55.7548 0.11585 14.1881
232000 60.3145 145.376 55.7548 0.11595 14.1864
232200 60.3145 145.389 55.7548 0.11605 14.2115
232400 60.3145 145.402 55.7548 0.11615 14.197
232600 60.3145 145.415 55.7548 0.11625 14.2321
232800 60.3145 145.428 55.7548 0.11635 14.2306
233000 60.3145 145.441 55.7548 0.11645 14.2513
233200 60.3145 145.454 55.7548 0.11655 14.2635
233400 60.3145 145.467 55.7548 0.11665 14.2666
233600 60.3145 145.48 55.7548 0.11675 14.2722
233800 60.3145 145.493 55.7548 0.11685 14.2916
234000 60.3145 145.507 55.7548 0.11695 14.2934
234200 60.3145 145.52 55.7548 0.11705 14.3176
234400 60.3145 145.533 55.7548 0.11715 14.3171
234600 60.3145 145.546 55.7548 0.11725 14.3403
234800 60.3145 145.559 55.7548 0.11735 14.3347
235000 60.3145 145.572 55.7548 0.11745 14.3606
235200 60.3145 145.585 55.7548 0.11755 14.3733
235400 60.3145 145.598 55.7548 0.11765 14.3908
235600 60.3145 145.611 55.7548 0.11775 14.3672
235800 60.3145 145.624 55.7548 0.11785 14.3903
236000 60.3145 145.637 55.7548 0.11795 14.4044
236200 60.3145 145.65 55.7548 0.11805 14.4197
236400 60.3145 145.663 55.7548 0.11815 14.4367
236600 60.3145 145.676 55.7548 0.11825 14.439
236800 60.3145 145.689 55.7548 0.11835 14.4661
237000 60.3145 145.702 55.7548 0.11845 14.4592
237200 60.3145 145.715 55.7548 0.11855 14.5008
237400 60.3145 145.728 55.7548 0.11865 14.5127
237600 60.3145 145.741 55.7548 0.11875 14.5017
237800 60.3145 145.754 55.7548 0.11885 14.5286
238000 60.3145 145.767 55.7548 0.11895 14.5473
238200 60.3145 145.78 55.7548 0.11905 14.5501
238400 60.3145 145.793 55.7548 0.11915 14.5516
238600 60.3145 145.806 55.7548 0.11925 14.5611
238800 60.3145 145.819 55.7548 0.11935 14.5748
239000 60.3145 145.832 55.7548 0.11945 14.5856
239200 60.3145 145.845 55.7548 0.11955 14.5998
239400 60.3145 145.858 55.7548 0.11965 14.611
239600 60.3145 145.871 55.7548 0.11975 14.6124
239800 60.3145 145.884 55.7548 0.11985 14.6167
240000 60.3145 145.897 55.7548 0.11995 14.6245
240200 60.3145 145.91 55.7548 0.12005 14.6598
240400 60.3145 145.923 55.7548 0.12015 14.6709
240600 60.3145 145.936 55.7548 0.12025 14.6706
240800 60.3145 145.949 55.7548 0.12035 14.694
241000 60.3145 145.962 55.7548 0.12045 14.6997
241200 60.3145 145.975 55.7548 0.12055 14.7155
241400 60.3145 145.989 55.7548 0.12065 14.7473
241600 60.3145 146.002 55.7548 0.12075 14.734
241800 60.3145 146.015 55.7548 0.12085 14.7426
242000 60.3145 146.028 55.7548 0.12095 14.7379
242200 60.3145 146.041 55.7548 0.12105 14.7542
242400 60.3145 146.054 55.7548 0.12115 14.7844
242600 60.3145 146.067 55.7548 0.12125 14.7877
242800 60.3145 146.08 55.7548 0.12135 14.7927
243000 60.3145 146.093 55.7548 0.12145 14.8079
243200 60.3145 146.106 55.7548 0.12155 14.8246
243400 60.3145 146.119 55.7548 0.12165 14.8494
243600 60.3145 146.132 55.7548 0.12175 14.846
243800 60.3145 146.145 55.7548 0.12185 14.8763
244000 60.3145 146.158 55.7548 0.12195 14.8773
244200 60.3145 146.171 55.7548 0.12205 14.8956
244400 60.3145 146.184 55.7548 0.12215 14.9057
244600 60.3145 146.197 55.7548 0.12225 14.9269
244800 60.3145 146.21 55.7548 0.12235 14.9124
245000 60.3145 146.223 55.7548 0.12245 14.9545
245200 60.3145 146.236 55.7548 0.12255 14.9358
245400 60.3145 146.249 55.7548 0.12265 14.9348
245600 60.3145 146.262 55.7548 0.12275 14.9265
245800 60.3145 146.275 55.7548 0.12285 14.9138
246000 60.3145 146.288 55.7548 0.12295 14.9299
246200 60.3145 146.301 55.7548 0.12305 14.9283
246400 60.3145 146.314 55.7548 0.12315 14.9474
246600 60.3145 146.327 55.7548 0.12325 14.9546
246800 60.3145 146.34 55.7548 0.12335 14.983
247000 60.3145 146.353 55.7548 0.12345 14.9668
247200 60.3145 146.366 55.7548 0.12355 14.9806
247400 60.3145 146.379 55.7548 0.12365 14.974
247600 60.3145 146.392 55.7548 0.12375 15.0019
247800 60.3145 146.405 55.7548 0.12385 14.9986
248000 60.3145 146.418 55.7548 0.12395 15
248200 60.3145 146.431 55.7548 0.12405 15.0125
248400 60.3145 146.444 55.7548 0.12415 15.0299
248600 60.3145 146.458 55.7548 0.12425 15.047
248800 60.3145 146.471 55.7548 0.12435 15.0517
249000 60.3145 146.484 55.7548 0.12445 15.091
249200 60.3145 146.497 55.7548 0.12455 15.0775
249400 60.3145 146.51 55.7548 0.12465 15.1004
249600 60.3145 146.523 55.7548 0.12475 15.1004
249800 60.3145 146.536 55.7548 0.12485 15.1162
250000 60.3145 146.549 55.7548 0.12495 15.1222
250200 60.3145 146.562 55.7548 0.12505 15.1362
250400 60.3145 146.575 55.7548 0.12515 15.1232
250600 60.3145 146.588 55.7548 0.12525 15.1558
250800 60.3145 146.601 55.7548 0.12535 15.1616
251000 60.3145 146.614 55.7548 0.12545 15.1513
251200 60.3145 146.627 55.7548 0.12555 15.1349
251400 60.3145 146.64 55.7548 0.12565 15.1638
251600 60.3145 146.653 55.7548 0.12575 15.1679
251800 60.3145 146.666 55.7548 0.12585 15.1856
252000 60.3145 146.679 55.7548 0.12595 15.2023
252200 60.3145 146.692 55.7548 0.12605 15.163
252400 60.3145 146.705 55.7548 0.12615 15.1994
252600 60.3145 146.718 55.7548 0.12625 15.2154
252800 60.3145 146.731 55.7548 0.12635 15.2181
253000 60.3145 146.744 55.7548 0.12645 15.2416
253200 60.3145 146.757 55.7548 0.12655 15.2454
253400 60.3145 146.77 55.7548 0.12665 15.2558
253600 60.3145 146.783 55.7548 0.12675 15.2805
253800 60.3145 146.796 55.7548 0.12685 15.2816
254000 60.3145 146.809 55.7548 0.12695 15.2907
254200 60.3145 146.822 55.7548 0.12705 15.293
254400 60.3145 146.835 55.7548 0.12715 15.3229
254600 60.3145 146.848 55.7548 0.12725 15.3171
254800 60.3145 146.861 55.7548 0.12735 15.3473
255000 60.3145 146.874 55.7548 0.12745 15.3596
255200 60.3145 146.887 55.7548 0.12755 15.367
255400 60.3145 146.9 55.7548 0.12765 15.3821
255600 60.3145 146.913 55.7548 0.12775 15.4114
255800 60.3145 146.926 55.7548 0.12785 15.41
256000 60.3145 146.94 55.7548 0.12795 15.4292
256200 60.3145 146.953 55.7548 0.12805 15.4273
256400 60.3145 146.966 55.7548 0.12815 15.4616
256600 60.3145 146.979 55.7548 0.12825 15.4582
256800 60.3145 146.992 55.7548 0.12835 15.4803
257000 60.3145 147.005 55.7548 0.12845 15.4768
257200 60.3145 147.018 55.7548 0.12855 15.4794
257400 60.3145 147.031 55.7548 0.12865 15.5043
257600 60.3145 147.044 55.7548 0.12875 15.5196
257800 60.3145 147.057 55.7548 0.12885 15.5229
258000 60.3145 147.07 55.7548 0.12895 15.5237
258200 60.3145 147.083 55.7548 0.12905 15.5148
258400 60.3145 147.096 55.7548 0.12915 15.5201
258600 60.3145 147.109 55.7548 0.12925 15.5538
258800 60.3145 147.122 55.7548 0.12935 15.5577
259000 60.3145 147.135 55.7548 0.12945 15.5639
259200 60.3145 147.148 55.7548 0.12955 15.5694
259400 60.3145 147.161 55.7548 0.12965 15.5552
259600 60.3145 147.174 55.7548 0.12975 15.5766
259800 60.3145 147.187 55.7548 0.12985 15.5578
260000 60.3145 147.2 55.7548 0.12995 15.5574
260200 60.3145 147.213 55.7548 0.13005 15.5708
260400 60.3145 147.226 55.7548 0.13015 15.5972
260600 60.3145 147.239 55.7548 0.13025 15.6027
260800 60.3145 147.252 55.7548 0.13035 15.6013
261000 60.3145 147.265 55.7548 0.13045 15.6394
261200 60.3145 147.278 55.7548 0.13055 15.6308
261400 60.3145 147.291 55.7548 0.13065 15.6442
261600 60.3145 147.304 55.7548 0.13075 15.643
261800 60.3145 147.317 55.7548 0.13085 15.641
262000 60.3145 147.33 55.7548 0.13095 15.6575
262200 60.3145 147.343 55.7548 0.13105 15.6197
262400 60.3145 147.356 55.7548 0.13115 15.6298
262600 60.3145 147.369 55.7548 0.13125 15.6271
262800 60.3145 147.382 55.7548 0.13135 15.6361
263000 60.3145 147.395 55.7548 0.13145 15.6455
263200 60.3145 147.408 55.7548 0.13155 15.6575
263400 60.3145 147.422 55.7548 0.13165 15.679
263600 60.3145 147.435 55.7548 0.13175 15.6885
263800 60.3145 147.448 55.7548 0.13185 15.7005
264000 60.3145 147.461 55.7548 0.13195 15.7271
264200 60.3145 147.474 55.7548 0.13205 15.7052
264400 60.3145 147.487 55.7548 0.13215 15.7422
264600 60.3145 147.5 55.7548 0.13225 15.7352
264800 60.3145 147.513 55.7548 0.13235 15.7557
265000 60.3145 147.526 55.7548 0.13245 15.7563
265200 60.3145 147.539 55.7548 0.13255 15.773
265400 60.3145 147.552 55.7548 0.13265 15.793
265600 60.3145 147.565 55.7548 0.13275 15.7972
265800 60.3145 147.578 55.7548 0.13285 15.823
266000 60.3145 147.591 55.7548 0.13295 15.8441
266200 60.3145 147.604 55.7548 0.13305 15.8369
266400 60.3145 147.617 55.7548 0.13315 15.8635
266600 60.3145 147.63 55.7548 0.13325 15.8589
266800 60.3145 147.643 55.7548 0.13335 15.8626
267000 60.3145 147.656 55.7548 0.13345 15.8769
267200 60.3145 147.669 55.7548 0.13355 15.8941
267400 60.3145 147.682 55.7548 0.13365 15.881
267600 60.3145 147.695 55.7548 0.13375 15.8923
267800 60.3145 147.708 55.7548 0.13385 15.881
268000 60.3145 147.721 55.7548 0.13395 15.9121
268200 60.3145 147.734 55.7548 0.13405 15.9035
268400 60.3145 147.747 55.7548 0.13415 15.9098
268600 60.3145 147.76 55.7548 0.13425 15.8887
268800 60.3145 147.773 55.7548 0.13435 15.8731
269000 60.3145 147.786 55.7548 0.13445 15.8662
269200 60.3145 147.799 55.7548 0.13455 15.8606
269400 60.3145 147.812 55.7548 0.13465 15.9015
269600 60.3145 147.825 55.7548 0.13475 15.8867
269800 60.3145 147.838 55.7548 0.13485 15.9091
270000 60.3145 147.851 55.7548 0.13495 15.9026
270200 60.3145 147.864 55.7548 0.13505 15.9018
270400 60.3145 147.877 55.7548 0.13515 15.9314
270600 60.3145 147.89 55.7548 0.13525 15.9287
270800 60.3145 147.904 55.7548 0.13535 15.9542
271000 60.3145 147.917 55.7548 0.13545 15.9516
271200 60.3145 147.93 55.7548 0.13555 15.9807
271400 60.3145 147.943 55.7548 0.13565 15.9562
271600 60.3145 147.956 55.7548 0.13575 15.9727
271800 60.3145 147.969 55.7548 0.13585 15.9975
272000 60.3145 147.982 55.7548 0.13595 15.9854
272200 60.3145 147.995 55.7548 0.13605 16.0189
272400 60.3145 148.008 55.7548 0.13615 16.0198
272600 60.3145 148.021 55.7548 0.13625 16.0081
272800 60.3145 148.034 55.7548 0.13635 16.0211
273000 60.3145 148.047 55.7548 0.13645 16.0206
273200 60.3145 148.06 55.7548 0.13655 16.0585
273400 60.3145 148.073 55.7548 0.13665 16.0375
273600 60.3145 148.086 55.7548 0.13675 16.0628
273800 60.3145 148.099 55.7548 0.13685 16.0616
274000 60.3145 148.112 55.7548 0.13695 16.0762
274200 60.3145 148.125 55.7548 0.13705 16.0578
274400 60.3145 148.138 55.7548 0.13715 16.0618
274600 60.3145 148.151 55.7548 0.13725 16.0703
274800 60.3145 148.164 55.7548 0.13735 16.0412
275000 60.3145 148.177 55.7548 0.13745 16.0606
275200 60.3145 148.19 55.7548 0.13755 16.0546
275400 60.3145 148.203 55.7548 0.13765 16.1032
275600 60.3145 148.216 55.7548 0.13775 16.0783
275800 60.3145 148.229 55.7548 0.13785 16.1077
276000 60.3145 148.242 55.7548 0.13795 16.1108
276200 60.3145 148.255 55.7548 0.13805 16.143
276400 60.3145 148.268 55.7548 0.13815 16.1484
276600 60.3145 148.281 55.7548 0.13825 16.1547
276800 60.3145 148.294 55.7548 0.13835 16.1607
277000 60.3145 148.307 55.7548 0.13845 16.1744
277200 60.3145 148.32 55.7548 0.13855 16.1785
277400 60.3145 148.333 55.7548 0.13865 16.1721
277600 60.3145 148.346 55.7548 0.13875 16.1944
277800 60.3145 148.359 55.7548 0.13885 16.2024
278000 60.3145 148.372 55.7548 0.13895 16.2125
278200 60.3145 148.386 55.7548 0.13905 16.2172
278400 60.3145 148.399 55.7548 0.13915 16.2261
278600 60.3145 148.412 55.7548 0.13925 16.2384
278800 60.3145 148.425 55.7548 0.13935 16.2609
279000 60.3145 148.438 55.7548 0.13945 16.26
279200 60.3145 148.451 55.7548 0.13955 16.2637
279400 60.3145 148.464 55.7548 0.13965 16.2996
279600 60.3145 148.477 55.7548 0.13975 16.3005
279800 60.3145 148.49 55.7548 0.13985 16.3222
280000 60.3145 148.503 55.7548 0.13995 16.3123
280200 60.3145 148.516 55.7548 0.14005 16.3309
280400 60.3145 148.529 55.7548 0.14015 16.3123
280600 60.3145 148.542 55.7548 0.14025 16.3526
280800 60.3145 148.555 55.7548 0.14035 16.3505
281000 60.3145 148.568 55.7548 0.14045 16.369
281200 60.3145 148.581 55.7548 0.14055 16.3689
281400 60.3145 148.594 55.7548 0.14065 16.3759
281600 60.3145 148.607 55.7548 0.14075 16.3966
281800 60.3145 148.62 55.7548 0.14085 16.3815
282000 60.3145 148.633 55.7548 0.14095 16.4043
282200 60.3145 148.646 55.7548 0.14105 16.3787
282400 60.3145 148.659 55.7548 0.14115 16.4
282600 60.3145 148.672 55.7548 0.14125 16.4174
282800 60.3145 148.685 55.7548 0.14135 16.4254
283000 60.3145 148.698 55.7548 0.14145 16.4394
283200 60.3145 148.711 55.7548 0.14155 16.412
283400 60.3145 148.724 55.7548 0.14165 16.4443
283600 60.3145 148.737 55.7548 0.14175 16.4262
283800 60.3145 148.75 55.7548 0.14185 16.4473
284000 60.3145 148.763 55.7548 0.14195 16.447
284200 60.3145 148.776 55.7548 0.14205 16.4656
284400 60.3145 148.789 55.7548 0.14215 16.4792
284600 60.3145 148.802 55.7548 0.14225 16.5013
284800 60.3145 148.815 55.7548 0.14235 16.5049
285000 60.3145 148.828 55.7548 0.14245 16.5155
285200 60.3145 148.841 55.7548 0.14255 16.5325
285400 60.3145 148.854 55.7548 0.14265 16.5494
285600 60.3145 148.868 55.7548 0.14275 16.5442
285800 60.3145 148.881 55.7548 0.14285 16.5566
286000 60.3145 148.894 55.7548 0.14295 16.5595
286200 60.3145 148.907 55.7548 0.14305 16.5505
286400 60.3145 148.92 55.7548 0.14315 16.5164
286600 60.3145 148.933 55.7548 0.14325 16.5484
286800 60.3145 148.946 55.7548 0.14335 16.5488
287000 60.3145 148.959 55.7548 0.14345 16.5532
287200 60.3145 148.972 55.7548 0.14355 16.5622
287400 60.3145 148.985 55.7548 0.14365 16.5544
287600 60.3145 148.998 55.7548 0.14375 16.5684
287800 60.3145 149.011 55.7548 0.14385 16.5751
288000 60.3145 149.024 55.7548 0.14395 16.5663
288200 60.3145 149.037 55.7548 0.14405 16.5896
288400 60.3145 149.05 55.7548 0.14415 16.5958
288600 60.3145 149.063 55.7548 0.14425 16.6083
288800 60.3145 149.076 55.7548 0.14435 16.6269
289000 60.3145 149.089 55.7548 0.14445 16.6164
289200 60.3145 149.102 55.7548 0.14455 16.6077
289400 60.3145 149.115 55.7548 0.14465 16.6255
289600 60.3145 149.128 55.7548 0.14475 16.6292
289800 60.3145 149.141 55.7548 0.14485 16.6575
290000 60.3145 149.154 55.7548 0.14495 16.6732
290200 60.3145 149.167 55.7548 0.14505 16.6362
290400 60.3145 149.18 55.7548 0.14515 16.5849
290600 60.3145 149.193 55.7548 0.14525 16.6128
290800 60.3145 149.206 55.7548 0.14535 16.6171
291000 60.3145 149.219 55.7548 0.14545 16.5953
291200 60.3145 149.232 55.7548 0.14555 16.5897
291400 60.3145 149.245 55.7548 0.14565 16.5984
291600 60.3145 149.258 55.7548 0.14575 16.6017
291800 60.3145 149.271 55.7548 0.14585 16.6062
292000 60.3145 149.284 55.7548 0.14595 16.5996
292200 60.3145 149.297 55.7548 0.14605 16.5646
292400 60.3145 149.31 55.7548 0.14615 16.5611
292600 60.3145 149.323 55.7548 0.14625 16.5381
292800 60.3145 149.336 55.7548 0.14635 16.5228
293000 60.3145 149.35 55.7548 0.14645 16.5384
293200 60.3145 149.363 55.7548 0.14655 16.5121
293400 60.3145 149.376 55.7548 0.14665 16.4949
293600 60.3145 149.389 55.7548 0.14675 16.5269
293800 60.3145 149.402 55.7548 0.14685 16.5161
294000 60.3145 149.415 55.7548 0.14695 16.5074
294200 60.3145 149.428 55.7548 0.14705 16.5151
294400 60.3145 149.441 55.7548 0.14715 16.5421
294600 60.3145 149.454 55.7548 0.14725 16.5643
294800 60.3145 149.467 55.7548 0.14735 16.5586
295000 60.3145 149.48 55.7548 0.14745 16.574
295200 60.3145 149.493 55.7548 0.14755 16.5851
295400 60.3145 149.506 55.7548 0.14765 16.5634
295600 60.3145 149.519 55.7548 0.14775 16.5826
295800 60.3145 149.532 55.7548 0.14785 16.5816
296000 60.3145 149.545 55.7548 0.14795 16.5988
296200 60.3145 149.558 55.7548 0.14805 16.6082
296400 60.3145 149.571 55.7548 0.14815 16.6219
296600 60.3145 149.584 55.7548 0.14825 16.6312
296800 60.3145 149.597 55.7548 0.14835 16.6504
297000 60.3145 149.61 55.7548 0.14845 16.6591
297200 60.3145 149.623 55.7548 0.14855 16.6876
297400 60.3145 149.636 55.7548 0.14865 16.6746
297600 60.3145 149.649 55.7548 0.14875 16.6628
297800 60.3145 149.662 55.7548 0.14885 16.6725
298000 60.3145 149.675 55.7548 0.14895 16.6303
298200 60.3145 149.688 55.7548 0.14905 16.6211
298400 60.3145 149.701 55.7548 0.14915 16.6616
298600 60.3145 149.714 55.7548 0.14925 16.6599
298800 60.3145 149.727 55.7548 0.14935 16.6732
299000 60.3145 149.74 55.7548 0.14945 16.6591
299200 60.3145 149.753 55.7548 0.14955 16.6914
299400 60.3145 149.766 55.7548 0.14965 16.6925
299600 60.3145 149.779 55.7548 0.14975 16.6944
299800 60.3145 149.792 55.7548 0.14985 16.6773
300000 60.3145 149.805 55.7548 0.14995 16.7049
300200 60.3145 149.818 55.7548 0.15005 16.7092
300400 60.3145 149.832 55.7548 0.15015 16.7204
300600 60.3145 149.845 55.7548 0.15025 16.7228
300800 60.3145 149.858 55.7548 0.15035 16.748
301000 60.3145 149.871 55.7548 0.15045 16.7469
301200 60.3145 149.884 55.7548 0.15055 16.757
301400 60.3145 149.897 55.7548 0.15065 16.7348
301600 60.3145 149.91 55.7548 0.15075 16.7093
301800 60.3145 149.923 55.7548 0.15085 16.7294
302000 60.3145 149.936 55.7548 0.15095 16.7205
302200 60.3145 149.949 55.7548 0.15105 16.7447
302400 60.3145 149.962 55.7548 0.15115 16.6893
302600 60.3145 149.975 55.7548 0.15125 16.6914
302800 60.3145 149.988 55.7548 0.15135 16.682
303000 60.3145 150.001 55.7548 0.15145 16.6673
303200 60.3145 150.014 55.7548 0.15155 16.6639
303400 60.3145 150.027 55.7548 0.15165 16.6909
303600 60.3145 150.04 55.7548 0.15175 16.6915
303800 60.3145 150.053 55.7548 0.15185 16.6928
304000 60.3145 150.066 55.7548 0.15195 16.6985
304200 60.3145 150.079 55.7548 0.15205 16.7259
304400 60.3145 150.092 55.7548 0.15215 16.7138
304600 60.3145 150.105 55.7548 0.15225 16.726
304800 60.3145 150.118 55.7548 0.15235 16.7236
305000 60.3145 150.131 55.7548 0.15245 16.7495
305200 60.3145 150.144 55.7548 0.15255 16.7635
305400 60.3145 150.157 55.7548 0.15265 16.78
305600 60.3145 150.17 55.7548 0.15275 16.7845
305800 60.3145 150.183 55.7548 0.15285 16.7986
306000 60.3145 150.196 55.7548 0.15295 16.802
306200 60.3145 150.209 55.7548 0.15305 16.8217
306400 60.3145 150.222 55.7548 0.15315 16.8008
306600 60.3145 150.235 55.7548 0.15325 16.7797
306800 60.3145 150.248 55.7548 0.15335 16.7708
307000 60.3145 150.261 55.7548 0.15345 16.7814
307200 60.3145 150.274 55.7548 0.15355 16.7955
307400 60.3145 150.287 55.7548 0.15365 16.775
307600 60.3145 150.301 55.7548 0.15375 16.8057
307800 60.3145 150.314 55.7548 0.15385 16.8071
308000 60.3145 150.327 55.7548 0.15395 16.7863
308200 60.3145 150.34 55.7548 0.15405 16.8106
308400 60.3145 150.353 55.7548 0.15415 16.821
308600 60.3145 150.366 55.7548 0.15425 16.8303
308800 60.3145 150.379 55.7548 0.15435 16.8386
309000 60.3145 150.392 55.7548 0.15445 16.8479
309200 60.3145 150.405 55.7548 0.15455 16.8632
309400 60.3145 150.418 55.7548 0.15465 16.8778
309600 60.3145 150.431 55.7548 0.15475 16.882
309800 60.3145 150.444 55.7548 0.15485 16.8864
310000 60.3145 150.457 55.7548 0.15495 16.9043
310200 60.3145 150.47 55.7548 0.15505 16.9116
310400 60.3145 150.483 55.7548 0.15515 16.9116
310600 60.3145 150.496 55.7548 0.15525 16.9418
310800 60.3145 150.509 55.7548 0.15535 16.923
311000 60.3145 150.522 55.7548 0.15545 16.946
311200 60.3145 150.535 55.7548 0.15555 16.9684
311400 60.3145 150.548 55.7548 0.15565 16.9793
311600 60.3145 150.561 55.7548 0.15575 16.9659
311800 60.3145 150.574 55.7548 0.15585 16.9862
312000 60.3145 150.587 55.7548 0.15595 17.0054
312200 60.3145 150.6 55.7548 0.15605 16.9931
312400 60.3145 150.613 55.7548 0.15615 17.0291
312600 60.3145 150.626 55.7548 0.15625 17.0295
312800 60.3145 150.639 55.7548 0.15635 17.0298
313000 60.3145 150.652 55.7548 0.15645 17.0725
313200 60.3145 150.665 55.7548 0.15655 17.065
313400 60.3145 150.678 55.7548 0.15665 17.0651
313600 60.3145 150.691 55.7548 0.15675 17.0752
313800 60.3145 150.704 55.7548 0.15685 17.0484
314000 60.3145 150.717 55.7548 0.15695 17.041
314200 60.3145 150.73 55.7548 0.15705 17.0293
314400 60.3145 150.743 55.7548 0.15715 17.0444
314600 60.3145 150.756 55.7548 0.15725 17.0601
314800 60.3145 150.769 55.7548 0.15735 17.0174
315000 60.3145 150.783 55.7548 0.15745 17.03
315200 60.3145 150.796 55.7548 0.15755 17.0457
315400 60.3145 150.809 55.7548 0.15765 17.0544
315600 60.3145 150.822 55.7548 0.15775 17.0413
315800 60.3145 150.835 55.7548 0.15785 17.068
316000 60.3145 150.848 55.7548 0.15795 17.1019
316200 60.3145 150.861 55.7548 0.15805 17.0726
316400 60.3145 150.874 55.7548 0.15815 17.1161
316600 60.3145 150.887 55.7548 0.15825 17.097
316800 60.3145 150.9 55.7548 0.15835 17.062
317000 60.3145 150.913 55.7548 0.15845 17.0642
317200 60.3145 150.926 55.7548 0.15855 17.0717
317400 60.3145 150.939 55.7548 0.15865 17.0401
317600 60.3145 150.952 55.7548 0.15875 17.026
317800 60.3145 150.965 55.7548 0.15885 17.0263
318000 60.3145 150.978 55.7548 0.15895 17.0333
318200 60.3145 150.991 55.7548 0.15905 16.9998
318400 60.3145 151.004 55.7548 0.15915 17.0004
318600 60.3145 151.017 55.7548 0.15925 16.9654
318800 60.3145 151.03 55.7548 0.15935 16.963
319000 60.3145 151.043 55.7548 0.15945 16.9404
319200 60.3145 151.056 55.7548 0.15955 16.9741
319400 60.3145 151.069 55.7548 0.15965 16.9761
319600 60.3145 151.082 55.7548 0.15975 16.9514
319800 60.3145 151.095 55.7548 0.15985 16.9354
320000 60.3145 151.108 55.7548 0.15995 16.9026
320200 60.3145 151.121 55.7548 0.16005 16.9133
320400 60.3145 151.134 55.7548 0.16015 16.9327
320600 60.3145 151.147 55.7548 0.16025 16.8732
320800 60.3145 151.16 55.7548 0.16035 16.8644
321000 60.3145 151.173 55.7548 0.16045 16.8273
321200 60.3145 151.186 55.7548 0.16055 16.8362
321400 60.3145 151.199 55.7548 0.16065 16.7863
321600 60.3145 151.212 55.7548 0.16075 16.7586
321800 60.3145 151.225 55.7548 0.16085 16.7493
322000 60.3145 151.238 55.7548 0.16095 16.767
322200 60.3145 151.251 55.7548 0.16105 16.7601
322400 60.3145 151.265 55.7548 0.16115 16.7872
322600 60.3145 151.278 55.7548 0.16125 16.7548
322800 60.3145 151.291 55.7548 0.16135 16.7653
323000 60.3145 151.304 55.7548 0.16145 16.7218
323200 60.3145 151.317 55.7548 0.16155 16.7212
323400 60.3145 151.33 55.7548 0.16165 16.7055
323600 60.3145 151.343 55.7548 0.16175 16.696
323800 60.3145 151.356 55.7548 0.16185 16.6472
324000 60.3145 151.369 55.7548 0.16195 16.6793
324200 60.3145 151.382 55.7548 0.16205 16.6369
324400 60.3145 151.395 55.7548 0.16215 16.6586
324600 60.3145 151.408 55.7548 0.16225 16.6264
324800 60.3145 151.421 55.7548 0.16235 16.6609
325000 60.3145 151.434 55.7548 0.16245 16.6603
325200 60.3145 151.447 55.7548 0.16255 16.6516
325400 60.3145 151.46 55.7548 0.16265 16.6414
325600 60.3145 151.473 55.7548 0.16275 16.6595
325800 60.3145 151.486 55.7548 0.16285 16.6376
326000 60.3145 151.499 55.7548 0.16295 16.6601
326200 60.3145 151.512 55.7548 0.16305 16.6185
326400 60.3145 151.525 55.7548 0.16315 16.5943
326600 60.3145 151.538 55.7548 0.16325 16.5863
326800 60.3145 151.551 55.7548 0.16335 16.5938
327000 60.3145 151.564 55.7548 0.16345 16.5985
327200 60.3145 151.577 55.7548 0.16355 16.5935
327400 60.3145 151.59 55.7548 0.16365 16.5887
327600 60.3145 151.603 55.7548 0.16375 16.6054
327800 60.3145 151.616 55.7548 0.16385 16.6106
328000 60.3145 151.629 55.7548 0.16395 16.5741
328200 60.3145 151.642 55.7548 0.16405 16.5416
328400 60.3145 151.655 55.7548 0.16415 16.5681
328600 60.3145 151.668 55.7548 0.16425 16.5497
328800 60.3145 151.681 55.7548 0.16435 16.5677
329000 60.3145 151.694 55.7548 0.16445 16.5732
329200 60.3145 151.707 55.7548 0.16455 16.5655
329400 60.3145 151.72 55.7548 0.16465 16.5538
329600 60.3145 151.733 55.7548 0.16475 16.5109
329800 60.3145 151.747 55.7548 0.16485 16.5073
330000 60.3145 151.76 55.7548 0.16495 16.4864
330200 60.3145 151.773 55.7548 0.16505 16.487
330400 60.3145 151.786 55.7548 0.16515 16.4979
330600 60.3145 151.799 55.7548 0.16525 16.4832
330800 60.3145 151.812 55.7548 0.16535 16.4714
331000 60.3145 151.825 55.7548 0.16545 16.513
331200 60.3145 151.838 55.7548 0.16555 16.4783
331400 60.3145 151.851 55.7548 0.16565 16.4456
331600 60.3145 151.864 55.7548 0.16575 16.4648
331800 60.3145 151.877 55.7548 0.16585 16.4348
332000 60.3145 151.89 55.7548 0.16595 16.4359
332200 60.3145 151.903 55.7548 0.16605 16.4184
332400 60.3145 151.916 55.7548 0.16615 16.3809
332600 60.3145 151.929 55.7548 0.16625 16.3725
332800 60.3145 151.942 55.7548 0.16635 16.3824
333000 60.3145 151.955 55.7548 0.16645 16.3303
333200 60.3145 151.968 55.7548 0.16655 16.3501
333400 60.3145 151.981 55.7548 0.16665 16.3178
333600 60.3145 151.994 55.7548 0.16675 16.2893
333800 60.3145 152.007 55.7548 0.16685 16.3452
334000 60.3145 152.02 55.7548 0.16695 16.3201
334200 60.3145 152.033 55.7548 0.16705 16.3067
334400 60.3145 152.046 55.7548 0.16715 16.2773
334600 60.3145 152.059 55.7548 0.16725 16.2601
334800 60.3145 152.072 55.7548 0.16735 16.2674
335000 60.3145 152.085 55.7548 0.16745 16.2827
335200 60.3145 152.098 55.7548 0.16755 16.2489
335400 60.3145 152.111 55.7548 0.16765 16.2221
335600 60.3145 152.124 55.7548 0.16775 16.2217
335800 60.3145 152.137 55.7548 0.16785 16.2123
336000 60.3145 152.15 55.7548 0.16795 16.1626
336200 60.3145 152.163 55.7548 0.16805 16.1587
336400 60.3145 152.176 55.7548 0.16815 16.1582
336600 60.3145 152.189 55.7548 0.16825 16.1536
336800 60.3145 152.202 55.7548 0.16835 16.1755
337000 60.3145 152.215 55.7548 0.16845 16.1663
337200 60.3145 152.229 55.7548 0.16855 16.1605
337400 60.3145 152.242 55.7548 0.16865 16.1748
337600 60.3145 152.255 55.7548 0.16875 16.1703
337800 60.3145 152.268 55.7548 0.16885 16.1567
338000 60.3145 152.281 55.7548 0.16895 16.1804
338200 60.3145 152.294 55.7548 0.16905 16.1682
338400 60.3145 152.307 55.7548 0.16915 16.2061
338600 60.3145 152.32 55.7548 0.16925 16.2062
338800 60.3145 152.333 55.7548 0.16935 16.2383
339000 60.3145 152.346 55.7548 0.16945 16.2462
339200 60.3145 152.359 55.7548 0.16955 16.2066
339400 60.3145 152.372 55.7548 0.16965 16.23
339600 60.3145 152.385 55.7548 0.16975 16.2415
339800 60.3145 152.398 55.7548 0.16985 16.2429
340000 60.3145 152.411 55.7548 0.16995 16.2446
340200 60.3145 152.424 55.7548 0.17005 16.2066
340400 60.3145 152.437 55.7548 0.17015 16.1954
340600 60.3145 152.45 55.7548 0.17025 16.1859
340800 60.3145 152.463 55.7548 0.17035 16.1241
341000 60.3145 152.476 55.7548 0.17045 16.0182
341200 60.3145 152.489 55.7548 0.17055 15.7996
341400 60.3145 152.502 55.7548 0.17065 15.6023
341600 60.3145 152.515 55.7548 0.17075 15.2939
341800 60.3145 152.528 55.7548 0.17085 14.9421
342000 60.3145 152.541 55.7548 0.17095 14.3518
342200 60.3145 152.554 55.7548 0.17105 13.5334
342400 60.3145 152.567 55.7548 0.17115 12.4392
342600 60.3145 152.58 55.7548 0.17125 11.19
342800 60.3145 152.593 55.7548 0.17135 9.51883
343000 60.3145 152.606 55.7548 0.17145 7.70688
343200 60.3145 152.619 55.7548 0.17155 5.81069
343400 60.3145 152.632 55.7548 0.17165 4.04944
343600 60.3145 152.645 55.7548 0.17175 2.371
343800 60.3145 152.658 55.7548 0.17185 0.939789
344000 60.3145 152.671 55.7548 0.17195 -0.242626
344200 60.3145 152.684 55.7548 0.17205 -1.20296
344400 60.3145 152.697 55.7548 0.17215 -1.98441
344600 60.3145 152.711 55.7548 0.17225 -2.49352
344800 60.3145 152.724 55.7548 0.17235 -2.86447
345000 60.3145 152.737 55.7548 0.17245 -3.03578
345200 60.3145 152.75 55.7548 0.17255 -2.96417
345400 60.3145 152.763 55.7548 0.17265 -2.7404
345600 60.3145 152.776 55.7548 0.17275 -2.4085
345800 60.3145 152.789 55.7548 0.17285 -1.8516
346000 60.3145 152.802 55.7548 0.17295 -1.20538
346200 60.3145 152.815 55.7548 0.17305 -0.426799
346400 60.3145 152.828 55.7548 0.17315 0.589414
346600 60.3145 152.841 55.7548 0.17325 1.6485
346800 60.3145 152.854 55.7548 0.17335 2.63195
347000 60.3145 152.867 55.7548 0.17345 3.43929
347200 60.3145 152.88 55.7548 0.17355 3.76665
347400 60.3145 152.893 55.7548 0.17365 3.54673
347600 60.3145 152.906 55.7548 0.17375 2.92821
347800 60.3145 152.919 55.7548 0.17385 1.9746
348000 60.3145 152.932 55.7548 0.17395 0.985188
348200 60.3145 152.945 55.7548 0.17405 0.00439841
348400 60.3145 152.958 55.7548 0.17415 -0.815542
348600 60.3145 152.971 55.7548 0.17425 -1.54427
348800 60.3145 152.984 55.7548 0.17435 -2.10401
349000 60.3145 152.997 55.7548 0.17445 -2.5355
349200 60.3145 153.01 55.7548 0.17455 -2.66827
349400 60.3145 153.023 55.7548 0.17465 -2.68836
349600 60.3145 153.036 55.7548 0.17475 -2.51719
349800 60.3145 153.049 55.7548 0.17485 -2.19052
350000 60.3145 153.062 55.7548 0.17495 -1.70513
350200 60.3145 153.075 55.7548 0.17505 -1.00794
350400 60.3145 153.088 55.7548 0.17515 -0.21344
350600 60.3145 153.101 55.7548 0.17525 0.690862
350800 60.3145 153.114 55.7548 0.17535 1.63842
351000 60.3145 153.127 55.7548 0.17545 2.54718
351200 60.3145 153.14 55.7548 0.17555 3.16694
351400 60.3145 153.153 55.7548 0.17565 3.4127
351600 60.3145 153.166 55.7548 0.17575 3.17682
351800 60.3145 153.179 55.7548 0.17585 2.53385
352000 60.3145 153.193 55.7548 0.17595 1.68797
352200 60.3145 153.206 55.7548 0.17605 0.725714
352400 60.3145 153.219 55.7548 0.17615 -0.168078
352600 60.3145 153.232 55.7548 0.17625 -0.957333
352800 60.3145 153.245 55.7548 0.17635 -1.62039
353000 60.3145 153.258 55.7548 0.17645 -2.08542
353200 60.3145 153.271 55.7548 0.17655 -2.37996
353400 60.3145 153.284 55.7548 0.17665 -2.54538
353600 60.3145 153.297 55.7548 0.17675 -2.43297
353800 60.3145 153.31 55.7548 0.17685 -2.22993
354000 60.3145 153.323 55.7548 0.17695 -1.89094
354200 60.3145 153.336 55.7548 0.17705 -1.38154
354400 60.3145 153.349 55.7548 0.17715 -0.728235
354600 60.3145 153.362 55.7548 0.17725 0.0910156
354800 60.3145 153.375 55.7548 0.17735 0.948763
355000 60.3145 153.388 55.7548 0.17745 1.81626
355200 60.3145 153.401 55.7548 0.17755 2.5676
355400 60.3145 153.414 55.7548 0.17765 3.05859
355600 60.3145 153.427 55.7548 0.17775 3.051
355800 60.3145 153.44 55.7548 0.17785 2.72821
356000 60.3145 153.453 55.7548 0.17795 2.0872
356200 60.3145 153.466 55.7548 0.17805 1.24064
356400 60.3145 153.479 55.7548 0.17815 0.388705
356600 60.3145 153.492 55.7548 0.17825 -0.456665
356800 60.3145 153.505 55.7548 0.17835 -1.11542
357000 60.3145 153.518 55.7548 0.17845 -1.67283
357200 60.3145 153.531 55.7548 0.17855 -2.06291
357400 60.3145 153.544 55.7548 0.17865 -2.30614
357600 60.3145 153.557 55.7548 0.17875 -2.35824
357800 60.3145 153.57 55.7548 0.17885 -2.26509
358000 60.3145 153.583 55.7548 0.17895 -1.98665
358200 60.3145 153.596 55.7548 0.17905 -1.60522
358400 60.3145 153.609 55.7548 0.17915 -1.01446
358600 60.3145 153.622 55.7548 0.17925 -0.336134
358800 60.3145 153.635 55.7548 0.17935 0.460586
359000 60.3145 153.648 55.7548 0.17945 1.27555
359200 60.3145 153.662 55.7548 0.17955 2.0392
359400 60.3145 153.675 55.7548 0.17965 2.58471
359600 60.3145 153.688 55.7548 0.17975 2.86559
359800 60.3145 153.701 55.7548 0.17985 2.75986
360000 60.3145 153.714 55.7548 0.17995 2.27145
360200 60.3145 153.727 55.7548 0.18005 1.58956
360400 60.3145 153.74 55.7548 0.18015 0.785757
360600 60.3145 153.753 55.7548 0.18025 -0.0376444
360800 60.3145 153.766 55.7548 0.18035 -0.762326
361000 60.3145 153.779 55.7548 0.18045 -1.3591
361200 60.3145 153.792 55.7548 0.18055 -1.75666
361400 60.3145 153.805 55.7548 0.18065 -2.04716
361600 60.3145 153.818 55.7548 0.18075 -2.1815
361800 60.3145 153.831 55.7548 0.18085 -2.15919
362000 60.3145 153.844 55.7548 0.18095 -1.98609
362200 60.3145 153.857 55.7548 0.18105 -1.68702
362400 60.3145 153.87 55.7548 0.18115 -1.23257
362600 60.3145 153.883 55.7548 0.18125 -0.602024
362800 60.3145 153.896 55.7548 0.18135 0.107405
363000 60.3145 153.909 55.7548 0.18145 0.882803
363200 60.3145 153.922 55.7548 0.18155 1.62318
363400 60.3145 153.935 55.7548 0.18165 2.22864
363600 60.3145 153.948 55.7548 0.18175 2.58856
363800 60.3145 153.961 55.7548 0.18185 2.62223
364000 60.3145 153.974 55.7548 0.18195 2.30722
364200 60.3145 153.987 55.7548 0.18205 1.74982
364400 60.3145 154 55.7548 0.18215 1.03404
364600 60.3145 154.013 55.7548 0.18225 0.271383
364800 60.3145 154.026 55.7548 0.18235 -0.421681
365000 60.3145 154.039 55.7548 0.18245 -1.05726
365200 60.3145 154.052 55.7548 0.18255 -1.51632
365400 60.3145 154.065 55.7548 0.18265 -1.83035
365600 60.3145 154.078 55.7548 0.18275 -2.03698
365800 60.3145 154.091 55.7548 0.18285 -2.04679
366000 60.3145 154.104 55.7548 0.18295 -1.91199
366200 60.3145 154.117 55.7548 0.18305 -1.66984
366400 60.3145 154.13 55.7548 0.18315 -1.24908
366600 60.3145 154.144 55.7548 0.18325 -0.717859
366800 60.3145 154.157 55.7548 0.18335 -0.116233
367000 60.3145 154.17 55.7548 0.18345 0.618963
367200 60.3145 154.183 55.7548 0.18355 1.30541
367400 60.3145 154.196 55.7548 0.18365 1.90715
367600 60.3145 154.209 55.7548 0.18375 2.31135
367800 60.3145 154.222 55.7548 0.18385 2.4192
368000 60.3145 154.235 55.7548 0.18395 2.228
368200 60.3145 154.248 55.7548 0.18405 1.76319
368400 60.3145 154.261 55.7548 0.18415 1.15029
368600 60.3145 154.274 55.7548 0.18425 0.467693
368800 60.3145 154.287 55.7548 0.18435 -0.228406
369000 60.3145 154.3 55.7548 0.18445 -0.830262
369200 60.3145 154.313 55.7548 0.18455 -1.33438
369400 60.3145 154.326 55.7548 0.18465 -1.65021
369600 60.3145 154.339 55.7548 0.18475 -1.84373
369800 60.3145 154.352 55.7548 0.18485 -1.91118
370000 60.3145 154.365 55.7548 0.18495 -1.82288
370200 60.3145 154.378 55.7548 0.18505 -1.58107
370400 60.3145 154.391 55.7548 0.18515 -1.25731
370600 60.3145 154.404 55.7548 0.18525 -0.791085
370800 60.3145 154.417 55.7548 0.18535 -0.218301
371000 60.3145 154.43 55.7548 0.18545 0.457679
371200 60.3145 154.443 55.7548 0.18555 1.09765
371400 60.3145 154.456 55.7548 0.18565 1.7154
371600 60.3145 154.469 55.7548 0.18575 2.09997
371800 60.3145 154.482 55.7548 0.18585 2.23142
372000 60.3145 154.495 55.7548 0.18595 2.11768
372200 60.3145 154.508 55.7548 0.18605 1.70435
372400 60.3145 154.521 55.7548 0.18615 1.13543
372600 60.3145 154.534 55.7548 0.18625 0.549049
372800 60.3145 154.547 55.7548 0.18635 -0.117373
373000 60.3145 154.56 55.7548 0.18645 -0.67479
373200 60.3145 154.573 55.7548 0.18655 -1.14311
373400 60.3145 154.586 55.7548 0.18665 -1.49904
373600 60.3145 154.599 55.7548 0.18675 -1.70452
373800 60.3145 154.612 55.7548 0.18685 -1.80338
374000 60.3145 154.626 55.7548 0.18695 -1.71682
374200 60.3145 154.639 55.7548 0.18705 -1.54177
374400 60.3145 154.652 55.7548 0.18715 -1.1966
374600 60.3145 154.665 55.7548 0.18725 -0.755206
374800 60.3145 154.678 55.7548 0.18735 -0.231786
375000 60.3145 154.691 55.7548 0.18745 0.36718
375200 60.3145 154.704 55.7548 0.18755 0.957784
375400 60.3145 154.717 55.7548 0.18765 1.49406
375600 60.3145 154.73 55.7548 0.18775 1.8743
375800 60.3145 154.743 55.7548 0.18785 2.05343
376000 60.3145 154.756 55.7548 0.18795 1.96761
376200 60.3145 154.769 55.7548 0.18805 1.63123
376400 60.3145 154.782 55.7548 0.18815 1.12238
376600 60.3145 154.795 55.7548 0.18825 0.540866
376800 60.3145 154.808 55.7548 0.18835 -0.0367577
377000 60.3145 154.821 55.7548 0.18845 -0.595467
377200 60.3145 154.834 55.7548 0.18855 -1.01595
377400 60.3145 154.847 55.7548 0.18865 -1.36848
377600 60.3145 154.86 55.7548 0.18875 -1.56911
377800 60.3145 154.873 55.7548 0.18885 -1.65818
378000 60.3145 154.886 55.7548 0.18895 -1.61515
378200 60.3145 154.899 55.7548 0.18905 -1.42479
378400 60.3145 154.912 55.7548 0.18915 -1.12854
378600 60.3145 154.925 55.7548 0.18925 -0.689124
378800 60.3145 154.938 55.7548 0.18935 -0.229546
379000 60.3145 154.951 55.7548 0.18945 0.296245
379200 60.3145 154.964 55.7548 0.18955 0.834646
379400 60.3145 154.977 55.7548 0.18965 1.33308
379600 60.3145 154.99 55.7548 0.18975 1.68201
379800 60.3145 155.003 55.7548 0.18985 1.87027
380000 60.3145 155.016 55.7548 0.18995 1.78406
380200 60.3145 155.029 55.7548 0.19005 1.5201
380400 60.3145 155.042 55.7548 0.19015 1.04638
380600 60.3145 155.055 55.7548 0.19025 0.553329
380800 60.3145 155.068 55.7548 0.19035 0.0094586
381000 60.3145 155.081 55.7548 0.19045 -0.511516
381200 60.3145 155.094 55.7548 0.19055 -0.896012
381400 60.3145 155.108 55.7548 0.19065 -1.22729
381600 60.3145 155.121 55.7548 0.19075 -1.43443
381800 60.3145 155.134 55.7548 0.19085 -1.55574
382000 60.3145 155.147 55.7548 0.19095 -1.51593
382200 60.3145 155.16 55.7548 0.19105 -1.38201
382400 60.3145 155.173 55.7548 0.19115 -1.06568
382600 60.3145 155.186 55.7548 0.19125 -0.692489
382800 60.3145 155.199 55.7548 0.19135 -0.241913
383000 60.3145 155.212 55.7548 0.19145 0.302112
383200 60.3145 155.225 55.7548 0.19155 0.792517
383400 60.3145 155.238 55.7548 0.19165 1.25753
383600 60.3145 155.251 55.7548 0.19175 1.56797
383800 60.3145 155.264 55.7548 0.19185 1.73643
384000 60.3145 155.277 55.7548 0.19195 1.70228
384200 60.3145 155.29 55.7548 0.19205 1.4381
384400 60.3145 155.303 55.7548 0.19215 1.05879
384600 60.3145 155.316 55.7548 0.19225 0.511015
384800 60.3145 155.329 55.7548 0.19235 0.00667022
385000 60.3145 155.342 55.7548 0.19245 -0.479314
385200 60.3145 155.355 55.7548 0.19255 -0.873811
385400 60.3145 155.368 55.7548 0.19265 -1.19757
385600 60.3145 155.381 55.7548 0.19275 -1.37733
385800 60.3145 155.394 55.7548 0.19285 -1.46983
386000 60.3145 155.407 55.7548 0.19295 -1.40831
386200 60.3145 155.42 55.7548 0.19305 -1.30026
386400 60.3145 155.433 55.7548 0.19315 -1.01524
386600 60.3145 155.446 55.7548 0.19325 -0.648582
386800 60.3145 155.459 55.7548 0.19335 -0.198656
387000 60.3145 155.472 55.7548 0.19345 0.283399
387200 60.3145 155.485 55.7548 0.19355 0.771601
387400 60.3145 155.498 55.7548 0.19365 1.1964
387600 60.3145 155.511 55.7548 0.19375 1.53003
387800 60.3145 155.524 55.7548 0.19385 1.65695
388000 60.3145 155.537 55.7548 0.19395 1.59707
388200 60.3145 155.55 55.7548 0.19405 1.35588
388400 60.3145 155.563 55.7548 0.19415 0.946028
388600 60.3145 155.576 55.7548 0.19425 0.488024
388800 60.3145 155.59 55.7548 0.19435 0.0276095
389000 60.3145 155.603 55.7548 0.19445 -0.447003
389200 60.3145 155.616 55.7548 0.19455 -0.850394
389400 60.3145 155.629 55.7548 0.19465 -1.13687
389600 60.3145 155.642 55.7548 0.19475 -1.32666
389800 60.3145 155.655 55.7548 0.19485 -1.41396
390000 60.3145 155.668 55.7548 0.19495 -1.33787
390200 60.3145 155.681 55.7548 0.19505 -1.21168
390400 60.3145 155.694 55.7548 0.19515 -0.945984
390600 60.3145 155.707 55.7548 0.19525 -0.600744
390800 60.3145 155.72 55.7548 0.19535 -0.166197
391000 60.3145 155.733 55.7548 0.19545 0.298906
391200 60.3145 155.746 55.7548 0.19555 0.767044
391400 60.3145 155.759 55.7548 0.19565 1.16006
391600 60.3145 155.772 55.7548 0.19575 1.47302
391800 60.3145 155.785 55.7548 0.19585 1.59101
392000 60.3145 155.798 55.7548 0.19595 1.49211
392200 60.3145 155.811 55.7548 0.19605 1.25032
392400 60.3145 155.824 55.7548 0.19615 0.888572
392600 60.3145 155.837 55.7548 0.19625 0.429076
392800 60.3145 155.85 55.7548 0.19635 -0.0191808
393000 60.3145 155.863 55.7548 0.19645 -0.473036
393200 60.3145 155.876 55.7548 0.19655 -0.812552
393400 60.3145 155.889 55.7548 0.19665 -1.07384
393600 60.3145 155.902 55.7548 0.19675 -1.28295
393800 60.3145 155.915 55.7548 0.19685 -1.35632
394000 60.3145 155.928 55.7548 0.19695 -1.27892
394200 60.3145 155.941 55.7548 0.19705 -1.13767
394400 60.3145 155.954 55.7548 0.19715 -0.832109
394600 60.3145 155.967 55.7548 0.19725 -0.547728
394800 60.3145 155.98 55.7548 0.19735 -0.130689
395000 60.3145 155.993 55.7548 0.19745 0.336627
395200 60.3145 156.006 55.7548 0.19755 0.734529
395400 60.3145 156.019 55.7548 0.19765 1.1497
395600 60.3145 156.032 55.7548 0.19775 1.39269
395800 60.3145 156.045 55.7548 0.19785 1.51474
396000 60.3145 156.058 55.7548 0.19795 1.4254
396200 60.3145 156.072 55.7548 0.19805 1.15832
396400 60.3145 156.085 55.7548 0.19815 0.826975
396600 60.3145 156.098 55.7548 0.19825 0.349565
396800 60.3145 156.111 55.7548 0.19835 -0.0557723
397000 60.3145 156.124 55.7548 0.19845 -0.469929
397200 60.3145 156.137 55.7548 0.19855 -0.820058
397400 60.3145 156.15 55.7548 0.19865 -1.036
397600 60.3145 156.163 55.7548 0.19875 -1.21416
397800 60.3145 156.176 55.7548 0.19885 -1.27739
398000 60.3145 156.189 55.7548 0.19895 -1.22464
398200 60.3145 156.202 55.7548 0.19905 -1.08388
398400 60.3145 156.215 55.7548 0.19915 -0.814359
398600 60.3145 156.228 55.7548 0.19925 -0.45477
398800 60.3145 156.241 55.7548 0.19935 -0.087405
399000 60.3145 156.254 55.7548 0.19945 0.365857
399200 60.3145 156.267 55.7548 0.19955 0.762928
399400 60.3145 156.28 55.7548 0.19965 1.0891
399600 60.3145 156.293 55.7548 0.19975 1.3332
399800 60.3145 156.306 55.7548 0.19985 1.42382
400000 60.3145 156.319 55.7548 0.19995 1.32488
400200 60.3145 156.332 55.7548 0.20005 1.10396
400400 60.3145 156.345 55.7548 0.20015 0.731158
400600 60.3145 156.358 55.7548 0.20025 0.3248
400800 60.3145 156.371 55.7548 0.20035 -0.0907928
401000 60.3145 156.384 55.7548 0.20045 -0.468454
401200 60.3145 156.397 55.7548 0.20055 -0.786042
401400 60.3145 156.41 55.7548 0.20065 -1.02141
401600 60.3145 156.423 55.7548 0.20075 -1.17759
401800 60.3145 156.436 55.7548 0.20085 -1.22451
402000 60.3145 156.449 55.7548 0.20095 -1.13499
402200 60.3145 156.462 55.7548 0.20105 -1.00639
402400 60.3145 156.475 55.7548 0.20115 -0.760353
402600 60.3145 156.488 55.7548 0.20125 -0.415622
402800 60.3145 156.501 55.7548 0.20135 -0.032223
403000 60.3145 156.514 55.7548 0.20145 0.35075
403200 60.3145 156.527 55.7548 0.20155 0.751456
403400 60.3145 156.54 55.7548 0.20165 1.06943
403600 60.3145 156.554 55.7548 0.20175 1.29378
403800 60.3145 156.567 55.7548 0.20185 1.3306
404000 60.3145 156.58 55.7548 0.20195 1.25876
404200 60.3145 156.593 55.7548 0.20205 1.02451
404400 60.3145 156.606 55.7548 0.20215 0.665262
404600 60.3145 156.619 55.7548 0.20225 0.291747
404800 60.3145 156.632 55.7548 0.20235 -0.108015
405000 60.3145 156.645 55.7548 0.20245 -0.467236
405200 60.3145 156.658 55.7548 0.20255 -0.765997
405400 60.3145 156.671 55.7548 0.20265 -0.990136
405600 60.3145 156.684 55.7548 0.20275 -1.14139
405800 60.3145 156.697 55.7548 0.20285 -1.16495
406000 60.3145 156.71 55.7548 0.20295 -1.09549
406200 60.3145 156.723 55.7548 0.20305 -0.949673
406400 60.3145 156.736 55.7548 0.20315 -0.702218
406600 60.3145 156.749 55.7548 0.20325 -0.395027
406800 60.3145 156.762 55.7548 0.20335 0.00582573
407000 60.3145 156.775 55.7548 0.20345 0.383522
407200 60.3145 156.788 55.7548 0.20355 0.769507
407400 60.3145 156.801 55.7548 0.20365 1.07993
407600 60.3145 156.814 55.7548 0.20375 1.23677
407800 60.3145 156.827 55.7548 0.20385 1.27681
408000 60.3145 156.84 55.7548 0.20395 1.21004
408200 60.3145 156.853 55.7548 0.20405 0.960861
408400 60.3145 156.866 55.7548 0.20415 0.613068
408600 60.3145 156.879 55.7548 0.20425 0.235652
408800 60.3145 156.892 55.7548 0.20435 -0.0961637
409000 60.3145 156.905 55.7548 0.20445 -0.494465
409200 60.3145 156.918 55.7548 0.20455 -0.8036
409400 60.3145 156.931 55.7548 0.20465 -0.998474
409600 60.3145 156.944 55.7548 0.20475 -1.10942
409800 60.3145 156.957 55.7548 0.20485 -1.1271
410000 60.3145 156.97 55.7548 0.20495 -1.05989
410200 60.3145 156.983 55.7548 0.20505 -0.891941
410400 60.3145 156.996 55.7548 0.20515 -0.639014
410600 60.3145 157.009 55.7548 0.20525 -0.296191
410800 60.3145 157.022 55.7548 0.20535 0.0364178
411000 60.3145 157.036 55.7548 0.20545 0.395804
411200 60.3145 157.049 55.7548 0.20555 0.781471
411400 60.3145 157.062 55.7548 0.20565 1.0652
411600 60.3145 157.075 55.7548 0.20575 1.21677
411800 60.3145 157.088 55.7548 0.20585 1.26594
412000 60.3145 157.101 55.7548 0.20595 1.13985
412200 60.3145 157.114 55.7548 0.20605 0.873262
412400 60.3145 157.127 55.7548 0.20615 0.541013
412600 60.3145 157.14 55.7548 0.20625 0.182793
412800 60.3145 157.153 55.7548 0.20635 -0.167499
413000 60.3145 157.166 55.7548 0.20645 -0.505465
413200 60.3145 157.179 55.7548 0.20655 -0.761074
413400 60.3145 157.192 55.7548 0.20665 -0.957675
413600 60.3145 157.205 55.7548 0.20675 -1.11186
413800 60.3145 157.218 55.7548 0.20685 -1.10097
414000 60.3145 157.231 55.7548 0.20695 -1.002
414200 60.3145 157.244 55.7548 0.20705 -0.83973
414400 60.3145 157.257 55.7548 0.20715 -0.55696
414600 60.3145 157.27 55.7548 0.20725 -0.238722
414800 60.3145 157.283 55.7548 0.20735 0.0869769
415000 60.3145 157.296 55.7548 0.20745 0.451488
415200 60.3145 157.309 55.7548 0.20755 0.793057
415400 60.3145 157.322 55.7548 0.20765 1.02586
415600 60.3145 157.335 55.7548 0.20775 1.18651
415800 60.3145 157.348 55.7548 0.20785 1.21428
416000 60.3145 157.361 55.7548 0.20795 1.06477
416200 60.3145 157.374 55.7548 0.20805 0.813915
416400 60.3145 157.387 55.7548 0.20815 0.488588
416600 60.3145 157.4 55.7548 0.20825 0.130476
416800 60.3145 157.413 55.7548 0.20835 -0.22627
417000 60.3145 157.426 55.7548 0.20845 -0.541954
417200 60.3145 157.439 55.7548 0.20855 -0.787142
417400 60.3145 157.452 55.7548 0.20865 -0.945965
417600 60.3145 157.465 55.7548 0.20875 -1.04788
417800 60.3145 157.478 55.7548 0.20885 -1.04104
418000 60.3145 157.491 55.7548 0.20895 -0.952834
418200 60.3145 157.505 55.7548 0.20905 -0.77716
418400 60.3145 157.518 55.7548 0.20915 -0.503249
418600 60.3145 157.531 55.7548 0.20925 -0.175602
418800 60.3145 157.544 55.7548 0.20935 0.136243
419000 60.3145 157.557 55.7548 0.20945 0.485787
419200 60.3145 157.57 55.7548 0.20955 0.804928
419400 60.3145 157.583 55.7548 0.20965 1.02715
419600 60.3145 157.596 55.7548 0.20975 1.14183
419800 60.3145 157.609 55.7548 0.20985 1.1109
420000 60.3145 157.622 55.7548 0.20995 0.985618
420200 60.3145 157.635 55.7548 0.21005 0.749086
420400 60.3145 157.648 55.7548 0.21015 0.404567
420600 60.3145 157.661 55.7548 0.21025 0.0913534
420800 60.3145 157.674 55.7548 0.21035 -0.249774
421000 60.3145 157.687 55.7548 0.21045 -0.554326
421200 60.3145 157.7 55.7548 0.21055 -0.775839
421400 60.3145 157.713 55.7548 0.21065 -0.926381
421600 60.3145 157.726 55.7548 0.21075 -0.994345
421800 60.3145 157.739 55.7548 0.21085 -0.996979
422000 60.3145 157.752 55.7548 0.21095 -0.880047
422200 60.3145 157.765 55.7548 0.21105 -0.711726
422400 60.3145 157.778 55.7548 0.21115 -0.425024
422600 60.3145 157.791 55.7548 0.21125 -0.17065
422800 60.3145 157.804 55.7548 0.21135 0.180145
423000 60.3145 157.817 55.7548 0.21145 0.496328
423200 60.3145 157.83 55.7548 0.21155 0.788877
423400 60.3145 157.843 55.7548 0.21165 0.990466
423600 60.3145 157.856 55.7548 0.21175 1.12329
423800 60.3145 157.869 55.7548 0.21185 1.06008
424000 60.3145 157.882 55.7548 0.21195 0.895563
424200 60.3145 157.895 55.7548 0.21205 0.686283
424400 60.3145 157.908 55.7548 0.21215 0.405328
424600 60.3145 157.921 55.7548 0.21225 0.0176201
424800 60.3145 157.934 55.7548 0.21235 -0.254845
425000 60.3145 157.947 55.7548 0.21245 -0.570806
425200 60.3145 157.96 55.7548 0.21255 -0.768393
425400 60.3145 157.973 55.7548 0.21265 -0.904017
425600 60.3145 157.987 55.7548 0.21275 -1.0071
425800 60.3145 158 55.7548 0.21285 -0.961562
426000 60.3145 158.013 55.7548 0.21295 -0.833205
426200 60.3145 158.026 55.7548 0.21305 -0.652592
426400 60.3145 158.039 55.7548 0.21315 -0.405857
426600 60.3145 158.052 55.7548 0.21325 -0.100081
426800 60.3145 158.065 55.7548 0.21335 0.211923
427000 60.3145 158.078 55.7548 0.21345 0.51162
427200 60.3145 158.091 55.7548 0.21355 0.812525
427400 60.3145 158.104 55.7548 0.21365 1.00016
427600 60.3145 158.117 55.7548 0.21375 1.03491
427800 60.3145 158.13 55.7548 0.21385 1.03274
428000 60.3145 158.143 55.7548 0.21395 0.897056
428200 60.3145 158.156 55.7548 0.21405 0.619064
428400 60.3145 158.169 55.7548 0.21415 0.324518
428600 60.3145 158.182 55.7548 0.21425 0.00279396
428800 60.3145 158.195 55.7548 0.21435 -0.322182
429000 60.3145 158.208 55.7548 0.21445 -0.545005
429200 60.3145 158.221 55.7548 0.21455 -0.771687
429400 60.3145 158.234 55.7548 0.21465 -0.910562
429600 60.3145 158.247 55.7548 0.21475 -0.959969
429800 60.3145 158.26 55.7548 0.21485 -0.93419
430000 60.3145 158.273 55.7548 0.21495 -0.773312
430200 60.3145 158.286 55.7548 0.21505 -0.63703
430400 60.3145 158.299 55.7548 0.21515 -0.35601
430600 60.3145 158.312 55.7548 0.21525 -0.0652566
430800 60.3145 158.325 55.7548 0.21535 0.250446
431000 60.3145 158.338 55.7548 0.21545 0.554804
431200 60.3145 158.351 55.7548 0.21555 0.8472
431400 60.3145 158.364 55.7548 0.21565 0.977172
431600 60.3145 158.377 55.7548 0.21575 1.07316
431800 60.3145 158.39 55.7548 0.21585 0.974338
432000 60.3145 158.403 55.7548 0.21595 0.823052
432200 60.3145 158.416 55.7548 0.21605 0.57823
432400 60.3145 158.429 55.7548 0.21615 0.260298
432600 60.3145 158.442 55.7548 0.21625 -0.0487524
432800 60.3145 158.455 55.7548 0.21635 -0.341393
433000 60.3145 158.469 55.7548 0.21645 -0.598565
433200 60.3145 158.482 55.7548 0.21655 -0.79323
433400 60.3145 158.495 55.7548 0.21665 -0.892525
433600 60.3145 158.508 55.7548 0.21675 -0.957118
433800 60.3145 158.521 55.7548 0.21685 -0.894258
434000 60.3145 158.534 55.7548 0.21695 -0.764074
434200 60.3145 158.547 55.7548 0.21705 -0.555925
434400 60.3145 158.56 55.7548 0.21715 -0.286937
434600 60.3145 158.573 55.7548 0.21725 -0.0103487
434800 60.3145 158.586 55.7548 0.21735 0.297472
435000 60.3145 158.599 55.7548 0.21745 0.606738
435200 60.3145 158.612 55.7548 0.21755 0.84236
435400 60.3145 158.625 55.7548 0.21765 0.982443
435600 60.3145 158.638 55.7548 0.21775 1.03194
435800 60.3145 158.651 55.7548 0.21785 0.944052
436000 60.3145 158.664 55.7548 0.21795 0.787421
436200 60.3145 158.677 55.7548 0.21805 0.490227
436400 60.3145 158.69 55.7548 0.21815 0.220855
436600 60.3145 158.703 55.7548 0.21825 -0.124743
436800 60.3145 158.716 55.7548 0.21835 -0.3943
437000 60.3145 158.729 55.7548 0.21845 -0.611927
437200 60.3145 158.742 55.7548 0.21855 -0.760002
437400 60.3145 158.755 55.7548 0.21865 -0.896492
437600 60.3145 158.768 55.7548 0.21875 -0.927906
437800 60.3145 158.781 55.7548 0.21885 -0.832514
438000 60.3145 158.794 55.7548 0.21895 -0.722171
438200 60.3145 158.807 55.7548 0.21905 -0.49061
438400 60.3145 158.82 55.7548 0.21915 -0.218527
438600 60.3145 158.833 55.7548 0.21925 0.031663
438800 60.3145 158.846 55.7548 0.21935 0.3661
439000 60.3145 158.859 55.7548 0.21945 0.618994
439200 60.3145 158.872 55.7548 0.21955 0.837829
439400 60.3145 158.885 55.7548 0.21965 0.953844
439600 60.3145 158.898 55.7548 0.21975 0.991138
439800 60.3145 158.911 55.7548 0.21985 0.898648
440000 60.3145 158.924 55.7548 0.21995 0.692277
440200 60.3145 158.937 55.7548 0.22005 0.427799
440400 60.3145 158.951 55.7548 0.22015 0.130718
440600 60.3145 158.964 55.7548 0.22025 -0.137738
440800 60.3145 158.977 55.7548 0.22035 -0.408352
441000 60.3145 158.99 55.7548 0.22045 -0.623254
441200 60.3145 159.003 55.7548 0.22055 -0.778507
441400 60.3145 159.016 55.7548 0.22065 -0.866742
441600 60.3145 159.029 55.7548 0.22075 -0.871429
441800 60.3145 159.042 55.7548 0.22085 -0.80701
442000 60.3145 159.055 55.7548 0.22095 -0.667243
442200 60.3145 159.068 55.7548 0.22105 -0.449387
442400 60.3145 159.081 55.7548 0.22115 -0.187442
442600 60.3145 159.094 55.7548 0.22125 0.0996729
442800 60.3145 159.107 55.7548 0.22135 0.39942
443000 60.3145 159.12 55.7548 0.22145 0.61972
443200 60.3145 159.133 55.7548 0.22155 0.818652
443400 60.3145 159.146 55.7548 0.22165 0.926367
443600 60.3145 159.159 55.7548 0.22175 0.955906
443800 60.3145 159.172 55.7548 0.22185 0.857539
444000 60.3145 159.185 55.7548 0.22195 0.651288
444200 60.3145 159.198 55.7548 0.22205 0.391371
444400 60.3145 159.211 55.7548 0.22215 0.103707
444600 60.3145 159.224 55.7548 0.22225 -0.164464
444800 60.3145 159.237 55.7548 0.22235 -0.432785
445000 60.3145 159.25 55.7548 0.22245 -0.653407
445200 60.3145 159.263 55.7548 0.22255 -0.750863
445400 60.3145 159.276 55.7548 0.22265 -0.84704
445600 60.3145 159.289 55.7548 0.22275 -0.878116
445800 60.3145 159.302 55.7548 0.22285 -0.758717
446000 60.3145 159.315 55.7548 0.22295 -0.631935
446200 60.3145 159.328 55.7548 0.22305 -0.411759
446400 60.3145 159.341 55.7548 0.22315 -0.147277
446600 60.3145 159.354 55.7548 0.22325 0.125818
446800 60.3145 159.367 55.7548 0.22335 0.398523
447000 60.3145 159.38 55.7548 0.22345 0.661263
447200 60.3145 159.393 55.7548 0.22355 0.823191
447400 60.3145 159.406 55.7548 0.22365 0.946061
447600 60.3145 159.419 55.7548 0.22375 0.910017
447800 60.3145 159.433 55.7548 0.22385 0.828982
448000 60.3145 159.446 55.7548 0.22395 0.589817
448200 60.3145 159.459 55.7548 0.22405 0.36254
448400 60.3145 159.472 55.7548 0.22415 0.0519015
448600 60.3145 159.485 55.7548 0.22425 -0.20308
448800 60.3145 159.498 55.7548 0.22435 -0.475646
449000 60.3145 159.511 55.7548 0.22445 -0.632133
449200 60.3145 159.524 55.7548 0.22455 -0.781119
449400 60.3145 159.537 55.7548 0.22465 -0.817461
449600 60.3145 159.55 55.7548 0.22475 -0.828751
449800 60.3145 159.563 55.7548 0.22485 -0.764566
450000 60.3145 159.576 55.7548 0.22495 -0.585329
450200 60.3145 159.589 55.7548 0.22505 -0.350389
450400 60.3145 159.602 55.7548 0.22515 -0.10892
450600 60.3145 159.615 55.7548 0.22525 0.161979
450800 60.3145 159.628 55.7548 0.22535 0.45966
451000 60.3145 159.641 55.7548 0.22545 0.689388
451200 60.3145 159.654 55.7548 0.22555 0.839507
451400 60.3145 159.667 55.7548 0.22565 0.932008
451600 60.3145 159.68 55.7548 0.22575 0.877691
451800 60.3145 159.693 55.7548 0.22585 0.767555
452000 60.3145 159.706 55.7548 0.22595 0.574262
452200 60.3145 159.719 55.7548 0.22605 0.310997
452400 60.3145 159.732 55.7548 0.22615 -0.00399298
452600 60.3145 159.745 55.7548 0.22625 -0.260573
452800 60.3145 159.758 55.7548 0.22635 -0.500238
453000 60.3145 159.771 55.7548 0.22645 -0.677166
453200 60.3145 159.784 55.7548 0.22655 -0.787098
453400 60.3145 159.797 55.7548 0.22665 -0.831748
453600 60.3145 159.81 55.7548 0.22675 -0.811191
453800 60.3145 159.823 55.7548 0.22685 -0.682926
454000 60.3145 159.836 55.7548 0.22695 -0.539748
454200 60.3145 159.849 55.7548 0.22705 -0.314385
454400 60.3145 159.862 55.7548 0.22715 -0.0473617
454600 60.3145 159.875 55.7548 0.22725 0.227487
454800 60.3145 159.888 55.7548 0.22735 0.472373
455000 60.3145 159.901 55.7548 0.22745 0.737287
455200 60.3145 159.915 55.7548 0.22755 0.8777
455400 60.3145 159.928 55.7548 0.22765 0.914632
455600 60.3145 159.941 55.7548 0.22775 0.846218
455800 60.3145 159.954 55.7548 0.22785 0.715177
456000 60.3145 159.967 55.7548 0.22795 0.510549
456200 60.3145 159.98 55.7548 0.22805 0.263949
456400 60.3145 159.993 55.7548 0.22815 -0.0430207
456600 60.3145 160.006 55.7548 0.22825 -0.318818
456800 60.3145 160.019 55.7548 0.22835 -0.515835
457000 60.3145 160.032 55.7548 0.22845 -0.691519
457200 60.3145 160.045 55.7548 0.22855 -0.789257
457400 60.3145 160.058 55.7548 0.22865 -0.833907
457600 60.3145 160.071 55.7548 0.22875 -0.779821
457800 60.3145 160.084 55.7548 0.22885 -0.658568
458000 60.3145 160.097 55.7548 0.22895 -0.476309
458200 60.3145 160.11 55.7548 0.22905 -0.248326
458400 60.3145 160.123 55.7548 0.22915 0.0176658
458600 60.3145 160.136 55.7548 0.22925 0.264867
458800 60.3145 160.149 55.7548 0.22935 0.531645
459000 60.3145 160.162 55.7548 0.22945 0.720294
459200 60.3145 160.175 55.7548 0.22955 0.891999
459400 60.3145 160.188 55.7548 0.22965 0.86298
459600 60.3145 160.201 55.7548 0.22975 0.819747
459800 60.3145 160.214 55.7548 0.22985 0.665466
460000 60.3145 160.227 55.7548 0.22995 0.438569
460200 60.3145 160.24 55.7548 0.23005 0.187651
460400 60.3145 160.253 55.7548 0.23015 -0.126019
460600 60.3145 160.266 55.7548 0.23025 -0.361269
460800 60.3145 160.279 55.7548 0.23035 -0.557492
461000 60.3145 160.292 55.7548 0.23045 -0.65385
461200 60.3145 160.305 55.7548 0.23055 -0.793624
461400 60.3145 160.318 55.7548 0.23065 -0.782263
461600 60.3145 160.331 55.7548 0.23075 -0.739244
461800 60.3145 160.344 55.7548 0.23085 -0.599587
462000 60.3145 160.357 55.7548 0.23095 -0.438476
462200 60.3145 160.37 55.7548 0.23105 -0.205333
462400 60.3145 160.383 55.7548 0.23115 0.0767784
462600 60.3145 160.397 55.7548 0.23125 0.323427
462800 60.3145 160.41 55.7548 0.23135 0.586548
463000 60.3145 160.423 55.7548 0.23145 0.72386
463200 60.3145 160.436 55.7548 0.23155 0.834271
463400 60.3145 160.449 55.7548 0.23165 0.82869
463600 60.3145 160.462 55.7548 0.23175 0.788567
463800 60.3145 160.475 55.7548 0.23185 0.589863
464000 60.3145 160.488 55.7548 0.23195 0.369079
464200 60.3145 160.501 55.7548 0.23205 0.122536
464400 60.3145 160.514 55.7548 0.23215 -0.114048
464600 60.3145 160.527 55.7548 0.23225 -0.404538
464800 60.3145 160.54 55.7548 0.23235 -0.55194
465000 60.3145 160.553 55.7548 0.23245 -0.681084
465200 60.3145 160.566 55.7548 0.23255 -0.766403
465400 60.3145 160.579 55.7548 0.23265 -0.783395
465600 60.3145 160.592 55.7548 0.23275 -0.708522
465800 60.3145 160.605 55.7548 0.23285 -0.545761
466000 60.3145 160.618 55.7548 0.23295 -0.394223
466200 60.3145 160.631 55.7548 0.23305 -0.112183
466400 60.3145 160.644 55.7548 0.23315 0.102481
466600 60.3145 160.657 55.7548 0.23325 0.343993
466800 60.3145 160.67 55.7548 0.23335 0.578455
467000 60.3145 160.683 55.7548 0.23345 0.760264
467200 60.3145 160.696 55.7548 0.23355 0.840045
467400 60.3145 160.709 55.7548 0.23365 0.808197
467600 60.3145 160.722 55.7548 0.23375 0.694264
467800 60.3145 160.735 55.7548 0.23385 0.545912
468000 60.3145 160.748 55.7548 0.23395 0.285297
468200 60.3145 160.761 55.7548 0.23405 0.0768257
468400 60.3145 160.774 55.7548 0.23415 -0.16496
468600 60.3145 160.787 55.7548 0.23425 -0.379291
468800 60.3145 160.8 55.7548 0.23435 -0.56061
469000 60.3145 160.813 55.7548 0.23445 -0.712913
469200 60.3145 160.826 55.7548 0.23455 -0.764969
469400 60.3145 160.839 55.7548 0.23465 -0.745476
469600 60.3145 160.852 55.7548 0.23475 -0.64375
469800 60.3145 160.866 55.7548 0.23485 -0.501316
470000 60.3145 160.879 55.7548 0.23495 -0.305094
470200 60.3145 160.892 55.7548 0.23505 -0.0940586
470400 60.3145 160.905 55.7548 0.23515 0.150577
470600 60.3145 160.918 55.7548 0.23525 0.392922
470800 60.3145 160.931 55.7548 0.23535 0.590585
471000 60.3145 160.944 55.7548 0.23545 0.769862
471200 60.3145 160.957 55.7548 0.23555 0.803637
471400 60.3145 160.97 55.7548 0.23565 0.76171
471600 60.3145 160.983 55.7548 0.23575 0.684044
471800 60.3145 160.996 55.7548 0.23585 0.489308
472000 60.3145 161.009 55.7548 0.23595 0.250715
472200 60.3145 161.022 55.7548 0.23605 0.00492905
472400 60.3145 161.035 55.7548 0.23615 -0.234357
472600 60.3145 161.048 55.7548 0.23625 -0.392011
472800 60.3145 161.061 55.7548 0.23635 -0.583848
473000 60.3145 161.074 55.7548 0.23645 -0.679914
473200 60.3145 161.087 55.7548 0.23655 -0.743074
473400 60.3145 161.1 55.7548 0.23665 -0.724174
473600 60.3145 161.113 55.7548 0.23675 -0.611841
473800 60.3145 161.126 55.7548 0.23685 -0.451423
474000 60.3145 161.139 55.7548 0.23695 -0.26786
474200 60.3145 161.152 55.7548 0.23705 -0.0304925
474400 60.3145 161.165 55.7548 0.23715 0.196929
474600 60.3145 161.178 55.7548 0.23725 0.439372
474800 60.3145 161.191 55.7548 0.23735 0.584809
475000 60.3145 161.204 55.7548 0.23745 0.719372
475200 60.3145 161.217 55.7548 0.23755 0.81511
475400 60.3145 161.23 55.7548 0.23765 0.733914
475600 60.3145 161.243 55.7548 0.23775 0.644108
475800 60.3145 161.256 55.7548 0.23785 0.431023
476000 60.3145 161.269 55.7548 0.23795 0.212103
476200 60.3145 161.282 55.7548 0.23805 -0.0309752
476400 60.3145 161.295 55.7548 0.23815 -0.234251
476600 60.3145 161.308 55.7548 0.23825 -0.445451
476800 60.3145 161.321 55.7548 0.23835 -0.612826
477000 60.3145 161.334 55.7548 0.23845 -0.666971
477200 60.3145 161.348 55.7548 0.23855 -0.702314
477400 60.3145 161.361 55.7548 0.23865 -0.686459
477600 60.3145 161.374 55.7548 0.23875 -0.561867
477800 60.3145 161.387 55.7548 0.23885 -0.429394
478000 60.3145 161.4 55.7548 0.23895 -0.217919
478200 60.3145 161.413 55.7548 0.23905 -0.00459069
478400 60.3145 161.426 55.7548 0.23915 0.235435
478600 60.3145 161.439 55.7548 0.23925 0.431163
478800 60.3145 161.452 55.7548 0.23935 0.630189
479000 60.3145 161.465 55.7548 0.23945 0.745772
479200 60.3145 161.478 55.7548 0.23955 0.752832
479400 60.3145 161.491 55.7548 0.23965 0.709773
479600 60.3145 161.504 55.7548 0.23975 0.574661
479800 60.3145 161.517 55.7548 0.23985 0.400771
480000 60.3145 161.53 55.7548 0.23995 0.160451
480200 60.3145 161.543 55.7548 0.24005 -0.0460024
480400 60.3145 161.556 55.7548 0.24015 -0.308927
480600 60.3145 161.569 55.7548 0.24025 -0.44625
480800 60.3145 161.582 55.7548 0.24035 -0.57009
481000 60.3145 161.595 55.7548 0.24045 -0.682206
481200 60.3145 161.608 55.7548 0.24055 -0.692188
481400 60.3145 161.621 55.7548 0.24065 -0.659909
481600 60.3145 161.634 55.7548 0.24075 -0.519937
481800 60.3145 161.647 55.7548 0.24085 -0.379749
482000 60.3145 161.66 55.7548 0.24095 -0.167602
482200 60.3145 161.673 55.7548 0.24105 0.0384189
482400 60.3145 161.686 55.7548 0.24115 0.291234
482600 60.3145 161.699 55.7548 0.24125 0.483202
482800 60.3145 161.712 55.7548 0.24135 0.606175
483000 60.3145 161.725 55.7548 0.24145 0.719338
483200 60.3145 161.738 55.7548 0.24155 0.72192
483400 60.3145 161.751 55.7548 0.24165 0.676919
483600 60.3145 161.764 55.7548 0.24175 0.530275
483800 60.3145 161.777 55.7548 0.24185 0.338523
484000 60.3145 161.79 55.7548 0.24195 0.105662
484200 60.3145 161.803 55.7548 0.24205 -0.106549
484400 60.3145 161.816 55.7548 0.24215 -0.311718
484600 60.3145 161.83 55.7548 0.24225 -0.476119
484800 60.3145 161.843 55.7548 0.24235 -0.582387
485000 60.3145 161.856 55.7548 0.24245 -0.671434
485200 60.3145 161.869 55.7548 0.24255 -0.671827
485400 60.3145 161.882 55.7548 0.24265 -0.606394
485600 60.3145 161.895 55.7548 0.24275 -0.480259
485800 60.3145 161.908 55.7548 0.24285 -0.329406
486000 60.3145 161.921 55.7548 0.24295 -0.136695
486200 60.3145 161.934 55.7548 0.24305 0.0898291
486400 60.3145 161.947 55.7548 0.24315 0.303645
486600 60.3145 161.96 55.7548 0.24325 0.5059
486800 60.3145 161.973 55.7548 0.24335 0.637974
487000 60.3145 161.986 55.7548 0.24345 0.703091
487200 60.3145 161.999 55.7548 0.24355 0.697017
487400 60.3145 162.012 55.7548 0.24365 0.621485
487600 60.3145 162.025 55.7548 0.24375 0.46999
487800 60.3145 162.038 55.7548 0.24385 0.275236
488000 60.3145 162.051 55.7548 0.24395 0.0901794
488200 60.3145 162.064 55.7548 0.24405 -0.160416
488400 60.3145 162.077 55.7548 0.24415 -0.344474
488600 60.3145 162.09 55.7548 0.24425 -0.502543
488800 60.3145 162.103 55.7548 0.24435 -0.599871
489000 60.3145 162.116 55.7548 0.24445 -0.63002
489200 60.3145 162.129 55.7548 0.24455 -0.629147
489400 60.3145 162.142 55.7548 0.24465 -0.585114
489600 60.3145 162.155 55.7548 0.24475 -0.46506
489800 60.3145 162.168 55.7548 0.24485 -0.27229
490000 60.3145 162.181 55.7548 0.24495 -0.0780624
490200 60.3145 162.194 55.7548 0.24505 0.143402
490400 60.3145 162.207 55.7548 0.24515 0.364401
490600 60.3145 162.22 55.7548 0.24525 0.526724
490800 60.3145 162.233 55.7548 0.24535 0.635978
491000 60.3145 162.246 55.7548 0.24545 0.683963
491200 60.3145 162.259 55.7548 0.24555 0.668095
491400 60.3145 162.272 55.7548 0.24565 0.586432
491600 60.3145 162.285 55.7548 0.24575 0.440357
491800 60.3145 162.298 55.7548 0.24585 0.231179
492000 60.3145 162.312 55.7548 0.24595 0.00869268
492200 60.3145 162.325 55.7548 0.24605 -0.185986
492400 60.3145 162.338 55.7548 0.24615 -0.3792
492600 60.3145 162.351 55.7548 0.24625 -0.524425
492800 60.3145 162.364 55.7548 0.24635 -0.604542
493000 60.3145 162.377 55.7548 0.24645 -0.642459
493200 60.3145 162.39 55.7548 0.24655 -0.600408
493400 60.3145 162.403 55.7548 0.24665 -0.531305
493600 60.3145 162.416 55.7548 0.24675 -0.397154
493800 60.3145 162.429 55.7548 0.24685 -0.241243
494000 60.3145 162.442 55.7548 0.24695 -0.0580434
494200 60.3145 162.455 55.7548 0.24705 0.181429
494400 60.3145 162.468 55.7548 0.24715 0.388665
494600 60.3145 162.481 55.7548 0.24725 0.562364
494800 60.3145 162.494 55.7548 0.24735 0.643835
495000 60.3145 162.507 55.7548 0.24745 0.678402
495200 60.3145 162.52 55.7548 0.24755 0.620511
495400 60.3145 162.533 55.7548 0.24765 0.528992
495600 60.3145 162.546 55.7548 0.24775 0.390913
495800 60.3145 162.559 55.7548 0.24785 0.189625
496000 60.3145 162.572 55.7548 0.24795 0.00881904
496200 60.3145 162.585 55.7548 0.24805 -0.229897
496400 60.3145 162.598 55.7548 0.24815 -0.397095
496600 60.3145 162.611 55.7548 0.24825 -0.521606
496800 60.3145 162.624 55.7548 0.24835 -0.621996
497000 60.3145 162.637 55.7548 0.24845 -0.629888
497200 60.3145 162.65 55.7548 0.24855 -0.571081
497400 60.3145 162.663 55.7548 0.24865 -0.466479
497600 60.3145 162.676 55.7548 0.24875 -0.360223
497800 60.3145 162.689 55.7548 0.24885 -0.187173
498000 60.3145 162.702 55.7548 0.24895 -0.0029913
498200 60.3145 162.715 55.7548 0.24905 0.196145
498400 60.3145 162.728 55.7548 0.24915 0.407328
498600 60.3145 162.741 55.7548 0.24925 0.574298
498800 60.3145 162.754 55.7548 0.24935 0.635788
499000 60.3145 162.767 55.7548 0.24945 0.673293
499200 60.3145 162.78 55.7548 0.24955 0.613801
499400 60.3145 162.794 55.7548 0.24965 0.459984
499600 60.3145 162.807 55.7548 0.24975 0.325177
499800 60.3145 162.82 55.7548 0.24985 0.116685
500000 60.3145 162.833 55.7548 0.24995 -0.0435609
500200 60.3145 162.846 55.7548 0.25005 -0.221229
500400 60.3145 162.859 55.7548 0.25015 -0.414
500600 60.3145 162.872 55.7548 0.25025 -0.538976
500800 60.3145 162.885 55.7548 0.25035 -0.633091
501000 60.3145 162.898 55.7548 0.25045 -0.635727
501200 60.3145 162.911 55.7548 0.25055 -0.541679
501400 60.3145 162.924 55.7548 0.25065 -0.440649
501600 60.3145 162.937 55.7548 0.25075 -0.283916
501800 60.3145 162.95 55.7548 0.25085 -0.112723
502000 60.3145 162.963 55.7548 0.25095 0.0326456
502200 60.3145 162.976 55.7548 0.25105 0.249516
502400 60.3145 162.989 55.7548 0.25115 0.417168
502600 60.3145 163.002 55.7548 0.25125 0.57348
502800 60.3145 163.015 55.7548 0.25135 0.650175
503000 60.3145 163.028 55.7548 0.25145 0.669022
503200 60.3145 163.041 55.7548 0.25155 0.569001
503400 60.3145 163.054 55.7548 0.25165 0.437841
503600 60.3145 163.067 55.7548 0.25175 0.245005
503800 60.3145 163.08 55.7548 0.25185 0.0683728
504000 60.3145 163.093 55.7548 0.25195 -0.112773
504200 60.3145 163.106 55.7548 0.25205 -0.252935
504400 60.3145 163.119 55.7548 0.25215 -0.436746
504600 60.3145 163.132 55.7548 0.25225 -0.544217
504800 60.3145 163.145 55.7548 0.25235 -0.603786
505000 60.3145 163.158 55.7548 0.25245 -0.590365
505200 60.3145 163.171 55.7548 0.25255 -0.531673
505400 60.3145 163.184 55.7548 0.25265 -0.424732
505600 60.3145 163.197 55.7548 0.25275 -0.248181
505800 60.3145 163.21 55.7548 0.25285 -0.0590459
506000 60.3145 163.223 55.7548 0.25295 0.111006
506200 60.3145 163.236 55.7548 0.25305 0.289346
506400 60.3145 163.249 55.7548 0.25315 0.430194
506600 60.3145 163.262 55.7548 0.25325 0.587798
506800 60.3145 163.276 55.7548 0.25335 0.62108
507000 60.3145 163.289 55.7548 0.25345 0.615832
507200 60.3145 163.302 55.7548 0.25355 0.565044
507400 60.3145 163.315 55.7548 0.25365 0.380501
507600 60.3145 163.328 55.7548 0.25375 0.21748
507800 60.3145 163.341 55.7548 0.25385 0.0249489
508000 60.3145 163.354 55.7548 0.25395 -0.156802
508200 60.3145 163.367 55.7548 0.25405 -0.300157
508400 60.3145 163.38 55.7548 0.25415 -0.470522
508600 60.3145 163.393 55.7548 0.25425 -0.533091
508800 60.3145 163.406 55.7548 0.25435 -0.578677
509000 60.3145 163.419 55.7548 0.25445 -0.555594
509200 60.3145 163.432 55.7548 0.25455 -0.474739
509400 60.3145 163.445 55.7548 0.25465 -0.389617
509600 60.3145 163.458 55.7548 0.25475 -0.187516
509800 60.3145 163.471 55.7548 0.25485 -0.0532555
510000 60.3145 163.484 55.7548 0.25495 0.157639
510200 60.3145 163.497 55.7548 0.25505 0.318141
510400 60.3145 163.51 55.7548 0.25515 0.45493
510600 60.3145 163.523 55.7548 0.25525 0.556805
510800 60.3145 163.536 55.7548 0.25535 0.62135
511000 60.3145 163.549 55.7548 0.25545 0.583784
511200 60.3145 163.562 55.7548 0.25555 0.48706
511400 60.3145 163.575 55.7548 0.25565 0.348737
511600 60.3145 163.588 55.7548 0.25575 0.17632
511800 60.3145 163.601 55.7548 0.25585 -0.00768541
512000 60.3145 163.614 55.7548 0.25595 -0.163848
512200 60.3145 163.627 55.7548 0.25605 -0.336438
512400 60.3145 163.64 55.7548 0.25615 -0.459697
512600 60.3145 163.653 55.7548 0.25625 -0.549185
512800 60.3145 163.666 55.7548 0.25635 -0.555583
513000 60.3145 163.679 55.7548 0.25645 -0.517569
513200 60.3145 163.692 55.7548 0.25655 -0.458139
513400 60.3145 163.705 55.7548 0.25665 -0.334053
513600 60.3145 163.718 55.7548 0.25675 -0.189913
513800 60.3145 163.731 55.7548 0.25685 0.00855122
514000 60.3145 163.744 55.7548 0.25695 0.167811
514200 60.3145 163.758 55.7548 0.25705 0.355736
514400 60.3145 163.771 55.7548 0.25715 0.473473
514600 60.3145 163.784 55.7548 0.25725 0.582397
514800 60.3145 163.797 55.7548 0.25735 0.581522
515000 60.3145 163.81 55.7548 0.25745 0.551328
515200 60.3145 163.823 55.7548 0.25755 0.429964
515400 60.3145 163.836 55.7548 0.25765 0.3163
515600 60.3145 163.849 55.7548 0.25775 0.143544
515800 60.3145 163.862 55.7548 0.25785 -0.0671242
516000 60.3145 163.875 55.7548 0.25795 -0.202894
516200 60.3145 163.888 55.7548 0.25805 -0.337762
516400 60.3145 163.901 55.7548 0.25815 -0.471878
516600 60.3145 163.914 55.7548 0.25825 -0.525642
516800 60.3145 163.927 55.7548 0.25835 -0.555515
517000 60.3145 163.94 55.7548 0.25845 -0.489649
517200 60.3145 163.953 55.7548 0.25855 -0.394063
517400 60.3145 163.966 55.7548 0.25865 -0.294491
517600 60.3145 163.979 55.7548 0.25875 -0.123255
517800 60.3145 163.992 55.7548 0.25885 0.0307619
518000 60.3145 164.005 55.7548 0.25895 0.232805
518200 60.3145 164.018 55.7548 0.25905 0.344865
518400 60.3145 164.031 55.7548 0.25915 0.525904
518600 60.3145 164.044 55.7548 0.25925 0.566236
518800 60.3145 164.057 55.7548 0.25935 0.553299
519000 60.3145 164.07 55.7548 0.25945 0.502494
519200 60.3145 164.083 55.7548 0.25955 0.410036
519400 60.3145 164.096 55.7548 0.25965 0.253822
519600 60.3145 164.109 55.7548 0.25975 0.0800181
519800 60.3145 164.122 55.7548 0.25985 -0.0903578
520000 60.3145 164.135 55.7548 0.25995 -0.24519
520200 60.3145 164.148 55.7548 0.26005 -0.364778
520400 60.3145 164.161 55.7548 0.26015 -0.471867
520600 60.3145 164.174 55.7548 0.26025 -0.543632
520800 60.3145 164.187 55.7548 0.26035 -0.533619
521000 60.3145 164.2 55.7548 0.26045 -0.469251
521200 60.3145 164.213 55.7548 0.26055 -0.374641
521400 60.3145 164.227 55.7548 0.26065 -0.221687
521600 60.3145 164.24 55.7548 0.26075 -0.0936972
521800 60.3145 164.253 55.7548 0.26085 0.0907654
522000 60.3145 164.266 55.7548 0.26095 0.253678
522200 60.3145 164.279 55.7548 0.26105 0.403389
522400 60.3145 164.292 55.7548 0.26115 0.493665
522600 60.3145 164.305 55.7548 0.26125 0.552345
522800 60.3145 164.318 55.7548 0.26135 0.555056
523000 60.3145 164.331 55.7548 0.26145 0.469151
523200 60.3145 164.344 55.7548 0.26155 0.355561
523400 60.3145 164.357 55.7548 0.26165 0.219855
523600 60.3145 164.37 55.7548 0.26175 0.0457428
523800 60.3145 164.383 55.7548 0.26185 -0.1076
524000 60.3145 164.396 55.7548 0.26195 -0.285886
524200 60.3145 164.409 55.7548 0.26205 -0.384775
524400 60.3145 164.422 55.7548 0.26215 -0.496755
524600 60.3145 164.435 55.7548 0.26225 -0.515608
524800 60.3145 164.448 55.7548 0.26235 -0.492346
525000 60.3145 164.461 55.7548 0.26245 -0.448103
525200 60.3145 164.474 55.7548 0.26255 -0.319833
525400 60.3145 164.487 55.7548 0.26265 -0.18163
525600 60.3145 164.5 55.7548 0.26275 -0.0637139
525800 60.3145 164.513 55.7548 0.26285 0.133297
526000 60.3145 164.526 55.7548 0.26295 0.271822
526200 60.3145 164.539 55.7548 0.26305 0.399056
526400 60.3145 164.552 55.7548 0.26315 0.525466
526600 60.3145 164.565 55.7548 0.26325 0.556525
526800 60.3145 164.578 55.7548 0.26335 0.511882
527000 60.3145 164.591 55.7548 0.26345 0.446523
527200 60.3145 164.604 55.7548 0.26355 0.281
527400 60.3145 164.617 55.7548 0.26365 0.164799
527600 60.3145 164.63 55.7548 0.26375 -0.00578105
527800 60.3145 164.643 55.7548 0.26385 -0.164878
528000 60.3145 164.656 55.7548 0.26395 -0.296916
528200 60.3145 164.669 55.7548 0.26405 -0.390967
528400 60.3145 164.682 55.7548 0.26415 -0.463586
528600 60.3145 164.695 55.7548 0.26425 -0.505228
528800 60.3145 164.709 55.7548 0.26435 -0.492363
529000 60.3145 164.722 55.7548 0.26445 -0.392537
529200 60.3145 164.735 55.7548 0.26455 -0.273361
529400 60.3145 164.748 55.7548 0.26465 -0.159733
529600 60.3145 164.761 55.7548 0.26475 0.0399171
529800 60.3145 164.774 55.7548 0.26485 0.158031
530000 60.3145 164.787 55.7548 0.26495 0.304852
530200 60.3145 164.8 55.7548 0.26505 0.415492
530400 60.3145 164.813 55.7548 0.26515 0.495017
530600 60.3145 164.826 55.7548 0.26525 0.515578
530800 60.3145 164.839 55.7548 0.26535 0.496585
531000 60.3145 164.852 55.7548 0.26545 0.393151
531200 60.3145 164.865 55.7548 0.26555 0.271834
531400 60.3145 164.878 55.7548 0.26565 0.110931
531600 60.3145 164.891 55.7548 0.26575 -0.05194
531800 60.3145 164.904 55.7548 0.26585 -0.18827
532000 60.3145 164.917 55.7548 0.26595 -0.328571
532200 60.3145 164.93 55.7548 0.26605 -0.404492
532400 60.3145 164.943 55.7548 0.26615 -0.465257
532600 60.3145 164.956 55.7548 0.26625 -0.471888
532800 60.3145 164.969 55.7548 0.26635 -0.45046
533000 60.3145 164.982 55.7548 0.26645 -0.355589
533200 60.3145 164.995 55.7548 0.26655 -0.251785
533400 60.3145 165.008 55.7548 0.26665 -0.121567
533600 60.3145 165.021 55.7548 0.26675 0.0412518
533800 60.3145 165.034 55.7548 0.26685 0.214291
534000 60.3145 165.047 55.7548 0.26695 0.311756
534200 60.3145 165.06 55.7548 0.26705 0.441269
534400 60.3145 165.073 55.7548 0.26715 0.499942
534600 60.3145 165.086 55.7548 0.26725 0.476817
534800 60.3145 165.099 55.7548 0.26735 0.47016
535000 60.3145 165.112 55.7548 0.26745 0.346671
535200 60.3145 165.125 55.7548 0.26755 0.215314
535400 60.3145 165.138 55.7548 0.26765 0.0714859
535600 60.3145 165.151 55.7548 0.26775 -0.0555499
535800 60.3145 165.164 55.7548 0.26785 -0.223196
536000 60.3145 165.177 55.7548 0.26795 -0.328802
536200 60.3145 165.191 55.7548 0.26805 -0.412077
536400 60.3145 165.204 55.7548 0.26815 -0.463672
536600 60.3145 165.217 55.7548 0.26825 -0.45332
536800 60.3145 165.23 55.7548 0.26835 -0.439298
537000 60.3145 165.243 55.7548 0.26845 -0.302737
537200 60.3145 165.256 55.7548 0.26855 -0.203073
537400 60.3145 165.269 55.7548 0.26865 -0.0802397
537600 60.3145 165.282 55.7548 0.26875 0.0682151
537800 60.3145 165.295 55.7548 0.26885 0.229719
538000 60.3145 165.308 55.7548 0.26895 0.325624
538200 60.3145 165.321 55.7548 0.26905 0.469981
538400 60.3145 165.334 55.7548 0.26915 0.4817
538600 60.3145 165.347 55.7548 0.26925 0.471929
538800 60.3145 165.36 55.7548 0.26935 0.42238
539000 60.3145 165.373 55.7548 0.26945 0.318241
539200 60.3145 165.386 55.7548 0.26955 0.18405
539400 60.3145 165.399 55.7548 0.26965 0.042199
539600 60.3145 165.412 55.7548 0.26975 -0.111653
539800 60.3145 165.425 55.7548 0.26985 -0.250088
540000 60.3145 165.438 55.7548 0.26995 -0.332541
540200 60.3145 165.451 55.7548 0.27005 -0.429656
540400 60.3145 165.464 55.7548 0.27015 -0.463488
540600 60.3145 165.477 55.7548 0.27025 -0.454029
540800 60.3145 165.49 55.7548 0.27035 -0.38355
541000 60.3145 165.503 55.7548 0.27045 -0.309458
541200 60.3145 165.516 55.7548 0.27055 -0.185335
541400 60.3145 165.529 55.7548 0.27065 0.00898516
541600 60.3145 165.542 55.7548 0.27075 0.109406
541800 60.3145 165.555 55.7548 0.27085 0.25362
542000 60.3145 165.568 55.7548 0.27095 0.374829
542200 60.3145 165.581 55.7548 0.27105 0.458254
542400 60.3145 165.594 55.7548 0.27115 0.479426
542600 60.3145 165.607 55.7548 0.27125 0.45753
542800 60.3145 165.62 55.7548 0.27135 0.374267
543000 60.3145 165.633 55.7548 0.27145 0.287805
543200 60.3145 165.646 55.7548 0.27155 0.152509
543400 60.3145 165.659 55.7548 0.27165 -0.00683849
543600 60.3145 165.673 55.7548 0.27175 -0.15044
543800 60.3145 165.686 55.7548 0.27185 -0.284559
544000 60.3145 165.699 55.7548 0.27195 -0.35958
544200 60.3145 165.712 55.7548 0.27205 -0.423197
544400 60.3145 165.725 55.7548 0.27215 -0.448944
544600 60.3145 165.738 55.7548 0.27225 -0.437285
544800 60.3145 165.751 55.7548 0.27235 -0.347662
545000 60.3145 165.764 55.7548 0.27245 -0.256619
545200 60.3145 165.777 55.7548 0.27255 -0.11862
545400 60.3145 165.79 55.7548 0.27265 0.0252633
545600 60.3145 165.803 55.7548 0.27275 0.151352
545800 60.3145 165.816 55.7548 0.27285 0.287422
546000 60.3145 165.829 55.7548 0.27295 0.389462
546200 60.3145 165.842 55.7548 0.27305 0.473326
546400 60.3145 165.855 55.7548 0.27315 0.448983
546600 60.3145 165.868 55.7548 0.27325 0.417991
546800 60.3145 165.881 55.7548 0.27335 0.366607
547000 60.3145 165.894 55.7548 0.27345 0.241644
547200 60.3145 165.907 55.7548 0.27355 0.0794639
547400 60.3145 165.92 55.7548 0.27365 -0.0511836
547600 60.3145 165.933 55.7548 0.27375 -0.172662
547800 60.3145 165.946 55.7548 0.27385 -0.3097
548000 60.3145 165.959 55.7548 0.27395 -0.382383
548200 60.3145 165.972 55.7548 0.27405 -0.422275
548400 60.3145 165.985 55.7548 0.27415 -0.417116
548600 60.3145 165.998 55.7548 0.27425 -0.386478
548800 60.3145 166.011 55.7548 0.27435 -0.338261
549000 60.3145 166.024 55.7548 0.27445 -0.218341
549200 60.3145 166.037 55.7548 0.27455 -0.0981258
549400 60.3145 166.05 55.7548 0.27465 0.0499486
549600 60.3145 166.063 55.7548 0.27475 0.216656
549800 60.3145 166.076 55.7548 0.27485 0.316211
550000 60.3145 166.089 55.7548 0.27495 0.393427
550200 60.3145 166.102 55.7548 0.27505 0.446783
550400 60.3145 166.115 55.7548 0.27515 0.456283
550600 60.3145 166.128 55.7548 0.27525 0.393679
550800 60.3145 166.141 55.7548 0.27535 0.322388
551000 60.3145 166.155 55.7548 0.27545 0.197402
551200 60.3145 166.168 55.7548 0.27555 0.0778534
551400 60.3145 166.181 55.7548 0.27565 -0.0898143
551600 60.3145 166.194 55.7548 0.27575 -0.214381
551800 60.3145 166.207 55.7548 0.27585 -0.296612
552000 60.3145 166.22 55.7548 0.27595 -0.408595
552200 60.3145 166.233 55.7548 0.27605 -0.423025
552400 60.3145 166.246 55.7548 0.27615 -0.39986
552600 60.3145 166.259 55.7548 0.27625 -0.391441
552800 60.3145 166.272 55.7548 0.27635 -0.277191
553000 60.3145 166.285 55.7548 0.27645 -0.18768
553200 60.3145 166.298 55.7548 0.27655 -0.0736495
553400 60.3145 166.311 55.7548 0.27665 0.0904833
553600 60.3145 166.324 55.7548 0.27675 0.219235
553800 60.3145 166.337 55.7548 0.27685 0.346064
554000 60.3145 166.35 55.7548 0.27695 0.39501
554200 60.3145 166.363 55.7548 0.27705 0.452747
554400 60.3145 166.376 55.7548 0.27715 0.432769
554600 60.3145 166.389 55.7548 0.27725 0.346409
554800 60.3145 166.402 55.7548 0.27735 0.29333
555000 60.3145 166.415 55.7548 0.27745 0.183614
555200 60.3145 166.428 55.7548 0.27755 0.0273298
555400 60.3145 166.441 55.7548 0.27765 -0.109718
555600 60.3145 166.454 55.7548 0.27775 -0.244581
555800 60.3145 166.467 55.7548 0.27785 -0.3225
556000 60.3145 166.48 55.7548 0.27795 -0.370399
556200 60.3145 166.493 55.7548 0.27805 -0.432347
556400 60.3145 166.506 55.7548 0.27815 -0.40507
556600 60.3145 166.519 55.7548 0.27825 -0.343298
556800 60.3145 166.532 55.7548 0.27835 -0.249838
557000 60.3145 166.545 55.7548 0.27845 -0.149598
557200 60.3145 166.558 55.7548 0.27855 -0.0431177
557400 60.3145 166.571 55.7548 0.27865 0.12323
557600 60.3145 166.584 55.7548 0.27875 0.257668
557800 60.3145 166.597 55.7548 0.27885 0.328179
558000 60.3145 166.61 55.7548 0.27895 0.404124
558200 60.3145 166.623 55.7548 0.27905 0.454173
558400 60.3145 166.637 55.7548 0.27915 0.41265
558600 60.3145 166.65 55.7548 0.27925 0.361752
558800 60.3145 166.663 55.7548 0.27935 0.260049
559000 60.3145 166.676 55.7548 0.27945 0.134311
559200 60.3145 166.689 55.7548 0.27955 -0.0125601
559400 60.3145 166.702 55.7548 0.27965 -0.146601
559600 60.3145 166.715 55.7548 0.27975 -0.267307
559800 60.3145 166.728 55.7548 0.27985 -0.313963
560000 60.3145 166.741 55.7548 0.27995 -0.408755
560200 60.3145 166.754 55.7548 0.28005 -0.419333
560400 60.3145 166.767 55.7548 0.28015 -0.378501
560600 60.3145 166.78 55.7548 0.28025 -0.369
560800 60.3145 166.793 55.7548 0.28035 -0.227312
561000 60.3145 166.806 55.7548 0.28045 -0.122559
561200 60.3145 166.819 55.7548 0.28055 0.0355241
561400 60.3145 166.832 55.7548 0.28065 0.132601
561600 60.3145 166.845 55.7548 0.28075 0.282422
561800 60.3145 166.858 55.7548 0.28085 0.374589
562000 60.3145 166.871 55.7548 0.28095 0.414698
562200 60.3145 166.884 55.7548 0.28105 0.443703
562400 60.3145 166.897 55.7548 0.28115 0.385119
562600 60.3145 166.91 55.7548 0.28125 0.349783
562800 60.3145 166.923 55.7548 0.28135 0.207381
563000 60.3145 166.936 55.7548 0.28145 0.094725
563200 60.3145 166.949 55.7548 0.28155 -0.0331894
563400 60.3145 166.962 55.7548 0.28165 -0.168043
563600 60.3145 166.975 55.7548 0.28175 -0.278878
563800 60.3145 166.988 55.7548 0.28185 -0.375055
564000 60.3145 167.001 55.7548 0.28195 -0.399026
564200 60.3145 167.014 55.7548 0.28205 -0.387235
564400 60.3145 167.027 55.7548 0.28215 -0.400349
564600 60.3145 167.04 55.7548 0.28225 -0.266301
564800 60.3145 167.053 55.7548 0.28235 -0.205669
565000 60.3145 167.066 55.7548 0.28245 -0.0747606
565200 60.3145 167.079 55.7548 0.28255 0.0600131
565400 60.3145 167.092 55.7548 0.28265 0.163413
565600 60.3145 167.105 55.7548 0.28275 0.304611
565800 60.3145 167.119 55.7548 0.28285 0.362869
566000 60.3145 167.132 55.7548 0.28295 0.42231
566200 60.3145 167.145 55.7548 0.28305 0.424573
566400 60.3145 167.158 55.7548 0.28315 0.379334
566600 60.3145 167.171 55.7548 0.28325 0.300081
566800 60.3145 167.184 55.7548 0.28335 0.143608
567000 60.3145 167.197 55.7548 0.28345 0.0385767
567200 60.3145 167.21 55.7548 0.28355 -0.0642136
567400 60.3145 167.223 55.7548 0.28365 -0.193528
567600 60.3145 167.236 55.7548 0.28375 -0.267557
567800 60.3145 167.249 55.7548 0.28385 -0.367365
568000 60.3145 167.262 55.7548 0.28395 -0.413398
568200 60.3145 167.275 55.7548 0.28405 -0.386587
568400 60.3145 167.288 55.7548 0.28415 -0.341733
568600 60.3145 167.301 55.7548 0.28425 -0.263952
568800 60.3145 167.314 55.7548 0.28435 -0.160993
569000 60.3145 167.327 55.7548 0.28445 -0.0128501
569200 60.3145 167.34 55.7548 0.28455 0.0859869
569400 60.3145 167.353 55.7548 0.28465 0.20274
569600 60.3145 167.366 55.7548 0.28475 0.290553
569800 60.3145 167.379 55.7548 0.28485 0.383728
570000 60.3145 167.392 55.7548 0.28495 0.400542
570200 60.3145 167.405 55.7548 0.28505 0.424518
570400 60.3145 167.418 55.7548 0.28515 0.343767
570600 60.3145 167.431 55.7548 0.28525 0.253856
570800 60.3145 167.444 55.7548 0.28535 0.126625
571000 60.3145 167.457 55.7548 0.28545 -0.00151979
571200 60.3145 167.47 55.7548 0.28555 -0.10906
571400 60.3145 167.483 55.7548 0.28565 -0.213107
571600 60.3145 167.496 55.7548 0.28575 -0.28595
571800 60.3145 167.509 55.7548 0.28585 -0.366344
572000 60.3145 167.522 55.7548 0.28595 -0.374696
572200 60.3145 167.535 55.7548 0.28605 -0.361319
572400 60.3145 167.548 55.7548 0.28615 -0.32301
572600 60.3145 167.561 55.7548 0.28625 -0.232438
572800 60.3145 167.574 55.7548 0.28635 -0.100146
573000 60.3145 167.587 55.7548 0.28645 -0.0234834
573200 60.3145 167.601 55.7548 0.28655 0.120706
573400 60.3145 167.614 55.7548 0.28665 0.233266
573600 60.3145 167.627 55.7548 0.28675 0.305919
573800 60.3145 167.64 55.7548 0.28685 0.389776
574000 60.3145 167.653 55.7548 0.28695 0.368069
574200 60.3145 167.666 55.7548 0.28705 0.380476
574400 60.3145 167.679 55.7548 0.28715 0.31312
574600 60.3145 167.692 55.7548 0.28725 0.21071
574800 60.3145 167.705 55.7548 0.28735 0.106445
575000 60.3145 167.718 55.7548 0.28745 -0.0251352
575200 60.3145 167.731 55.7548 0.28755 -0.147937
575400 60.3145 167.744 55.7548 0.28765 -0.2165
575600 60.3145 167.757 55.7548 0.28775 -0.296653
575800 60.3145 167.77 55.7548 0.28785 -0.369058
576000 60.3145 167.783 55.7548 0.28795 -0.369862
576200 60.3145 167.796 55.7548 0.28805 -0.332485
576400 60.3145 167.809 55.7548 0.28815 -0.284162
576600 60.3145 167.822 55.7548 0.28825 -0.233745
576800 60.3145 167.835 55.7548 0.28835 -0.061477
577000 60.3145 167.848 55.7548 0.28845 0.0237899
577200 60.3145 167.861 55.7548 0.28855 0.146604
577400 60.3145 167.874 55.7548 0.28865 0.26333
577600 60.3145 167.887 55.7548 0.28875 0.315997
577800 60.3145 167.9 55.7548 0.28885 0.389752
578000 60.3145 167.913 55.7548 0.28895 0.401519
578200 60.3145 167.926 55.7548 0.28905 0.337264
578400 60.3145 167.939 55.7548 0.28915 0.291003
578600 60.3145 167.952 55.7548 0.28925 0.189674
578800 60.3145 167.965 55.7548 0.28935 0.0497504
579000 60.3145 167.978 55.7548 0.28945 -0.0407358
579200 60.3145 167.991 55.7548 0.28955 -0.184911
579400 60.3145 168.004 55.7548 0.28965 -0.238066
579600 60.3145 168.017 55.7548 0.28975 -0.30933
579800 60.3145 168.03 55.7548 0.28985 -0.34993
580000 60.3145 168.043 55.7548 0.28995 -0.387442
580200 60.3145 168.056 55.7548 0.29005 -0.339738
580400 60.3145 168.07 55.7548 0.29015 -0.263077
580600 60.3145 168.083 55.7548 0.29025 -0.16219
580800 60.3145 168.096 55.7548 0.29035 -0.0677746
581000 60.3145 168.109 55.7548 0.29045 0.0886559
581200 60.3145 168.122 55.7548 0.29055 0.146974
581400 60.3145 168.135 55.7548 0.29065 0.247636
581600 60.3145 168.148 55.7548 0.29075 0.33282
581800 60.3145 168.161 55.7548 0.29085 0.396735
582000 60.3145 168.174 55.7548 0.29095 0.376889
582200 60.3145 168.187 55.7548 0.29105 0.352532
582400 60.3145 168.2 55.7548 0.29115 0.264404
582600 60.3145 168.213 55.7548 0.29125 0.160221
582800 60.3145 168.226 55.7548 0.29135 0.0257516
583000 60.3145 168.239 55.7548 0.29145 -0.0770594
583200 60.3145 168.252 55.7548 0.29155 -0.166727
583400 60.3145 168.265 55.7548 0.29165 -0.264358
583600 60.3145 168.278 55.7548 0.29175 -0.329443
583800 60.3145 168.291 55.7548 0.29185 -0.371308
584000 60.3145 168.304 55.7548 0.29195 -0.359125
584200 60.3145 168.317 55.7548 0.29205 -0.313885
584400 60.3145 168.33 55.7548 0.29215 -0.254666
584600 60.3145 168.343 55.7548 0.29225 -0.122069
584800 60.3145 168.356 55.7548 0.29235 -0.0293907
585000 60.3145 168.369 55.7548 0.29245 0.0867946
585200 60.3145 168.382 55.7548 0.29255 0.198349
585400 60.3145 168.395 55.7548 0.29265 0.284542
585600 60.3145 168.408 55.7548 0.29275 0.357893
585800 60.3145 168.421 55.7548 0.29285 0.353378
586000 60.3145 168.434 55.7548 0.29295 0.373471
586200 60.3145 168.447 55.7548 0.29305 0.312443
586400 60.3145 168.46 55.7548 0.29315 0.223916
586600 60.3145 168.473 55.7548 0.29325 0.133325
586800 60.3145 168.486 55.7548 0.29335 0.00179247
587000 60.3145 168.499 55.7548 0.29345 -0.121415
587200 60.3145 168.512 55.7548 0.29355 -0.199588
587400 60.3145 168.525 55.7548 0.29365 -0.26828
587600 60.3145 168.538 55.7548 0.29375 -0.322776
587800 60.3145 168.552 55.7548 0.29385 -0.346715
588000 60.3145 168.565 55.7548 0.29395 -0.334816
588200 60.3145 168.578 55.7548 0.29405 -0.29103
588400 60.3145 168.591 55.7548 0.29415 -0.227348
588600 60.3145 168.604 55.7548 0.29425 -0.119984
588800 60.3145 168.617 55.7548 0.29435 -0.00643071
589000 60.3145 168.63 55.7548 0.29445 0.12153
589200 60.3145 168.643 55.7548 0.29455 0.242664
589400 60.3145 168.656 55.7548 0.29465 0.29479
589600 60.3145 168.669 55.7548 0.29475 0.334479
589800 60.3145 168.682 55.7548 0.29485 0.353245
590000 60.3145 168.695 55.7548 0.29495 0.342034
590200 60.3145 168.708 55.7548 0.29505 0.299875
590400 60.3145 168.721 55.7548 0.29515 0.202146
590600 60.3145 168.734 55.7548 0.29525 0.107731
590800 60.3145 168.747 55.7548 0.29535 -0.0343712
591000 60.3145 168.76 55.7548 0.29545 -0.126948
591200 60.3145 168.773 55.7548 0.29555 -0.235238
591400 60.3145 168.786 55.7548 0.29565 -0.289724
591600 60.3145 168.799 55.7548 0.29575 -0.327728
591800 60.3145 168.812 55.7548 0.29585 -0.314523
592000 60.3145 168.825 55.7548 0.29595 -0.324021
592200 60.3145 168.838 55.7548 0.29605 -0.267005
592400 60.3145 168.851 55.7548 0.29615 -0.171855
592600 60.3145 168.864 55.7548 0.29625 -0.0876251
592800 60.3145 168.877 55.7548 0.29635 0.0311704
593000 60.3145 168.89 55.7548 0.29645 0.122694
593200 60.3145 168.903 55.7548 0.29655 0.239386
593400 60.3145 168.916 55.7548 0.29665 0.329292
593600 60.3145 168.929 55.7548 0.29675 0.326126
593800 60.3145 168.942 55.7548 0.29685 0.352119
594000 60.3145 168.955 55.7548 0.29695 0.326641
594200 60.3145 168.968 55.7548 0.29705 0.259457
594400 60.3145 168.981 55.7548 0.29715 0.160388
594600 60.3145 168.994 55.7548 0.29725 0.056425
594800 60.3145 169.007 55.7548 0.29735 -0.0459238
595000 60.3145 169.02 55.7548 0.29745 -0.158703
595200 60.3145 169.034 55.7548 0.29755 -0.239031
595400 60.3145 169.047 55.7548 0.29765 -0.304043
595600 60.3145 169.06 55.7548 0.29775 -0.325338
595800 60.3145 169.073 55.7548 0.29785 -0.327657
596000 60.3145 169.086 55.7548 0.29795 -0.292676
596200 60.3145 169.099 55.7548 0.29805 -0.228747
596400 60.3145 169.112 55.7548 0.29815 -0.15474
596600 60.3145 169.125 55.7548 0.29825 -0.0486214
596800 60.3145 169.138 55.7548 0.29835 0.0620331
597000 60.3145 169.151 55.7548 0.29845 0.163368
597200 60.3145 169.164 55.7548 0.29855 0.247524
597400 60.3145 169.177 55.7548 0.29865 0.330061
597600 60.3145 169.19 55.7548 0.29875 0.333505
597800 60.3145 169.203 55.7548 0.29885 0.336855
598000 60.3145 169.216 55.7548 0.29895 0.292316
598200 60.3145 169.229 55.7548 0.29905 0.237036
598400 60.3145 169.242 55.7548 0.29915 0.134238
598600 60.3145 169.255 55.7548 0.29925 0.0237295
598800 60.3145 169.268 55.7548 0.29935 -0.0702231
599000 60.3145 169.281 55.7548 0.29945 -0.166195
599200 60.3145 169.294 55.7548 0.29955 -0.250005
599400 60.3145 169.307 55.7548 0.29965 -0.325653
599600 60.3145 169.32 55.7548 0.29975 -0.301136
599800 60.3145 169.333 55.7548 0.29985 -0.320125
600000 60.3145 169.346 55.7548 0.29995 -0.275841
600200 60.3145 169.359 55.7548 0.30005 -0.220748
600400 60.3145 169.372 55.7548 0.30015 -0.131083
600600 60.3145 169.385 55.7548 0.30025 0.00116025
600800 60.3145 169.398 55.7548 0.30035 0.0787771
601000 60.3145 169.411 55.7548 0.30045 0.167206
601200 60.3145 169.424 55.7548 0.30055 0.270189
601400 60.3145 169.437 55.7548 0.30065 0.316322
601600 60.3145 169.45 55.7548 0.30075 0.364665
601800 60.3145 169.463 55.7548 0.30085 0.308842
602000 60.3145 169.476 55.7548 0.30095 0.27376
602200 60.3145 169.489 55.7548 0.30105 0.193355
602400 60.3145 169.502 55.7548 0.30115 0.133376
602600 60.3145 169.516 55.7548 0.30125 -0.00568263
602800 60.3145 169.529 55.7548 0.30135 -0.10884
603000 60.3145 169.542 55.7548 0.30145 -0.182473
603200 60.3145 169.555 55.7548 0.30155 -0.248016
603400 60.3145 169.568 55.7548 0.30165 -0.305727
603600 60.3145 169.581 55.7548 0.30175 -0.312563
603800 60.3145 169.594 55.7548 0.30185 -0.304991
604000 60.3145 169.607 55.7548 0.30195 -0.259226
604200 60.3145 169.62 55.7548 0.30205 -0.180205
604400 60.3145 169.633 55.7548 0.30215 -0.072545
604600 60.3145 169.646 55.7548 0.30225 -0.0106198
604800 60.3145 169.659 55.7548 0.30235 0.0904736
605000 60.3145 169.672 55.7548 0.30245 0.19729
605200 60.3145 169.685 55.7548 0.30255 0.2851
605400 60.3145 169.698 55.7548 0.30265 0.304615
605600 60.3145 169.711 55.7548 0.30275 0.308251
605800 60.3145 169.724 55.7548 0.30285 0.325909
606000 60.3145 169.737 55.7548 0.30295 0.253412
606200 60.3145 169.75 55.7548 0.30305 0.176326
606400 60.3145 169.763 55.7548 0.30315 0.0994264
606600 60.3145 169.776 55.7548 0.30325 -0.0214039
606800 60.3145 169.789 55.7548 0.30335 -0.136469
607000 60.3145 169.802 55.7548 0.30345 -0.197037
607200 60.3145 169.815 55.7548 0.30355 -0.273489
607400 60.3145 169.828 55.7548 0.30365 -0.291951
607600 60.3145 169.841 55.7548 0.30375 -0.301656
607800 60.3145 169.854 55.7548 0.30385 -0.293885
608000 60.3145 169.867 55.7548 0.30395 -0.234956
608200 60.3145 169.88 55.7548 0.30405 -0.16379
608400 60.3145 169.893 55.7548 0.30415 -0.0465125
608600 60.3145 169.906 55.7548 0.30425 -0.00711971
608800 60.3145 169.919 55.7548 0.30435 0.131917
609000 60.3145 169.932 55.7548 0.30445 0.205629
609200 60.3145 169.945 55.7548 0.30455 0.295648
609400 60.3145 169.958 55.7548 0.30465 0.331817
609600 60.3145 169.971 55.7548 0.30475 0.308287
609800 60.3145 169.984 55.7548 0.30485 0.279983
610000 60.3145 169.998 55.7548 0.30495 0.228152
610200 60.3145 170.011 55.7548 0.30505 0.154691
610400 60.3145 170.024 55.7548 0.30515 0.0593827
610600 60.3145 170.037 55.7548 0.30525 -0.0401718
610800 60.3145 170.05 55.7548 0.30535 -0.134377
611000 60.3145 170.063 55.7548 0.30545 -0.204102
611200 60.3145 170.076 55.7548 0.30555 -0.262581
611400 60.3145 170.089 55.7548 0.30565 -0.314285
611600 60.3145 170.102 55.7548 0.30575 -0.301502
611800 60.3145 170.115 55.7548 0.30585 -0.251493
612000 60.3145 170.128 55.7548 0.30595 -0.204739
612200 60.3145 170.141 55.7548 0.30605 -0.166838
612400 60.3145 170.154 55.7548 0.30615 -0.0338494
612600 60.3145 170.167 55.7548 0.30625 0.0639211
612800 60.3145 170.18 55.7548 0.30635 0.121532
613000 60.3145 170.193 55.7548 0.30645 0.227878
613200 60.3145 170.206 55.7548 0.30655 0.271006
613400 60.3145 170.219 55.7548 0.30665 0.330558
613600 60.3145 170.232 55.7548 0.30675 0.294334
613800 60.3145 170.245 55.7548 0.30685 0.293959
614000 60.3145 170.258 55.7548 0.30695 0.200088
614200 60.3145 170.271 55.7548 0.30705 0.0982699
614400 60.3145 170.284 55.7548 0.30715 0.0341955
614600 60.3145 170.297 55.7548 0.30725 -0.0802793
614800 60.3145 170.31 55.7548 0.30735 -0.128225
615000 60.3145 170.323 55.7548 0.30745 -0.227327
615200 60.3145 170.336 55.7548 0.30755 -0.268767
615400 60.3145 170.349 55.7548 0.30765 -0.279785
615600 60.3145 170.362 55.7548 0.30775 -0.297858
615800 60.3145 170.375 55.7548 0.30785 -0.245365
616000 60.3145 170.388 55.7548 0.30795 -0.203235
616200 60.3145 170.401 55.7548 0.30805 -0.10459
616400 60.3145 170.414 55.7548 0.30815 -0.00665464
616600 60.3145 170.427 55.7548 0.30825 0.0756943
616800 60.3145 170.44 55.7548 0.30835 0.17104
617000 60.3145 170.453 55.7548 0.30845 0.241028
617200 60.3145 170.466 55.7548 0.30855 0.302003
617400 60.3145 170.48 55.7548 0.30865 0.292444
617600 60.3145 170.493 55.7548 0.30875 0.291215
617800 60.3145 170.506 55.7548 0.30885 0.257876
618000 60.3145 170.519 55.7548 0.30895 0.18338
618200 60.3145 170.532 55.7548 0.30905 0.07825
618400 60.3145 170.545 55.7548 0.30915 0.00758095
618600 60.3145 170.558 55.7548 0.30925 -0.0746407
618800 60.3145 170.571 55.7548 0.30935 -0.184252
619000 60.3145 170.584 55.7548 0.30945 -0.256622
619200 60.3145 170.597 55.7548 0.30955 -0.27273
619400 60.3145 170.61 55.7548 0.30965 -0.304361
619600 60.3145 170.623 55.7548 0.30975 -0.248149
619800 60.3145 170.636 55.7548 0.30985 -0.225073
620000 60.3145 170.649 55.7548 0.30995 -0.171383
620200 60.3145 170.662 55.7548 0.31005 -0.110134
620400 60.3145 170.675 55.7548 0.31015 0.0188584
620600 60.3145 170.688 55.7548 0.31025 0.116441
620800 60.3145 170.701 55.7548 0.31035 0.187774
621000 60.3145 170.714 55.7548 0.31045 0.253716
621200 60.3145 170.727 55.7548 0.31055 0.27933
621400 60.3145 170.74 55.7548 0.31065 0.314064
621600 60.3145 170.753 55.7548 0.31075 0.271819
621800 60.3145 170.766 55.7548 0.31085 0.23036
622000 60.3145 170.779 55.7548 0.31095 0.173733
622200 60.3145 170.792 55.7548 0.31105 0.0492427
622400 60.3145 170.805 55.7548 0.31115 -0.0180518
622600 60.3145 170.818 55.7548 0.31125 -0.102597
622800 60.3145 170.831 55.7548 0.31135 -0.183926
623000 60.3145 170.844 55.7548 0.31145 -0.261546
623200 60.3145 170.857 55.7548 0.31155 -0.251719
623400 60.3145 170.87 55.7548 0.31165 -0.284302
623600 60.3145 170.883 55.7548 0.31175 -0.283526
623800 60.3145 170.896 55.7548 0.31185 -0.210609
624000 60.3145 170.909 55.7548 0.31195 -0.117833
624200 60.3145 170.922 55.7548 0.31205 -0.0527853
624400 60.3145 170.935 55.7548 0.31215 0.0190936
624600 60.3145 170.948 55.7548 0.31225 0.106191
624800 60.3145 170.962 55.7548 0.31235 0.205511
625000 60.3145 170.975 55.7548 0.31245 0.253841
625200 60.3145 170.988 55.7548 0.31255 0.298501
625400 60.3145 171.001 55.7548 0.31265 0.285397
625600 60.3145 171.014 55.7548 0.31275 0.256171
625800 60.3145 171.027 55.7548 0.31285 0.212045
626000 60.3145 171.04 55.7548 0.31295 0.110953
626200 60.3145 171.053 55.7548 0.31305 0.0710379
626400 60.3145 171.066 55.7548 0.31315 -0.0619467
626600 60.3145 171.079 55.7548 0.31325 -0.111692
626800 60.3145 171.092 55.7548 0.31335 -0.199875
627000 60.3145 171.105 55.7548 0.31345 -0.241276
627200 60.3145 171.118 55.7548 0.31355 -0.290413
627400 60.3145 171.131 55.7548 0.31365 -0.256071
627600 60.3145 171.144 55.7548 0.31375 -0.245532
627800 60.3145 171.157 55.7548 0.31385 -0.195453
628000 60.3145 171.17 55.7548 0.31395 -0.126142
628200 60.3145 171.183 55.7548 0.31405 -0.0155862
628400 60.3145 171.196 55.7548 0.31415 0.0693498
628600 60.3145 171.209 55.7548 0.31425 0.120234
628800 60.3145 171.222 55.7548 0.31435 0.193786
629000 60.3145 171.235 55.7548 0.31445 0.257576
629200 60.3145 171.248 55.7548 0.31455 0.284918
629400 60.3145 171.261 55.7548 0.31465 0.280936
629600 60.3145 171.274 55.7548 0.31475 0.256223
629800 60.3145 171.287 55.7548 0.31485 0.198464
630000 60.3145 171.3 55.7548 0.31495 0.102535
630200 60.3145 171.313 55.7548 0.31505 0.017181
630400 60.3145 171.326 55.7548 0.31515 -0.0836476
630600 60.3145 171.339 55.7548 0.31525 -0.152072
630800 60.3145 171.352 55.7548 0.31535 -0.183696
631000 60.3145 171.365 55.7548 0.31545 -0.251747
631200 60.3145 171.378 55.7548 0.31555 -0.262343
631400 60.3145 171.391 55.7548 0.31565 -0.253106
631600 60.3145 171.404 55.7548 0.31575 -0.243437
631800 60.3145 171.417 55.7548 0.31585 -0.173245
632000 60.3145 171.431 55.7548 0.31595 -0.0867639
632200 60.3145 171.444 55.7548 0.31605 -0.00200643
632400 60.3145 171.457 55.7548 0.31615 0.101731
632600 60.3145 171.47 55.7548 0.31625 0.1416
632800 60.3145 171.483 55.7548 0.31635 0.227276
633000 60.3145 171.496 55.7548 0.31645 0.25652
633200 60.3145 171.509 55.7548 0.31655 0.26777
633400 60.3145 171.522 55.7548 0.31665 0.274048
633600 60.3145 171.535 55.7548 0.31675 0.221998
633800 60.3145 171.548 55.7548 0.31685 0.168436
634000 60.3145 171.561 55.7548 0.31695 0.0620279
634200 60.3145 171.574 55.7548 0.31705 0.00771168
634400 60.3145 171.587 55.7548 0.31715 -0.0986291
634600 60.3145 171.6 55.7548 0.31725 -0.18178
634800 60.3145 171.613 55.7548 0.31735 -0.227601
635000 60.3145 171.626 55.7548 0.31745 -0.251663
635200 60.3145 171.639 55.7548 0.31755 -0.242197
635400 60.3145 171.652 55.7548 0.31765 -0.22863
635600 60.3145 171.665 55.7548 0.31775 -0.215926
635800 60.3145 171.678 55.7548 0.31785 -0.148298
636000 60.3145 171.691 55.7548 0.31795 -0.0827364
636200 60.3145 171.704 55.7548 0.31805 0.0242119
636400 60.3145 171.717 55.7548 0.31815 0.10512
636600 60.3145 171.73 55.7548 0.31825 0.206286
636800 60.3145 171.743 55.7548 0.31835 0.244851
637000 60.3145 171.756 55.7548 0.31845 0.227973
637200 60.3145 171.769 55.7548 0.31855 0.26838
637400 60.3145 171.782 55.7548 0.31865 0.244573
637600 60.3145 171.795 55.7548 0.31875 0.183024
637800 60.3145 171.808 55.7548 0.31885 0.152455
638000 60.3145 171.821 55.7548 0.31895 0.0633954
638200 60.3145 171.834 55.7548 0.31905 -0.0294986
638400 60.3145 171.847 55.7548 0.31915 -0.111803
638600 60.3145 171.86 55.7548 0.31925 -0.171058
638800 60.3145 171.873 55.7548 0.31935 -0.241173
639000 60.3145 171.886 55.7548 0.31945 -0.244073
639200 60.3145 171.899 55.7548 0.31955 -0.248867
639400 60.3145 171.913 55.7548 0.31965 -0.2125
639600 60.3145 171.926 55.7548 0.31975 -0.170882
639800 60.3145 171.939 55.7548 0.31985 -0.117347
640000 60.3145 171.952 55.7548 0.31995 -0.05537
640200 60.3145 171.965 55.7548 0.32005 0.0427042
640400 60.3145 171.978 55.7548 0.32015 0.0956233
640600 60.3145 171.991 55.7548 0.32025 0.1984
640800 60.3145 172.004 55.7548 0.32035 0.232736
641000 60.3145 172.017 55.7548 0.32045 0.267335
641200 60.3145 172.03 55.7548 0.32055 0.273404
641400 60.3145 172.043 55.7548 0.32065 0.218948
641600 60.3145 172.056 55.7548 0.32075 0.175333
641800 60.3145 172.069 55.7548 0.32085 0.106892
642000 60.3145 172.082 55.7548 0.32095 0.00920104
642200 60.3145 172.095 55.7548 0.32105 -0.0422862
642400 60.3145 172.108 55.7548 0.32115 -0.121982
642600 60.3145 172.121 55.7548 0.32125 -0.185791
642800 60.3145 172.134 55.7548 0.32135 -0.197772
643000 60.3145 172.147 55.7548 0.32145 -0.251079
643200 60.3145 172.16 55.7548 0.32155 -0.250314
643400 60.3145 172.173 55.7548 0.32165 -0.253386
643600 60.3145 172.186 55.7548 0.32175 -0.143657
643800 60.3145 172.199 55.7548 0.32185 -0.0822087
644000 60.3145 172.212 55.7548 0.32195 -0.0117195
644200 60.3145 172.225 55.7548 0.32205 0.0598236
644400 60.3145 172.238 55.7548 0.32215 0.153582
644600 60.3145 172.251 55.7548 0.32225 0.172671
644800 60.3145 172.264 55.7548 0.32235 0.23652
645000 60.3145 172.277 55.7548 0.32245 0.263902
645200 60.3145 172.29 55.7548 0.32255 0.228689
645400 60.3145 172.303 55.7548 0.32265 0.242927
645600 60.3145 172.316 55.7548 0.32275 0.166043
645800 60.3145 172.329 55.7548 0.32285 0.0832035
646000 60.3145 172.342 55.7548 0.32295 -4.70832e-05
646200 60.3145 172.355 55.7548 0.32305 -0.0723029
646400 60.3145 172.368 55.7548 0.32315 -0.136371
646600 60.3145 172.381 55.7548 0.32325 -0.202202
646800 60.3145 172.395 55.7548 0.32335 -0.231186
647000 60.3145 172.408 55.7548 0.32345 -0.223581
647200 60.3145 172.421 55.7548 0.32355 -0.249614
647400 60.3145 172.434 55.7548 0.32365 -0.191769
647600 60.3145 172.447 55.7548 0.32375 -0.148478
647800 60.3145 172.46 55.7548 0.32385 -0.0936496
648000 60.3145 172.473 55.7548 0.32395 0.0153401
648200 60.3145 172.486 55.7548 0.32405 0.0839679
648400 60.3145 172.499 55.7548 0.32415 0.125536
648600 60.3145 172.512 55.7548 0.32425 0.211639
648800 60.3145 172.525 55.7548 0.32435 0.219928
649000 60.3145 172.538 55.7548 0.32445 0.27469
649200 60.3145 172.551 55.7548 0.32455 0.247058
649400 60.3145 172.564 55.7548 0.32465 0.215715
649600 60.3145 172.577 55.7548 0.32475 0.120794
649800 60.3145 172.59 55.7548 0.32485 0.103074
650000 60.3145 172.603 55.7548 0.32495 -0.016281
650200 60.3145 172.616 55.7548 0.32505 -0.0934482
650400 60.3145 172.629 55.7548 0.32515 -0.15413
650600 60.3145 172.642 55.7548 0.32525 -0.192823
650800 60.3145 172.655 55.7548 0.32535 -0.236757
651000 60.3145 172.668 55.7548 0.32545 -0.241317
651200 60.3145 172.681 55.7548 0.32555 -0.218402
651400 60.3145 172.694 55.7548 0.32565 -0.192729
651600 60.3145 172.707 55.7548 0.32575 -0.141293
651800 60.3145 172.72 55.7548 0.32585 -0.0618299
652000 60.3145 172.733 55.7548 0.32595 0.00128143
652200 60.3145 172.746 55.7548 0.32605 0.104483
652400 60.3145 172.759 55.7548 0.32615 0.155329
652600 60.3145 172.772 55.7548 0.32625 0.227823
652800 60.3145 172.785 55.7548 0.32635 0.259283
653000 60.3145 172.798 55.7548 0.32645 0.263289
653200 60.3145 172.811 55.7548 0.32655 0.214728
653400 60.3145 172.824 55.7548 0.32665 0.192338
653600 60.3145 172.837 55.7548 0.32675 0.145685
653800 60.3145 172.85 55.7548 0.32685 0.0483908
654000 60.3145 172.863 55.7548 0.32695 -0.0298057
654200 60.3145 172.877 55.7548 0.32705 -0.10183
654400 60.3145 172.89 55.7548 0.32715 -0.162508
654600 60.3145 172.903 55.7548 0.32725 -0.216014
654800 60.3145 172.916 55.7548 0.32735 -0.271648
655000 60.3145 172.929 55.7548 0.32745 -0.241372
655200 60.3145 172.942 55.7548 0.32755 -0.218157
655400 60.3145 172.955 55.7548 0.32765 -0.160797
655600 60.3145 172.968 55.7548 0.32775 -0.123327
655800 60.3145 172.981 55.7548 0.32785 -0.0271809
656000 60.3145 172.994 55.7548 0.32795 0.0316092
656200 60.3145 173.007 55.7548 0.32805 0.11018
656400 60.3145 173.02 55.7548 0.32815 0.185792
656600 60.3145 173.033 55.7548 0.32825 0.241397
656800 60.3145 173.046 55.7548 0.32835 0.259568
657000 60.3145 173.059 55.7548 0.32845 0.251719
657200 60.3145 173.072 55.7548 0.32855 0.206728
657400 60.3145 173.085 55.7548 0.32865 0.157855
657600 60.3145 173.098 55.7548 0.32875 0.102442
657800 60.3145 173.111 55.7548 0.32885 0.00575304
658000 60.3145 173.124 55.7548 0.32895 -0.0280348
658200 60.3145 173.137 55.7548 0.32905 -0.122429
658400 60.3145 173.15 55.7548 0.32915 -0.161083
658600 60.3145 173.163 55.7548 0.32925 -0.240096
658800 60.3145 173.176 55.7548 0.32935 -0.247976
659000 60.3145 173.189 55.7548 0.32945 -0.216568
659200 60.3145 173.202 55.7548 0.32955 -0.199684
659400 60.3145 173.215 55.7548 0.32965 -0.131203
659600 60.3145 173.228 55.7548 0.32975 -0.0912748
659800 60.3145 173.241 55.7548 0.32985 -0.0127245
660000 60.3145 173.254 55.7548 0.32995 0.0698308
660200 60.3145 173.267 55.7548 0.33005 0.13284
660400 60.3145 173.28 55.7548 0.33015 0.163722
660600 60.3145 173.293 55.7548 0.33025 0.232271
660800 60.3145 173.306 55.7548 0.33035 0.244494
661000 60.3145 173.319 55.7548 0.33045 0.242118
661200 60.3145 173.332 55.7548 0.33055 0.202331
661400 60.3145 173.345 55.7548 0.33065 0.152644
661600 60.3145 173.359 55.7548 0.33075 0.0592645
661800 60.3145 173.372 55.7548 0.33085 -0.0123906
662000 60.3145 173.385 55.7548 0.33095 -0.0866654
662200 60.3145 173.398 55.7548 0.33105 -0.110037
662400 60.3145 173.411 55.7548 0.33115 -0.181744
662600 60.3145 173.424 55.7548 0.33125 -0.22104
662800 60.3145 173.437 55.7548 0.33135 -0.193827
663000 60.3145 173.45 55.7548 0.33145 -0.239898
663200 60.3145 173.463 55.7548 0.33155 -0.193076
663400 60.3145 173.476 55.7548 0.33165 -0.130773
663600 60.3145 173.489 55.7548 0.33175 -0.0706507
663800 60.3145 173.502 55.7548 0.33185 0.0296947
664000 60.3145 173.515 55.7548 0.33195 0.0938115
664200 60.3145 173.528 55.7548 0.33205 0.14112
664400 60.3145 173.541 55.7548 0.33215 0.206049
664600 60.3145 173.554 55.7548 0.33225 0.209674
664800 60.3145 173.567 55.7548 0.33235 0.200081
665000 60.3145 173.58 55.7548 0.33245 0.222811
665200 60.3145 173.593 55.7548 0.33255 0.214483
665400 60.3145 173.606 55.7548 0.33265 0.14052
665600 60.3145 173.619 55.7548 0.33275 0.053438
665800 60.3145 173.632 55.7548 0.33285 -0.0378189
666000 60.3145 173.645 55.7548 0.33295 -0.0935186
666200 60.3145 173.658 55.7548 0.33305 -0.146546
666400 60.3145 173.671 55.7548 0.33315 -0.185416
666600 60.3145 173.684 55.7548 0.33325 -0.21911
666800 60.3145 173.697 55.7548 0.33335 -0.201797
667000 60.3145 173.71 55.7548 0.33345 -0.208208
667200 60.3145 173.723 55.7548 0.33355 -0.172561
667400 60.3145 173.736 55.7548 0.33365 -0.116465
667600 60.3145 173.749 55.7548 0.33375 -0.0560512
667800 60.3145 173.762 55.7548 0.33385 0.030455
668000 60.3145 173.775 55.7548 0.33395 0.0919635
668200 60.3145 173.788 55.7548 0.33405 0.165686
668400 60.3145 173.801 55.7548 0.33415 0.210251
668600 60.3145 173.814 55.7548 0.33425 0.213786
668800 60.3145 173.827 55.7548 0.33435 0.23094
669000 60.3145 173.841 55.7548 0.33445 0.199315
669200 60.3145 173.854 55.7548 0.33455 0.160716
669400 60.3145 173.867 55.7548 0.33465 0.108379
669600 60.3145 173.88 55.7548 0.33475 0.0429873
669800 60.3145 173.893 55.7548 0.33485 -0.0104722
670000 60.3145 173.906 55.7548 0.33495 -0.119035
670200 60.3145 173.919 55.7548 0.33505 -0.146868
670400 60.3145 173.932 55.7548 0.33515 -0.201344
670600 60.3145 173.945 55.7548 0.33525 -0.221861
670800 60.3145 173.958 55.7548 0.33535 -0.197452
671000 60.3145 173.971 55.7548 0.33545 -0.19435
671200 60.3145 173.984 55.7548 0.33555 -0.150015
671400 60.3145 173.997 55.7548 0.33565 -0.101092
671600 60.3145 174.01 55.7548 0.33575 -0.0293277
671800 60.3145 174.023 55.7548 0.33585 0.0329161
672000 60.3145 174.036 55.7548 0.33595 0.116529
672200 60.3145 174.049 55.7548 0.33605 0.179351
672400 60.3145 174.062 55.7548 0.33615 0.207409
672600 60.3145 174.075 55.7548 0.33625 0.229554
672800 60.3145 174.088 55.7548 0.33635 0.207537
673000 60.3145 174.101 55.7548 0.33645 0.194741
673200 60.3145 174.114 55.7548 0.33655 0.142609
673400 60.3145 174.127 55.7548 0.33665 0.107143
673600 60.3145 174.14 55.7548 0.33675 0.0058843
673800 60.3145 174.153 55.7548 0.33685 -0.0454222
674000 60.3145 174.166 55.7548 0.33695 -0.126554
674200 60.3145 174.179 55.7548 0.33705 -0.159317
674400 60.3145 174.192 55.7548 0.33715 -0.200581
674600 60.3145 174.205 55.7548 0.33725 -0.240234
674800 60.3145 174.218 55.7548 0.33735 -0.201713
675000 60.3145 174.231 55.7548 0.33745 -0.153339
675200 60.3145 174.244 55.7548 0.33755 -0.125676
675400 60.3145 174.257 55.7548 0.33765 -0.0783196
675600 60.3145 174.27 55.7548 0.33775 -0.00567499
675800 60.3145 174.283 55.7548 0.33785 0.050261
676000 60.3145 174.296 55.7548 0.33795 0.106635
676200 60.3145 174.309 55.7548 0.33805 0.183106
676400 60.3145 174.323 55.7548 0.33815 0.220388
676600 60.3145 174.336 55.7548 0.33825 0.231008
676800 60.3145 174.349 55.7548 0.33835 0.205928
677000 60.3145 174.362 55.7548 0.33845 0.166197
677200 60.3145 174.375 55.7548 0.33855 0.123862
677400 60.3145 174.388 55.7548 0.33865 0.0844867
677600 60.3145 174.401 55.7548 0.33875 -0.00666689
677800 60.3145 174.414 55.7548 0.33885 -0.0820769
678000 60.3145 174.427 55.7548 0.33895 -0.119044
678200 60.3145 174.44 55.7548 0.33905 -0.158041
678400 60.3145 174.453 55.7548 0.33915 -0.197015
678600 60.3145 174.466 55.7548 0.33925 -0.221306
678800 60.3145 174.479 55.7548 0.33935 -0.201369
679000 60.3145 174.492 55.7548 0.33945 -0.150772
679200 60.3145 174.505 55.7548 0.33955 -0.117267
679400 60.3145 174.518 55.7548 0.33965 -0.0521648
679600 60.3145 174.531 55.7548 0.33975 -0.00115897
679800 60.3145 174.544 55.7548 0.33985 0.0845796
680000 60.3145 174.557 55.7548 0.33995 0.128872
680200 60.3145 174.57 55.7548 0.34005 0.194994
680400 60.3145 174.583 55.7548 0.34015 0.211597
680600 60.3145 174.596 55.7548 0.34025 0.203562
680800 60.3145 174.609 55.7548 0.34035 0.201429
681000 60.3145 174.622 55.7548 0.34045 0.163553
681200 60.3145 174.635 55.7548 0.34055 0.116868
681400 60.3145 174.648 55.7548 0.34065 0.0477735
681600 60.3145 174.661 55.7548 0.34075 -0.0210887
681800 60.3145 174.674 55.7548 0.34085 -0.0595172
682000 60.3145 174.687 55.7548 0.34095 -0.131154
682200 60.3145 174.7 55.7548 0.34105 -0.193555
682400 60.3145 174.713 55.7548 0.34115 -0.222544
682600 60.3145 174.726 55.7548 0.34125 -0.189252
682800 60.3145 174.739 55.7548 0.34135 -0.192367
683000 60.3145 174.752 55.7548 0.34145 -0.161209
683200 60.3145 174.765 55.7548 0.34155 -0.0774777
683400 60.3145 174.778 55.7548 0.34165 -0.0192383
683600 60.3145 174.791 55.7548 0.34175 0.0139035
683800 60.3145 174.805 55.7548 0.34185 0.0748282
684000 60.3145 174.818 55.7548 0.34195 0.119604
684200 60.3145 174.831 55.7548 0.34205 0.195314
684400 60.3145 174.844 55.7548 0.34215 0.227783
684600 60.3145 174.857 55.7548 0.34225 0.205129
684800 60.3145 174.87 55.7548 0.34235 0.195767
685000 60.3145 174.883 55.7548 0.34245 0.147549
685200 60.3145 174.896 55.7548 0.34255 0.0908974
685400 60.3145 174.909 55.7548 0.34265 0.0327103
685600 60.3145 174.922 55.7548 0.34275 -0.0204432
685800 60.3145 174.935 55.7548 0.34285 -0.0910967
686000 60.3145 174.948 55.7548 0.34295 -0.126196
686200 60.3145 174.961 55.7548 0.34305 -0.180608
686400 60.3145 174.974 55.7548 0.34315 -0.218602
686600 60.3145 174.987 55.7548 0.34325 -0.209501
686800 60.3145 175 55.7548 0.34335 -0.177851
687000 60.3145 175.013 55.7548 0.34345 -0.123975
687200 60.3145 175.026 55.7548 0.34355 -0.0850401
687400 60.3145 175.039 55.7548 0.34365 -0.0139321
687600 60.3145 175.052 55.7548 0.34375 0.0533316
687800 60.3145 175.065 55.7548 0.34385 0.0857753
688000 60.3145 175.078 55.7548 0.34395 0.143277
688200 60.3145 175.091 55.7548 0.34405 0.1912
688400 60.3145 175.104 55.7548 0.34415 0.195768
688600 60.3145 175.117 55.7548 0.34425 0.209462
688800 60.3145 175.13 55.7548 0.34435 0.180773
689000 60.3145 175.143 55.7548 0.34445 0.136075
689200 60.3145 175.156 55.7548 0.34455 0.0755093
689400 60.3145 175.169 55.7548 0.34465 0.0157905
689600 60.3145 175.182 55.7548 0.34475 -0.0425026
689800 60.3145 175.195 55.7548 0.34485 -0.0951152
690000 60.3145 175.208 55.7548 0.34495 -0.145636
690200 60.3145 175.221 55.7548 0.34505 -0.170967
690400 60.3145 175.234 55.7548 0.34515 -0.21199
690600 60.3145 175.247 55.7548 0.34525 -0.192082
690800 60.3145 175.26 55.7548 0.34535 -0.184341
691000 60.3145 175.274 55.7548 0.34545 -0.128439
691200 60.3145 175.287 55.7548 0.34555 -0.0545523
691400 60.3145 175.3 55.7548 0.34565 -0.0145013
691600 60.3145 175.313 55.7548 0.34575 0.0707389
691800 60.3145 175.326 55.7548 0.34585 0.107853
692000 60.3145 175.339 55.7548 0.34595 0.143057
692200 60.3145 175.352 55.7548 0.34605 0.189051
692400 60.3145 175.365 55.7548 0.34615 0.237264
692600 60.3145 175.378 55.7548 0.34625 0.18435
692800 60.3145 175.391 55.7548 0.34635 0.198181
693000 60.3145 175.404 55.7548 0.34645 0.137743
693200 60.3145 175.417 55.7548 0.34655 0.0626204
693400 60.3145 175.43 55.7548 0.34665 -0.0208357
693600 60.3145 175.443 55.7548 0.34675 -0.0804353
693800 60.3145 175.456 55.7548 0.34685 -0.116052
694000 60.3145 175.469 55.7548 0.34695 -0.164317
694200 60.3145 175.482 55.7548 0.34705 -0.192518
694400 60.3145 175.495 55.7548 0.34715 -0.180714
694600 60.3145 175.508 55.7548 0.34725 -0.196927
694800 60.3145 175.521 55.7548 0.34735 -0.146807
695000 60.3145 175.534 55.7548 0.34745 -0.126225
695200 60.3145 175.547 55.7548 0.34755 -0.0633651
695400 60.3145 175.56 55.7548 0.34765 0.00492373
695600 60.3145 175.573 55.7548 0.34775 0.0899182
695800 60.3145 175.586 55.7548 0.34785 0.136151
696000 60.3145 175.599 55.7548 0.34795 0.171497
696200 60.3145 175.612 55.7548 0.34805 0.202475
696400 60.3145 175.625 55.7548 0.34815 0.199768
696600 60.3145 175.638 55.7548 0.34825 0.19899
696800 60.3145 175.651 55.7548 0.34835 0.146292
697000 60.3145 175.664 55.7548 0.34845 0.128649
697200 60.3145 175.677 55.7548 0.34855 0.04895
697400 60.3145 175.69 55.7548 0.34865 -0.0202266
697600 60.3145 175.703 55.7548 0.34875 -0.0940977
697800 60.3145 175.716 55.7548 0.34885 -0.129742
698000 60.3145 175.729 55.7548 0.34895 -0.161366
698200 60.3145 175.742 55.7548 0.34905 -0.195526
698400 60.3145 175.756 55.7548 0.34915 -0.203138
698600 60.3145 175.769 55.7548 0.34925 -0.180078
698800 60.3145 175.782 55.7548 0.34935 -0.132199
699000 60.3145 175.795 55.7548 0.34945 -0.0948573
699200 60.3145 175.808 55.7548 0.34955 -0.0303764
699400 60.3145 175.821 55.7548 0.34965 0.0316979
699600 60.3145 175.834 55.7548 0.34975 0.093503
699800 60.3145 175.847 55.7548 0.34985 0.130709
700000 60.3145 175.86 55.7548 0.34995 0.192286
700200 60.3145 175.873 55.7548 0.35005 0.204488
700400 60.3145 175.886 55.7548 0.35015 0.180729
700600 60.3145 175.899 55.7548 0.35025 0.187273
700800 60.3145 175.912 55.7548 0.35035 0.119659
701000 60.3145 175.925 55.7548 0.35045 0.0983849
701200 60.3145 175.938 55.7548 0.35055 0.00882863
701400 60.3145 175.951 55.7548 0.35065 -0.0357812
701600 60.3145 175.964 55.7548 0.35075 -0.0972778
701800 60.3145 175.977 55.7548 0.35085 -0.1355
702000 60.3145 175.99 55.7548 0.35095 -0.15854
702200 60.3145 176.003 55.7548 0.35105 -0.167908
702400 60.3145 176.016 55.7548 0.35115 -0.206151
702600 60.3145 176.029 55.7548 0.35125 -0.157699
702800 60.3145 176.042 55.7548 0.35135 -0.111822
703000 60.3145 176.055 55.7548 0.35145 -0.0891598
703200 60.3145 176.068 55.7548 0.35155 0.0113987
703400 60.3145 176.081 55.7548 0.35165 0.0340717
703600 60.3145 176.094 55.7548 0.35175 0.11411
703800 60.3145 176.107 55.7548 0.35185 0.125442
704000 60.3145 176.12 55.7548 0.35195 0.171548
704200 60.3145 176.133 55.7548 0.35205 0.194114
704400 60.3145 176.146 55.7548 0.35215 0.187197
704600 60.3145 176.159 55.7548 0.35225 0.146695
704800 60.3145 176.172 55.7548 0.35235 0.131541
705000 60.3145 176.185 55.7548 0.35245 0.0564093
705200 60.3145 176.198 55.7548 0.35255 0.00793435
705400 60.3145 176.211 55.7548 0.35265 -0.0512873
705600 60.3145 176.224 55.7548 0.35275 -0.105448
705800 60.3145 176.238 55.7548 0.35285 -0.111285
706000 60.3145 176.251 55.7548 0.35295 -0.140555
706200 60.3145 176.264 55.7548 0.35305 -0.181467
706400 60.3145 176.277 55.7548 0.35315 -0.192818
706600 60.3145 176.29 55.7548 0.35325 -0.131367
706800 60.3145 176.303 55.7548 0.35335 -0.104958
707000 60.3145 176.316 55.7548 0.35345 -0.0657663
707200 60.3145 176.329 55.7548 0.35355 -0.00639026
707400 60.3145 176.342 55.7548 0.35365 0.0748498
707600 60.3145 176.355 55.7548 0.35375 0.0878683
707800 60.3145 176.368 55.7548 0.35385 0.133501
708000 60.3145 176.381 55.7548 0.35395 0.149125
708200 60.3145 176.394 55.7548 0.35405 0.172764
708400 60.3145 176.407 55.7548 0.35415 0.17528
708600 60.3145 176.42 55.7548 0.35425 0.167737
708800 60.3145 176.433 55.7548 0.35435 0.123661
709000 60.3145 176.446 55.7548 0.35445 0.0560768
709200 60.3145 176.459 55.7548 0.35455 0.00475129
709400 60.3145 176.472 55.7548 0.35465 -0.0667774
709600 60.3145 176.485 55.7548 0.35475 -0.102637
709800 60.3145 176.498 55.7548 0.35485 -0.138776
710000 60.3145 176.511 55.7548 0.35495 -0.15999
710200 60.3145 176.524 55.7548 0.35505 -0.151572
710400 60.3145 176.537 55.7548 0.35515 -0.168594
710600 60.3145 176.55 55.7548 0.35525 -0.140458
710800 60.3145 176.563 55.7548 0.35535 -0.0935131
711000 60.3145 176.576 55.7548 0.35545 -0.0664603
711200 60.3145 176.589 55.7548 0.35555 -0.0138869
711400 60.3145 176.602 55.7548 0.35565 0.0794675
711600 60.3145 176.615 55.7548 0.35575 0.10921
711800 60.3145 176.628 55.7548 0.35585 0.132778
712000 60.3145 176.641 55.7548 0.35595 0.166339
712200 60.3145 176.654 55.7548 0.35605 0.180692
712400 60.3145 176.667 55.7548 0.35615 0.168526
712600 60.3145 176.68 55.7548 0.35625 0.152854
712800 60.3145 176.693 55.7548 0.35635 0.0988967
713000 60.3145 176.706 55.7548 0.35645 0.0740958
713200 60.3145 176.72 55.7548 0.35655 -0.00998378
713400 60.3145 176.733 55.7548 0.35665 -0.0543061
713600 60.3145 176.746 55.7548 0.35675 -0.112509
713800 60.3145 176.759 55.7548 0.35685 -0.143844
714000 60.3145 176.772 55.7548 0.35695 -0.170552
714200 60.3145 176.785 55.7548 0.35705 -0.168888
714400 60.3145 176.798 55.7548 0.35715 -0.173574
714600 60.3145 176.811 55.7548 0.35725 -0.12707
714800 60.3145 176.824 55.7548 0.35735 -0.0988789
715000 60.3145 176.837 55.7548 0.35745 -0.0437562
715200 60.3145 176.85 55.7548 0.35755 0.00479694
715400 60.3145 176.863 55.7548 0.35765 0.0836435
715600 60.3145 176.876 55.7548 0.35775 0.119686
715800 60.3145 176.889 55.7548 0.35785 0.151031
716000 60.3145 176.902 55.7548 0.35795 0.176308
716200 60.3145 176.915 55.7548 0.35805 0.179018
716400 60.3145 176.928 55.7548 0.35815 0.15656
716600 60.3145 176.941 55.7548 0.35825 0.128249
716800 60.3145 176.954 55.7548 0.35835 0.097104
717000 60.3145 176.967 55.7548 0.35845 0.0373725
717200 60.3145 176.98 55.7548 0.35855 -0.0120618
717400 60.3145 176.993 55.7548 0.35865 -0.081543
717600 60.3145 177.006 55.7548 0.35875 -0.116
717800 60.3145 177.019 55.7548 0.35885 -0.166416
718000 60.3145 177.032 55.7548 0.35895 -0.153057
718200 60.3145 177.045 55.7548 0.35905 -0.176702
718400 60.3145 177.058 55.7548 0.35915 -0.143405
718600 60.3145 177.071 55.7548 0.35925 -0.107687
718800 60.3145 177.084 55.7548 0.35935 -0.0810974
719000 60.3145 177.097 55.7548 0.35945 -0.0249683
719200 60.3145 177.11 55.7548 0.35955 0.0312156
719400 60.3145 177.123 55.7548 0.35965 0.0899339
719600 60.3145 177.136 55.7548 0.35975 0.138431
719800 60.3145 177.149 55.7548 0.35985 0.167249
720000 60.3145 177.162 55.7548 0.35995 0.15673
720200 60.3145 177.175 55.7548 0.36005 0.174956
720400 60.3145 177.188 55.7548 0.36015 0.133941
720600 60.3145 177.202 55.7548 0.36025 0.112157
720800 60.3145 177.215 55.7548 0.36035 0.0818565
721000 60.3145 177.228 55.7548 0.36045 -0.00503096
721200 60.3145 177.241 55.7548 0.36055 -0.0328579
721400 60.3145 177.254 55.7548 0.36065 -0.0877586
721600 60.3145 177.267 55.7548 0.36075 -0.117446
721800 60.3145 177.28 55.7548 0.36085 -0.150919
722000 60.3145 177.293 55.7548 0.36095 -0.163513
722200 60.3145 177.306 55.7548 0.36105 -0.161321
722400 60.3145 177.319 55.7548 0.36115 -0.12442
722600 60.3145 177.332 55.7548 0.36125 -0.0789391
722800 60.3145 177.345 55.7548 0.36135 -0.0507254
723000 60.3145 177.358 55.7548 0.36145 -0.00079579
723200 60.3145 177.371 55.7548 0.36155 0.0304183
723400 60.3145 177.384 55.7548 0.36165 0.0871474
723600 60.3145 177.397 55.7548 0.36175 0.122884
723800 60.3145 177.41 55.7548 0.36185 0.173862
724000 60.3145 177.423 55.7548 0.36195 0.170375
724200 60.3145 177.436 55.7548 0.36205 0.121886
724400 60.3145 177.449 55.7548 0.36215 0.127517
724600 60.3145 177.462 55.7548 0.36225 0.118093
724800 60.3145 177.475 55.7548 0.36235 0.0526945
725000 60.3145 177.488 55.7548 0.36245 -0.0171634
725200 60.3145 177.501 55.7548 0.36255 -0.0477056
725400 60.3145 177.514 55.7548 0.36265 -0.0745281
725600 60.3145 177.527 55.7548 0.36275 -0.129118
725800 60.3145 177.54 55.7548 0.36285 -0.162565
726000 60.3145 177.553 55.7548 0.36295 -0.163568
726200 60.3145 177.566 55.7548 0.36305 -0.131238
726400 60.3145 177.579 55.7548 0.36315 -0.114386
726600 60.3145 177.592 55.7548 0.36325 -0.0742883
726800 60.3145 177.605 55.7548 0.36335 -0.0395114
727000 60.3145 177.618 55.7548 0.36345 -0.0114792
727200 60.3145 177.631 55.7548 0.36355 0.062843
727400 60.3145 177.644 55.7548 0.36365 0.0918268
727600 60.3145 177.657 55.7548 0.36375 0.159147
727800 60.3145 177.67 55.7548 0.36385 0.156861
728000 60.3145 177.684 55.7548 0.36395 0.177751
728200 60.3145 177.697 55.7548 0.36405 0.121488
728400 60.3145 177.71 55.7548 0.36415 0.109488
728600 60.3145 177.723 55.7548 0.36425 0.0807367
728800 60.3145 177.736 55.7548 0.36435 0.0227693
729000 60.3145 177.749 55.7548 0.36445 -0.00764407
729200 60.3145 177.762 55.7548 0.36455 -0.0424517
729400 60.3145 177.775 55.7548 0.36465 -0.0919404
729600 60.3145 177.788 55.7548 0.36475 -0.130816
729800 60.3145 177.801 55.7548 0.36485 -0.149149
730000 60.3145 177.814 55.7548 0.36495 -0.154843
730200 60.3145 177.827 55.7548 0.36505 -0.14787
730400 60.3145 177.84 55.7548 0.36515 -0.107271
730600 60.3145 177.853 55.7548 0.36525 -0.0586004
730800 60.3145 177.866 55.7548 0.36535 -0.0264746
731000 60.3145 177.879 55.7548 0.36545 0.0263711
731200 60.3145 177.892 55.7548 0.36555 0.0618149
731400 60.3145 177.905 55.7548 0.36565 0.105907
731600 60.3145 177.918 55.7548 0.36575 0.132797
731800 60.3145 177.931 55.7548 0.36585 0.13379
732000 60.3145 177.944 55.7548 0.36595 0.158395
732200 60.3145 177.957 55.7548 0.36605 0.149204
732400 60.3145 177.97 55.7548 0.36615 0.118885
732600 60.3145 177.983 55.7548 0.36625 0.0586512
732800 60.3145 177.996 55.7548 0.36635 0.0324048
733000 60.3145 178.009 55.7548 0.36645 -0.0297834
733200 60.3145 178.022 55.7548 0.36655 -0.081873
733400 60.3145 178.035 55.7548 0.36665 -0.109789
733600 60.3145 178.048 55.7548 0.36675 -0.106064
733800 60.3145 178.061 55.7548 0.36685 -0.135333
734000 60.3145 178.074 55.7548 0.36695 -0.151115
734200 60.3145 178.087 55.7548 0.36705 -0.131723
734400 60.3145 178.1 55.7548 0.36715 -0.102625
734600 60.3145 178.113 55.7548 0.36725 -0.06556
734800 60.3145 178.126 55.7548 0.36735 -0.00574659
735000 60.3145 178.139 55.7548 0.36745 0.0362894
735200 60.3145 178.152 55.7548 0.36755 0.065637
735400 60.3145 178.166 55.7548 0.36765 0.133832
735600 60.3145 178.179 55.7548 0.36775 0.133606
735800 60.3145 178.192 55.7548 0.36785 0.145801
736000 60.3145 178.205 55.7548 0.36795 0.153391
736200 60.3145 178.218 55.7548 0.36805 0.128741
736400 60.3145 178.231 55.7548 0.36815 0.109595
736600 60.3145 178.244 55.7548 0.36825 0.0472948
736800 60.3145 178.257 55.7548 0.36835 0.00368982
737000 60.3145 178.27 55.7548 0.36845 -0.0420691
737200 60.3145 178.283 55.7548 0.36855 -0.0976052
737400 60.3145 178.296 55.7548 0.36865 -0.0799174
737600 60.3145 178.309 55.7548 0.36875 -0.143163
737800 60.3145 178.322 55.7548 0.36885 -0.136278
738000 60.3145 178.335 55.7548 0.36895 -0.144006
738200 60.3145 178.348 55.7548 0.36905 -0.126743
738400 60.3145 178.361 55.7548 0.36915 -0.088483
738600 60.3145 178.374 55.7548 0.36925 -0.0380795
738800 60.3145 178.387 55.7548 0.36935 0.0180136
739000 60.3145 178.4 55.7548 0.36945 0.0444536
739200 60.3145 178.413 55.7548 0.36955 0.0989844
739400 60.3145 178.426 55.7548 0.36965 0.114218
739600 60.3145 178.439 55.7548 0.36975 0.126677
739800 60.3145 178.452 55.7548 0.36985 0.156852
740000 60.3145 178.465 55.7548 0.36995 0.15482
740200 60.3145 178.478 55.7548 0.37005 0.106107
740400 60.3145 178.491 55.7548 0.37015 0.0843197
740600 60.3145 178.504 55.7548 0.37025 0.0523513
740800 60.3145 178.517 55.7548 0.37035 -0.0267213
741000 60.3145 178.53 55.7548 0.37045 -0.0854861
741200 60.3145 178.543 55.7548 0.37055 -0.0640389
741400 60.3145 178.556 55.7548 0.37065 -0.120371
741600 60.3145 178.569 55.7548 0.37075 -0.145044
741800 60.3145 178.582 55.7548 0.37085 -0.146738
742000 60.3145 178.595 55.7548 0.37095 -0.104763
742200 60.3145 178.608 55.7548 0.37105 -0.117024
742400 60.3145 178.621 55.7548 0.37115 -0.0809166
742600 60.3145 178.635 55.7548 0.37125 -0.0230576
742800 60.3145 178.648 55.7548 0.37135 0.0363937
743000 60.3145 178.661 55.7548 0.37145 0.0772783
743200 60.3145 178.674 55.7548 0.37155 0.0988483
743400 60.3145 178.687 55.7548 0.37165 0.118989
743600 60.3145 178.7 55.7548 0.37175 0.145769
743800 60.3145 178.713 55.7548 0.37185 0.150648
744000 60.3145 178.726 55.7548 0.37195 0.129027
744200 60.3145 178.739 55.7548 0.37205 0.105257
744400 60.3145 178.752 55.7548 0.37215 0.0503112
744600 60.3145 178.765 55.7548 0.37225 0.0342996
744800 60.3145 178.778 55.7548 0.37235 -0.0383582
745000 60.3145 178.791 55.7548 0.37245 -0.0667472
745200 60.3145 178.804 55.7548 0.37255 -0.10624
745400 60.3145 178.817 55.7548 0.37265 -0.118129
745600 60.3145 178.83 55.7548 0.37275 -0.137552
745800 60.3145 178.843 55.7548 0.37285 -0.133165
746000 60.3145 178.856 55.7548 0.37295 -0.111622
746200 60.3145 178.869 55.7548 0.37305 -0.088288
746400 60.3145 178.882 55.7548 0.37315 -0.0550353
746600 60.3145 178.895 55.7548 0.37325 -0.00413647
746800 60.3145 178.908 55.7548 0.37335 0.0384223
747000 60.3145 178.921 55.7548 0.37345 0.0678951
747200 60.3145 178.934 55.7548 0.37355 0.119218
747400 60.3145 178.947 55.7548 0.37365 0.109652
747600 60.3145 178.96 55.7548 0.37375 0.151507
747800 60.3145 178.973 55.7548 0.37385 0.138096
748000 60.3145 178.986 55.7548 0.37395 0.122448
748200 60.3145 178.999 55.7548 0.37405 0.099664
748400 60.3145 179.012 55.7548 0.37415 0.0451205
748600 60.3145 179.025 55.7548 0.37425 -0.0032636
748800 60.3145 179.038 55.7548 0.37435 -0.0283513
749000 60.3145 179.051 55.7548 0.37445 -0.0840286
749200 60.3145 179.064 55.7548 0.37455 -0.115572
749400 60.3145 179.077 55.7548 0.37465 -0.114737
749600 60.3145 179.09 55.7548 0.37475 -0.149727
749800 60.3145 179.103 55.7548 0.37485 -0.119333
750000 60.3145 179.117 55.7548 0.37495 -0.107179
750200 60.3145 179.13 55.7548 0.37505 -0.0782751
750400 60.3145 179.143 55.7548 0.37515 -0.0455631
750600 60.3145 179.156 55.7548 0.37525 -0.00812891
750800 60.3145 179.169 55.7548 0.37535 0.0403755
751000 60.3145 179.182 55.7548 0.37545 0.0974454
751200 60.3145 179.195 55.7548 0.37555 0.116721
751400 60.3145 179.208 55.7548 0.37565 0.138027
751600 60.3145 179.221 55.7548 0.37575 0.144658
751800 60.3145 179.234 55.7548 0.37585 0.131476
752000 60.3145 179.247 55.7548 0.37595 0.117067
752200 60.3145 179.26 55.7548 0.37605 0.077043
752400 60.3145 179.273 55.7548 0.37615 0.0440641
752600 60.3145 179.286 55.7548 0.37625 -0.01858
752800 60.3145 179.299 55.7548 0.37635 -0.0336481
753000 60.3145 179.312 55.7548 0.37645 -0.0884914
753200 60.3145 179.325 55.7548 0.37655 -0.11482
753400 60.3145 179.338 55.7548 0.37665 -0.122316
753600 60.3145 179.351 55.7548 0.37675 -0.132214
753800 60.3145 179.364 55.7548 0.37685 -0.110166
754000 60.3145 179.377 55.7548 0.37695 -0.098886
754200 60.3145 179.39 55.7548 0.37705 -0.0799432
754400 60.3145 179.403 55.7548 0.37715 -0.0404122
754600 60.3145 179.416 55.7548 0.37725 0.00984661
754800 60.3145 179.429 55.7548 0.37735 0.0490351
755000 60.3145 179.442 55.7548 0.37745 0.0953736
755200 60.3145 179.455 55.7548 0.37755 0.131602
755400 60.3145 179.468 55.7548 0.37765 0.147724
755600 60.3145 179.481 55.7548 0.37775 0.107464
755800 60.3145 179.494 55.7548 0.37785 0.120262
756000 60.3145 179.507 55.7548 0.37795 0.103998
756200 60.3145 179.52 55.7548 0.37805 0.0503248
756400 60.3145 179.533 55.7548 0.37815 0.0451925
756600 60.3145 179.546 55.7548 0.37825 0.00264661
756800 60.3145 179.559 55.7548 0.37835 -0.0613546
757000 60.3145 179.572 55.7548 0.37845 -0.100251
757200 60.3145 179.585 55.7548 0.37855 -0.0977285
757400 60.3145 179.599 55.7548 0.37865 -0.12843
757600 60.3145 179.612 55.7548 0.37875 -0.125524
757800 60.3145 179.625 55.7548 0.37885 -0.122362
758000 60.3145 179.638 55.7548 0.37895 -0.0837333
758200 60.3145 179.651 55.7548 0.37905 -0.0493226
758400 60.3145 179.664 55.7548 0.37915 -0.0194356
758600 60.3145 179.677 55.7548 0.37925 0.0132674
758800 60.3145 179.69 55.7548 0.37935 0.0605281
759000 60.3145 179.703 55.7548 0.37945 0.108041
759200 60.3145 179.716 55.7548 0.37955 0.0992826
759400 60.3145 179.729 55.7548 0.37965 0.134288
759600 60.3145 179.742 55.7548 0.37975 0.125372
759800 60.3145 179.755 55.7548 0.37985 0.134163
760000 60.3145 179.768 55.7548 0.37995 0.0867297
760200 60.3145 179.781 55.7548 0.38005 0.0590955
760400 60.3145 179.794 55.7548 0.38015 0.00577479
760600 60.3145 179.807 55.7548 0.38025 -0.0124592
760800 60.3145 179.82 55.7548 0.38035 -0.0692567
761000 60.3145 179.833 55.7548 0.38045 -0.09339
761200 60.3145 179.846 55.7548 0.38055 -0.113508
761400 60.3145 179.859 55.7548 0.38065 -0.126577
761600 60.3145 179.872 55.7548 0.38075 -0.12023
761800 60.3145 179.885 55.7548 0.38085 -0.102852
762000 60.3145 179.898 55.7548 0.38095 -0.0885476
762200 60.3145 179.911 55.7548 0.38105 -0.0286883
762400 60.3145 179.924 55.7548 0.38115 -0.0227531
762600 60.3145 179.937 55.7548 0.38125 0.0324144
762800 60.3145 179.95 55.7548 0.38135 0.077811
763000 60.3145 179.963 55.7548 0.38145 0.0965031
763200 60.3145 179.976 55.7548 0.38155 0.144229
763400 60.3145 179.989 55.7548 0.38165 0.128516
763600 60.3145 180.002 55.7548 0.38175 0.0982156
763800 60.3145 180.015 55.7548 0.38185 0.101023
764000 60.3145 180.028 55.7548 0.38195 0.0720342
764200 60.3145 180.041 55.7548 0.38205 0.0654862
764400 60.3145 180.054 55.7548 0.38215 -0.00544995
764600 60.3145 180.067 55.7548 0.38225 -0.0368929
764800 60.3145 180.081 55.7548 0.38235 -0.0598862
765000 60.3145 180.094 55.7548 0.38245 -0.102103
765200 60.3145 180.107 55.7548 0.38255 -0.122768
765400 60.3145 180.12 55.7548 0.38265 -0.128145
765600 60.3145 180.133 55.7548 0.38275 -0.10504
765800 60.3145 180.146 55.7548 0.38285 -0.0861669
766000 60.3145 180.159 55.7548 0.38295 -0.0506109
766200 60.3145 180.172 55.7548 0.38305 -0.0558621
766400 60.3145 180.185 55.7548 0.38315 -0.000759278
766600 60.3145 180.198 55.7548 0.38325 0.016668
766800 60.3145 180.211 55.7548 0.38335 0.0969673
767000 60.3145 180.224 55.7548 0.38345 0.128742
767200 60.3145 180.237 55.7548 0.38355 0.145094
767400 60.3145 180.25 55.7548 0.38365 0.120987
767600 60.3145 180.263 55.7548 0.38375 0.107247
767800 60.3145 180.276 55.7548 0.38385 0.0910917
768000 60.3145 180.289 55.7548 0.38395 0.0595911
768200 60.3145 180.302 55.7548 0.38405 0.0305221
768400 60.3145 180.315 55.7548 0.38415 0.00940492
768600 60.3145 180.328 55.7548 0.38425 -0.0471024
768800 60.3145 180.341 55.7548 0.38435 -0.0865478
769000 60.3145 180.354 55.7548 0.38445 -0.121415
769200 60.3145 180.367 55.7548 0.38455 -0.125328
769400 60.3145 180.38 55.7548 0.38465 -0.111145
769600 60.3145 180.393 55.7548 0.38475 -0.107592
769800 60.3145 180.406 55.7548 0.38485 -0.0805596
770000 60.3145 180.419 55.7548 0.38495 -0.0577706
770200 60.3145 180.432 55.7548 0.38505 -0.0242292
770400 60.3145 180.445 55.7548 0.38515 0.0321137
770600 60.3145 180.458 55.7548 0.38525 0.0400497
770800 60.3145 180.471 55.7548 0.38535 0.0984557
771000 60.3145 180.484 55.7548 0.38545 0.111372
771200 60.3145 180.497 55.7548 0.38555 0.119258
771400 60.3145 180.51 55.7548 0.38565 0.12955
771600 60.3145 180.523 55.7548 0.38575 0.115015
771800 60.3145 180.536 55.7548 0.38585 0.0687834
772000 60.3145 180.549 55.7548 0.38595 0.0447479
772200 60.3145 180.563 55.7548 0.38605 0.0357193
772400 60.3145 180.576 55.7548 0.38615 -0.00246697
772600 60.3145 180.589 55.7548 0.38625 -0.0548185
772800 60.3145 180.602 55.7548 0.38635 -0.0951749
773000 60.3145 180.615 55.7548 0.38645 -0.0937637
773200 60.3145 180.628 55.7548 0.38655 -0.119666
773400 60.3145 180.641 55.7548 0.38665 -0.105054
773600 60.3145 180.654 55.7548 0.38675 -0.0958475
773800 60.3145 180.667 55.7548 0.38685 -0.0919468
774000 60.3145 180.68 55.7548 0.38695 -0.0435248
774200 60.3145 180.693 55.7548 0.38705 -0.0191794
774400 60.3145 180.706 55.7548 0.38715 0.00585188
774600 60.3145 180.719 55.7548 0.38725 0.0723112
774800 60.3145 180.732 55.7548 0.38735 0.0910126
775000 60.3145 180.745 55.7548 0.38745 0.107425
775200 60.3145 180.758 55.7548 0.38755 0.111474
775400 60.3145 180.771 55.7548 0.38765 0.105573
775600 60.3145 180.784 55.7548 0.38775 0.116478
775800 60.3145 180.797 55.7548 0.38785 0.0961295
776000 60.3145 180.81 55.7548 0.38795 0.054105
776200 60.3145 180.823 55.7548 0.38805 0.00651183
776400 60.3145 180.836 55.7548 0.38815 -0.0156808
776600 60.3145 180.849 55.7548 0.38825 -0.0698433
776800 60.3145 180.862 55.7548 0.38835 -0.0722342
777000 60.3145 180.875 55.7548 0.38845 -0.107748
777200 60.3145 180.888 55.7548 0.38855 -0.0917952
777400 60.3145 180.901 55.7548 0.38865 -0.125265
777600 60.3145 180.914 55.7548 0.38875 -0.0814503
777800 60.3145 180.927 55.7548 0.38885 -0.0883711
778000 60.3145 180.94 55.7548 0.38895 -0.0408222
778200 60.3145 180.953 55.7548 0.38905 -0.0177636
778400 60.3145 180.966 55.7548 0.38915 0.0525722
778600 60.3145 180.979 55.7548 0.38925 0.0566776
778800 60.3145 180.992 55.7548 0.38935 0.06981
779000 60.3145 181.005 55.7548 0.38945 0.0961968
779200 60.3145 181.018 55.7548 0.38955 0.120892
779400 60.3145 181.031 55.7548 0.38965 0.0942905
779600 60.3145 181.045 55.7548 0.38975 0.1139
779800 60.3145 181.058 55.7548 0.38985 0.0725874
780000 60.3145 181.071 55.7548 0.38995 0.0481073
780200 60.3145 181.084 55.7548 0.39005 0.0279367
780400 60.3145 181.097 55.7548 0.39015 -0.0342288
780600 60.3145 181.11 55.7548 0.39025 -0.0553215
780800 60.3145 181.123 55.7548 0.39035 -0.0765813
781000 60.3145 181.136 55.7548 0.39045 -0.10178
781200 60.3145 181.149 55.7548 0.39055 -0.103245
781400 60.3145 181.162 55.7548 0.39065 -0.110302
781600 60.3145 181.175 55.7548 0.39075 -0.0940956
781800 60.3145 181.188 55.7548 0.39085 -0.0585393
782000 60.3145 181.201 55.7548 0.39095 -0.0385086
782200 60.3145 181.214 55.7548 0.39105 -0.000940909
782400 60.3145 181.227 55.7548 0.39115 0.0192088
782600 60.3145 181.24 55.7548 0.39125 0.0504053
782800 60.3145 181.253 55.7548 0.39135 0.0994079
783000 60.3145 181.266 55.7548 0.39145 0.103777
783200 60.3145 181.279 55.7548 0.39155 0.114196
783400 60.3145 181.292 55.7548 0.39165 0.107091
783600 60.3145 181.305 55.7548 0.39175 0.0966024
783800 60.3145 181.318 55.7548 0.39185 0.0621646
784000 60.3145 181.331 55.7548 0.39195 0.0316308
784200 60.3145 181.344 55.7548 0.39205 0.0152709
784400 60.3145 181.357 55.7548 0.39215 -0.0343091
784600 60.3145 181.37 55.7548 0.39225 -0.0472798
784800 60.3145 181.383 55.7548 0.39235 -0.0922242
785000 60.3145 181.396 55.7548 0.39245 -0.114686
785200 60.3145 181.409 55.7548 0.39255 -0.101847
785400 60.3145 181.422 55.7548 0.39265 -0.0735972
785600 60.3145 181.435 55.7548 0.39275 -0.0953713
785800 60.3145 181.448 55.7548 0.39285 -0.0511134
786000 60.3145 181.461 55.7548 0.39295 -0.0232171
786200 60.3145 181.474 55.7548 0.39305 -0.00996206
786400 60.3145 181.487 55.7548 0.39315 0.0345957
786600 60.3145 181.5 55.7548 0.39325 0.0691749
786800 60.3145 181.513 55.7548 0.39335 0.0938143
787000 60.3145 181.527 55.7548 0.39345 0.108285
787200 60.3145 181.54 55.7548 0.39355 0.101217
787400 60.3145 181.553 55.7548 0.39365 0.0995417
787600 60.3145 181.566 55.7548 0.39375 0.0978666
787800 60.3145 181.579 55.7548 0.39385 0.0523298
788000 60.3145 181.592 55.7548 0.39395 0.0165101
788200 60.3145 181.605 55.7548 0.39405 0.00238748
788400 60.3145 181.618 55.7548 0.39415 -0.0419943
788600 60.3145 181.631 55.7548 0.39425 -0.0617434
788800 60.3145 181.644 55.7548 0.39435 -0.0848077
789000 60.3145 181.657 55.7548 0.39445 -0.0813462
789200 60.3145 181.67 55.7548 0.39455 -0.107311
789400 60.3145 181.683 55.7548 0.39465 -0.102562
789600 60.3145 181.696 55.7548 0.39475 -0.0721462
789800 60.3145 181.709 55.7548 0.39485 -0.0599296
790000 60.3145 181.722 55.7548 0.39495 -0.0159747
790200 60.3145 181.735 55.7548 0.39505 0.0184732
790400 60.3145 181.748 55.7548 0.39515 0.0357682
790600 60.3145 181.761 55.7548 0.39525 0.079365
790800 60.3145 181.774 55.7548 0.39535 0.0778348
791000 60.3145 181.787 55.7548 0.39545 0.102972
791200 60.3145 181.8 55.7548 0.39555 0.114206
791400 60.3145 181.813 55.7548 0.39565 0.0990235
791600 60.3145 181.826 55.7548 0.39575 0.0843548
791800 60.3145 181.839 55.7548 0.39585 0.0594035
792000 60.3145 181.852 55.7548 0.39595 -0.00234312
792200 60.3145 181.865 55.7548 0.39605 -0.00740064
792400 60.3145 181.878 55.7548 0.39615 -0.0267151
792600 60.3145 181.891 55.7548 0.39625 -0.0768347
792800 60.3145 181.904 55.7548 0.39635 -0.0815105
793000 60.3145 181.917 55.7548 0.39645 -0.0832075
793200 60.3145 181.93 55.7548 0.39655 -0.0991035
793400 60.3145 181.943 55.7548 0.39665 -0.0942961
793600 60.3145 181.956 55.7548 0.39675 -0.0745269
793800 60.3145 181.969 55.7548 0.39685 -0.041357
794000 60.3145 181.982 55.7548 0.39695 -0.019723
794200 60.3145 181.996 55.7548 0.39705 0.00889749
794400 60.3145 182.009 55.7548 0.39715 0.0242278
794600 60.3145 182.022 55.7548 0.39725 0.0859539
794800 60.3145 182.035 55.7548 0.39735 0.0886134
795000 60.3145 182.048 55.7548 0.39745 0.0957888
795200 60.3145 182.061 55.7548 0.39755 0.116029
795400 60.3145 182.074 55.7548 0.39765 0.109067
795600 60.3145 182.087 55.7548 0.39775 0.0705878
795800 60.3145 182.1 55.7548 0.39785 0.0249824
796000 60.3145 182.113 55.7548 0.39795 0.038032
796200 60.3145 182.126 55.7548 0.39805 -0.017665
796400 60.3145 182.139 55.7548 0.39815 -0.0517278
796600 60.3145 182.152 55.7548 0.39825 -0.0716987
796800 60.3145 182.165 55.7548 0.39835 -0.0798813
797000 60.3145 182.178 55.7548 0.39845 -0.0931081
797200 60.3145 182.191 55.7548 0.39855 -0.107392
797400 60.3145 182.204 55.7548 0.39865 -0.0860317
797600 60.3145 182.217 55.7548 0.39875 -0.054761
797800 60.3145 182.23 55.7548 0.39885 -0.0451077
798000 60.3145 182.243 55.7548 0.39895 0.00471234
798200 60.3145 182.256 55.7548 0.39905 0.0212903
798400 60.3145 182.269 55.7548 0.39915 0.042787
798600 60.3145 182.282 55.7548 0.39925 0.0660395
798800 60.3145 182.295 55.7548 0.39935 0.0826721
799000 60.3145 182.308 55.7548 0.39945 0.113963
799200 60.3145 182.321 55.7548 0.39955 0.0955195
799400 60.3145 182.334 55.7548 0.39965 0.103868
799600 60.3145 182.347 55.7548 0.39975 0.0542547
799800 60.3145 182.36 55.7548 0.39985 0.0409009
800000 60.3145 182.373 55.7548 0.39995 0.00391981
800200 60.3145 182.386 55.7548 0.40005 -0.0146595
800400 60.3145 182.399 55.7548 0.40015 -0.0315671
800600 60.3145 182.412 55.7548 0.40025 -0.0694798
800800 60.3145 182.425 55.7548 0.40035 -0.0971151
801000 60.3145 182.438 55.7548 0.40045 -0.0904869
801200 60.3145 182.451 55.7548 0.40055 -0.0839231
801400 60.3145 182.464 55.7548 0.40065 -0.0830381
801600 60.3145 182.478 55.7548 0.40075 -0.0724195
801800 60.3145 182.491 55.7548 0.40085 -0.0141668
802000 60.3145 182.504 55.7548 0.40095 -0.00341712
802200 60.3145 182.517 55.7548 0.40105 0.0349205
802400 60.3145 182.53 55.7548 0.40115 0.0377515
802600 60.3145 182.543 55.7548 0.40125 0.0621263
802800 60.3145 182.556 55.7548 0.40135 0.0695442
803000 60.3145 182.569 55.7548 0.40145 0.110603
803200 60.3145 182.582 55.7548 0.40155 0.0963251
803400 60.3145 182.595 55.7548 0.40165 0.0870013
803600 60.3145 182.608 55.7548 0.40175 0.0671903
803800 60.3145 182.621 55.7548 0.40185 0.0190797
804000 60.3145 182.634 55.7548 0.40195 0.00973774
804200 60.3145 182.647 55.7548 0.40205 -0.0339427
804400 60.3145 182.66 55.7548 0.40215 -0.0337835
804600 60.3145 182.673 55.7548 0.40225 -0.0715627
804800 60.3145 182.686 55.7548 0.40235 -0.0775144
805000 60.3145 182.699 55.7548 0.40245 -0.0685568
805200 60.3145 182.712 55.7548 0.40255 -0.10845
805400 60.3145 182.725 55.7548 0.40265 -0.0749036
805600 60.3145 182.738 55.7548 0.40275 -0.063006
805800 60.3145 182.751 55.7548 0.40285 -0.00792743
806000 60.3145 182.764 55.7548 0.40295 0.0231358
806200 60.3145 182.777 55.7548 0.40305 0.014237
806400 60.3145 182.79 55.7548 0.40315 0.0692992
806600 60.3145 182.803 55.7548 0.40325 0.0752173
806800 60.3145 182.816 55.7548 0.40335 0.075267
807000 60.3145 182.829 55.7548 0.40345 0.0887453
807200 60.3145 182.842 55.7548 0.40355 0.0781555
807400 60.3145 182.855 55.7548 0.40365 0.0983495
807600 60.3145 182.868 55.7548 0.40375 0.0381129
807800 60.3145 182.881 55.7548 0.40385 0.026429
808000 60.3145 182.894 55.7548 0.40395 -0.0194913
808200 60.3145 182.907 55.7548 0.40405 -0.0361103
808400 60.3145 182.92 55.7548 0.40415 -0.0561692
808600 60.3145 182.933 55.7548 0.40425 -0.0605514
808800 60.3145 182.946 55.7548 0.40435 -0.0850533
809000 60.3145 182.96 55.7548 0.40445 -0.0686803
809200 60.3145 182.973 55.7548 0.40455 -0.0784815
809400 60.3145 182.986 55.7548 0.40465 -0.0659206
809600 60.3145 182.999 55.7548 0.40475 -0.0468063
809800 60.3145 183.012 55.7548 0.40485 -0.0240466
810000 60.3145 183.025 55.7548 0.40495 0.0219254
810200 60.3145 183.038 55.7548 0.40505 0.0489449
810400 60.3145 183.051 55.7548 0.40515 0.0536143
810600 60.3145 183.064 55.7548 0.40525 0.0797193
810800 60.3145 183.077 55.7548 0.40535 0.0694668
811000 60.3145 183.09 55.7548 0.40545 0.103954
811200 60.3145 183.103 55.7548 0.40555 0.0696881
811400 60.3145 183.116 55.7548 0.40565 0.0604885
811600 60.3145 183.129 55.7548 0.40575 0.0451675
811800 60.3145 183.142 55.7548 0.40585 0.0327962
812000 60.3145 183.155 55.7548 0.40595 -0.0250582
812200 60.3145 183.168 55.7548 0.40605 -0.0360574
812400 60.3145 183.181 55.7548 0.40615 -0.0622249
812600 60.3145 183.194 55.7548 0.40625 -0.0870428
812800 60.3145 183.207 55.7548 0.40635 -0.0683073
813000 60.3145 183.22 55.7548 0.40645 -0.079328
813200 60.3145 183.233 55.7548 0.40655 -0.0763111
813400 60.3145 183.246 55.7548 0.40665 -0.0547479
813600 60.3145 183.259 55.7548 0.40675 -0.0167793
813800 60.3145 183.272 55.7548 0.40685 -0.0071492
814000 60.3145 183.285 55.7548 0.40695 0.00391
814200 60.3145 183.298 55.7548 0.40705 0.0591987
814400 60.3145 183.311 55.7548 0.40715 0.0740757
814600 60.3145 183.324 55.7548 0.40725 0.0842356
814800 60.3145 183.337 55.7548 0.40735 0.0923148
815000 60.3145 183.35 55.7548 0.40745 0.0927483
815200 60.3145 183.363 55.7548 0.40755 0.0618023
815400 60.3145 183.376 55.7548 0.40765 0.0367124
815600 60.3145 183.389 55.7548 0.40775 0.0436281
815800 60.3145 183.402 55.7548 0.40785 -0.0151585
816000 60.3145 183.415 55.7548 0.40795 -0.0406023
816200 60.3145 183.428 55.7548 0.40805 -0.0321719
816400 60.3145 183.442 55.7548 0.40815 -0.0571789
816600 60.3145 183.455 55.7548 0.40825 -0.0993539
816800 60.3145 183.468 55.7548 0.40835 -0.0595917
817000 60.3145 183.481 55.7548 0.40845 -0.0769086
817200 60.3145 183.494 55.7548 0.40855 -0.0713227
817400 60.3145 183.507 55.7548 0.40865 -0.0370242
817600 60.3145 183.52 55.7548 0.40875 -0.0176699
817800 60.3145 183.533 55.7548 0.40885 0.0376292
818000 60.3145 183.546 55.7548 0.40895 0.0383247
818200 60.3145 183.559 55.7548 0.40905 0.0554114
818400 60.3145 183.572 55.7548 0.40915 0.0556072
818600 60.3145 183.585 55.7548 0.40925 0.0697129
818800 60.3145 183.598 55.7548 0.40935 0.0812635
819000 60.3145 183.611 55.7548 0.40945 0.0806055
819200 60.3145 183.624 55.7548 0.40955 0.0643618
819400 60.3145 183.637 55.7548 0.40965 0.0587613
819600 60.3145 183.65 55.7548 0.40975 0.0134955
819800 60.3145 183.663 55.7548 0.40985 -0.020724
820000 60.3145 183.676 55.7548 0.40995 -0.0316107
820200 60.3145 183.689 55.7548 0.41005 -0.0649222
820400 60.3145 183.702 55.7548 0.41015 -0.0716935
820600 60.3145 183.715 55.7548 0.41025 -0.0797757
820800 60.3145 183.728 55.7548 0.41035 -0.0742843
821000 60.3145 183.741 55.7548 0.41045 -0.0715364
821200 60.3145 183.754 55.7548 0.41055 -0.0234883
821400 60.3145 183.767 55.7548 0.41065 -0.0451866
821600 60.3145 183.78 55.7548 0.41075 -0.00188353
821800 60.3145 183.793 55.7548 0.41085 0.0316761
822000 60.3145 183.806 55.7548 0.41095 0.0378361
822200 60.3145 183.819 55.7548 0.41105 0.0554299
822400 60.3145 183.832 55.7548 0.41115 0.0693348
822600 60.3145 183.845 55.7548 0.41125 0.0705726
822800 60.3145 183.858 55.7548 0.41135 0.0846231
823000 60.3145 183.871 55.7548 0.41145 0.0717502
823200 60.3145 183.884 55.7548 0.41155 0.0488074
823400 60.3145 183.897 55.7548 0.41165 0.0440153
823600 60.3145 183.91 55.7548 0.41175 -0.00225579
823800 60.3145 183.924 55.7548 0.41185 -0.0118651
824000 60.3145 183.937 55.7548 0.41195 -0.0480261
824200 60.3145 183.95 55.7548 0.41205 -0.0671439
824400 60.3145 183.963 55.7548 0.41215 -0.0598642
824600 60.3145 183.976 55.7548 0.41225 -0.0828305
824800 60.3145 183.989 55.7548 0.41235 -0.084512
825000 60.3145 184.002 55.7548 0.41245 -0.0604285
825200 60.3145 184.015 55.7548 0.41255 -0.0242633
825400 60.3145 184.028 55.7548 0.41265 -0.0317179
825600 60.3145 184.041 55.7548 0.41275 -0.0111969
825800 60.3145 184.054 55.7548 0.41285 0.039507
826000 60.3145 184.067 55.7548 0.41295 0.0812898
826200 60.3145 184.08 55.7548 0.41305 0.0560104
826400 60.3145 184.093 55.7548 0.41315 0.0786375
826600 60.3145 184.106 55.7548 0.41325 0.0604643
826800 60.3145 184.119 55.7548 0.41335 0.0814773
827000 60.3145 184.132 55.7548 0.41345 0.0579011
827200 60.3145 184.145 55.7548 0.41355 0.0611151
827400 60.3145 184.158 55.7548 0.41365 0.0231218
827600 60.3145 184.171 55.7548 0.41375 0.00175674
827800 60.3145 184.184 55.7548 0.41385 -0.0400219
828000 60.3145 184.197 55.7548 0.41395 -0.0676713
828200 60.3145 184.21 55.7548 0.41405 -0.0672329
828400 60.3145 184.223 55.7548 0.41415 -0.0633789
828600 60.3145 184.236 55.7548 0.41425 -0.0633792
828800 60.3145 184.249 55.7548 0.41435 -0.0816824
829000 60.3145 184.262 55.7548 0.41445 -0.0432964
829200 60.3145 184.275 55.7548 0.41455 -0.028053
829400 60.3145 184.288 55.7548 0.41465 -0.014881
829600 60.3145 184.301 55.7548 0.41475 -0.0078254
829800 60.3145 184.314 55.7548 0.41485 0.0309567
830000 60.3145 184.327 55.7548 0.41495 0.0618167
830200 60.3145 184.34 55.7548 0.41505 0.0749381
830400 60.3145 184.353 55.7548 0.41515 0.08381
830600 60.3145 184.366 55.7548 0.41525 0.0729314
830800 60.3145 184.379 55.7548 0.41535 0.0774582
831000 60.3145 184.392 55.7548 0.41545 0.0383289
831200 60.3145 184.406 55.7548 0.41555 0.0335647
831400 60.3145 184.419 55.7548 0.41565 0.0366523
831600 60.3145 184.432 55.7548 0.41575 -0.00808763
831800 60.3145 184.445 55.7548 0.41585 -0.0238404
832000 60.3145 184.458 55.7548 0.41595 -0.0294509
832200 60.3145 184.471 55.7548 0.41605 -0.0790905
832400 60.3145 184.484 55.7548 0.41615 -0.0695362
832600 60.3145 184.497 55.7548 0.41625 -0.0987619
832800 60.3145 184.51 55.7548 0.41635 -0.0441717
833000 60.3145 184.523 55.7548 0.41645 -0.0468207
833200 60.3145 184.536 55.7548 0.41655 -0.0210105
833400 60.3145 184.549 55.7548 0.41665 -0.02026
833600 60.3145 184.562 55.7548 0.41675 -0.00243857
833800 60.3145 184.575 55.7548 0.41685 0.0341908
834000 60.3145 184.588 55.7548 0.41695 0.0274146
834200 60.3145 184.601 55.7548 0.41705 0.109192
834400 60.3145 184.614 55.7548 0.41715 0.0880147
834600 60.3145 184.627 55.7548 0.41725 0.0705615
834800 60.3145 184.64 55.7548 0.41735 0.0669118
835000 60.3145 184.653 55.7548 0.41745 0.0346426
835200 60.3145 184.666 55.7548 0.41755 0.0218246
835400 60.3145 184.679 55.7548 0.41765 0.0255773
835600 60.3145 184.692 55.7548 0.41775 0.00298563
835800 60.3145 184.705 55.7548 0.41785 -0.0210077
836000 60.3145 184.718 55.7548 0.41795 -0.0529002
836200 60.3145 184.731 55.7548 0.41805 -0.085363
836400 60.3145 184.744 55.7548 0.41815 -0.0823331
836600 60.3145 184.757 55.7548 0.41825 -0.0743966
836800 60.3145 184.77 55.7548 0.41835 -0.0560009
837000 60.3145 184.783 55.7548 0.41845 -0.0408758
837200 60.3145 184.796 55.7548 0.41855 -0.0224561
837400 60.3145 184.809 55.7548 0.41865 -0.0092809
837600 60.3145 184.822 55.7548 0.41875 0.00379753
837800 60.3145 184.835 55.7548 0.41885 0.0211616
838000 60.3145 184.848 55.7548 0.41895 0.0721536
838200 60.3145 184.861 55.7548 0.41905 0.0711035
838400 60.3145 184.874 55.7548 0.41915 0.101929
838600 60.3145 184.888 55.7548 0.41925 0.0652219
838800 60.3145 184.901 55.7548 0.41935 0.0827105
839000 60.3145 184.914 55.7548 0.41945 0.0522654
839200 60.3145 184.927 55.7548 0.41955 0.0374794
839400 60.3145 184.94 55.7548 0.41965 0.0123485
839600 60.3145 184.953 55.7548 0.41975 -0.0189742
839800 60.3145 184.966 55.7548 0.41985 -0.0397233
840000 60.3145 184.979 55.7548 0.41995 -0.0524664
840200 60.3145 184.992 55.7548 0.42005 -0.0712648
840400 60.3145 185.005 55.7548 0.42015 -0.074831
840600 60.3145 185.018 55.7548 0.42025 -0.0719519
840800 60.3145 185.031 55.7548 0.42035 -0.0656096
841000 60.3145 185.044 55.7548 0.42045 -0.0479069
841200 60.3145 185.057 55.7548 0.42055 -0.0424287
841400 60.3145 185.07 55.7548 0.42065 0.0259935
841600 60.3145 185.083 55.7548 0.42075 0.018797
841800 60.3145 185.096 55.7548 0.42085 0.0365874
842000 60.3145 185.109 55.7548 0.42095 0.0642413
842200 60.3145 185.122 55.7548 0.42105 0.0562499
842400 60.3145 185.135 55.7548 0.42115 0.0808205
842600 60.3145 185.148 55.7548 0.42125 0.0752755
842800 60.3145 185.161 55.7548 0.42135 0.0850899
843000 60.3145 185.174 55.7548 0.42145 0.0472317
843200 60.3145 185.187 55.7548 0.42155 0.0202977
843400 60.3145 185.2 55.7548 0.42165 -0.00167351
843600 60.3145 185.213 55.7548 0.42175 -0.0132588
843800 60.3145 185.226 55.7548 0.42185 -0.0422554
844000 60.3145 185.239 55.7548 0.42195 -0.0623937
844200 60.3145 185.252 55.7548 0.42205 -0.06951
844400 60.3145 185.265 55.7548 0.42215 -0.0673707
844600 60.3145 185.278 55.7548 0.42225 -0.069307
844800 60.3145 185.291 55.7548 0.42235 -0.0617997
845000 60.3145 185.304 55.7548 0.42245 -0.0625743
845200 60.3145 185.317 55.7548 0.42255 9.5219e-05
845400 60.3145 185.33 55.7548 0.42265 0.016807
845600 60.3145 185.343 55.7548 0.42275 0.0136373
845800 60.3145 185.356 55.7548 0.42285 0.067367
846000 60.3145 185.37 55.7548 0.42295 0.0535047
846200 60.3145 185.383 55.7548 0.42305 0.0887476
846400 60.3145 185.396 55.7548 0.42315 0.0619157
846600 60.3145 185.409 55.7548 0.42325 0.063835
846800 60.3145 185.422 55.7548 0.42335 0.0591621
847000 60.3145 185.435 55.7548 0.42345 0.0593641
847200 60.3145 185.448 55.7548 0.42355 0.0247853
847400 60.3145 185.461 55.7548 0.42365 -0.0077302
847600 60.3145 185.474 55.7548 0.42375 -0.0399942
847800 60.3145 185.487 55.7548 0.42385 -0.0472166
848000 60.3145 185.5 55.7548 0.42395 -0.0719542
848200 60.3145 185.513 55.7548 0.42405 -0.053767
848400 60.3145 185.526 55.7548 0.42415 -0.0616762
848600 60.3145 185.539 55.7548 0.42425 -0.0541775
848800 60.3145 185.552 55.7548 0.42435 -0.0625676
849000 60.3145 185.565 55.7548 0.42445 -0.0348947
849200 60.3145 185.578 55.7548 0.42455 -0.0263803
849400 60.3145 185.591 55.7548 0.42465 0.00307161
849600 60.3145 185.604 55.7548 0.42475 0.0344594
849800 60.3145 185.617 55.7548 0.42485 0.0672224
850000 60.3145 185.63 55.7548 0.42495 0.0738274
850200 60.3145 185.643 55.7548 0.42505 0.0773774
850400 60.3145 185.656 55.7548 0.42515 0.0622783
850600 60.3145 185.669 55.7548 0.42525 0.0626593
850800 60.3145 185.682 55.7548 0.42535 0.0522602
851000 60.3145 185.695 55.7548 0.42545 0.0475656
851200 60.3145 185.708 55.7548 0.42555 0.0251851
851400 60.3145 185.721 55.7548 0.42565 -0.0163558
851600 60.3145 185.734 55.7548 0.42575 -0.0284857
851800 60.3145 185.747 55.7548 0.42585 -0.0754002
852000 60.3145 185.76 55.7548 0.42595 -0.0565023
852200 60.3145 185.773 55.7548 0.42605 -0.0532908
852400 60.3145 185.786 55.7548 0.42615 -0.0876807
852600 60.3145 185.799 55.7548 0.42625 -0.0274432
852800 60.3145 185.812 55.7548 0.42635 -0.0641222
853000 60.3145 185.825 55.7548 0.42645 -0.0182248
853200 60.3145 185.839 55.7548 0.42655 -0.0203431
853400 60.3145 185.852 55.7548 0.42665 0.0128472
853600 60.3145 185.865 55.7548 0.42675 0.0178491
853800 60.3145 185.878 55.7548 0.42685 0.0749634
854000 60.3145 185.891 55.7548 0.42695 0.0771273
854200 60.3145 185.904 55.7548 0.42705 0.0522406
854400 60.3145 185.917 55.7548 0.42715 0.0872031
854600 60.3145 185.93 55.7548 0.42725 0.0683492
854800 60.3145 185.943 55.7548 0.42735 0.0402175
855000 60.3145 185.956 55.7548 0.42745 0.0608663
855200 60.3145 185.969 55.7548 0.42755 0.0113856
855400 60.3145 185.982 55.7548 0.42765 -0.012629
855600 60.3145 185.995 55.7548 0.42775 -0.0303032
855800 60.3145 186.008 55.7548 0.42785 -0.0506703
856000 60.3145 186.021 55.7548 0.42795 -0.085234
856200 60.3145 186.034 55.7548 0.42805 -0.0559628
856400 60.3145 186.047 55.7548 0.42815 -0.0893441
856600 60.3145 186.06 55.7548 0.42825 -0.0705286
856800 60.3145 186.073 55.7548 0.42835 -0.0356924
857000 60.3145 186.086 55.7548 0.42845 -0.0380007
857200 60.3145 186.099 55.7548 0.42855 0.00958331
857400 60.3145 186.112 55.7548 0.42865 0.00357776
857600 60.3145 186.125 55.7548 0.42875 0.0378735
857800 60.3145 186.138 55.7548 0.42885 0.0748308
858000 60.3145 186.151 55.7548 0.42895 0.0453221
858200 60.3145 186.164 55.7548 0.42905 0.0769202
858400 60.3145 186.177 55.7548 0.42915 0.0894254
858600 60.3145 186.19 55.7548 0.42925 0.0951996
858800 60.3145 186.203 55.7548 0.42935 0.0514634
859000 60.3145 186.216 55.7548 0.42945 0.0203077
859200 60.3145 186.229 55.7548 0.42955 0.0131432
859400 60.3145 186.242 55.7548 0.42965 -0.0350228
859600 60.3145 186.255 55.7548 0.42975 -0.0355191
859800 60.3145 186.268 55.7548 0.42985 -0.0411805
860000 60.3145 186.281 55.7548 0.42995 -0.0743512
860200 60.3145 186.294 55.7548 0.43005 -0.057323
860400 60.3145 186.307 55.7548 0.43015 -0.083901
860600 60.3145 186.321 55.7548 0.43025 -0.0623955
860800 60.3145 186.334 55.7548 0.43035 -0.0539123
861000 60.3145 186.347 55.7548 0.43045 -0.0310184
861200 60.3145 186.36 55.7548 0.43055 -0.000322711
861400 60.3145 186.373 55.7548 0.43065 0.0337651
861600 60.3145 186.386 55.7548 0.43075 0.0667913
861800 60.3145 186.399 55.7548 0.43085 0.0420284
862000 60.3145 186.412 55.7548 0.43095 0.0612802
862200 60.3145 186.425 55.7548 0.43105 0.0635772
862400 60.3145 186.438 55.7548 0.43115 0.0882746
862600 60.3145 186.451 55.7548 0.43125 0.0851519
862800 60.3145 186.464 55.7548 0.43135 0.0572424
863000 60.3145 186.477 55.7548 0.43145 0.0316202
863200 60.3145 186.49 55.7548 0.43155 0.00870195
863400 60.3145 186.503 55.7548 0.43165 -0.0544204
863600 60.3145 186.516 55.7548 0.43175 -0.04672
863800 60.3145 186.529 55.7548 0.43185 -0.0687505
864000 60.3145 186.542 55.7548 0.43195 -0.0484214
864200 60.3145 186.555 55.7548 0.43205 -0.0601159
864400 60.3145 186.568 55.7548 0.43215 -0.0785095
864600 60.3145 186.581 55.7548 0.43225 -0.0410522
864800 60.3145 186.594 55.7548 0.43235 -0.0481821
865000 60.3145 186.607 55.7548 0.43245 -0.0383701
865200 60.3145 186.62 55.7548 0.43255 0.00259071
865400 60.3145 186.633 55.7548 0.43265 0.0157282
865600 60.3145 186.646 55.7548 0.43275 0.0623685
865800 60.3145 186.659 55.7548 0.43285 0.0572905
866000 60.3145 186.672 55.7548 0.43295 0.088323
866200 60.3145 186.685 55.7548 0.43305 0.0669844
866400 60.3145 186.698 55.7548 0.43315 0.0710508
866600 60.3145 186.711 55.7548 0.43325 0.0575153
866800 60.3145 186.724 55.7548 0.43335 0.048921
867000 60.3145 186.737 55.7548 0.43345 0.0244848
867200 60.3145 186.75 55.7548 0.43355 0.00921693
867400 60.3145 186.763 55.7548 0.43365 -0.0253608
867600 60.3145 186.776 55.7548 0.43375 -0.0428822
867800 60.3145 186.789 55.7548 0.43385 -0.0740416
868000 60.3145 186.803 55.7548 0.43395 -0.0627302
868200 60.3145 186.816 55.7548 0.43405 -0.0565828
868400 60.3145 186.829 55.7548 0.43415 -0.0847638
868600 60.3145 186.842 55.7548 0.43425 -0.0347465
868800 60.3145 186.855 55.7548 0.43435 -0.0325378
869000 60.3145 186.868 55.7548 0.43445 -0.0310918
869200 60.3145 186.881 55.7548 0.43455 0.0115186
869400 60.3145 186.894 55.7548 0.43465 0.0253804
869600 60.3145 186.907 55.7548 0.43475 0.0520196
869800 60.3145 186.92 55.7548 0.43485 0.0639826
870000 60.3145 186.933 55.7548 0.43495 0.0751996
870200 60.3145 186.946 55.7548 0.43505 0.088513
870400 60.3145 186.959 55.7548 0.43515 0.070881
870600 60.3145 186.972 55.7548 0.43525 0.0549248
870800 60.3145 186.985 55.7548 0.43535 0.0259242
871000 60.3145 186.998 55.7548 0.43545 0.00829737
871200 60.3145 187.011 55.7548 0.43555 0.00303533
871400 60.3145 187.024 55.7548 0.43565 -0.0301575
871600 60.3145 187.037 55.7548 0.43575 -0.061399
871800 60.3145 187.05 55.7548 0.43585 -0.0723997
872000 60.3145 187.063 55.7548 0.43595 -0.05481
872200 60.3145 187.076 55.7548 0.43605 -0.0759631
872400 60.3145 187.089 55.7548 0.43615 -0.0520118
872600 60.3145 187.102 55.7548 0.43625 -0.0592762
872800 60.3145 187.115 55.7548 0.43635 -0.0201793
873000 60.3145 187.128 55.7548 0.43645 0.0031797
873200 60.3145 187.141 55.7548 0.43655 0.0177872
873400 60.3145 187.154 55.7548 0.43665 0.0265118
873600 60.3145 187.167 55.7548 0.43675 0.0629344
873800 60.3145 187.18 55.7548 0.43685 0.0714635
874000 60.3145 187.193 55.7548 0.43695 0.0827441
874200 60.3145 187.206 55.7548 0.43705 0.0837119
874400 60.3145 187.219 55.7548 0.43715 0.0553067
874600 60.3145 187.232 55.7548 0.43725 0.0390337
874800 60.3145 187.245 55.7548 0.43735 0.0374753
875000 60.3145 187.258 55.7548 0.43745 -0.00593851
875200 60.3145 187.271 55.7548 0.43755 -0.0293803
875400 60.3145 187.285 55.7548 0.43765 -0.0203582
875600 60.3145 187.298 55.7548 0.43775 -0.0525155
875800 60.3145 187.311 55.7548 0.43785 -0.0752166
876000 60.3145 187.324 55.7548 0.43795 -0.0777926
876200 60.3145 187.337 55.7548 0.43805 -0.0642904
876400 60.3145 187.35 55.7548 0.43815 -0.055572
876600 60.3145 187.363 55.7548 0.43825 -0.0267743
876800 60.3145 187.376 55.7548 0.43835 -0.0100022
877000 60.3145 187.389 55.7548 0.43845 0.0145914
877200 60.3145 187.402 55.7548 0.43855 0.0232795
877400 60.3145 187.415 55.7548 0.43865 0.0381201
877600 60.3145 187.428 55.7548 0.43875 0.0287363
877800 60.3145 187.441 55.7548 0.43885 0.0826878
878000 60.3145 187.454 55.7548 0.43895 0.0895648
878200 60.3145 187.467 55.7548 0.43905 0.0633026
878400 60.3145 187.48 55.7548 0.43915 0.0453844
878600 60.3145 187.493 55.7548 0.43925 0.0321965
878800 60.3145 187.506 55.7548 0.43935 0.018852
879000 60.3145 187.519 55.7548 0.43945 -0.00359194
879200 60.3145 187.532 55.7548 0.43955 -0.0243818
879400 60.3145 187.545 55.7548 0.43965 -0.0458613
879600 60.3145 187.558 55.7548 0.43975 -0.0228995
879800 60.3145 187.571 55.7548 0.43985 -0.0767947
880000 60.3145 187.584 55.7548 0.43995 -0.0465674
880200 60.3145 187.597 55.7548 0.44005 -0.0704842
880400 60.3145 187.61 55.7548 0.44015 -0.0599745
880600 60.3145 187.623 55.7548 0.44025 -0.025841
880800 60.3145 187.636 55.7548 0.44035 -0.0159737
881000 60.3145 187.649 55.7548 0.44045 0.0225435
881200 60.3145 187.662 55.7548 0.44055 0.0295669
881400 60.3145 187.675 55.7548 0.44065 0.0345037
881600 60.3145 187.688 55.7548 0.44075 0.0559593
881800 60.3145 187.701 55.7548 0.44085 0.0743919
882000 60.3145 187.714 55.7548 0.44095 0.0738688
882200 60.3145 187.727 55.7548 0.44105 0.0627751
882400 60.3145 187.74 55.7548 0.44115 0.0439758
882600 60.3145 187.753 55.7548 0.44125 0.0291427
882800 60.3145 187.767 55.7548 0.44135 0.0111519
883000 60.3145 187.78 55.7548 0.44145 0.0161045
883200 60.3145 187.793 55.7548 0.44155 -0.0501599
883400 60.3145 187.806 55.7548 0.44165 -0.0506274
883600 60.3145 187.819 55.7548 0.44175 -0.0361554
883800 60.3145 187.832 55.7548 0.44185 -0.0707619
884000 60.3145 187.845 55.7548 0.44195 -0.0507605
884200 60.3145 187.858 55.7548 0.44205 -0.0554014
884400 60.3145 187.871 55.7548 0.44215 -0.0419735
884600 60.3145 187.884 55.7548 0.44225 -0.035063
884800 60.3145 187.897 55.7548 0.44235 -0.00740043
885000 60.3145 187.91 55.7548 0.44245 -0.00203599
885200 60.3145 187.923 55.7548 0.44255 0.068545
885400 60.3145 187.936 55.7548 0.44265 0.047447
885600 60.3145 187.949 55.7548 0.44275 0.0530195
885800 60.3145 187.962 55.7548 0.44285 0.0549332
886000 60.3145 187.975 55.7548 0.44295 0.0623954
886200 60.3145 187.988 55.7548 0.44305 0.0515074
886400 60.3145 188.001 55.7548 0.44315 0.0688897
886600 60.3145 188.014 55.7548 0.44325 0.0327298
886800 60.3145 188.027 55.7548 0.44335 -0.00279305
887000 60.3145 188.04 55.7548 0.44345 -0.0291434
887200 60.3145 188.053 55.7548 0.44355 -0.0175104
887400 60.3145 188.066 55.7548 0.44365 -0.0461129
887600 60.3145 188.079 55.7548 0.44375 -0.0519367
887800 60.3145 188.092 55.7548 0.44385 -0.0684706
888000 60.3145 188.105 55.7548 0.44395 -0.0683198
888200 60.3145 188.118 55.7548 0.44405 -0.0473566
888400 60.3145 188.131 55.7548 0.44415 -0.0137163
888600 60.3145 188.144 55.7548 0.44425 -0.0485095
888800 60.3145 188.157 55.7548 0.44435 -0.00405735
889000 60.3145 188.17 55.7548 0.44445 0.032995
889200 60.3145 188.183 55.7548 0.44455 0.0428607
889400 60.3145 188.196 55.7548 0.44465 0.070891
889600 60.3145 188.209 55.7548 0.44475 0.0513172
889800 60.3145 188.222 55.7548 0.44485 0.0730904
890000 60.3145 188.235 55.7548 0.44495 0.0448442
890200 60.3145 188.249 55.7548 0.44505 0.0615307
890400 60.3145 188.262 55.7548 0.44515 0.041826
890600 60.3145 188.275 55.7548 0.44525 0.0121705
890800 60.3145 188.288 55.7548 0.44535 0.0153605
891000 60.3145 188.301 55.7548 0.44545 -0.00023319
891200 60.3145 188.314 55.7548 0.44555 -0.0498324
891400 60.3145 188.327 55.7548 0.44565 -0.0654741
891600 60.3145 188.34 55.7548 0.44575 -0.0789492
891800 60.3145 188.353 55.7548 0.44585 -0.0414942
892000 60.3145 188.366 55.7548 0.44595 -0.0552143
892200 60.3145 188.379 55.7548 0.44605 -0.0581867
892400 60.3145 188.392 55.7548 0.44615 -0.0217809
892600 60.3145 188.405 55.7548 0.44625 -0.0251728
892800 60.3145 188.418 55.7548 0.44635 -0.000867746
893000 60.3145 188.431 55.7548 0.44645 0.0290499
893200 60.3145 188.444 55.7548 0.44655 0.0526613
893400 60.3145 188.457 55.7548 0.44665 0.0685371
893600 60.3145 188.47 55.7548 0.44675 0.0614429
893800 60.3145 188.483 55.7548 0.44685 0.0752135
894000 60.3145 188.496 55.7548 0.44695 0.049429
894200 60.3145 188.509 55.7548 0.44705 0.0454678
894400 60.3145 188.522 55.7548 0.44715 0.0262385
894600 60.3145 188.535 55.7548 0.44725 0.0250729
894800 60.3145 188.548 55.7548 0.44735 0.00647764
895000 60.3145 188.561 55.7548 0.44745 -0.0194903
895200 60.3145 188.574 55.7548 0.44755 -0.0530778
895400 60.3145 188.587 55.7548 0.44765 -0.0403927
895600 60.3145 188.6 55.7548 0.44775 -0.0795371
895800 60.3145 188.613 55.7548 0.44785 -0.0606463
896000 60.3145 188.626 55.7548 0.44795 -0.0462263
896200 60.3145 188.639 55.7548 0.44805 -0.0502487
896400 60.3145 188.652 55.7548 0.44815 -0.00265828
896600 60.3145 188.665 55.7548 0.44825 -0.00628158
896800 60.3145 188.678 55.7548 0.44835 0.000603284
897000 60.3145 188.691 55.7548 0.44845 0.0124014
897200 60.3145 188.704 55.7548 0.44855 0.0325034
897400 60.3145 188.717 55.7548 0.44865 0.0493509
897600 60.3145 188.731 55.7548 0.44875 0.0661594
897800 60.3145 188.744 55.7548 0.44885 0.0781329
898000 60.3145 188.757 55.7548 0.44895 0.0788717
898200 60.3145 188.77 55.7548 0.44905 0.0385851
898400 60.3145 188.783 55.7548 0.44915 0.0327936
898600 60.3145 188.796 55.7548 0.44925 -0.0171962
898800 60.3145 188.809 55.7548 0.44935 0.0124627
899000 60.3145 188.822 55.7548 0.44945 -0.0115884
899200 60.3145 188.835 55.7548 0.44955 -0.02779
899400 60.3145 188.848 55.7548 0.44965 -0.0407162
899600 60.3145 188.861 55.7548 0.44975 -0.0559675
899800 60.3145 188.874 55.7548 0.44985 -0.0682547
900000 60.3145 188.887 55.7548 0.44995 -0.0504125
900200 60.3145 188.9 55.7548 0.45005 -0.0482474
900400 60.3145 188.913 55.7548 0.45015 -0.0283894
900600 60.3145 188.926 55.7548 0.45025 -0.00669101
900800 60.3145 188.939 55.7548 0.45035 0.00514932
901000 60.3145 188.952 55.7548 0.45045 0.0358454
901200 60.3145 188.965 55.7548 0.45055 0.0219912
901400 60.3145 188.978 55.7548 0.45065 0.0386365
901600 60.3145 188.991 55.7548 0.45075 0.0603595
901800 60.3145 189.004 55.7548 0.45085 0.0516576
902000 60.3145 189.017 55.7548 0.45095 0.0605369
902200 60.3145 189.03 55.7548 0.45105 0.0619551
902400 60.3145 189.043 55.7548 0.45115 0.0252328
902600 60.3145 189.056 55.7548 0.45125 0.0174455
902800 60.3145 189.069 55.7548 0.45135 -0.00700228
903000 60.3145 189.082 55.7548 0.45145 -0.0121607
903200 60.3145 189.095 55.7548 0.45155 -0.0344193
903400 60.3145 189.108 55.7548 0.45165 -0.0438585
903600 60.3145 189.121 55.7548 0.45175 -0.047451
903800 60.3145 189.134 55.7548 0.45185 -0.0304471
904000 60.3145 189.147 55.7548 0.45195 -0.0773061
904200 60.3145 189.16 55.7548 0.45205 -0.0467034
904400 60.3145 189.173 55.7548 0.45215 -0.0358063
904600 60.3145 189.186 55.7548 0.45225 0.000937027
904800 60.3145 189.2 55.7548 0.45235 0.00585891
905000 60.3145 189.213 55.7548 0.45245 0.0361631
905200 60.3145 189.226 55.7548 0.45255 0.0558976
905400 60.3145 189.239 55.7548 0.45265 0.0476594
905600 60.3145 189.252 55.7548 0.45275 0.0476714
905800 60.3145 189.265 55.7548 0.45285 0.0603164
906000 60.3145 189.278 55.7548 0.45295 0.0525911
906200 60.3145 189.291 55.7548 0.45305 0.0377582
906400 60.3145 189.304 55.7548 0.45315 0.0441501
906600 60.3145 189.317 55.7548 0.45325 0.0178177
906800 60.3145 189.33 55.7548 0.45335 -0.0270287
907000 60.3145 189.343 55.7548 0.45345 -0.0249984
907200 60.3145 189.356 55.7548 0.45355 -0.049624
907400 60.3145 189.369 55.7548 0.45365 -0.0461517
907600 60.3145 189.382 55.7548 0.45375 -0.0471437
907800 60.3145 189.395 55.7548 0.45385 -0.0528099
908000 60.3145 189.408 55.7548 0.45395 -0.0506448
908200 60.3145 189.421 55.7548 0.45405 -0.0273112
908400 60.3145 189.434 55.7548 0.45415 -0.0358633
908600 60.3145 189.447 55.7548 0.45425 -0.00456621
908800 60.3145 189.46 55.7548 0.45435 0.0101521
909000 60.3145 189.473 55.7548 0.45445 0.0611067
909200 60.3145 189.486 55.7548 0.45455 0.0605689
909400 60.3145 189.499 55.7548 0.45465 0.0376885
909600 60.3145 189.512 55.7548 0.45475 0.043538
909800 60.3145 189.525 55.7548 0.45485 0.0623749
910000 60.3145 189.538 55.7548 0.45495 0.0528742
910200 60.3145 189.551 55.7548 0.45505 0.026779
910400 60.3145 189.564 55.7548 0.45515 0.0233325
910600 60.3145 189.577 55.7548 0.45525 0.00739473
910800 60.3145 189.59 55.7548 0.45535 -0.00821767
911000 60.3145 189.603 55.7548 0.45545 -0.026442
911200 60.3145 189.616 55.7548 0.45555 -0.0429272
911400 60.3145 189.629 55.7548 0.45565 -0.0788502
911600 60.3145 189.642 55.7548 0.45575 -0.0505508
911800 60.3145 189.655 55.7548 0.45585 -0.0460432
912000 60.3145 189.668 55.7548 0.45595 -0.0389312
912200 60.3145 189.682 55.7548 0.45605 -0.0125868
912400 60.3145 189.695 55.7548 0.45615 -0.0229845
912600 60.3145 189.708 55.7548 0.45625 -0.00725714
912800 60.3145 189.721 55.7548 0.45635 0.0223955
913000 60.3145 189.734 55.7548 0.45645 0.0505797
913200 60.3145 189.747 55.7548 0.45655 0.0608244
913400 60.3145 189.76 55.7548 0.45665 0.0643978
913600 60.3145 189.773 55.7548 0.45675 0.0597133
913800 60.3145 189.786 55.7548 0.45685 0.0476869
914000 60.3145 189.799 55.7548 0.45695 0.0396822
914200 60.3145 189.812 55.7548 0.45705 0.0340924
914400 60.3145 189.825 55.7548 0.45715 0.0159672
914600 60.3145 189.838 55.7548 0.45725 0.00944103
914800 60.3145 189.851 55.7548 0.45735 -0.0501192
915000 60.3145 189.864 55.7548 0.45745 -0.0209459
915200 60.3145 189.877 55.7548 0.45755 -0.0431448
915400 60.3145 189.89 55.7548 0.45765 -0.0748894
915600 60.3145 189.903 55.7548 0.45775 -0.0456286
915800 60.3145 189.916 55.7548 0.45785 -0.04331
916000 60.3145 189.929 55.7548 0.45795 -0.0345463
916200 60.3145 189.942 55.7548 0.45805 -0.044847
916400 60.3145 189.955 55.7548 0.45815 -0.00925174
916600 60.3145 189.968 55.7548 0.45825 0.0144889
916800 60.3145 189.981 55.7548 0.45835 0.043677
917000 60.3145 189.994 55.7548 0.45845 0.0386173
917200 60.3145 190.007 55.7548 0.45855 0.0664329
917400 60.3145 190.02 55.7548 0.45865 0.0475819
917600 60.3145 190.033 55.7548 0.45875 0.0707152
917800 60.3145 190.046 55.7548 0.45885 0.0470793
918000 60.3145 190.059 55.7548 0.45895 0.0283916
918200 60.3145 190.072 55.7548 0.45905 0.023296
918400 60.3145 190.085 55.7548 0.45915 0.0155063
918600 60.3145 190.098 55.7548 0.45925 -0.0110956
918800 60.3145 190.111 55.7548 0.45935 -0.0242017
919000 60.3145 190.124 55.7548 0.45945 -0.0637593
919200 60.3145 190.137 55.7548 0.45955 -0.038255
919400 60.3145 190.15 55.7548 0.45965 -0.0571187
919600 60.3145 190.164 55.7548 0.45975 -0.0340419
919800 60.3145 190.177 55.7548 0.45985 -0.0406898
920000 60.3145 190.19 55.7548 0.45995 -0.0399194
920200 60.3145 190.203 55.7548 0.46005 -0.00796425
920400 60.3145 190.216 55.7548 0.46015 -0.0109571
920600 60.3145 190.229 55.7548 0.46025 0.0275379
920800 60.3145 190.242 55.7548 0.46035 0.0252596
921000 60.3145 190.255 55.7548 0.46045 0.0432937
921200 60.3145 190.268 55.7548 0.46055 0.0616098
921400 60.3145 190.281 55.7548 0.46065 0.0486523
921600 60.3145 190.294 55.7548 0.46075 0.0492467
921800 60.3145 190.307 55.7548 0.46085 0.0570512
922000 60.3145 190.32 55.7548 0.46095 0.0270057
922200 60.3145 190.333 55.7548 0.46105 0.0127104
922400 60.3145 190.346 55.7548 0.46115 0.00788651
922600 60.3145 190.359 55.7548 0.46125 -0.00317128
922800 60.3145 190.372 55.7548 0.46135 -0.0435263
923000 60.3145 190.385 55.7548 0.46145 -0.0404992
923200 60.3145 190.398 55.7548 0.46155 -0.0468746
923400 60.3145 190.411 55.7548 0.46165 -0.0428159
923600 60.3145 190.424 55.7548 0.46175 -0.0432266
923800 60.3145 190.437 55.7548 0.46185 -0.03966
924000 60.3145 190.45 55.7548 0.46195 -0.0288363
924200 60.3145 190.463 55.7548 0.46205 -0.0184588
924400 60.3145 190.476 55.7548 0.46215 0.015549
924600 60.3145 190.489 55.7548 0.46225 0.0111054
924800 60.3145 190.502 55.7548 0.46235 0.035847
925000 60.3145 190.515 55.7548 0.46245 0.0611156
925200 60.3145 190.528 55.7548 0.46255 0.0473962
925400 60.3145 190.541 55.7548 0.46265 0.055588
925600 60.3145 190.554 55.7548 0.46275 0.0393896
925800 60.3145 190.567 55.7548 0.46285 0.0464869
926000 60.3145 190.58 55.7548 0.46295 0.0286222
926200 60.3145 190.593 55.7548 0.46305 0.0161662
926400 60.3145 190.606 55.7548 0.46315 0.00128661
926600 60.3145 190.619 55.7548 0.46325 -0.0298601
926800 60.3145 190.632 55.7548 0.46335 -0.0249249
927000 60.3145 190.646 55.7548 0.46345 -0.0400444
927200 60.3145 190.659 55.7548 0.46355 -0.0482764
927400 60.3145 190.672 55.7548 0.46365 -0.0602804
927600 60.3145 190.685 55.7548 0.46375 -0.0335004
927800 60.3145 190.698 55.7548 0.46385 -0.0210677
928000 60.3145 190.711 55.7548 0.46395 -0.0160447
928200 60.3145 190.724 55.7548 0.46405 -0.00932563
928400 60.3145 190.737 55.7548 0.46415 0.000648108
928600 60.3145 190.75 55.7548 0.46425 0.0257967
928800 60.3145 190.763 55.7548 0.46435 0.0479841
929000 60.3145 190.776 55.7548 0.46445 0.0456687
929200 60.3145 190.789 55.7548 0.46455 0.0512518
929400 60.3145 190.802 55.7548 0.46465 0.056477
929600 60.3145 190.815 55.7548 0.46475 0.0251179
929800 60.3145 190.828 55.7548 0.46485 0.034551
930000 60.3145 190.841 55.7548 0.46495 0.0159762
930200 60.3145 190.854 55.7548 0.46505 0.0139684
930400 60.3145 190.867 55.7548 0.46515 -0.0205519
930600 60.3145 190.88 55.7548 0.46525 -0.0267597
930800 60.3145 190.893 55.7548 0.46535 -0.0331526
931000 60.3145 190.906 55.7548 0.46545 -0.0439931
931200 60.3145 190.919 55.7548 0.46555 -0.0297185
931400 60.3145 190.932 55.7548 0.46565 -0.0633443
931600 60.3145 190.945 55.7548 0.46575 -0.0089859
931800 60.3145 190.958 55.7548 0.46585 -0.0192567
932000 60.3145 190.971 55.7548 0.46595 -0.0130606
932200 60.3145 190.984 55.7548 0.46605 -0.0141919
932400 60.3145 190.997 55.7548 0.46615 0.00696397
932600 60.3145 191.01 55.7548 0.46625 0.0394363
932800 60.3145 191.023 55.7548 0.46635 0.0395224
933000 60.3145 191.036 55.7548 0.46645 0.0467673
933200 60.3145 191.049 55.7548 0.46655 0.0468721
933400 60.3145 191.062 55.7548 0.46665 0.0398636
933600 60.3145 191.075 55.7548 0.46675 0.0330281
933800 60.3145 191.088 55.7548 0.46685 0.0272979
934000 60.3145 191.101 55.7548 0.46695 0.0272667
934200 60.3145 191.114 55.7548 0.46705 -0.00501771
934400 60.3145 191.128 55.7548 0.46715 0.00489834
934600 60.3145 191.141 55.7548 0.46725 -0.023371
934800 60.3145 191.154 55.7548 0.46735 -0.0262583
935000 60.3145 191.167 55.7548 0.46745 -0.0434331
935200 60.3145 191.18 55.7548 0.46755 -0.0315522
935400 60.3145 191.193 55.7548 0.46765 -0.0493953
935600 60.3145 191.206 55.7548 0.46775 -0.0334493
935800 60.3145 191.219 55.7548 0.46785 -0.0109881
936000 60.3145 191.232 55.7548 0.46795 -0.0128943
936200 60.3145 191.245 55.7548 0.46805 -0.00501463
936400 60.3145 191.258 55.7548 0.46815 0.0249502
936600 60.3145 191.271 55.7548 0.46825 0.0248585
936800 60.3145 191.284 55.7548 0.46835 0.0178413
937000 60.3145 191.297 55.7548 0.46845 0.0466756
937200 60.3145 191.31 55.7548 0.46855 0.0612918
937400 60.3145 191.323 55.7548 0.46865 0.0423073
937600 60.3145 191.336 55.7548 0.46875 0.00659535
937800 60.3145 191.349 55.7548 0.46885 0.0182845
938000 60.3145 191.362 55.7548 0.46895 0.023372
938200 60.3145 191.375 55.7548 0.46905 0.0113835
938400 60.3145 191.388 55.7548 0.46915 0.000654929
938600 60.3145 191.401 55.7548 0.46925 -0.0375307
938800 60.3145 191.414 55.7548 0.46935 -0.0211506
939000 60.3145 191.427 55.7548 0.46945 -0.0385868
939200 60.3145 191.44 55.7548 0.46955 -0.0452093
939400 60.3145 191.453 55.7548 0.46965 -0.040693
939600 60.3145 191.466 55.7548 0.46975 -0.0256717
939800 60.3145 191.479 55.7548 0.46985 -0.0165255
940000 60.3145 191.492 55.7548 0.46995 -0.00682507
940200 60.3145 191.505 55.7548 0.47005 0.0032202
940400 60.3145 191.518 55.7548 0.47015 0.0260618
940600 60.3145 191.531 55.7548 0.47025 0.0333207
940800 60.3145 191.544 55.7548 0.47035 0.030778
941000 60.3145 191.557 55.7548 0.47045 0.0461794
941200 60.3145 191.57 55.7548 0.47055 0.0683229
941400 60.3145 191.583 55.7548 0.47065 0.0266083
941600 60.3145 191.596 55.7548 0.47075 0.0293441
941800 60.3145 191.61 55.7548 0.47085 0.0261807
942000 60.3145 191.623 55.7548 0.47095 -0.00604871
942200 60.3145 191.636 55.7548 0.47105 0.00324374
942400 60.3145 191.649 55.7548 0.47115 -0.0174469
942600 60.3145 191.662 55.7548 0.47125 -0.042739
942800 60.3145 191.675 55.7548 0.47135 -0.0126865
943000 60.3145 191.688 55.7548 0.47145 -0.0491653
943200 60.3145 191.701 55.7548 0.47155 -0.0449228
943400 60.3145 191.714 55.7548 0.47165 -0.0513636
943600 60.3145 191.727 55.7548 0.47175 -0.0112229
943800 60.3145 191.74 55.7548 0.47185 -0.0108028
944000 60.3145 191.753 55.7548 0.47195 -0.0037302
944200 60.3145 191.766 55.7548 0.47205 0.0194734
944400 60.3145 191.779 55.7548 0.47215 0.00204268
944600 60.3145 191.792 55.7548 0.47225 0.0223516
944800 60.3145 191.805 55.7548 0.47235 0.0542344
945000 60.3145 191.818 55.7548 0.47245 0.0356345
945200 60.3145 191.831 55.7548 0.47255 0.048185
945400 60.3145 191.844 55.7548 0.47265 0.0575528
945600 60.3145 191.857 55.7548 0.47275 0.0203988
945800 60.3145 191.87 55.7548 0.47285 0.0282057
946000 60.3145 191.883 55.7548 0.47295 0.0255011
946200 60.3145 191.896 55.7548 0.47305 0.00218524
946400 60.3145 191.909 55.7548 0.47315 -0.0194934
946600 60.3145 191.922 55.7548 0.47325 -0.0217068
946800 60.3145 191.935 55.7548 0.47335 -0.0452036
947000 60.3145 191.948 55.7548 0.47345 -0.0469314
947200 60.3145 191.961 55.7548 0.47355 -0.0587444
947400 60.3145 191.974 55.7548 0.47365 -0.0205618
947600 60.3145 191.987 55.7548 0.47375 -0.0285083
947800 60.3145 192 55.7548 0.47385 -0.0147535
948000 60.3145 192.013 55.7548 0.47395 -0.013864
948200 60.3145 192.026 55.7548 0.47405 0.00115076
948400 60.3145 192.039 55.7548 0.47415 0.0246646
948600 60.3145 192.052 55.7548 0.47425 0.0349187
948800 60.3145 192.065 55.7548 0.47435 0.0467054
949000 60.3145 192.078 55.7548 0.47445 0.063936
949200 60.3145 192.092 55.7548 0.47455 0.016449
949400 60.3145 192.105 55.7548 0.47465 0.0437098
949600 60.3145 192.118 55.7548 0.47475 0.0355024
949800 60.3145 192.131 55.7548 0.47485 0.0150419
950000 60.3145 192.144 55.7548 0.47495 0.0166484
950200 60.3145 192.157 55.7548 0.47505 0.0124969
950400 60.3145 192.17 55.7548 0.47515 -0.0108226
950600 60.3145 192.183 55.7548 0.47525 -0.0541163
950800 60.3145 192.196 55.7548 0.47535 -0.021652
951000 60.3145 192.209 55.7548 0.47545 -0.0335597
951200 60.3145 192.222 55.7548 0.47555 -0.0552736
951400 60.3145 192.235 55.7548 0.47565 -0.0239814
951600 60.3145 192.248 55.7548 0.47575 -0.0301939
951800 60.3145 192.261 55.7548 0.47585 -0.00292934
952000 60.3145 192.274 55.7548 0.47595 -0.0128458
952200 60.3145 192.287 55.7548 0.47605 0.00659283
952400 60.3145 192.3 55.7548 0.47615 0.0111583
952600 60.3145 192.313 55.7548 0.47625 0.0344131
952800 60.3145 192.326 55.7548 0.47635 0.051646
953000 60.3145 192.339 55.7548 0.47645 0.0423476
953200 60.3145 192.352 55.7548 0.47655 0.0388213
953400 60.3145 192.365 55.7548 0.47665 0.0337163
953600 60.3145 192.378 55.7548 0.47675 0.0257948
953800 60.3145 192.391 55.7548 0.47685 0.0242144
954000 60.3145 192.404 55.7548 0.47695 0.00559502
954200 60.3145 192.417 55.7548 0.47705 -0.00777238
954400 60.3145 192.43 55.7548 0.47715 -0.00963199
954600 60.3145 192.443 55.7548 0.47725 -0.021413
954800 60.3145 192.456 55.7548 0.47735 -0.0390558
955000 60.3145 192.469 55.7548 0.47745 -0.0352249
955200 60.3145 192.482 55.7548 0.47755 -0.0309578
955400 60.3145 192.495 55.7548 0.47765 -0.0286294
955600 60.3145 192.508 55.7548 0.47775 -0.0448357
955800 60.3145 192.521 55.7548 0.47785 0.00736103
956000 60.3145 192.534 55.7548 0.47795 -0.0143008
956200 60.3145 192.547 55.7548 0.47805 -0.00371645
956400 60.3145 192.56 55.7548 0.47815 0.0292983
956600 60.3145 192.574 55.7548 0.47825 0.0421458
956800 60.3145 192.587 55.7548 0.47835 0.0568957
957000 60.3145 192.6 55.7548 0.47845 0.0353892
957200 60.3145 192.613 55.7548 0.47855 0.0580182
957400 60.3145 192.626 55.7548 0.47865 0.0253627
957600 60.3145 192.639 55.7548 0.47875 0.0132246
957800 60.3145 192.652 55.7548 0.47885 0.0150753
958000 60.3145 192.665 55.7548 0.47895 0.0108927
958200 60.3145 192.678 55.7548 0.47905 -0.01378
958400 60.3145 192.691 55.7548 0.47915 -0.0327501
958600 60.3145 192.704 55.7548 0.47925 -0.0131436
958800 60.3145 192.717 55.7548 0.47935 -0.0572204
959000 60.3145 192.73 55.7548 0.47945 -0.0329382
959200 60.3145 192.743 55.7548 0.47955 -0.0496827
959400 60.3145 192.756 55.7548 0.47965 -0.029994
959600 60.3145 192.769 55.7548 0.47975 0.0054164
959800 60.3145 192.782 55.7548 0.47985 -0.0066333
960000 60.3145 192.795 55.7548 0.47995 -0.00553777
960200 60.3145 192.808 55.7548 0.48005 0.0317807
960400 60.3145 192.821 55.7548 0.48015 0.0267648
960600 60.3145 192.834 55.7548 0.48025 0.0251286
960800 60.3145 192.847 55.7548 0.48035 0.0553846
961000 60.3145 192.86 55.7548 0.48045 0.0303757
961200 60.3145 192.873 55.7548 0.48055 0.0547748
961400 60.3145 192.886 55.7548 0.48065 0.0400322
961600 60.3145 192.899 55.7548 0.48075 0.00396172
961800 60.3145 192.912 55.7548 0.48085 -0.0177087
962000 60.3145 192.925 55.7548 0.48095 -0.0047765
962200 60.3145 192.938 55.7548 0.48105 -0.00386603
962400 60.3145 192.951 55.7548 0.48115 -0.00322772
962600 60.3145 192.964 55.7548 0.48125 -0.0224276
962800 60.3145 192.977 55.7548 0.48135 -0.0492466
963000 60.3145 192.99 55.7548 0.48145 -0.0484303
963200 60.3145 193.003 55.7548 0.48155 -0.0129131
963400 60.3145 193.016 55.7548 0.48165 -0.0131451
963600 60.3145 193.029 55.7548 0.48175 -0.00710596
963800 60.3145 193.043 55.7548 0.48185 0.0075527
964000 60.3145 193.056 55.7548 0.48195 0.0196993
964200 60.3145 193.069 55.7548 0.48205 0.0152202
964400 60.3145 193.082 55.7548 0.48215 0.0196141
964600 60.3145 193.095 55.7548 0.48225 0.0198916
964800 60.3145 193.108 55.7548 0.48235 0.0228445
965000 60.3145 193.121 55.7548 0.48245 0.0365805
965200 60.3145 193.134 55.7548 0.48255 0.0311916
965400 60.3145 193.147 55.7548 0.48265 0.00960411
965600 60.3145 193.16 55.7548 0.48275 0.0081711
965800 60.3145 193.173 55.7548 0.48285 0.0167167
966000 60.3145 193.186 55.7548 0.48295 -0.0124647
966200 60.3145 193.199 55.7548 0.48305 -0.0120503
966400 60.3145 193.212 55.7548 0.48315 -0.0260714
966600 60.3145 193.225 55.7548 0.48325 -0.015107
966800 60.3145 193.238 55.7548 0.48335 -0.0271838
967000 60.3145 193.251 55.7548 0.48345 -0.0193564
967200 60.3145 193.264 55.7548 0.48355 -0.00162782
967400 60.3145 193.277 55.7548 0.48365 -0.0287063
967600 60.3145 193.29 55.7548 0.48375 0.0136823
967800 60.3145 193.303 55.7548 0.48385 0.00111776
968000 60.3145 193.316 55.7548 0.48395 0.00348325
968200 60.3145 193.329 55.7548 0.48405 0.00930476
968400 60.3145 193.342 55.7548 0.48415 0.043105
968600 60.3145 193.355 55.7548 0.48425 0.0302254
968800 60.3145 193.368 55.7548 0.48435 0.0185902
969000 60.3145 193.381 55.7548 0.48445 0.0292459
969200 60.3145 193.394 55.7548 0.48455 0.0178039
969400 60.3145 193.407 55.7548 0.48465 0.0148554
969600 60.3145 193.42 55.7548 0.48475 -0.0197483
969800 60.3145 193.433 55.7548 0.48485 0.0262514
970000 60.3145 193.446 55.7548 0.48495 0.00184969
970200 60.3145 193.459 55.7548 0.48505 -0.0260529
970400 60.3145 193.472 55.7548 0.48515 -0.0152475
970600 60.3145 193.485 55.7548 0.48525 -0.0261615
970800 60.3145 193.498 55.7548 0.48535 -0.0316777
971000 60.3145 193.511 55.7548 0.48545 -0.00897222
971200 60.3145 193.525 55.7548 0.48555 -0.01975
971400 60.3145 193.538 55.7548 0.48565 -0.00828956
971600 60.3145 193.551 55.7548 0.48575 0.000614862
971800 60.3145 193.564 55.7548 0.48585 -0.00379143
972000 60.3145 193.577 55.7548 0.48595 0.0186461
972200 60.3145 193.59 55.7548 0.48605 0.0115584
972400 60.3145 193.603 55.7548 0.48615 0.0147782
972600 60.3145 193.616 55.7548 0.48625 0.0360397
972800 60.3145 193.629 55.7548 0.48635 0.035983
973000 60.3145 193.642 55.7548 0.48645 0.024417
973200 60.3145 193.655 55.7548 0.48655 0.0221694
973400 60.3145 193.668 55.7548 0.48665 0.00796455
973600 60.3145 193.681 55.7548 0.48675 0.0222583
973800 60.3145 193.694 55.7548 0.48685 -0.00547166
974000 60.3145 193.707 55.7548 0.48695 0.0047106
974200 60.3145 193.72 55.7548 0.48705 -0.0198895
974400 60.3145 193.733 55.7548 0.48715 -0.0175869
974600 60.3145 193.746 55.7548 0.48725 -0.0321561
974800 60.3145 193.759 55.7548 0.48735 -0.0217729
975000 60.3145 193.772 55.7548 0.48745 -0.0264928
975200 60.3145 193.785 55.7548 0.48755 -0.0187332
975400 60.3145 193.798 55.7548 0.48765 -0.00659164
975600 60.3145 193.811 55.7548 0.48775 -0.00850492
975800 60.3145 193.824 55.7548 0.48785 0.0103188
976000 60.3145 193.837 55.7548 0.48795 0.0217574
976200 60.3145 193.85 55.7548 0.48805 0.0157824
976400 60.3145 193.863 55.7548 0.48815 0.00482529
976600 60.3145 193.876 55.7548 0.48825 0.0383664
976800 60.3145 193.889 55.7548 0.48835 0.0311075
977000 60.3145 193.902 55.7548 0.48845 0.032487
977200 60.3145 193.915 55.7548 0.48855 0.0307715
977400 60.3145 193.928 55.7548 0.48865 0.013435
977600 60.3145 193.941 55.7548 0.48875 -0.00688307
977800 60.3145 193.954 55.7548 0.48885 -0.0224201
978000 60.3145 193.967 55.7548 0.48895 0.00600847
978200 60.3145 193.98 55.7548 0.48905 -0.00205894
978400 60.3145 193.993 55.7548 0.48915 -0.0171831
978600 60.3145 194.007 55.7548 0.48925 -0.00236612
978800 60.3145 194.02 55.7548 0.48935 -0.0293383
979000 60.3145 194.033 55.7548 0.48945 -0.030189
979200 60.3145 194.046 55.7548 0.48955 -0.0194636
979400 60.3145 194.059 55.7548 0.48965 -0.02094
979600 60.3145 194.072 55.7548 0.48975 0.00745815
979800 60.3145 194.085 55.7548 0.48985 0.0181445
980000 60.3145 194.098 55.7548 0.48995 0.0208543
980200 60.3145 194.111 55.7548 0.49005 0.0202596
980400 60.3145 194.124 55.7548 0.49015 0.0163492
980600 60.3145 194.137 55.7548 0.49025 0.0239276
980800 60.3145 194.15 55.7548 0.49035 0.0101462
981000 60.3145 194.163 55.7548 0.49045 0.0139319
981200 60.3145 194.176 55.7548 0.49055 0.0320902
981400 60.3145 194.189 55.7548 0.49065 0.00417923
981600 60.3145 194.202 55.7548 0.49075 0.0106989
981800 60.3145 194.215 55.7548 0.49085 -0.0128688
982000 60.3145 194.228 55.7548 0.49095 -0.0121534
982200 60.3145 194.241 55.7548 0.49105 0.0044786
982400 60.3145 194.254 55.7548 0.49115 0.000346842
982600 60.3145 194.267 55.7548 0.49125 -0.00780677
982800 60.3145 194.28 55.7548 0.49135 -0.0344816
983000 60.3145 194.293 55.7548 0.49145 -0.00511991
983200 60.3145 194.306 55.7548 0.49155 -0.00611013
983400 60.3145 194.319 55.7548 0.49165 -0.022847
983600 60.3145 194.332 55.7548 0.49175 -0.00565508
983800 60.3145 194.345 55.7548 0.49185 0.00497324
984000 60.3145 194.358 55.7548 0.49195 0.0228019
984200 60.3145 194.371 55.7548 0.49205 0.0306873
984400 60.3145 194.384 55.7548 0.49215 0.0101
984600 60.3145 194.397 55.7548 0.49225 0.0104791
984800 60.3145 194.41 55.7548 0.49235 -0.0136224
985000 60.3145 194.423 55.7548 0.49245 0.0257996
985200 60.3145 194.436 55.7548 0.49255 0.0312609
985400 60.3145 194.449 55.7548 0.49265 0.0168201
985600 60.3145 194.462 55.7548 0.49275 -0.00985521
985800 60.3145 194.475 55.7548 0.49285 -0.00535779
986000 60.3145 194.489 55.7548 0.49295 0.0151089
986200 60.3145 194.502 55.7548 0.49305 -0.0137097
986400 60.3145 194.515 55.7548 0.49315 -0.0104074
986600 60.3145 194.528 55.7548 0.49325 -0.0183214
986800 60.3145 194.541 55.7548 0.49335 0.0139931
987000 60.3145 194.554 55.7548 0.49345 -0.0165388
987200 60.3145 194.567 55.7548 0.49355 -0.023029
987400 60.3145 194.58 55.7548 0.49365 0.00672557
987600 60.3145 194.593 55.7548 0.49375 -0.00842688
987800 60.3145 194.606 55.7548 0.49385 0.00502863
988000 60.3145 194.619 55.7548 0.49395 0.0182909
988200 60.3145 194.632 55.7548 0.49405 0.00083524
988400 60.3145 194.645 55.7548 0.49415 0.0131142
988600 60.3145 194.658 55.7548 0.49425 0.0131366
988800 60.3145 194.671 55.7548 0.49435 -0.00387292
989000 60.3145 194.684 55.7548 0.49445 0.0241073
989200 60.3145 194.697 55.7548 0.49455 0.00678651
989400 60.3145 194.71 55.7548 0.49465 0.0330642
989600 60.3145 194.723 55.7548 0.49475 0.00975769
989800 60.3145 194.736 55.7548 0.49485 0.00283894
990000 60.3145 194.749 55.7548 0.49495 0.00714367
990200 60.3145 194.762 55.7548 0.49505 0.00420981
990400 60.3145 194.775 55.7548 0.49515 -0.0190634
990600 60.3145 194.788 55.7548 0.49525 -0.0207362
990800 60.3145 194.801 55.7548 0.49535 -0.018069
991000 60.3145 194.814 55.7548 0.49545 -0.00900526
991200 60.3145 194.827 55.7548 0.49555 -0.0143191
991400 60.3145 194.84 55.7548 0.49565 0.0217929
991600 60.3145 194.853 55.7548 0.49575 -0.0147185
991800 60.3145 194.866 55.7548 0.49585 -0.00784516
992000 60.3145 194.879 55.7548 0.49595 0.00965277
992200 60.3145 194.892 55.7548 0.49605 -0.00413899
992400 60.3145 194.905 55.7548 0.49615 0.00480303
992600 60.3145 194.918 55.7548 0.49625 0.0460408
992800 60.3145 194.931 55.7548 0.49635 0.0296159
993000 60.3145 194.944 55.7548 0.49645 0.0157251
993200 60.3145 194.957 55.7548 0.49655 0.0181822
993400 60.3145 194.971 55.7548 0.49665 -0.0163797
993600 60.3145 194.984 55.7548 0.49675 0.0224616
993800 60.3145 194.997 55.7548 0.49685 0.0160994
994000 60.3145 195.01 55.7548 0.49695 -0.0294883
994200 60.3145 195.023 55.7548 0.49705 0.0131364
994400 60.3145 195.036 55.7548 0.49715 -0.0276157
994600 60.3145 195.049 55.7548 0.49725 -0.00665586
994800 60.3145 195.062 55.7548 0.49735 -0.0255937
995000 60.3145 195.075 55.7548 0.49745 0.00941359
995200 60.3145 195.088 55.7548 0.49755 -0.022733
995400 60.3145 195.101 55.7548 0.49765 -0.0195104
995600 60.3145 195.114 55.7548 0.49775 -0.00148636
995800 60.3145 195.127 55.7548 0.49785 0.0109592
996000 60.3145 195.14 55.7548 0.49795 0.00427445
996200 60.3145 195.153 55.7548 0.49805 0.0316414
996400 60.3145 195.166 55.7548 0.49815 0.0396401
996600 60.3145 195.179 55.7548 0.49825 -0.00507429
996800 60.3145 195.192 55.7548 0.49835 0.00981736
997000 60.3145 195.205 55.7548 0.49845 0.0299154
997200 60.3145 195.218 55.7548 0.49855 0.00671015
997400 60.3145 195.231 55.7548 0.49865 8.78302e-06
997600 60.3145 195.244 55.7548 0.49875 0.0134261
997800 60.3145 195.257 55.7548 0.49885 0.0065395
998000 60.3145 195.27 55.7548 0.49895 -0.00219831
998200 60.3145 195.283 55.7548 0.49905 -0.0143979
998400 60.3145 195.296 55.7548 0.49915 -0.0284051
998600 60.3145 195.309 55.7548 0.49925 -0.0224421
998800 60.3145 195.322 55.7548 0.49935 0.00658396
999000 60.3145 195.335 55.7548 0.49945 -0.00967963
999200 60.3145 195.348 55.7548 0.49955 0.00985393
999400 60.3145 195.361 55.7548 0.49965 -0.0277589
999600 60.3145 195.374 55.7548 0.49975 0.00927798
999800 60.3145 195.387 55.7548 0.49985 -0.00564482
1000000 60.3145 195.4 55.7548 0.49995 0.0323989
1000200 60.3145 195.413 55.7548 0.50005 0.0207539
1000400 60.3145 195.426 55.7548 0.50015 0.00960105
1000600 60.3145 195.439 55.7548 0.50025 0.0233994
1000800 60.3145 195.453 55.7548 0.50035 0.0310958
1001000 60.3145 195.466 55.7548 0.50045 0.0033259
1001200 60.3145 195.479 55.7548 0.50055 0.00358464
1001400 60.3145 195.492 55.7548 0.50065 0.00458606
1001600 60.3145 195.505 55.7548 0.50075 0.00463682
1001800 60.3145 195.518 55.7548 0.50085 -0.00712682
1002000 60.3145 195.531 55.7548 0.50095 -0.0264464
1002200 60.3145 195.544 55.7548 0.50105 -0.0122742
1002400 60.3145 195.557 55.7548 0.50115 -0.00407219
1002600 60.3145 195.57 55.7548 0.50125 -0.0224882
1002800 60.3145 195.583 55.7548 0.50135 -0.0132275
1003000 60.3145 195.596 55.7548 0.50145 0.00687708
1003200 60.3145 195.609 55.7548 0.50155 -0.00755194
1003400 60.3145 195.622 55.7548 0.50165 0.01519
1003600 60.3145 195.635 55.7548 0.50175 0.017167
1003800 60.3145 195.648 55.7548 0.50185 0.0142188
1004000 60.3145 195.661 55.7548 0.50195 0.0053
1004200 60.3145 195.674 55.7548 0.50205 0.0178385
1004400 60.3145 195.687 55.7548 0.50215 0.011932
1004600 60.3145 195.7 55.7548 0.50225 0.00609518
1004800 60.3145 195.713 55.7548 0.50235 0.0343639
1005000 60.3145 195.726 55.7548 0.50245 0.0001482
1005200 60.3145 195.739 55.7548 0.50255 0.000805245
1005400 60.3145 195.752 55.7548 0.50265 -0.000275847
1005600 60.3145 195.765 55.7548 0.50275 -0.0184978
1005800 60.3145 195.778 55.7548 0.50285 0.00822756
1006000 60.3145 195.791 55.7548 0.50295 -0.000431246
1006200 60.3145 195.804 55.7548 0.50305 -0.00500377
1006400 60.3145 195.817 55.7548 0.50315 -0.0277069
1006600 60.3145 195.83 55.7548 0.50325 -0.00560668
1006800 60.3145 195.843 55.7548 0.50335 -0.013564
1007000 60.3145 195.856 55.7548 0.50345 0.00344297
1007200 60.3145 195.869 55.7548 0.50355 -0.0119948
1007400 60.3145 195.882 55.7548 0.50365 0.0248047
1007600 60.3145 195.895 55.7548 0.50375 0.0100249
1007800 60.3145 195.908 55.7548 0.50385 0.00685844
1008000 60.3145 195.921 55.7548 0.50395 0.0281896
1008200 60.3145 195.935 55.7548 0.50405 0.00860786
1008400 60.3145 195.948 55.7548 0.50415 0.0245387
1008600 60.3145 195.961 55.7548 0.50425 0.0118836
1008800 60.3145 195.974 55.7548 0.50435 0.0180202
1009000 60.3145 195.987 55.7548 0.50445 -0.0116499
1009200 60.3145 196 55.7548 0.50455 -0.00242784
1009400 60.3145 196.013 55.7548 0.50465 -0.0115558
1009600 60.3145 196.026 55.7548 0.50475 -0.00357394
1009800 60.3145 196.039 55.7548 0.50485 -0.0122732
1010000 60.3145 196.052 55.7548 0.50495 -0.0117217
1010200 60.3145 196.065 55.7548 0.50505 -0.00050319
1010400 60.3145 196.078 55.7548 0.50515 -0.0312975
1010600 60.3145 196.091 55.7548 0.50525 0.014983
1010800 60.3145 196.104 55.7548 0.50535 -0.0171288
1011000 60.3145 196.117 55.7548 0.50545 -0.00482815
1011200 60.3145 196.13 55.7548 0.50555 0.0235859
1011400 60.3145 196.143 55.7548 0.50565 0.0118441
1011600 60.3145 196.156 55.7548 0.50575 0.0110242
1011800 60.3145 196.169 55.7548 0.50585 0.0248265
1012000 60.3145 196.182 55.7548 0.50595 0.0180341
1012200 60.3145 196.195 55.7548 0.50605 0.0256068
1012400 60.3145 196.208 55.7548 0.50615 0.00874391
1012600 60.3145 196.221 55.7548 0.50625 0.020182
1012800 60.3145 196.234 55.7548 0.50635 0.0012241
1013000 60.3145 196.247 55.7548 0.50645 0.0189988
1013200 60.3145 196.26 55.7548 0.50655 -0.0243386
1013400 60.3145 196.273 55.7548 0.50665 -0.0262791
1013600 60.3145 196.286 55.7548 0.50675 -0.00832349
1013800 60.3145 196.299 55.7548 0.50685 -0.0102178
1014000 60.3145 196.312 55.7548 0.50695 -0.0162779
1014200 60.3145 196.325 55.7548 0.50705 -0.0190114
1014400 60.3145 196.338 55.7548 0.50715 -0.00828262
1014600 60.3145 196.351 55.7548 0.50725 -0.0159636
1014800 60.3145 196.364 55.7548 0.50735 0.0153674
1015000 60.3145 196.377 55.7548 0.50745 -0.000501983
1015200 60.3145 196.39 55.7548 0.50755 0.0235645
1015400 60.3145 196.404 55.7548 0.50765 0.0270481
1015600 60.3145 196.417 55.7548 0.50775 0.0344961
1015800 60.3145 196.43 55.7548 0.50785 -0.0100223
1016000 60.3145 196.443 55.7548 0.50795 0.030371
1016200 60.3145 196.456 55.7548 0.50805 0.0278925
1016400 60.3145 196.469 55.7548 0.50815 0.00974754
1016600 60.3145 196.482 55.7548 0.50825 0.00986546
1016800 60.3145 196.495 55.7548 0.50835 0.0108521
1017000 60.3145 196.508 55.7548 0.50845 -0.00163401
1017200 60.3145 196.521 55.7548 0.50855 -0.0139526
1017400 60.3145 196.534 55.7548 0.50865 -0.0185666
1017600 60.3145 196.547 55.7548 0.50875 -0.035949
1017800 60.3145 196.56 55.7548 0.50885 -0.00912395
1018000 60.3145 196.573 55.7548 0.50895 -0.0057999
1018200 60.3145 196.586 55.7548 0.50905 -0.0164633
1018400 60.3145 196.599 55.7548 0.50915 -0.0276196
1018600 60.3145 196.612 55.7548 0.50925 0.00817339
1018800 60.3145 196.625 55.7548 0.50935 -0.0126817
1019000 60.3145 196.638 55.7548 0.50945 0.0112115
1019200 60.3145 196.651 55.7548 0.50955 0.0493112
1019400 60.3145 196.664 55.7548 0.50965 -0.00426081
1019600 60.3145 196.677 55.7548 0.50975 0.0206915
1019800 60.3145 196.69 55.7548 0.50985 0.0287983
1020000 60.3145 196.703 55.7548 0.50995 0.0136978
1020200 60.3145 196.716 55.7548 0.51005 0.040142
1020400 60.3145 196.729 55.7548 0.51015 0.00471777
1020600 60.3145 196.742 55.7548 0.51025 0.00970034
1020800 60.3145 196.755 55.7548 0.51035 0.0040361
1021000 60.3145 196.768 55.7548 0.51045 -0.00842726
1021200 60.3145 196.781 55.7548 0.51055 -0.0145115
1021400 60.3145 196.794 55.7548 0.51065 -0.0111365
1021600 60.3145 196.807 55.7548 0.51075 -0.0207408
1021800 60.3145 196.82 55.7548 0.51085 -0.0149637
1022000 60.3145 196.833 55.7548 0.51095 -0.010503
1022200 60.3145 196.846 55.7548 0.51105 -0.0207577
1022400 60.3145 196.859 55.7548 0.51115 -0.010738
1022600 60.3145 196.872 55.7548 0.51125 0.0117461
1022800 60.3145 196.886 55.7548 0.51135 -0.00746831
1023000 60.3145 196.899 55.7548 0.51145 0.024203
1023200 60.3145 196.912 55.7548 0.51155 0.0278592
1023400 60.3145 196.925 55.7548 0.51165 0.0254775
1023600 60.3145 196.938 55.7548 0.51175 0.00777435
1023800 60.3145 196.951 55.7548 0.51185 0.0159629
1024000 60.3145 196.964 55.7548 0.51195 0.0203009
1024200 60.3145 196.977 55.7548 0.51205 0.0183621
1024400 60.3145 196.99 55.7548 0.51215 0.00710468
1024600 60.3145 197.003 55.7548 0.51225 -0.00709415
1024800 60.3145 197.016 55.7548 0.51235 0.0160378
1025000 60.3145 197.029 55.7548 0.51245 -0.0239992
1025200 60.3145 197.042 55.7548 0.51255 -0.0191376
1025400 60.3145 197.055 55.7548 0.51265 -0.0251621
1025600 60.3145 197.068 55.7548 0.51275 -0.0234178
1025800 60.3145 197.081 55.7548 0.51285 0.0060555
1026000 60.3145 197.094 55.7548 0.51295 -0.00782104
1026200 60.3145 197.107 55.7548 0.51305 0.00628272
1026400 60.3145 197.12 55.7548 0.51315 -0.00857428
1026600 60.3145 197.133 55.7548 0.51325 0.00279402
1026800 60.3145 197.146 55.7548 0.51335 0.00936802
1027000 60.3145 197.159 55.7548 0.51345 0.011443
1027200 60.3145 197.172 55.7548 0.51355 0.0103801
1027400 60.3145 197.185 55.7548 0.51365 0.0321887
1027600 60.3145 197.198 55.7548 0.51375 0.025963
1027800 60.3145 197.211 55.7548 0.51385 0.0309109
1028000 60.3145 197.224 55.7548 0.51395 -0.00198355
1028200 60.3145 197.237 55.7548 0.51405 0.0103204
1028400 60.3145 197.25 55.7548 0.51415 0.00162064
1028600 60.3145 197.263 55.7548 0.51425 0.00296505
1028800 60.3145 197.276 55.7548 0.51435 0.00184083
1029000 60.3145 197.289 55.7548 0.51445 -0.0172836
1029200 60.3145 197.302 55.7548 0.51455 -0.0118141
1029400 60.3145 197.315 55.7548 0.51465 -0.014851
1029600 60.3145 197.328 55.7548 0.51475 -0.0211854
1029800 60.3145 197.341 55.7548 0.51485 -0.0174187
1030000 60.3145 197.354 55.7548 0.51495 -0.0132746
1030200 60.3145 197.368 55.7548 0.51505 0.0164198
1030400 60.3145 197.381 55.7548 0.51515 0.00830681
1030600 60.3145 197.394 55.7548 0.51525 0.00244193
1030800 60.3145 197.407 55.7548 0.51535 0.0110695
1031000 60.3145 197.42 55.7548 0.51545 0.0124936
1031200 60.3145 197.433 55.7548 0.51555 0.0272849
1031400 60.3145 197.446 55.7548 0.51565 0.0224038
1031600 60.3145 197.459 55.7548 0.51575 0.0177885
1031800 60.3145 197.472 55.7548 0.51585 0.020106
1032000 60.3145 197.485 55.7548 0.51595 0.00477197
1032200 60.3145 197.498 55.7548 0.51605 -1.66893e-05
1032400 60.3145 197.511 55.7548 0.51615 -0.0155473
1032600 60.3145 197.524 55.7548 0.51625 0.00284095
1032800 60.3145 197.537 55.7548 0.51635 -0.0175981
1033000 60.3145 197.55 55.7548 0.51645 -0.0111192
1033200 60.3145 197.563 55.7548 0.51655 -0.00844275
1033400 60.3145 197.576 55.7548 0.51665 -0.0279102
1033600 60.3145 197.589 55.7548 0.51675 -0.0113244
1033800 60.3145 197.602 55.7548 0.51685 -0.000241367
1034000 60.3145 197.615 55.7548 0.51695 0.00883924
1034200 60.3145 197.628 55.7548 0.51705 0.0150817
1034400 60.3145 197.641 55.7548 0.51715 0.0126343
1034600 60.3145 197.654 55.7548 0.51725 0.00325055
1034800 60.3145 197.667 55.7548 0.51735 0.0270005
1035000 60.3145 197.68 55.7548 0.51745 0.0188833
1035200 60.3145 197.693 55.7548 0.51755 0.0110509
1035400 60.3145 197.706 55.7548 0.51765 0.0361335
1035600 60.3145 197.719 55.7548 0.51775 0.00788402
1035800 60.3145 197.732 55.7548 0.51785 0.00234054
1036000 60.3145 197.745 55.7548 0.51795 0.00203951
1036200 60.3145 197.758 55.7548 0.51805 -0.00633794
1036400 60.3145 197.771 55.7548 0.51815 0.0120482
1036600 60.3145 197.784 55.7548 0.51825 -0.0138048
1036800 60.3145 197.797 55.7548 0.51835 -0.0357467
1037000 60.3145 197.81 55.7548 0.51845 -0.0163258
1037200 60.3145 197.823 55.7548 0.51855 -0.00974462
1037400 60.3145 197.836 55.7548 0.51865 -0.0114608
1037600 60.3145 197.85 55.7548 0.51875 -0.00323096
1037800 60.3145 197.863 55.7548 0.51885 -0.000895453
1038000 60.3145 197.876 55.7548 0.51895 -0.0118505
1038200 60.3145 197.889 55.7548 0.51905 0.0218589
1038400 60.3145 197.902 55.7548 0.51915 0.00923634
1038600 60.3145 197.915 55.7548 0.51925 0.0223172
1038800 60.3145 197.928 55.7548 0.51935 0.0336509
1039000 60.3145 197.941 55.7548 0.51945 0.0196691
1039200 60.3145 197.954 55.7548 0.51955 0.0297968
1039400 60.3145 197.967 55.7548 0.51965 0.0215064
1039600 60.3145 197.98 55.7548 0.51975 0.00423198
1039800 60.3145 197.993 55.7548 0.51985 -0.00341954
1040000 60.3145 198.006 55.7548 0.51995 -0.0254944
1040200 60.3145 198.019 55.7548 0.52005 0.0112846
1040400 60.3145 198.032 55.7548 0.52015 -0.00770651
1040600 60.3145 198.045 55.7548 0.52025 -0.0108179
1040800 60.3145 198.058 55.7548 0.52035 -0.00591762
1041000 60.3145 198.071 55.7548 0.52045 -0.0345823
1041200 60.3145 198.084 55.7548 0.52055 -0.0112345
1041400 60.3145 198.097 55.7548 0.52065 -0.0108904
1041600 60.3145 198.11 55.7548 0.52075 -0.0139973
1041800 60.3145 198.123 55.7548 0.52085 0.0171183
1042000 60.3145 198.136 55.7548 0.52095 0.00616923
1042200 60.3145 198.149 55.7548 0.52105 0.0101133
1042400 60.3145 198.162 55.7548 0.52115 0.00333278
1042600 60.3145 198.175 55.7548 0.52125 0.0222267
1042800 60.3145 198.188 55.7548 0.52135 0.0283205
1043000 60.3145 198.201 55.7548 0.52145 0.0142576
1043200 60.3145 198.214 55.7548 0.52155 0.0278254
1043400 60.3145 198.227 55.7548 0.52165 0.0218538
1043600 60.3145 198.24 55.7548 0.52175 0.0192047
1043800 60.3145 198.253 55.7548 0.52185 -0.00836793
1044000 60.3145 198.266 55.7548 0.52195 -0.00716715
1044200 60.3145 198.279 55.7548 0.52205 -0.0145591
1044400 60.3145 198.292 55.7548 0.52215 0.00608179
1044600 60.3145 198.305 55.7548 0.52225 -0.00368694
1044800 60.3145 198.318 55.7548 0.52235 -0.0301439
1045000 60.3145 198.332 55.7548 0.52245 -0.00787209
1045200 60.3145 198.345 55.7548 0.52255 -0.00512546
1045400 60.3145 198.358 55.7548 0.52265 -0.0157633
1045600 60.3145 198.371 55.7548 0.52275 -0.0168388
1045800 60.3145 198.384 55.7548 0.52285 0.00266389
1046000 60.3145 198.397 55.7548 0.52295 -0.000402593
1046200 60.3145 198.41 55.7548 0.52305 0.0250619
1046400 60.3145 198.423 55.7548 0.52315 0.0230575
1046600 60.3145 198.436 55.7548 0.52325 0.00194744
1046800 60.3145 198.449 55.7548 0.52335 0.0435048
1047000 60.3145 198.462 55.7548 0.52345 -0.000379292
1047200 60.3145 198.475 55.7548 0.52355 0.0190179
1047400 60.3145 198.488 55.7548 0.52365 0.0264975
1047600 60.3145 198.501 55.7548 0.52375 0.0219661
1047800 60.3145 198.514 55.7548 0.52385 0.00691115
1048000 60.3145 198.527 55.7548 0.52395 -0.00387974
1048200 60.3145 198.54 55.7548 0.52405 -0.0259934
1048400 60.3145 198.553 55.7548 0.52415 -0.0131974
1048600 60.3145 198.566 55.7548 0.52425 -0.00402803
1048800 60.3145 198.579 55.7548 0.52435 -0.0180653
1049000 60.3145 198.592 55.7548 0.52445 -0.024866
1049200 60.3145 198.605 55.7548 0.52455 0.00155247
1049400 60.3145 198.618 55.7548 0.52465 -0.00604174
1049600 60.3145 198.631 55.7548 0.52475 -0.00376339
1049800 60.3145 198.644 55.7548 0.52485 -8.22952e-06
1050000 60.3145 198.657 55.7548 0.52495 0.00235058
1050200 60.3145 198.67 55.7548 0.52505 0.0300463
1050400 60.3145 198.683 55.7548 0.52515 0.00838967
1050600 60.3145 198.696 55.7548 0.52525 0.0177848
1050800 60.3145 198.709 55.7548 0.52535 0.00662348
1051000 60.3145 198.722 55.7548 0.52545 0.0164122
1051200 60.3145 198.735 55.7548 0.52555 0.0100501
1051400 60.3145 198.748 55.7548 0.52565 -0.00237008
1051600 60.3145 198.761 55.7548 0.52575 0.0166964
1051800 60.3145 198.774 55.7548 0.52585 0.0132531
1052000 60.3145 198.787 55.7548 0.52595 0.00472902
1052200 60.3145 198.8 55.7548 0.52605 -0.00114159
1052400 60.3145 198.814 55.7548 0.52615 -0.014389
1052600 60.3145 198.827 55.7548 0.52625 -0.000913266
1052800 60.3145 198.84 55.7548 0.52635 -0.019745
1053000 60.3145 198.853 55.7548 0.52645 -0.00671843
1053200 60.3145 198.866 55.7548 0.52655 0.0245094
1053400 60.3145 198.879 55.7548 0.52665 -0.0146574
1053600 60.3145 198.892 55.7548 0.52675 -0.00299432
1053800 60.3145 198.905 55.7548 0.52685 -0.0033486
1054000 60.3145 198.918 55.7548 0.52695 -0.0130545
1054200 60.3145 198.931 55.7548 0.52705 0.0163022
1054400 60.3145 198.944 55.7548 0.52715 0.0130439
1054600 60.3145 198.957 55.7548 0.52725 0.00409927
1054800 60.3145 198.97 55.7548 0.52735 0.0353683
1055000 60.3145 198.983 55.7548 0.52745 0.00222099
1055200 60.3145 198.996 55.7548 0.52755 -0.00447578
1055400 60.3145 199.009 55.7548 0.52765 0.00284373
1055600 60.3145 199.022 55.7548 0.52775 0.0270813
1055800 60.3145 199.035 55.7548 0.52785 0.00925752
1056000 60.3145 199.048 55.7548 0.52795 -0.00127237
1056200 60.3145 199.061 55.7548 0.52805 -0.00879428
1056400 60.3145 199.074 55.7548 0.52815 0.0157981
1056600 60.3145 199.087 55.7548 0.52825 -0.0103143
1056800 60.3145 199.1 55.7548 0.52835 -0.0101797
1057000 60.3145 199.113 55.7548 0.52845 0.000914082
1057200 60.3145 199.126 55.7548 0.52855 -0.0010913
1057400 60.3145 199.139 55.7548 0.52865 -0.00402703
1057600 60.3145 199.152 55.7548 0.52875 -0.0200235
1057800 60.3145 199.165 55.7548 0.52885 0.00179011
1058000 60.3145 199.178 55.7548 0.52895 9.46446e-05
1058200 60.3145 199.191 55.7548 0.52905 -0.00637543
1058400 60.3145 199.204 55.7548 0.52915 0.0108253
1058600 60.3145 199.217 55.7548 0.52925 0.00348829
1058800 60.3145 199.23 55.7548 0.52935 0.026781
1059000 60.3145 199.243 55.7548 0.52945 0.00160965
1059200 60.3145 199.256 55.7548 0.52955 0.0241085
1059400 60.3145 199.269 55.7548 0.52965 0.00928963
1059600 60.3145 199.282 55.7548 0.52975 0.0295282
1059800 60.3145 199.296 55.7548 0.52985 -0.0121128
1060000 60.3145 199.309 55.7548 0.52995 0.0184152
1060200 60.3145 199.322 55.7548 0.53005 0.0155337
1060400 60.3145 199.335 55.7548 0.53015 0.000419426
1060600 60.3145 199.348 55.7548 0.53025 -0.0210729
1060800 60.3145 199.361 55.7548 0.53035 -0.0108035
1061000 60.3145 199.374 55.7548 0.53045 -0.00454328
1061200 60.3145 199.387 55.7548 0.53055 -0.0197954
1061400 60.3145 199.4 55.7548 0.53065 -0.00132437
1061600 60.3145 199.413 55.7548 0.53075 -0.00823073
1061800 60.3145 199.426 55.7548 0.53085 -0.0100846
1062000 60.3145 199.439 55.7548 0.53095 -0.00335366
1062200 60.3145 199.452 55.7548 0.53105 0.00188009
1062400 60.3145 199.465 55.7548 0.53115 0.0101726
1062600 60.3145 199.478 55.7548 0.53125 -0.000721254
1062800 60.3145 199.491 55.7548 0.53135 0.0423244
1063000 60.3145 199.504 55.7548 0.53145 0.00378235
1063200 60.3145 199.517 55.7548 0.53155 0.0167853
1063400 60.3145 199.53 55.7548 0.53165 0.00698467
1063600 60.3145 199.543 55.7548 0.53175 0.0204318
1063800 60.3145 199.556 55.7548 0.53185 -0.00201299
1064000 60.3145 199.569 55.7548 0.53195 0.0286857
1064200 60.3145 199.582 55.7548 0.53205 0.012306
1064400 60.3145 199.595 55.7548 0.53215 -0.010521
1064600 60.3145 199.608 55.7548 0.53225 -0.026431
1064800 60.3145 199.621 55.7548 0.53235 -0.0102271
1065000 60.3145 199.634 55.7548 0.53245 0.00321058
1065200 60.3145 199.647 55.7548 0.53255 -0.00471472
1065400 60.3145 199.66 55.7548 0.53265 -0.00678647
1065600 60.3145 199.673 55.7548 0.53275 -0.00609924
1065800 60.3145 199.686 55.7548 0.53285 -0.0294965
1066000 60.3145 199.699 55.7548 0.53295 -0.00327827
1066200 60.3145 199.712 55.7548 0.53305 0.0225115
1066400 60.3145 199.725 55.7548 0.53315 0.0038308
1066600 60.3145 199.738 55.7548 0.53325 0.00883686
1066800 60.3145 199.751 55.7548 0.53335 0.0217564
1067000 60.3145 199.765 55.7548 0.53345 0.0303454
1067200 60.3145 199.778 55.7548 0.53355 0.00236219
1067400 60.3145 199.791 55.7548 0.53365 0.00894384
1067600 60.3145 199.804 55.7548 0.53375 0.00462567
1067800 60.3145 199.817 55.7548 0.53385 0.0224347
1068000 60.3145 199.83 55.7548 0.53395 0.016063
1068200 60.3145 199.843 55.7548 0.53405 0.000845248
1068400 60.3145 199.856 55.7548 0.53415 0.00253559
1068600 60.3145 199.869 55.7548 0.53425 -0.0221717
1068800 60.3145 199.882 55.7548 0.53435 -0.00631775
1069000 60.3145 199.895 55.7548 0.53445 -0.00157529
1069200 60.3145 199.908 55.7548 0.53455 -0.0171195
1069400 60.3145 199.921 55.7548 0.53465 0.00900373
1069600 60.3145 199.934 55.7548 0.53475 -0.0267151
1069800 60.3145 199.947 55.7548 0.53485 -0.0142989
1070000 60.3145 199.96 55.7548 0.53495 -0.00651772
1070200 60.3145 199.973 55.7548 0.53505 0.0166109
1070400 60.3145 199.986 55.7548 0.53515 0.0204193
1070600 60.3145 199.999 55.7548 0.53525 0.00707144
1070800 60.3145 200.012 55.7548 0.53535 0.0195748
1071000 60.3145 200.025 55.7548 0.53545 0.021157
1071200 60.3145 200.038 55.7548 0.53555 0.00311738
1071400 60.3145 200.051 55.7548 0.53565 0.0068902
1071600 60.3145 200.064 55.7548 0.53575 0.0186881
1071800 60.3145 200.077 55.7548 0.53585 0.0194956
1072000 60.3145 200.09 55.7548 0.53595 0.00854596
1072200 60.3145 200.103 55.7548 0.53605 -0.00664136
1072400 60.3145 200.116 55.7548 0.53615 -0.0168568
1072600 60.3145 200.129 55.7548 0.53625 -0.0152346
1072800 60.3145 200.142 55.7548 0.53635 -0.0121151
1073000 60.3145 200.155 55.7548 0.53645 -0.00791876
1073200 60.3145 200.168 55.7548 0.53655 -0.00425769
1073400 60.3145 200.181 55.7548 0.53665 0.0115526
1073600 60.3145 200.194 55.7548 0.53675 -0.00235495
1073800 60.3145 200.207 55.7548 0.53685 -0.0278259
1074000 60.3145 200.22 55.7548 0.53695 0.0139819
1074200 60.3145 200.233 55.7548 0.53705 0.0108926
1074400 60.3145 200.247 55.7548 0.53715 0.0192662
1074600 60.3145 200.26 55.7548 0.53725 0.031119
1074800 60.3145 200.273 55.7548 0.53735 0.0121819
1075000 60.3145 200.286 55.7548 0.53745 0.0203817
1075200 60.3145 200.299 55.7548 0.53755 0.00406404
1075400 60.3145 200.312 55.7548 0.53765 0.00105353
1075600 60.3145 200.325 55.7548 0.53775 0.0145621
1075800 60.3145 200.338 55.7548 0.53785 -0.000950213
1076000 60.3145 200.351 55.7548 0.53795 0.0131943
1076200 60.3145 200.364 55.7548 0.53805 -0.00450305
1076400 60.3145 200.377 55.7548 0.53815 -0.0261239
1076600 60.3145 200.39 55.7548 0.53825 -0.0132109
1076800 60.3145 200.403 55.7548 0.53835 -0.0379061
1077000 60.3145 200.416 55.7548 0.53845 0.00842091
1077200 60.3145 200.429 55.7548 0.53855 -0.00442407
1077400 60.3145 200.442 55.7548 0.53865 0.00266218
1077600 60.3145 200.455 55.7548 0.53875 -0.0213863
1077800 60.3145 200.468 55.7548 0.53885 0.0103754
1078000 60.3145 200.481 55.7548 0.53895 0.00315999
1078200 60.3145 200.494 55.7548 0.53905 0.0307459
1078400 60.3145 200.507 55.7548 0.53915 0.0213171
1078600 60.3145 200.52 55.7548 0.53925 0.029535
1078800 60.3145 200.533 55.7548 0.53935 0.0213579
1079000 60.3145 200.546 55.7548 0.53945 0.0182037
1079200 60.3145 200.559 55.7548 0.53955 0.00541192
1079400 60.3145 200.572 55.7548 0.53965 -0.00372461
1079600 60.3145 200.585 55.7548 0.53975 0.0122254
1079800 60.3145 200.598 55.7548 0.53985 0.00058293
1080000 60.3145 200.611 55.7548 0.53995 0.00887162
1080200 60.3145 200.624 55.7548 0.54005 -0.0199443
1080400 60.3145 200.637 55.7548 0.54015 -0.0231953
1080600 60.3145 200.65 55.7548 0.54025 -0.0223989
1080800 60.3145 200.663 55.7548 0.54035 -0.0232732
1081000 60.3145 200.676 55.7548 0.54045 -0.00735416
1081200 60.3145 200.689 55.7548 0.54055 -0.019541
1081400 60.3145 200.702 55.7548 0.54065 0.00990987
1081600 60.3145 200.715 55.7548 0.54075 0.00417243
1081800 60.3145 200.729 55.7548 0.54085 0.0160044
1082000 60.3145 200.742 55.7548 0.54095 0.0212417
1082200 60.3145 200.755 55.7548 0.54105 0.00657224
1082400 60.3145 200.768 55.7548 0.54115 0.02347
1082600 60.3145 200.781 55.7548 0.54125 0.0281335
1082800 60.3145 200.794 55.7548 0.54135 0.0263168
1083000 60.3145 200.807 55.7548 0.54145 0.033542
1083200 60.3145 200.82 55.7548 0.54155 0.0114392
1083400 60.3145 200.833 55.7548 0.54165 0.0010558
1083600 60.3145 200.846 55.7548 0.54175 0.00602832
1083800 60.3145 200.859 55.7548 0.54185 -0.0155092
1084000 60.3145 200.872 55.7548 0.54195 -0.0234183
1084200 60.3145 200.885 55.7548 0.54205 -0.00716576
1084400 60.3145 200.898 55.7548 0.54215 -0.0182806
1084600 60.3145 200.911 55.7548 0.54225 -0.0274174
1084800 60.3145 200.924 55.7548 0.54235 -0.0214763
1085000 60.3145 200.937 55.7548 0.54245 -0.00936045
1085200 60.3145 200.95 55.7548 0.54255 -0.0147961
1085400 60.3145 200.963 55.7548 0.54265 0.00932277
1085600 60.3145 200.976 55.7548 0.54275 0.00197869
1085800 60.3145 200.989 55.7548 0.54285 0.00449131
1086000 60.3145 201.002 55.7548 0.54295 0.0242465
1086200 60.3145 201.015 55.7548 0.54305 0.0335772
1086400 60.3145 201.028 55.7548 0.54315 0.0333767
1086600 60.3145 201.041 55.7548 0.54325 0.0409359
1086800 60.3145 201.054 55.7548 0.54335 0.0188972
1087000 60.3145 201.067 55.7548 0.54345 0.0258597
1087200 60.3145 201.08 55.7548 0.54355 -0.00550106
1087400 60.3145 201.093 55.7548 0.54365 0.00577349
1087600 60.3145 201.106 55.7548 0.54375 0.00384511
1087800 60.3145 201.119 55.7548 0.54385 -0.0204866
1088000 60.3145 201.132 55.7548 0.54395 -0.00537791
1088200 60.3145 201.145 55.7548 0.54405 -0.0130975
1088400 60.3145 201.158 55.7548 0.54415 -0.0431159
1088600 60.3145 201.171 55.7548 0.54425 -0.0207257
1088800 60.3145 201.184 55.7548 0.54435 -0.0403621
1089000 60.3145 201.197 55.7548 0.54445 -0.0169279
1089200 60.3145 201.211 55.7548 0.54455 0.00812774
1089400 60.3145 201.224 55.7548 0.54465 0.00792305
1089600 60.3145 201.237 55.7548 0.54475 0.0170569
1089800 60.3145 201.25 55.7548 0.54485 0.0110463
1090000 60.3145 201.263 55.7548 0.54495 0.0259398
1090200 60.3145 201.276 55.7548 0.54505 0.0216439
1090400 60.3145 201.289 55.7548 0.54515 0.0404305
1090600 60.3145 201.302 55.7548 0.54525 0.045499
1090800 60.3145 201.315 55.7548 0.54535 0.0256053
1091000 60.3145 201.328 55.7548 0.54545 0.0129579
1091200 60.3145 201.341 55.7548 0.54555 0.00152377
1091400 60.3145 201.354 55.7548 0.54565 0.0132817
1091600 60.3145 201.367 55.7548 0.54575 -0.0131079
1091800 60.3145 201.38 55.7548 0.54585 -0.0320349
1092000 60.3145 201.393 55.7548 0.54595 -0.00857667
1092200 60.3145 201.406 55.7548 0.54605 -0.0183074
1092400 60.3145 201.419 55.7548 0.54615 -0.0375222
1092600 60.3145 201.432 55.7548 0.54625 -0.0214915
1092800 60.3145 201.445 55.7548 0.54635 -0.007479
1093000 60.3145 201.458 55.7548 0.54645 -0.0206503
1093200 60.3145 201.471 55.7548 0.54655 -0.00789362
1093400 60.3145 201.484 55.7548 0.54665 0.0299614
1093600 60.3145 201.497 55.7548 0.54675 0.00132973
1093800 60.3145 201.51 55.7548 0.54685 0.0317938
1094000 60.3145 201.523 55.7548 0.54695 0.00970204
1094200 60.3145 201.536 55.7548 0.54705 0.0315534
1094400 60.3145 201.549 55.7548 0.54715 0.0332643
1094600 60.3145 201.562 55.7548 0.54725 0.0131463
1094800 60.3145 201.575 55.7548 0.54735 0.0432825
1095000 60.3145 201.588 55.7548 0.54745 0.0106989
1095200 60.3145 201.601 55.7548 0.54755 0.0117785
1095400 60.3145 201.614 55.7548 0.54765 -0.0088645
1095600 60.3145 201.627 55.7548 0.54775 -0.0316607
1095800 60.3145 201.64 55.7548 0.54785 0.0115269
1096000 60.3145 201.653 55.7548 0.54795 -0.0207002
1096200 60.3145 201.666 55.7548 0.54805 -0.0231194
1096400 60.3145 201.679 55.7548 0.54815 -0.0244584
1096600 60.3145 201.693 55.7548 0.54825 -0.0257507
1096800 60.3145 201.706 55.7548 0.54835 -0.000231288
1097000 60.3145 201.719 55.7548 0.54845 -0.0136597
1097200 60.3145 201.732 55.7548 0.54855 -0.00169697
1097400 60.3145 201.745 55.7548 0.54865 0.00304338
1097600 60.3145 201.758 55.7548 0.54875 0.0354567
1097800 60.3145 201.771 55.7548 0.54885 0.0194685
1098000 60.3145 201.784 55.7548 0.54895 0.016487
1098200 60.3145 201.797 55.7548 0.54905 0.00892697
1098400 60.3145 201.81 55.7548 0.54915 0.0227553
1098600 60.3145 201.823 55.7548 0.54925 0.03245
1098800 60.3145 201.836 55.7548 0.54935 0.0190688
1099000 60.3145 201.849 55.7548 0.54945 0.00660613
1099200 60.3145 201.862 55.7548 0.54955 -0.00485767
1099400 60.3145 201.875 55.7548 0.54965 0.00457609
1099600 60.3145 201.888 55.7548 0.54975 -0.0018546
1099800 60.3145 201.901 55.7548 0.54985 -0.01032
1100000 60.3145 201.914 55.7548 0.54995 -0.0116912
1100200 60.3145 201.927 55.7548 0.55005 -0.019642
1100400 60.3145 201.94 55.7548 0.55015 -0.00771074
1100600 60.3145 201.953 55.7548 0.55025 -0.0251818
1100800 60.3145 201.966 55.7548 0.55035 -0.0119164
1101000 60.3145 201.979 55.7548 0.55045 -0.0105564
1101200 60.3145 201.992 55.7548 0.55055 0.000553588
1101400 60.3145 202.005 55.7548 0.55065 0.0108162
1101600 60.3145 202.018 55.7548 0.55075 0.00978975
1101800 60.3145 202.031 55.7548 0.55085 0.0299733
1102000 60.3145 202.044 55.7548 0.55095 0.00779542
1102200 60.3145 202.057 55.7548 0.55105 0.032102
1102400 60.3145 202.07 55.7548 0.55115 0.0329488
1102600 60.3145 202.083 55.7548 0.55125 0.011744
1102800 60.3145 202.096 55.7548 0.55135 0.0114065
1103000 60.3145 202.109 55.7548 0.55145 0.014166
1103200 60.3145 202.122 55.7548 0.55155 0.0063318
1103400 60.3145 202.135 55.7548 0.55165 0.00441596
1103600 60.3145 202.148 55.7548 0.55175 -0.000405033
1103800 60.3145 202.161 55.7548 0.55185 -0.037534
1104000 60.3145 202.175 55.7548 0.55195 -0.0161422
1104200 60.3145 202.188 55.7548 0.55205 -0.0300607
1104400 60.3145 202.201 55.7548 0.55215 -0.0118936
1104600 60.3145 202.214 55.7548 0.55225 0.00473839
1104800 60.3145 202.227 55.7548 0.55235 -0.019717
1105000 60.3145 202.24 55.7548 0.55245 0.00483718
1105200 60.3145 202.253 55.7548 0.55255 -0.00128432
1105400 60.3145 202.266 55.7548 0.55265 -0.00417563
1105600 60.3145 202.279 55.7548 0.55275 0.0305257
1105800 60.3145 202.292 55.7548 0.55285 0.025567
1106000 60.3145 202.305 55.7548 0.55295 0.0387241
1106200 60.3145 202.318 55.7548 0.55305 0.021412
1106400 60.3145 202.331 55.7548 0.55315 0.033047
1106600 60.3145 202.344 55.7548 0.55325 0.0149865
1106800 60.3145 202.357 55.7548 0.55335 -0.00208793
1107000 60.3145 202.37 55.7548 0.55345 0.0105243
1107200 60.3145 202.383 55.7548 0.55355 0.013412
1107400 60.3145 202.396 55.7548 0.55365 -0.00954588
1107600 60.3145 202.409 55.7548 0.55375 -0.0165283
1107800 60.3145 202.422 55.7548 0.55385 -0.0197124
1108000 60.3145 202.435 55.7548 0.55395 -0.033116
1108200 60.3145 202.448 55.7548 0.55405 -0.0386263
1108400 60.3145 202.461 55.7548 0.55415 -0.0176058
1108600 60.3145 202.474 55.7548 0.55425 -0.00371437
1108800 60.3145 202.487 55.7548 0.55435 0.00220237
1109000 60.3145 202.5 55.7548 0.55445 0.0144962
1109200 60.3145 202.513 55.7548 0.55455 0.000945134
1109400 60.3145 202.526 55.7548 0.55465 0.015782
1109600 60.3145 202.539 55.7548 0.55475 0.01059
1109800 60.3145 202.552 55.7548 0.55485 0.039717
1110000 60.3145 202.565 55.7548 0.55495 0.0301598
1110200 60.3145 202.578 55.7548 0.55505 0.0319734
1110400 60.3145 202.591 55.7548 0.55515 0.0342666
1110600 60.3145 202.604 55.7548 0.55525 0.0119287
1110800 60.3145 202.617 55.7548 0.55535 0.00109305
1111000 60.3145 202.63 55.7548 0.55545 -0.00314439
1111200 60.3145 202.643 55.7548 0.55555 -0.0392097
1111400 60.3145 202.657 55.7548 0.55565 0.00394188
1111600 60.3145 202.67 55.7548 0.55575 0.00155696
1111800 60.3145 202.683 55.7548 0.55585 -0.0171401
1112000 60.3145 202.696 55.7548 0.55595 -0.0394454
1112200 60.3145 202.709 55.7548 0.55605 -0.0252043
1112400 60.3145 202.722 55.7548 0.55615 -0.0198932
1112600 60.3145 202.735 55.7548 0.55625 -0.0173532
1112800 60.3145 202.748 55.7548 0.55635 0.0242413
1113000 60.3145 202.761 55.7548 0.55645 0.0233781
1113200 60.3145 202.774 55.7548 0.55655 0.013633
1113400 60.3145 202.787 55.7548 0.55665 0.00686518
1113600 60.3145 202.8 55.7548 0.55675 0.0242296
1113800 60.3145 202.813 55.7548 0.55685 0.0235172
1114000 60.3145 202.826 55.7548 0.55695 0.046485
1114200 60.3145 202.839 55.7548 0.55705 0.0205875
1114400 60.3145 202.852 55.7548 0.55715 0.034528
1114600 60.3145 202.865 55.7548 0.55725 0.00338848
1114800 60.3145 202.878 55.7548 0.55735 -0.00179612
1115000 60.3145 202.891 55.7548 0.55745 -0.0144875
1115200 60.3145 202.904 55.7548 0.55755 -0.013146
1115400 60.3145 202.917 55.7548 0.55765 -0.0201245
1115600 60.3145 202.93 55.7548 0.55775 -0.0160838
1115800 60.3145 202.943 55.7548 0.55785 -0.0162805
1116000 60.3145 202.956 55.7548 0.55795 -0.0163284
1116200 60.3145 202.969 55.7548 0.55805 -0.0367298
1116400 60.3145 202.982 55.7548 0.55815 -0.00514976
1116600 60.3145 202.995 55.7548 0.55825 -0.00163998
1116800 60.3145 203.008 55.7548 0.55835 0.00763655
1117000 60.3145 203.021 55.7548 0.55845 0.025195
1117200 60.3145 203.034 55.7548 0.55855 0.0190687
1117400 60.3145 203.047 55.7548 0.55865 0.0298149
1117600 60.3145 203.06 55.7548 0.55875 0.012945
1117800 60.3145 203.073 55.7548 0.55885 0.0491917
1118000 60.3145 203.086 55.7548 0.55895 0.00931229
1118200 60.3145 203.099 55.7548 0.55905 0.0162845
1118400 60.3145 203.112 55.7548 0.55915 0.0426727
1118600 60.3145 203.125 55.7548 0.55925 0.0145736
1118800 60.3145 203.139 55.7548 0.55935 -0.0242808
1119000 60.3145 203.152 55.7548 0.55945 0.0121343
1119200 60.3145 203.165 55.7548 0.55955 -0.0249473
1119400 60.3145 203.178 55.7548 0.55965 -0.0385763
1119600 60.3145 203.191 55.7548 0.55975 -0.0313434
1119800 60.3145 203.204 55.7548 0.55985 -0.0271966
1120000 60.3145 203.217 55.7548 0.55995 -0.0269913
1120200 60.3145 203.23 55.7548 0.56005 -0.00339085
1120400 60.3145 203.243 55.7548 0.56015 0.00746543
1120600 60.3145 203.256 55.7548 0.56025 -0.0147587
1120800 60.3145 203.269 55.7548 0.56035 -0.00865746
1121000 60.3145 203.282 55.7548 0.56045 0.0286106
1121200 60.3145 203.295 55.7548 0.56055 0.0335356
1121400 60.3145 203.308 55.7548 0.56065 0.0595803
1121600 60.3145 203.321 55.7548 0.56075 0.0199258
1121800 60.3145 203.334 55.7548 0.56085 0.0316607
1122000 60.3145 203.347 55.7548 0.56095 0.0172874
1122200 60.3145 203.36 55.7548 0.56105 0.0186846
1122400 60.3145 203.373 55.7548 0.56115 0.0155927
1122600 60.3145 203.386 55.7548 0.56125 0.0151877
1122800 60.3145 203.399 55.7548 0.56135 -0.00506587
1123000 60.3145 203.412 55.7548 0.56145 -0.00772679
1123200 60.3145 203.425 55.7548 0.56155 -0.0342147
1123400 60.3145 203.438 55.7548 0.56165 -0.0276814
1123600 60.3145 203.451 55.7548 0.56175 -0.0212264
1123800 60.3145 203.464 55.7548 0.56185 -0.024643
1124000 60.3145 203.477 55.7548 0.56195 -0.0206124
1124200 60.3145 203.49 55.7548 0.56205 -0.0223823
1124400 60.3145 203.503 55.7548 0.56215 -0.0024191
1124600 60.3145 203.516 55.7548 0.56225 -0.000417693
1124800 60.3145 203.529 55.7548 0.56235 -0.000183877
1125000 60.3145 203.542 55.7548 0.56245 0.0197314
1125200 60.3145 203.555 55.7548 0.56255 0.0313516
1125400 60.3145 203.568 55.7548 0.56265 0.0268086
1125600 60.3145 203.581 55.7548 0.56275 0.0445041
1125800 60.3145 203.594 55.7548 0.56285 0.0215418
1126000 60.3145 203.608 55.7548 0.56295 0.0358147
1126200 60.3145 203.621 55.7548 0.56305 0.0187284
1126400 60.3145 203.634 55.7548 0.56315 0.00749711
1126600 60.3145 203.647 55.7548 0.56325 0.00276963
1126800 60.3145 203.66 55.7548 0.56335 0.0137693
1127000 60.3145 203.673 55.7548 0.56345 -0.00236357
1127200 60.3145 203.686 55.7548 0.56355 -0.0160115
1127400 60.3145 203.699 55.7548 0.56365 -0.0434439
1127600 60.3145 203.712 55.7548 0.56375 -0.00608621
1127800 60.3145 203.725 55.7548 0.56385 -0.0555167
1128000 60.3145 203.738 55.7548 0.56395 -0.0181224
1128200 60.3145 203.751 55.7548 0.56405 -0.0040388
1128400 60.3145 203.764 55.7548 0.56415 0.000826877
1128600 60.3145 203.777 55.7548 0.56425 -0.0124937
1128800 60.3145 203.79 55.7548 0.56435 0.0137183
1129000 60.3145 203.803 55.7548 0.56445 0.014091
1129200 60.3145 203.816 55.7548 0.56455 0.0278144
1129400 60.3145 203.829 55.7548 0.56465 0.0393628
1129600 60.3145 203.842 55.7548 0.56475 0.037233
1129800 60.3145 203.855 55.7548 0.56485 0.0440453
1130000 60.3145 203.868 55.7548 0.56495 0.0267337
1130200 60.3145 203.881 55.7548 0.56505 0.00965109
1130400 60.3145 203.894 55.7548 0.56515 -0.00777187
1130600 60.3145 203.907 55.7548 0.56525 0.00974669
1130800 60.3145 203.92 55.7548 0.56535 -0.0352396
1131000 60.3145 203.933 55.7548 0.56545 0.00870016
1131200 60.3145 203.946 55.7548 0.56555 -0.00880691
1131400 60.3145 203.959 55.7548 0.56565 -0.0411728
1131600 60.3145 203.972 55.7548 0.56575 -0.034892
1131800 60.3145 203.985 55.7548 0.56585 -0.0324089
1132000 60.3145 203.998 55.7548 0.56595 -0.0233326
1132200 60.3145 204.011 55.7548 0.56605 0.000630147
1132400 60.3145 204.024 55.7548 0.56615 0.0303346
1132600 60.3145 204.037 55.7548 0.56625 0.0182697
1132800 60.3145 204.05 55.7548 0.56635 0.0110978
1133000 60.3145 204.063 55.7548 0.56645 0.00718558
1133200 60.3145 204.076 55.7548 0.56655 0.0196496
1133400 60.3145 204.09 55.7548 0.56665 0.0431115
1133600 60.3145 204.103 55.7548 0.56675 0.0447616
1133800 60.3145 204.116 55.7548 0.56685 0.0232171
1134000 60.3145 204.129 55.7548 0.56695 0.0347661
1134200 60.3145 204.142 55.7548 0.56705 0.00635274
1134400 60.3145 204.155 55.7548 0.56715 -0.0160913
1134600 60.3145 204.168 55.7548 0.56725 -0.0435653
1134800 60.3145 204.181 55.7548 0.56735 0.0208576
1135000 60.3145 204.194 55.7548 0.56745 -0.0143197
1135200 60.3145 204.207 55.7548 0.56755 -0.0242397
1135400 60.3145 204.22 55.7548 0.56765 9.62236e-05
1135600 60.3145 204.233 55.7548 0.56775 -0.0148134
1135800 60.3145 204.246 55.7548 0.56785 -0.0459351
1136000 60.3145 204.259 55.7548 0.56795 -0.0206763
1136200 60.3145 204.272 55.7548 0.56805 0.0102557
1136400 60.3145 204.285 55.7548 0.56815 0.00990195
1136600 60.3145 204.298 55.7548 0.56825 0.00814371
1136800 60.3145 204.311 55.7548 0.56835 0.0341215
1137000 60.3145 204.324 55.7548 0.56845 0.00584706
1137200 60.3145 204.337 55.7548 0.56855 0.0206169
1137400 60.3145 204.35 55.7548 0.56865 0.00182613
1137600 60.3145 204.363 55.7548 0.56875 0.0399415
1137800 60.3145 204.376 55.7548 0.56885 0.0317672
1138000 60.3145 204.389 55.7548 0.56895 0.0242234
1138200 60.3145 204.402 55.7548 0.56905 0.0168983
1138400 60.3145 204.415 55.7548 0.56915 -0.0127319
1138600 60.3145 204.428 55.7548 0.56925 -0.00974145
1138800 60.3145 204.441 55.7548 0.56935 -0.00229741
1139000 60.3145 204.454 55.7548 0.56945 -0.0383329
1139200 60.3145 204.467 55.7548 0.56955 -0.00399228
1139400 60.3145 204.48 55.7548 0.56965 -0.0109444
1139600 60.3145 204.493 55.7548 0.56975 -0.027713
1139800 60.3145 204.506 55.7548 0.56985 -0.0075403
1140000 60.3145 204.519 55.7548 0.56995 -0.0120437
1140200 60.3145 204.532 55.7548 0.57005 0.000395936
1140400 60.3145 204.545 55.7548 0.57015 0.0345706
1140600 60.3145 204.558 55.7548 0.57025 0.0111871
1140800 60.3145 204.572 55.7548 0.57035 -0.000826686
1141000 60.3145 204.585 55.7548 0.57045 0.0292714
1141200 60.3145 204.598 55.7548 0.57055 0.024998
1141400 60.3145 204.611 55.7548 0.57065 0.0184865
1141600 60.3145 204.624 55.7548 0.57075 0.00596676
1141800 60.3145 204.637 55.7548 0.57085 0.0183971
1142000 60.3145 204.65 55.7548 0.57095 0.00964157
1142200 60.3145 204.663 55.7548 0.57105 0.000305399
1142400 60.3145 204.676 55.7548 0.57115 -0.000260041
1142600 60.3145 204.689 55.7548 0.57125 0.00920696
1142800 60.3145 204.702 55.7548 0.57135 -0.00434975
1143000 60.3145 204.715 55.7548 0.57145 -0.0378869
1143200 60.3145 204.728 55.7548 0.57155 -0.0095401
1143400 60.3145 204.741 55.7548 0.57165 -0.00728401
1143600 60.3145 204.754 55.7548 0.57175 -0.00376048
1143800 60.3145 204.767 55.7548 0.57185 -0.0211373
1144000 60.3145 204.78 55.7548 0.57195 -0.0236446
1144200 60.3145 204.793 55.7548 0.57205 0.0136704
1144400 60.3145 204.806 55.7548 0.57215 0.0173029
1144600 60.3145 204.819 55.7548 0.57225 0.00303126
1144800 60.3145 204.832 55.7548 0.57235 0.0338686
1145000 60.3145 204.845 55.7548 0.57245 0.00102495
1145200 60.3145 204.858 55.7548 0.57255 0.0421575
1145400 60.3145 204.871 55.7548 0.57265 0.0224197
1145600 60.3145 204.884 55.7548 0.57275 0.0246121
1145800 60.3145 204.897 55.7548 0.57285 0.00680921
1146000 60.3145 204.91 55.7548 0.57295 0.000676655
1146200 60.3145 204.923 55.7548 0.57305 0.0306049
1146400 60.3145 204.936 55.7548 0.57315 -0.0136895
1146600 60.3145 204.949 55.7548 0.57325 -0.0190956
1146800 60.3145 204.962 55.7548 0.57335 -0.0021124
1147000 60.3145 204.975 55.7548 0.57345 0.00145297
1147200 60.3145 204.988 55.7548 0.57355 -0.024313
1147400 60.3145 205.001 55.7548 0.57365 -0.0340008
1147600 60.3145 205.014 55.7548 0.57375 -0.0327099
1147800 60.3145 205.027 55.7548 0.57385 -0.0265379
1148000 60.3145 205.04 55.7548 0.57395 -0.000920439
1148200 60.3145 205.054 55.7548 0.57405 0.0172233
1148400 60.3145 205.067 55.7548 0.57415 0.00578221
1148600 60.3145 205.08 55.7548 0.57425 0.0137018
1148800 60.3145 205.093 55.7548 0.57435 0.0269072
1149000 60.3145 205.106 55.7548 0.57445 0.0243377
1149200 60.3145 205.119 55.7548 0.57455 0.0283355
1149400 60.3145 205.132 55.7548 0.57465 0.0490043
1149600 60.3145 205.145 55.7548 0.57475 0.0239639
1149800 60.3145 205.158 55.7548 0.57485 0.0400353
1150000 60.3145 205.171 55.7548 0.57495 0.0080633
1150200 60.3145 205.184 55.7548 0.57505 0.00230372
1150400 60.3145 205.197 55.7548 0.57515 -0.0279366
1150600 60.3145 205.21 55.7548 0.57525 -0.0110708
1150800 60.3145 205.223 55.7548 0.57535 -0.0297474
1151000 60.3145 205.236 55.7548 0.57545 -0.0185284
1151200 60.3145 205.249 55.7548 0.57555 -0.0193805
1151400 60.3145 205.262 55.7548 0.57565 -0.0363939
1151600 60.3145 205.275 55.7548 0.57575 -0.0237794
1151800 60.3145 205.288 55.7548 0.57585 -0.0178883
1152000 60.3145 205.301 55.7548 0.57595 0.00423749
1152200 60.3145 205.314 55.7548 0.57605 -0.00588613
1152400 60.3145 205.327 55.7548 0.57615 0.0268706
1152600 60.3145 205.34 55.7548 0.57625 0.0307759
1152800 60.3145 205.353 55.7548 0.57635 0.0312464
1153000 60.3145 205.366 55.7548 0.57645 0.0188528
1153200 60.3145 205.379 55.7548 0.57655 0.039234
1153400 60.3145 205.392 55.7548 0.57665 0.0349536
1153600 60.3145 205.405 55.7548 0.57675 0.0425043
1153800 60.3145 205.418 55.7548 0.57685 0.0107597
1154000 60.3145 205.431 55.7548 0.57695 -0.000127923
1154200 60.3145 205.444 55.7548 0.57705 -0.00314045
1154400 60.3145 205.457 55.7548 0.57715 -0.0122098
1154600 60.3145 205.47 55.7548 0.57725 -0.0361278
1154800 60.3145 205.483 55.7548 0.57735 -0.0253104
1155000 60.3145 205.496 55.7548 0.57745 -0.0188995
1155200 60.3145 205.509 55.7548 0.57755 -0.0267255
1155400 60.3145 205.522 55.7548 0.57765 -0.0168051
1155600 60.3145 205.536 55.7548 0.57775 -0.0188112
1155800 60.3145 205.549 55.7548 0.57785 -0.00532273
1156000 60.3145 205.562 55.7548 0.57795 0.00874237
1156200 60.3145 205.575 55.7548 0.57805 0.0179684
1156400 60.3145 205.588 55.7548 0.57815 0.0266308
1156600 60.3145 205.601 55.7548 0.57825 0.0277023
1156800 60.3145 205.614 55.7548 0.57835 0.0468964
1157000 60.3145 205.627 55.7548 0.57845 0.0137828
1157200 60.3145 205.64 55.7548 0.57855 0.00994477
1157400 60.3145 205.653 55.7548 0.57865 0.0319523
1157600 60.3145 205.666 55.7548 0.57875 0.013572
1157800 60.3145 205.679 55.7548 0.57885 0.00496285
1158000 60.3145 205.692 55.7548 0.57895 0.00247377
1158200 60.3145 205.705 55.7548 0.57905 -0.00978447
1158400 60.3145 205.718 55.7548 0.57915 -0.0201075
1158600 60.3145 205.731 55.7548 0.57925 -0.0301506
1158800 60.3145 205.744 55.7548 0.57935 -0.018928
1159000 60.3145 205.757 55.7548 0.57945 -0.0287242
1159200 60.3145 205.77 55.7548 0.57955 -0.00570795
1159400 60.3145 205.783 55.7548 0.57965 -0.00732799
1159600 60.3145 205.796 55.7548 0.57975 -0.0150257
1159800 60.3145 205.809 55.7548 0.57985 0.00491528
1160000 60.3145 205.822 55.7548 0.57995 0.0066465
1160200 60.3145 205.835 55.7548 0.58005 0.0178837
1160400 60.3145 205.848 55.7548 0.58015 0.0189395
1160600 60.3145 205.861 55.7548 0.58025 0.0305252
1160800 60.3145 205.874 55.7548 0.58035 0.0425199
1161000 60.3145 205.887 55.7548 0.58045 0.0116075
1161200 60.3145 205.9 55.7548 0.58055 0.0351254
1161400 60.3145 205.913 55.7548 0.58065 0.017095
1161600 60.3145 205.926 55.7548 0.58075 0.0048823
1161800 60.3145 205.939 55.7548 0.58085 0.0126193
1162000 60.3145 205.952 55.7548 0.58095 0.0105506
1162200 60.3145 205.965 55.7548 0.58105 -0.00991422
1162400 60.3145 205.978 55.7548 0.58115 -0.0301393
1162600 60.3145 205.991 55.7548 0.58125 -0.0274604
1162800 60.3145 206.004 55.7548 0.58135 -0.0239636
1163000 60.3145 206.018 55.7548 0.58145 -0.0208155
1163200 60.3145 206.031 55.7548 0.58155 -0.0222132
1163400 60.3145 206.044 55.7548 0.58165 -0.0132162
1163600 60.3145 206.057 55.7548 0.58175 -0.00981263
1163800 60.3145 206.07 55.7548 0.58185 0.00895174
1164000 60.3145 206.083 55.7548 0.58195 0.00941267
1164200 60.3145 206.096 55.7548 0.58205 0.0323045
1164400 60.3145 206.109 55.7548 0.58215 0.014104
1164600 60.3145 206.122 55.7548 0.58225 0.01701
1164800 60.3145 206.135 55.7548 0.58235 0.0330025
1165000 60.3145 206.148 55.7548 0.58245 0.0110638
1165200 60.3145 206.161 55.7548 0.58255 0.0262304
1165400 60.3145 206.174 55.7548 0.58265 0.0207339
1165600 60.3145 206.187 55.7548 0.58275 0.0219577
1165800 60.3145 206.2 55.7548 0.58285 0.0055143
1166000 60.3145 206.213 55.7548 0.58295 -0.000580677
1166200 60.3145 206.226 55.7548 0.58305 0.00445097
1166400 60.3145 206.239 55.7548 0.58315 -0.0147176
1166600 60.3145 206.252 55.7548 0.58325 -0.0335252
1166800 60.3145 206.265 55.7548 0.58335 -0.0231591
1167000 60.3145 206.278 55.7548 0.58345 -0.0230547
1167200 60.3145 206.291 55.7548 0.58355 -0.0100634
1167400 60.3145 206.304 55.7548 0.58365 -0.0209289
1167600 60.3145 206.317 55.7548 0.58375 -0.0101126
1167800 60.3145 206.33 55.7548 0.58385 -0.000356244
1168000 60.3145 206.343 55.7548 0.58395 0.0147317
1168200 60.3145 206.356 55.7548 0.58405 0.0269418
1168400 60.3145 206.369 55.7548 0.58415 0.0249683
1168600 60.3145 206.382 55.7548 0.58425 0.0124803
1168800 60.3145 206.395 55.7548 0.58435 0.0350569
1169000 60.3145 206.408 55.7548 0.58445 0.0277405
1169200 60.3145 206.421 55.7548 0.58455 0.0333071
1169400 60.3145 206.434 55.7548 0.58465 0.0144469
1169600 60.3145 206.447 55.7548 0.58475 0.00544869
1169800 60.3145 206.46 55.7548 0.58485 0.00482162
1170000 60.3145 206.473 55.7548 0.58495 -0.0156608
1170200 60.3145 206.486 55.7548 0.58505 -0.00321003
1170400 60.3145 206.5 55.7548 0.58515 -0.0159546
1170600 60.3145 206.513 55.7548 0.58525 -0.0212331
1170800 60.3145 206.526 55.7548 0.58535 -0.0253127
1171000 60.3145 206.539 55.7548 0.58545 -0.00549731
1171200 60.3145 206.552 55.7548 0.58555 -0.0211837
1171400 60.3145 206.565 55.7548 0.58565 -0.0201672
1171600 60.3145 206.578 55.7548 0.58575 -0.000474665
1171800 60.3145 206.591 55.7548 0.58585 -0.00143933
1172000 60.3145 206.604 55.7548 0.58595 0.0187813
1172200 60.3145 206.617 55.7548 0.58605 0.0245104
1172400 60.3145 206.63 55.7548 0.58615 0.00814158
1172600 60.3145 206.643 55.7548 0.58625 0.0285626
1172800 60.3145 206.656 55.7548 0.58635 0.0300658
1173000 60.3145 206.669 55.7548 0.58645 0.0106667
1173200 60.3145 206.682 55.7548 0.58655 0.0357225
1173400 60.3145 206.695 55.7548 0.58665 0.0129447
1173600 60.3145 206.708 55.7548 0.58675 0.00961058
1173800 60.3145 206.721 55.7548 0.58685 0.00472134
1174000 60.3145 206.734 55.7548 0.58695 -0.00558451
1174200 60.3145 206.747 55.7548 0.58705 -0.0180586
1174400 60.3145 206.76 55.7548 0.58715 -0.0119036
1174600 60.3145 206.773 55.7548 0.58725 -0.00235635
1174800 60.3145 206.786 55.7548 0.58735 -0.00680044
1175000 60.3145 206.799 55.7548 0.58745 -0.0382352
1175200 60.3145 206.812 55.7548 0.58755 -0.0236699
1175400 60.3145 206.825 55.7548 0.58765 -0.00135478
1175600 60.3145 206.838 55.7548 0.58775 0.00494319
1175800 60.3145 206.851 55.7548 0.58785 0.0237005
1176000 60.3145 206.864 55.7548 0.58795 -0.00403382
1176200 60.3145 206.877 55.7548 0.58805 0.0133915
1176400 60.3145 206.89 55.7548 0.58815 0.0323799
1176600 60.3145 206.903 55.7548 0.58825 0.0125136
1176800 60.3145 206.916 55.7548 0.58835 0.0171804
1177000 60.3145 206.929 55.7548 0.58845 0.0235548
1177200 60.3145 206.942 55.7548 0.58855 0.0364448
1177400 60.3145 206.955 55.7548 0.58865 -0.00167778
1177600 60.3145 206.969 55.7548 0.58875 0.00893336
1177800 60.3145 206.982 55.7548 0.58885 0.00932049
1178000 60.3145 206.995 55.7548 0.58895 -0.0213041
1178200 60.3145 207.008 55.7548 0.58905 -0.0119852
1178400 60.3145 207.021 55.7548 0.58915 -0.00746531
1178600 60.3145 207.034 55.7548 0.58925 -0.0293557
1178800 60.3145 207.047 55.7548 0.58935 -0.0157837
1179000 60.3145 207.06 55.7548 0.58945 -0.00530008
1179200 60.3145 207.073 55.7548 0.58955 -0.00409292
1179400 60.3145 207.086 55.7548 0.58965 -0.0257655
1179600 60.3145 207.099 55.7548 0.58975 0.0105815
1179800 60.3145 207.112 55.7548 0.58985 0.0068006
1180000 60.3145 207.125 55.7548 0.58995 0.010253
1180200 60.3145 207.138 55.7548 0.59005 0.0278811
1180400 60.3145 207.151 55.7548 0.59015 0.0325409
1180600 60.3145 207.164 55.7548 0.59025 0.0174636
1180800 60.3145 207.177 55.7548 0.59035 0.0275971
1181000 60.3145 207.19 55.7548 0.59045 0.00638817
1181200 60.3145 207.203 55.7548 0.59055 0.0104248
1181400 60.3145 207.216 55.7548 0.59065 0.025954
1181600 60.3145 207.229 55.7548 0.59075 0.0188431
1181800 60.3145 207.242 55.7548 0.59085 -0.00149919
1182000 60.3145 207.255 55.7548 0.59095 -0.011517
1182200 60.3145 207.268 55.7548 0.59105 -0.0115699
1182400 60.3145 207.281 55.7548 0.59115 -0.0214369
1182600 60.3145 207.294 55.7548 0.59125 -0.0236135
1182800 60.3145 207.307 55.7548 0.59135 -0.0202457
1183000 60.3145 207.32 55.7548 0.59145 -0.0027931
1183200 60.3145 207.333 55.7548 0.59155 -0.0186234
1183400 60.3145 207.346 55.7548 0.59165 -0.0155137
1183600 60.3145 207.359 55.7548 0.59175 -0.000244777
1183800 60.3145 207.372 55.7548 0.59185 -0.00522241
1184000 60.3145 207.385 55.7548 0.59195 0.0305195
1184200 60.3145 207.398 55.7548 0.59205 0.0143414
1184400 60.3145 207.411 55.7548 0.59215 0.0146603
1184600 60.3145 207.424 55.7548 0.59225 0.0374229
1184800 60.3145 207.437 55.7548 0.59235 0.0211591
1185000 60.3145 207.451 55.7548 0.59245 0.0315998
1185200 60.3145 207.464 55.7548 0.59255 0.0261307
1185400 60.3145 207.477 55.7548 0.59265 0.0270214
1185600 60.3145 207.49 55.7548 0.59275 0.00518938
1185800 60.3145 207.503 55.7548 0.59285 -0.0139829
1186000 60.3145 207.516 55.7548 0.59295 0.00684449
1186200 60.3145 207.529 55.7548 0.59305 -0.0338674
1186400 60.3145 207.542 55.7548 0.59315 -0.0134664
1186600 60.3145 207.555 55.7548 0.59325 -0.00437264
1186800 60.3145 207.568 55.7548 0.59335 -0.0145831
1187000 60.3145 207.581 55.7548 0.59345 -0.0340183
1187200 60.3145 207.594 55.7548 0.59355 -0.0239381
1187400 60.3145 207.607 55.7548 0.59365 -0.0118296
1187600 60.3145 207.62 55.7548 0.59375 0.0139072
1187800 60.3145 207.633 55.7548 0.59385 -0.00312724
1188000 60.3145 207.646 55.7548 0.59395 0.0213929
1188200 60.3145 207.659 55.7548 0.59405 0.0346731
1188400 60.3145 207.672 55.7548 0.59415 0.0128677
1188600 60.3145 207.685 55.7548 0.59425 0.0160012
1188800 60.3145 207.698 55.7548 0.59435 0.0288722
1189000 60.3145 207.711 55.7548 0.59445 0.0223412
1189200 60.3145 207.724 55.7548 0.59455 0.0317779
1189400 60.3145 207.737 55.7548 0.59465 0.0280554
1189600 60.3145 207.75 55.7548 0.59475 0.00714605
1189800 60.3145 207.763 55.7548 0.59485 -0.0135138
1190000 60.3145 207.776 55.7548 0.59495 -0.0161157
1190200 60.3145 207.789 55.7548 0.59505 -0.0153921
1190400 60.3145 207.802 55.7548 0.59515 -0.0239911
1190600 60.3145 207.815 55.7548 0.59525 -0.000753698
1190800 60.3145 207.828 55.7548 0.59535 -0.0155675
1191000 60.3145 207.841 55.7548 0.59545 0.010823
1191200 60.3145 207.854 55.7548 0.59555 -0.0476963
1191400 60.3145 207.867 55.7548 0.59565 -0.0285418
1191600 60.3145 207.88 55.7548 0.59575 0.00844524
1191800 60.3145 207.893 55.7548 0.59585 0.0032245
1192000 60.3145 207.906 55.7548 0.59595 0.0359734
1192200 60.3145 207.919 55.7548 0.59605 0.0199484
1192400 60.3145 207.933 55.7548 0.59615 0.0333218
1192600 60.3145 207.946 55.7548 0.59625 0.00684254
1192800 60.3145 207.959 55.7548 0.59635 0.019545
1193000 60.3145 207.972 55.7548 0.59645 0.0146271
1193200 60.3145 207.985 55.7548 0.59655 0.0496628
1193400 60.3145 207.998 55.7548 0.59665 0.0347629
1193600 60.3145 208.011 55.7548 0.59675 -0.00520136
1193800 60.3145 208.024 55.7548 0.59685 -0.000907101
1194000 60.3145 208.037 55.7548 0.59695 -0.0186722
1194200 60.3145 208.05 55.7548 0.59705 -0.0134432
1194400 60.3145 208.063 55.7548 0.59715 -0.0231527
1194600 60.3145 208.076 55.7548 0.59725 -0.0194175
1194800 60.3145 208.089 55.7548 0.59735 -0.00747217
1195000 60.3145 208.102 55.7548 0.59745 -0.0294834
1195200 60.3145 208.115 55.7548 0.59755 -0.0193043
1195400 60.3145 208.128 55.7548 0.59765 -0.000244364
1195600 60.3145 208.141 55.7548 0.59775 -0.00681144
1195800 60.3145 208.154 55.7548 0.59785 0.00633228
1196000 60.3145 208.167 55.7548 0.59795 0.0216722
1196200 60.3145 208.18 55.7548 0.59805 0.0335842
1196400 60.3145 208.193 55.7548 0.59815 0.0403405
1196600 60.3145 208.206 55.7548 0.59825 0.0337296
1196800 60.3145 208.219 55.7548 0.59835 0.00677587
1197000 60.3145 208.232 55.7548 0.59845 0.00294934
1197200 60.3145 208.245 55.7548 0.59855 0.0194615
1197400 60.3145 208.258 55.7548 0.59865 0.0099261
1197600 60.3145 208.271 55.7548 0.59875 -0.000803336
1197800 60.3145 208.284 55.7548 0.59885 0.0242525
1198000 60.3145 208.297 55.7548 0.59895 -0.0179225
1198200 60.3145 208.31 55.7548 0.59905 -0.0161964
1198400 60.3145 208.323 55.7548 0.59915 -0.0388023
1198600 60.3145 208.336 55.7548 0.59925 -0.0184578
1198800 60.3145 208.349 55.7548 0.59935 -0.0122356
1199000 60.3145 208.362 55.7548 0.59945 0.00020989
1199200 60.3145 208.375 55.7548 0.59955 0.00123876
1199400 60.3145 208.388 55.7548 0.59965 -0.0112105
1199600 60.3145 208.401 55.7548 0.59975 0.000766025
1199800 60.3145 208.415 55.7548 0.59985 -0.00298717
1200000 60.3145 208.428 55.7548 0.59995 0.0207906
1200200 60.3145 208.441 55.7548 0.60005 0.0210646
1200400 60.3145 208.454 55.7548 0.60015 0.0310613
1200600 60.3145 208.467 55.7548 0.60025 0.0367621
1200800 60.3145 208.48 55.7548 0.60035 0.0288577
1201000 60.3145 208.493 55.7548 0.60045 0.0310807
1201200 60.3145 208.506 55.7548 0.60055 0.000698957
1201400 60.3145 208.519 55.7548 0.60065 0.00929677
1201600 60.3145 208.532 55.7548 0.60075 -0.0162162
1201800 60.3145 208.545 55.7548 0.60085 0.0225897
1202000 60.3145 208.558 55.7548 0.60095 -0.0121443
1202200 60.3145 208.571 55.7548 0.60105 -0.0201415
1202400 60.3145 208.584 55.7548 0.60115 -0.0186215
1202600 60.3145 208.597 55.7548 0.60125 -0.033198
1202800 60.3145 208.61 55.7548 0.60135 -0.0301565
1203000 60.3145 208.623 55.7548 0.60145 -0.0164853
1203200 60.3145 208.636 55.7548 0.60155 0.00630198
1203400 60.3145 208.649 55.7548 0.60165 0.00596587
1203600 60.3145 208.662 55.7548 0.60175 -0.000543044
1203800 60.3145 208.675 55.7548 0.60185 0.0225049
1204000 60.3145 208.688 55.7548 0.60195 0.00804593
1204200 60.3145 208.701 55.7548 0.60205 0.0511533
1204400 60.3145 208.714 55.7548 0.60215 0.0253973
1204600 60.3145 208.727 55.7548 0.60225 0.0240021
1204800 60.3145 208.74 55.7548 0.60235 0.0295493
1205000 60.3145 208.753 55.7548 0.60245 0.016254
1205200 60.3145 208.766 55.7548 0.60255 0.00160731
1205400 60.3145 208.779 55.7548 0.60265 0.000791041
1205600 60.3145 208.792 55.7548 0.60275 -0.0174042
1205800 60.3145 208.805 55.7548 0.60285 -0.00274664
1206000 60.3145 208.818 55.7548 0.60295 -0.0199307
1206200 60.3145 208.831 55.7548 0.60305 -0.0152833
1206400 60.3145 208.844 55.7548 0.60315 -0.0225892
1206600 60.3145 208.857 55.7548 0.60325 -0.0298588
1206800 60.3145 208.87 55.7548 0.60335 -0.0335841
1207000 60.3145 208.883 55.7548 0.60345 0.00619803
1207200 60.3145 208.897 55.7548 0.60355 0.0105748
1207400 60.3145 208.91 55.7548 0.60365 0.0223207
1207600 60.3145 208.923 55.7548 0.60375 0.0325432
1207800 60.3145 208.936 55.7548 0.60385 0.017189
1208000 60.3145 208.949 55.7548 0.60395 0.0220849
1208200 60.3145 208.962 55.7548 0.60405 0.0360544
1208400 60.3145 208.975 55.7548 0.60415 0.0107024
1208600 60.3145 208.988 55.7548 0.60425 0.0316956
1208800 60.3145 209.001 55.7548 0.60435 0.0256535
1209000 60.3145 209.014 55.7548 0.60445 0.0126485
1209200 60.3145 209.027 55.7548 0.60455 -0.00710843
1209400 60.3145 209.04 55.7548 0.60465 0.0051584
1209600 60.3145 209.053 55.7548 0.60475 -0.0399374
1209800 60.3145 209.066 55.7548 0.60485 -0.00968796
1210000 60.3145 209.079 55.7548 0.60495 -0.0232207
1210200 60.3145 209.092 55.7548 0.60505 -0.0301642
1210400 60.3145 209.105 55.7548 0.60515 -0.0062377
1210600 60.3145 209.118 55.7548 0.60525 -0.0308285
1210800 60.3145 209.131 55.7548 0.60535 -0.0157612
1211000 60.3145 209.144 55.7548 0.60545 0.0027692
1211200 60.3145 209.157 55.7548 0.60555 0.0213753
1211400 60.3145 209.17 55.7548 0.60565 0.0141112
1211600 60.3145 209.183 55.7548 0.60575 0.0301717
1211800 60.3145 209.196 55.7548 0.60585 0.0374882
1212000 60.3145 209.209 55.7548 0.60595 0.039696
1212200 60.3145 209.222 55.7548 0.60605 0.014366
1212400 60.3145 209.235 55.7548 0.60615 0.0351329
1212600 60.3145 209.248 55.7548 0.60625 0.00989075
1212800 60.3145 209.261 55.7548 0.60635 0.0259488
1213000 60.3145 209.274 55.7548 0.60645 -0.00554774
1213200 60.3145 209.287 55.7548 0.60655 -0.013582
1213400 60.3145 209.3 55.7548 0.60665 -0.0150141
1213600 60.3145 209.313 55.7548 0.60675 -0.00388555
1213800 60.3145 209.326 55.7548 0.60685 -0.0214415
1214000 60.3145 209.339 55.7548 0.60695 -0.0166214
1214200 60.3145 209.352 55.7548 0.60705 -0.0403476
1214400 60.3145 209.365 55.7548 0.60715 -0.0158798
1214600 60.3145 209.379 55.7548 0.60725 -0.011731
1214800 60.3145 209.392 55.7548 0.60735 -0.00983391
1215000 60.3145 209.405 55.7548 0.60745 0.00935987
1215200 60.3145 209.418 55.7548 0.60755 0.00887195
1215400 60.3145 209.431 55.7548 0.60765 0.0246388
1215600 60.3145 209.444 55.7548 0.60775 0.0216152
1215800 60.3145 209.457 55.7548 0.60785 0.0264998
1216000 60.3145 209.47 55.7548 0.60795 0.0285863
1216200 60.3145 209.483 55.7548 0.60805 0.027618
1216400 60.3145 209.496 55.7548 0.60815 0.0418634
1216600 60.3145 209.509 55.7548 0.60825 0.0193724
1216800 60.3145 209.522 55.7548 0.60835 0.0276037
1217000 60.3145 209.535 55.7548 0.60845 -0.0211863
1217200 60.3145 209.548 55.7548 0.60855 0.00710142
1217400 60.3145 209.561 55.7548 0.60865 -0.0226287
1217600 60.3145 209.574 55.7548 0.60875 -0.0303086
1217800 60.3145 209.587 55.7548 0.60885 -0.0226169
1218000 60.3145 209.6 55.7548 0.60895 -0.018459
1218200 60.3145 209.613 55.7548 0.60905 -0.0192308
1218400 60.3145 209.626 55.7548 0.60915 -0.0171941
1218600 60.3145 209.639 55.7548 0.60925 -0.0298408
1218800 60.3145 209.652 55.7548 0.60935 0.00611865
1219000 60.3145 209.665 55.7548 0.60945 -0.000975573
1219200 60.3145 209.678 55.7548 0.60955 0.0247994
1219400 60.3145 209.691 55.7548 0.60965 0.0365221
1219600 60.3145 209.704 55.7548 0.60975 0.0244704
1219800 60.3145 209.717 55.7548 0.60985 0.0313072
1220000 60.3145 209.73 55.7548 0.60995 0.0340651
1220200 60.3145 209.743 55.7548 0.61005 0.00922989
1220400 60.3145 209.756 55.7548 0.61015 0.0343663
1220600 60.3145 209.769 55.7548 0.61025 0.011029
1220800 60.3145 209.782 55.7548 0.61035 0.0280691
1221000 60.3145 209.795 55.7548 0.61045 0.000156714
1221200 60.3145 209.808 55.7548 0.61055 -0.0141069
1221400 60.3145 209.821 55.7548 0.61065 -0.0152446
1221600 60.3145 209.834 55.7548 0.61075 -0.0242077
1221800 60.3145 209.847 55.7548 0.61085 -0.0450283
1222000 60.3145 209.861 55.7548 0.61095 -0.0107824
1222200 60.3145 209.874 55.7548 0.61105 -0.00738643
1222400 60.3145 209.887 55.7548 0.61115 -0.0339959
1222600 60.3145 209.9 55.7548 0.61125 0.00405972
1222800 60.3145 209.913 55.7548 0.61135 -0.0103016
1223000 60.3145 209.926 55.7548 0.61145 0.00743895
1223200 60.3145 209.939 55.7548 0.61155 -0.0144378
1223400 60.3145 209.952 55.7548 0.61165 0.0408199
1223600 60.3145 209.965 55.7548 0.61175 0.027977
1223800 60.3145 209.978 55.7548 0.61185 0.0634539
1224000 60.3145 209.991 55.7548 0.61195 0.0285535
1224200 60.3145 210.004 55.7548 0.61205 0.0377431
1224400 60.3145 210.017 55.7548 0.61215 -0.000801813
1224600 60.3145 210.03 55.7548 0.61225 -0.00543356
1224800 60.3145 210.043 55.7548 0.61235 0.0145569
1225000 60.3145 210.056 55.7548 0.61245 0.0144763
1225200 60.3145 210.069 55.7548 0.61255 0.0112971
1225400 60.3145 210.082 55.7548 0.61265 -0.0144364
1225600 60.3145 210.095 55.7548 0.61275 -0.0416554
1225800 60.3145 210.108 55.7548 0.61285 -0.0481111
1226000 60.3145 210.121 55.7548 0.61295 -0.0355677
1226200 60.3145 210.134 55.7548 0.61305 -0.025823
1226400 60.3145 210.147 55.7548 0.61315 -0.00209976
1226600 60.3145 210.16 55.7548 0.61325 0.0107436
1226800 60.3145 210.173 55.7548 0.61335 0.0105306
1227000 60.3145 210.186 55.7548 0.61345 0.00363772
1227200 60.3145 210.199 55.7548 0.61355 0.0168438
1227400 60.3145 210.212 55.7548 0.61365 0.017164
1227600 60.3145 210.225 55.7548 0.61375 0.0311727
1227800 60.3145 210.238 55.7548 0.61385 0.0433248
1228000 60.3145 210.251 55.7548 0.61395 0.0502213
1228200 60.3145 210.264 55.7548 0.61405 0.0396206
1228400 60.3145 210.277 55.7548 0.61415 0.025273
1228600 60.3145 210.29 55.7548 0.61425 -0.0119571
1228800 60.3145 210.303 55.7548 0.61435 0.00229284
1229000 60.3145 210.316 55.7548 0.61445 -0.0203045
1229200 60.3145 210.33 55.7548 0.61455 -0.0220514
1229400 60.3145 210.343 55.7548 0.61465 -0.00206445
1229600 60.3145 210.356 55.7548 0.61475 -0.0147868
1229800 60.3145 210.369 55.7548 0.61485 -0.0248337
1230000 60.3145 210.382 55.7548 0.61495 -0.0415746
1230200 60.3145 210.395 55.7548 0.61505 -0.0423525
1230400 60.3145 210.408 55.7548 0.61515 -0.0138256
1230600 60.3145 210.421 55.7548 0.61525 0.00808186
1230800 60.3145 210.434 55.7548 0.61535 0.00533109
1231000 60.3145 210.447 55.7548 0.61545 0.0344215
1231200 60.3145 210.46 55.7548 0.61555 0.0287006
1231400 60.3145 210.473 55.7548 0.61565 0.0226352
1231600 60.3145 210.486 55.7548 0.61575 0.000231473
1231800 60.3145 210.499 55.7548 0.61585 0.035705
1232000 60.3145 210.512 55.7548 0.61595 0.0362968
1232200 60.3145 210.525 55.7548 0.61605 0.0502652
1232400 60.3145 210.538 55.7548 0.61615 0.0176424
1232600 60.3145 210.551 55.7548 0.61625 0.0111381
1232800 60.3145 210.564 55.7548 0.61635 0.000149699
1233000 60.3145 210.577 55.7548 0.61645 -0.0212845
1233200 60.3145 210.59 55.7548 0.61655 -0.0229375
1233400 60.3145 210.603 55.7548 0.61665 -0.0183901
1233600 60.3145 210.616 55.7548 0.61675 -0.00711502
1233800 60.3145 210.629 55.7548 0.61685 -0.0358171
1234000 60.3145 210.642 55.7548 0.61695 -0.0156437
1234200 60.3145 210.655 55.7548 0.61705 -0.0363492
1234400 60.3145 210.668 55.7548 0.61715 -0.00175668
1234600 60.3145 210.681 55.7548 0.61725 -0.0101111
1234800 60.3145 210.694 55.7548 0.61735 0.0089797
1235000 60.3145 210.707 55.7548 0.61745 0.032649
1235200 60.3145 210.72 55.7548 0.61755 0.0286898
1235400 60.3145 210.733 55.7548 0.61765 0.0439352
1235600 60.3145 210.746 55.7548 0.61775 0.0117857
1235800 60.3145 210.759 55.7548 0.61785 0.0238874
1236000 60.3145 210.772 55.7548 0.61795 0.0416585
1236200 60.3145 210.785 55.7548 0.61805 0.0103089
1236400 60.3145 210.798 55.7548 0.61815 0.0182699
1236600 60.3145 210.812 55.7548 0.61825 0.00927449
1236800 60.3145 210.825 55.7548 0.61835 -0.00248518
1237000 60.3145 210.838 55.7548 0.61845 -0.00478827
1237200 60.3145 210.851 55.7548 0.61855 -0.0299526
1237400 60.3145 210.864 55.7548 0.61865 -0.0310778
1237600 60.3145 210.877 55.7548 0.61875 -0.0294557
1237800 60.3145 210.89 55.7548 0.61885 -0.0291662
1238000 60.3145 210.903 55.7548 0.61895 0.00502934
1238200 60.3145 210.916 55.7548 0.61905 -0.0177913
1238400 60.3145 210.929 55.7548 0.61915 0.00165775
1238600 60.3145 210.942 55.7548 0.61925 -0.00105584
1238800 60.3145 210.955 55.7548 0.61935 0.0105542
1239000 60.3145 210.968 55.7548 0.61945 0.0202548
1239200 60.3145 210.981 55.7548 0.61955 0.0264982
1239400 60.3145 210.994 55.7548 0.61965 0.0202689
1239600 60.3145 211.007 55.7548 0.61975 0.0510459
1239800 60.3145 211.02 55.7548 0.61985 0.0362939
1240000 60.3145 211.033 55.7548 0.61995 0.0148171
1240200 60.3145 211.046 55.7548 0.62005 -0.00108108
1240400 60.3145 211.059 55.7548 0.62015 0.0118129
1240600 60.3145 211.072 55.7548 0.62025 0.0102025
1240800 60.3145 211.085 55.7548 0.62035 0.00076542
1241000 60.3145 211.098 55.7548 0.62045 -0.0329626
1241200 60.3145 211.111 55.7548 0.62055 -0.023237
1241400 60.3145 211.124 55.7548 0.62065 -0.0191468
1241600 60.3145 211.137 55.7548 0.62075 -0.012463
1241800 60.3145 211.15 55.7548 0.62085 -0.0219123
1242000 60.3145 211.163 55.7548 0.62095 -0.0161493
1242200 60.3145 211.176 55.7548 0.62105 -0.000818153
1242400 60.3145 211.189 55.7548 0.62115 -0.000666895
1242600 60.3145 211.202 55.7548 0.62125 -0.000510509
1242800 60.3145 211.215 55.7548 0.62135 0.0269563
1243000 60.3145 211.228 55.7548 0.62145 0.0145259
1243200 60.3145 211.241 55.7548 0.62155 0.0196973
1243400 60.3145 211.254 55.7548 0.62165 0.0462934
1243600 60.3145 211.267 55.7548 0.62175 0.0336891
1243800 60.3145 211.28 55.7548 0.62185 0.0277715
1244000 60.3145 211.294 55.7548 0.62195 0.0270273
1244200 60.3145 211.307 55.7548 0.62205 0.0130598
1244400 60.3145 211.32 55.7548 0.62215 -0.0040111
1244600 60.3145 211.333 55.7548 0.62225 -0.0106964
1244800 60.3145 211.346 55.7548 0.62235 0.00350489
1245000 60.3145 211.359 55.7548 0.62245 -0.0213163
1245200 60.3145 211.372 55.7548 0.62255 -0.0276369
1245400 60.3145 211.385 55.7548 0.62265 -0.0171811
1245600 60.3145 211.398 55.7548 0.62275 -0.0527947
1245800 60.3145 211.411 55.7548 0.62285 -0.0172295
1246000 60.3145 211.424 55.7548 0.62295 -0.0020612
1246200 60.3145 211.437 55.7548 0.62305 -0.00964015
1246400 60.3145 211.45 55.7548 0.62315 0.0167521
1246600 60.3145 211.463 55.7548 0.62325 -0.0106533
1246800 60.3145 211.476 55.7548 0.62335 0.0352823
1247000 60.3145 211.489 55.7548 0.62345 0.0139953
1247200 60.3145 211.502 55.7548 0.62355 0.0246321
1247400 60.3145 211.515 55.7548 0.62365 0.039644
1247600 60.3145 211.528 55.7548 0.62375 0.0620093
1247800 60.3145 211.541 55.7548 0.62385 0.0292561
1248000 60.3145 211.554 55.7548 0.62395 0.00478389
1248200 60.3145 211.567 55.7548 0.62405 0.00346693
1248400 60.3145 211.58 55.7548 0.62415 0.0057486
1248600 60.3145 211.593 55.7548 0.62425 0.00780708
1248800 60.3145 211.606 55.7548 0.62435 -0.0082511
1249000 60.3145 211.619 55.7548 0.62445 -0.0162689
1249200 60.3145 211.632 55.7548 0.62455 -0.0268091
1249400 60.3145 211.645 55.7548 0.62465 -0.017102
1249600 60.3145 211.658 55.7548 0.62475 -0.0511133
1249800 60.3145 211.671 55.7548 0.62485 -0.0125215
1250000 60.3145 211.684 55.7548 0.62495 -0.00599437
1250200 60.3145 211.697 55.7548 0.62505 -0.00695536
1250400 60.3145 211.71 55.7548 0.62515 -0.00313906
1250600 60.3145 211.723 55.7548 0.62525 0.00559592
1250800 60.3145 211.736 55.7548 0.62535 0.0138716
1251000 60.3145 211.749 55.7548 0.62545 0.0256691
1251200 60.3145 211.762 55.7548 0.62555 0.0362495
1251400 60.3145 211.776 55.7548 0.62565 0.0385474
1251600 60.3145 211.789 55.7548 0.62575 0.0323671
1251800 60.3145 211.802 55.7548 0.62585 0.0274638
1252000 60.3145 211.815 55.7548 0.62595 0.0212962
1252200 60.3145 211.828 55.7548 0.62605 0.0229365
1252400 60.3145 211.841 55.7548 0.62615 0.0025267
1252600 60.3145 211.854 55.7548 0.62625 -0.0134019
1252800 60.3145 211.867 55.7548 0.62635 -0.00359628
1253000 60.3145 211.88 55.7548 0.62645 -0.0145057
1253200 60.3145 211.893 55.7548 0.62655 -0.0292511
1253400 60.3145 211.906 55.7548 0.62665 -0.0258933
1253600 60.3145 211.919 55.7548 0.62675 -0.0269695
1253800 60.3145 211.932 55.7548 0.62685 -0.0250826
1254000 60.3145 211.945 55.7548 0.62695 -0.0118476
1254200 60.3145 211.958 55.7548 0.62705 -0.0194447
1254400 60.3145 211.971 55.7548 0.62715 -0.00878231
1254600 60.3145 211.984 55.7548 0.62725 0.0266424
1254800 60.3145 211.997 55.7548 0.62735 0.019209
1255000 60.3145 212.01 55.7548 0.62745 0.0342105
1255200 60.3145 212.023 55.7548 0.62755 0.0379044
1255400 60.3145 212.036 55.7548 0.62765 0.0275031
1255600 60.3145 212.049 55.7548 0.62775 0.0515328
1255800 60.3145 212.062 55.7548 0.62785 0.034862
1256000 60.3145 212.075 55.7548 0.62795 0.017549
1256200 60.3145 212.088 55.7548 0.62805 0.0158039
1256400 60.3145 212.101 55.7548 0.62815 -0.000220081
1256600 60.3145 212.114 55.7548 0.62825 -0.000182901
1256800 60.3145 212.127 55.7548 0.62835 -0.0227692
1257000 60.3145 212.14 55.7548 0.62845 -0.0251806
1257200 60.3145 212.153 55.7548 0.62855 -0.0419153
1257400 60.3145 212.166 55.7548 0.62865 -0.0395826
1257600 60.3145 212.179 55.7548 0.62875 -0.0137902
1257800 60.3145 212.192 55.7548 0.62885 -0.0125283
1258000 60.3145 212.205 55.7548 0.62895 -0.0281805
1258200 60.3145 212.218 55.7548 0.62905 0.000865426
1258400 60.3145 212.231 55.7548 0.62915 0.00991118
1258600 60.3145 212.244 55.7548 0.62925 0.00982216
1258800 60.3145 212.258 55.7548 0.62935 0.0445951
1259000 60.3145 212.271 55.7548 0.62945 0.0248045
1259200 60.3145 212.284 55.7548 0.62955 0.0470892
1259400 60.3145 212.297 55.7548 0.62965 0.0263388
1259600 60.3145 212.31 55.7548 0.62975 0.0284935
1259800 60.3145 212.323 55.7548 0.62985 0.0298036
1260000 60.3145 212.336 55.7548 0.62995 0.0155287
1260200 60.3145 212.349 55.7548 0.63005 -0.00110426
1260400 60.3145 212.362 55.7548 0.63015 0.00781974
1260600 60.3145 212.375 55.7548 0.63025 -0.00569718
1260800 60.3145 212.388 55.7548 0.63035 0.00462223
1261000 60.3145 212.401 55.7548 0.63045 -0.0317953
1261200 60.3145 212.414 55.7548 0.63055 -0.046819
1261400 60.3145 212.427 55.7548 0.63065 -0.035433
1261600 60.3145 212.44 55.7548 0.63075 -0.00668392
1261800 60.3145 212.453 55.7548 0.63085 -0.00969199
1262000 60.3145 212.466 55.7548 0.63095 -0.0115633
1262200 60.3145 212.479 55.7548 0.63105 -0.00324205
1262400 60.3145 212.492 55.7548 0.63115 0.0208105
1262600 60.3145 212.505 55.7548 0.63125 -0.00381023
1262800 60.3145 212.518 55.7548 0.63135 0.0173041
1263000 60.3145 212.531 55.7548 0.63145 0.043881
1263200 60.3145 212.544 55.7548 0.63155 0.0273099
1263400 60.3145 212.557 55.7548 0.63165 0.0476937
1263600 60.3145 212.57 55.7548 0.63175 0.024467
1263800 60.3145 212.583 55.7548 0.63185 0.0139951
1264000 60.3145 212.596 55.7548 0.63195 0.0171058
1264200 60.3145 212.609 55.7548 0.63205 0.0158392
1264400 60.3145 212.622 55.7548 0.63215 -0.00046083
1264600 60.3145 212.635 55.7548 0.63225 -0.018
1264800 60.3145 212.648 55.7548 0.63235 -0.01076
1265000 60.3145 212.661 55.7548 0.63245 -0.00335305
1265200 60.3145 212.674 55.7548 0.63255 -0.0208901
1265400 60.3145 212.687 55.7548 0.63265 -0.0266772
1265600 60.3145 212.7 55.7548 0.63275 -0.0459441
1265800 60.3145 212.713 55.7548 0.63285 -0.0146777
1266000 60.3145 212.726 55.7548 0.63295 -0.0174602
1266200 60.3145 212.74 55.7548 0.63305 -0.0154647
1266400 60.3145 212.753 55.7548 0.63315 0.0245838
1266600 60.3145 212.766 55.7548 0.63325 0.0229852
1266800 60.3145 212.779 55.7548 0.63335 0.0175252
1267000 60.3145 212.792 55.7548 0.63345 0.0364474
1267200 60.3145 212.805 55.7548 0.63355 0.0116152
1267400 60.3145 212.818 55.7548 0.63365 0.0527697
1267600 60.3145 212.831 55.7548 0.63375 0.0227576
1267800 60.3145 212.844 55.7548 0.63385 0.0418201
1268000 60.3145 212.857 55.7548 0.63395 0.020485
1268200 60.3145 212.87 55.7548 0.63405 0.0189409
1268400 60.3145 212.883 55.7548 0.63415 0.0016982
1268600 60.3145 212.896 55.7548 0.63425 -0.0271231
1268800 60.3145 212.909 55.7548 0.63435 -0.0220005
1269000 60.3145 212.922 55.7548 0.63445 -0.0249681
1269200 60.3145 212.935 55.7548 0.63455 -0.0220237
1269400 60.3145 212.948 55.7548 0.63465 -0.020247
1269600 60.3145 212.961 55.7548 0.63475 -0.028931
1269800 60.3145 212.974 55.7548 0.63485 -0.0124337
1270000 60.3145 212.987 55.7548 0.63495 -0.00511259
1270200 60.3145 213 55.7548 0.63505 -0.0202118
1270400 60.3145 213.013 55.7548 0.63515 0.0284101
1270600 60.3145 213.026 55.7548 0.63525 0.0130082
1270800 60.3145 213.039 55.7548 0.63535 0.0354618
1271000 60.3145 213.052 55.7548 0.63545 0.0311158
1271200 60.3145 213.065 55.7548 0.63555 0.0229164
1271400 60.3145 213.078 55.7548 0.63565 0.0324279
1271600 60.3145 213.091 55.7548 0.63575 0.023867
1271800 60.3145 213.104 55.7548 0.63585 0.0503251
1272000 60.3145 213.117 55.7548 0.63595 0.00218921
1272200 60.3145 213.13 55.7548 0.63605 0.0149153
1272400 60.3145 213.143 55.7548 0.63615 -0.0273027
1272600 60.3145 213.156 55.7548 0.63625 -0.014851
1272800 60.3145 213.169 55.7548 0.63635 -0.00664064
1273000 60.3145 213.182 55.7548 0.63645 -0.0388259
1273200 60.3145 213.195 55.7548 0.63655 -0.0192471
1273400 60.3145 213.208 55.7548 0.63665 -0.0126298
1273600 60.3145 213.222 55.7548 0.63675 -0.0260587
1273800 60.3145 213.235 55.7548 0.63685 -0.00713411
1274000 60.3145 213.248 55.7548 0.63695 -0.00745668
1274200 60.3145 213.261 55.7548 0.63705 0.0129928
1274400 60.3145 213.274 55.7548 0.63715 0.00624897
1274600 60.3145 213.287 55.7548 0.63725 0.0313347
1274800 60.3145 213.3 55.7548 0.63735 0.0399706
1275000 60.3145 213.313 55.7548 0.63745 0.0157051
1275200 60.3145 213.326 55.7548 0.63755 0.0445259
1275400 60.3145 213.339 55.7548 0.63765 0.0179835
1275600 60.3145 213.352 55.7548 0.63775 0.0223214
1275800 60.3145 213.365 55.7548 0.63785 0.0138322
1276000 60.3145 213.378 55.7548 0.63795 0.0225819
1276200 60.3145 213.391 55.7548 0.63805 0.00248461
1276400 60.3145 213.404 55.7548 0.63815 -0.00306273
1276600 60.3145 213.417 55.7548 0.63825 -0.0266947
1276800 60.3145 213.43 55.7548 0.63835 -0.0364007
1277000 60.3145 213.443 55.7548 0.63845 -0.0177507
1277200 60.3145 213.456 55.7548 0.63855 -0.0157954
1277400 60.3145 213.469 55.7548 0.63865 -0.0158109
1277600 60.3145 213.482 55.7548 0.63875 0.00417802
1277800 60.3145 213.495 55.7548 0.63885 -0.011662
1278000 60.3145 213.508 55.7548 0.63895 -0.0148955
1278200 60.3145 213.521 55.7548 0.63905 -0.0111034
1278400 60.3145 213.534 55.7548 0.63915 0.0307684
1278600 60.3145 213.547 55.7548 0.63925 0.0250472
1278800 60.3145 213.56 55.7548 0.63935 0.0314453
1279000 60.3145 213.573 55.7548 0.63945 0.0343246
1279200 60.3145 213.586 55.7548 0.63955 0.0274232
1279400 60.3145 213.599 55.7548 0.63965 0.0163181
1279600 60.3145 213.612 55.7548 0.63975 0.0056842
1279800 60.3145 213.625 55.7548 0.63985 0.00471825
1280000 60.3145 213.638 55.7548 0.63995 0.0246074
1280200 60.3145 213.651 55.7548 0.64005 0.00889363
1280400 60.3145 213.664 55.7548 0.64015 -0.00163057
1280600 60.3145 213.677 55.7548 0.64025 -0.00369007
1280800 60.3145 213.69 55.7548 0.64035 -0.0442319
1281000 60.3145 213.704 55.7548 0.64045 -0.00554078
1281200 60.3145 213.717 55.7548 0.64055 -0.0174664
1281400 60.3145 213.73 55.7548 0.64065 -0.00198051
1281600 60.3145 213.743 55.7548 0.64075 -0.0272698
1281800 60.3145 213.756 55.7548 0.64085 0.000506461
1282000 60.3145 213.769 55.7548 0.64095 3.08042e-06
1282200 60.3145 213.782 55.7548 0.64105 0.00253228
1282400 60.3145 213.795 55.7548 0.64115 0.0323793
1282600 60.3145 213.808 55.7548 0.64125 0.0153932
1282800 60.3145 213.821 55.7548 0.64135 0.0321452
1283000 60.3145 213.834 55.7548 0.64145 0.0118636
1283200 60.3145 213.847 55.7548 0.64155 0.00580473
1283400 60.3145 213.86 55.7548 0.64165 0.0188714
1283600 60.3145 213.873 55.7548 0.64175 0.0151819
1283800 60.3145 213.886 55.7548 0.64185 0.0140531
1284000 60.3145 213.899 55.7548 0.64195 0.00852887
1284200 60.3145 213.912 55.7548 0.64205 0.015382
1284400 60.3145 213.925 55.7548 0.64215 -0.00970803
1284600 60.3145 213.938 55.7548 0.64225 -0.0148806
1284800 60.3145 213.951 55.7548 0.64235 -0.0203849
1285000 60.3145 213.964 55.7548 0.64245 -0.00422368
1285200 60.3145 213.977 55.7548 0.64255 -0.0289567
1285400 60.3145 213.99 55.7548 0.64265 0.00544266
1285600 60.3145 214.003 55.7548 0.64275 0.0106406
1285800 60.3145 214.016 55.7548 0.64285 -0.00893262
1286000 60.3145 214.029 55.7548 0.64295 0.00338035
1286200 60.3145 214.042 55.7548 0.64305 -0.00424004
1286400 60.3145 214.055 55.7548 0.64315 0.00209318
1286600 60.3145 214.068 55.7548 0.64325 0.0326012
1286800 60.3145 214.081 55.7548 0.64335 0.0271826
1287000 60.3145 214.094 55.7548 0.64345 0.023837
1287200 60.3145 214.107 55.7548 0.64355 0.0180506
1287400 60.3145 214.12 55.7548 0.64365 0.00851655
1287600 60.3145 214.133 55.7548 0.64375 0.0296018
1287800 60.3145 214.146 55.7548 0.64385 -0.0120731
1288000 60.3145 214.159 55.7548 0.64395 0.00784275
1288200 60.3145 214.173 55.7548 0.64405 -0.00586205
1288400 60.3145 214.186 55.7548 0.64415 0.00442587
1288600 60.3145 214.199 55.7548 0.64425 -0.0175802
1288800 60.3145 214.212 55.7548 0.64435 0.00151965
1289000 60.3145 214.225 55.7548 0.64445 -0.0201607
1289200 60.3145 214.238 55.7548 0.64455 -0.00131066
1289400 60.3145 214.251 55.7548 0.64465 -0.00870528
1289600 60.3145 214.264 55.7548 0.64475 -0.0184646
1289800 60.3145 214.277 55.7548 0.64485 -0.00107175
1290000 60.3145 214.29 55.7548 0.64495 0.0168486
1290200 60.3145 214.303 55.7548 0.64505 0.00130721
1290400 60.3145 214.316 55.7548 0.64515 0.017621
1290600 60.3145 214.329 55.7548 0.64525 0.00739896
1290800 60.3145 214.342 55.7548 0.64535 0.0210124
1291000 60.3145 214.355 55.7548 0.64545 0.0376283
1291200 60.3145 214.368 55.7548 0.64555 0.0108039
1291400 60.3145 214.381 55.7548 0.64565 0.0158027
1291600 60.3145 214.394 55.7548 0.64575 0.0197217
1291800 60.3145 214.407 55.7548 0.64585 0.00867218
1292000 60.3145 214.42 55.7548 0.64595 0.0185783
1292200 60.3145 214.433 55.7548 0.64605 -0.00446146
1292400 60.3145 214.446 55.7548 0.64615 -0.025607
1292600 60.3145 214.459 55.7548 0.64625 -0.0236306
1292800 60.3145 214.472 55.7548 0.64635 -0.025086
1293000 60.3145 214.485 55.7548 0.64645 -0.0168272
1293200 60.3145 214.498 55.7548 0.64655 0.0123768
1293400 60.3145 214.511 55.7548 0.64665 -0.0147405
1293600 60.3145 214.524 55.7548 0.64675 -0.00715119
1293800 60.3145 214.537 55.7548 0.64685 -0.0138653
1294000 60.3145 214.55 55.7548 0.64695 0.0213727
1294200 60.3145 214.563 55.7548 0.64705 0.0187739
1294400 60.3145 214.576 55.7548 0.64715 0.0256789
1294600 60.3145 214.589 55.7548 0.64725 0.0298685
1294800 60.3145 214.602 55.7548 0.64735 0.016334
1295000 60.3145 214.615 55.7548 0.64745 0.0360503
1295200 60.3145 214.628 55.7548 0.64755 0.00545863
1295400 60.3145 214.641 55.7548 0.64765 0.019153
1295600 60.3145 214.655 55.7548 0.64775 0.0186269
1295800 60.3145 214.668 55.7548 0.64785 -0.00242167
1296000 60.3145 214.681 55.7548 0.64795 -0.0174226
1296200 60.3145 214.694 55.7548 0.64805 0.00427927
1296400 60.3145 214.707 55.7548 0.64815 -0.0104162
1296600 60.3145 214.72 55.7548 0.64825 -0.0273419
1296800 60.3145 214.733 55.7548 0.64835 -0.00195259
1297000 60.3145 214.746 55.7548 0.64845 -0.0124174
1297200 60.3145 214.759 55.7548 0.64855 -0.0151529
1297400 60.3145 214.772 55.7548 0.64865 -0.0122612
1297600 60.3145 214.785 55.7548 0.64875 0.00698431
1297800 60.3145 214.798 55.7548 0.64885 0.000864108
1298000 60.3145 214.811 55.7548 0.64895 -0.00457135
1298200 60.3145 214.824 55.7548 0.64905 0.0377657
1298400 60.3145 214.837 55.7548 0.64915 0.0325434
1298600 60.3145 214.85 55.7548 0.64925 0.0115291
1298800 60.3145 214.863 55.7548 0.64935 0.020767
1299000 60.3145 214.876 55.7548 0.64945 0.0270405
1299200 60.3145 214.889 55.7548 0.64955 0.00659522
1299400 60.3145 214.902 55.7548 0.64965 0.00408136
1299600 60.3145 214.915 55.7548 0.64975 0.0145778
1299800 60.3145 214.928 55.7548 0.64985 0.00525572
1300000 60.3145 214.941 55.7548 0.64995 -0.00781276
1300200 60.3145 214.954 55.7548 0.65005 -0.0351092
1300400 60.3145 214.967 55.7548 0.65015 -0.00143015
1300600 60.3145 214.98 55.7548 0.65025 -0.023193
1300800 60.3145 214.993 55.7548 0.65035 -0.00248967
1301000 60.3145 215.006 55.7548 0.65045 -0.00610578
1301200 60.3145 215.019 55.7548 0.65055 0.0149832
1301400 60.3145 215.032 55.7548 0.65065 -0.0161065
1301600 60.3145 215.045 55.7548 0.65075 0.0123811
1301800 60.3145 215.058 55.7548 0.65085 0.0238557
1302000 60.3145 215.071 55.7548 0.65095 0.00537511
1302200 60.3145 215.084 55.7548 0.65105 0.0316225
1302400 60.3145 215.097 55.7548 0.65115 0.0173083
1302600 60.3145 215.11 55.7548 0.65125 0.0235473
1302800 60.3145 215.123 55.7548 0.65135 -0.00819163
1303000 60.3145 215.137 55.7548 0.65145 0.0245135
1303200 60.3145 215.15 55.7548 0.65155 0.0213931
1303400 60.3145 215.163 55.7548 0.65165 -0.00164428
1303600 60.3145 215.176 55.7548 0.65175 0.00264561
1303800 60.3145 215.189 55.7548 0.65185 -0.0119725
1304000 60.3145 215.202 55.7548 0.65195 -0.0210635
1304200 60.3145 215.215 55.7548 0.65205 -0.0161471
1304400 60.3145 215.228 55.7548 0.65215 -0.0175884
1304600 60.3145 215.241 55.7548 0.65225 0.00168337
1304800 60.3145 215.254 55.7548 0.65235 -0.00234151
1305000 60.3145 215.267 55.7548 0.65245 0.00850602
1305200 60.3145 215.28 55.7548 0.65255 -0.000416761
1305400 60.3145 215.293 55.7548 0.65265 -0.0191702
1305600 60.3145 215.306 55.7548 0.65275 0.0112913
1305800 60.3145 215.319 55.7548 0.65285 0.0312065
1306000 60.3145 215.332 55.7548 0.65295 0.0316217
1306200 60.3145 215.345 55.7548 0.65305 0.0186606
1306400 60.3145 215.358 55.7548 0.65315 0.0178217
1306600 60.3145 215.371 55.7548 0.65325 0.0115425
1306800 60.3145 215.384 55.7548 0.65335 0.00290128
1307000 60.3145 215.397 55.7548 0.65345 0.0213178
1307200 60.3145 215.41 55.7548 0.65355 0.0240609
1307400 60.3145 215.423 55.7548 0.65365 -0.0215866
1307600 60.3145 215.436 55.7548 0.65375 0.00954002
1307800 60.3145 215.449 55.7548 0.65385 -0.0157611
1308000 60.3145 215.462 55.7548 0.65395 -0.0275992
1308200 60.3145 215.475 55.7548 0.65405 -0.0077245
1308400 60.3145 215.488 55.7548 0.65415 -0.0191669
1308600 60.3145 215.501 55.7548 0.65425 -0.00258221
1308800 60.3145 215.514 55.7548 0.65435 -0.00323237
1309000 60.3145 215.527 55.7548 0.65445 -0.00425518
1309200 60.3145 215.54 55.7548 0.65455 -0.00358939
1309400 60.3145 215.553 55.7548 0.65465 -0.00332468
1309600 60.3145 215.566 55.7548 0.65475 0.0271504
1309800 60.3145 215.579 55.7548 0.65485 0.0371082
1310000 60.3145 215.592 55.7548 0.65495 0.0182412
1310200 60.3145 215.605 55.7548 0.65505 0.0223215
1310400 60.3145 215.619 55.7548 0.65515 0.0222637
1310600 60.3145 215.632 55.7548 0.65525 0.0199228
1310800 60.3145 215.645 55.7548 0.65535 0.00532387
1311000 60.3145 215.658 55.7548 0.65545 0.0125537
1311200 60.3145 215.671 55.7548 0.65555 0.0271239
1311400 60.3145 215.684 55.7548 0.65565 -0.018332
1311600 60.3145 215.697 55.7548 0.65575 0.00578622
1311800 60.3145 215.71 55.7548 0.65585 -0.0190084
1312000 60.3145 215.723 55.7548 0.65595 -0.0192244
1312200 60.3145 215.736 55.7548 0.65605 -0.0262301
1312400 60.3145 215.749 55.7548 0.65615 -0.0304021
1312600 60.3145 215.762 55.7548 0.65625 -0.00846177
1312800 60.3145 215.775 55.7548 0.65635 0.00470366
1313000 60.3145 215.788 55.7548 0.65645 0.00409781
1313200 60.3145 215.801 55.7548 0.65655 -0.00593895
1313400 60.3145 215.814 55.7548 0.65665 0.00922178
1313600 60.3145 215.827 55.7548 0.65675 0.0303615
1313800 60.3145 215.84 55.7548 0.65685 0.0127442
1314000 60.3145 215.853 55.7548 0.65695 0.0169773
1314200 60.3145 215.866 55.7548 0.65705 0.049971
1314400 60.3145 215.879 55.7548 0.65715 0.033761
1314600 60.3145 215.892 55.7548 0.65725 0.00447567
1314800 60.3145 215.905 55.7548 0.65735 0.0103308
1315000 60.3145 215.918 55.7548 0.65745 0.00728927
1315200 60.3145 215.931 55.7548 0.65755 0.00521433
1315400 60.3145 215.944 55.7548 0.65765 0.00631609
1315600 60.3145 215.957 55.7548 0.65775 -0.00924576
1315800 60.3145 215.97 55.7548 0.65785 -0.0161294
1316000 60.3145 215.983 55.7548 0.65795 -0.0248149
1316200 60.3145 215.996 55.7548 0.65805 -0.0410326
1316400 60.3145 216.009 55.7548 0.65815 -0.0260444
1316600 60.3145 216.022 55.7548 0.65825 0.00989848
1316800 60.3145 216.035 55.7548 0.65835 -0.00219134
1317000 60.3145 216.048 55.7548 0.65845 -0.00764739
1317200 60.3145 216.061 55.7548 0.65855 0.0204418
1317400 60.3145 216.074 55.7548 0.65865 0.0075419
1317600 60.3145 216.087 55.7548 0.65875 0.00989862
1317800 60.3145 216.101 55.7548 0.65885 0.0354777
1318000 60.3145 216.114 55.7548 0.65895 0.0495007
1318200 60.3145 216.127 55.7548 0.65905 0.0294145
1318400 60.3145 216.14 55.7548 0.65915 0.0302513
1318600 60.3145 216.153 55.7548 0.65925 0.00267207
1318800 60.3145 216.166 55.7548 0.65935 0.00212166
1319000 60.3145 216.179 55.7548 0.65945 0.00736789
1319200 60.3145 216.192 55.7548 0.65955 -0.000503015
1319400 60.3145 216.205 55.7548 0.65965 -0.00511047
1319600 60.3145 216.218 55.7548 0.65975 -0.00521307
1319800 60.3145 216.231 55.7548 0.65985 -0.0124975
1320000 60.3145 216.244 55.7548 0.65995 -0.0365948
1320200 60.3145 216.257 55.7548 0.66005 -0.0287877
1320400 60.3145 216.27 55.7548 0.66015 -0.0231401
1320600 60.3145 216.283 55.7548 0.66025 -0.0109378
1320800 60.3145 216.296 55.7548 0.66035 0.0133453
1321000 60.3145 216.309 55.7548 0.66045 0.00144644
1321200 60.3145 216.322 55.7548 0.66055 0.00853563
1321400 60.3145 216.335 55.7548 0.66065 0.00658212
1321600 60.3145 216.348 55.7548 0.66075 0.0345561
1321800 60.3145 216.361 55.7548 0.66085 0.0254742
1322000 60.3145 216.374 55.7548 0.66095 0.0260031
1322200 60.3145 216.387 55.7548 0.66105 0.038684
1322400 60.3145 216.4 55.7548 0.66115 0.0325866
1322600 60.3145 216.413 55.7548 0.66125 0.0220595
1322800 60.3145 216.426 55.7548 0.66135 0.00599784
1323000 60.3145 216.439 55.7548 0.66145 -0.00848855
1323200 60.3145 216.452 55.7548 0.66155 -0.00806161
1323400 60.3145 216.465 55.7548 0.66165 -0.0157423
1323600 60.3145 216.478 55.7548 0.66175 -0.015491
1323800 60.3145 216.491 55.7548 0.66185 -0.00652739
1324000 60.3145 216.504 55.7548 0.66195 -0.02535
1324200 60.3145 216.517 55.7548 0.66205 -0.0126609
1324400 60.3145 216.53 55.7548 0.66215 -0.0345801
1324600 60.3145 216.543 55.7548 0.66225 -0.00334415
1324800 60.3145 216.556 55.7548 0.66235 -0.0014448
1325000 60.3145 216.569 55.7548 0.66245 0.0190329
1325200 60.3145 216.583 55.7548 0.66255 0.0207099
1325400 60.3145 216.596 55.7548 0.66265 0.0250148
1325600 60.3145 216.609 55.7548 0.66275 0.00776419
1325800 60.3145 216.622 55.7548 0.66285 0.0340364
1326000 60.3145 216.635 55.7548 0.66295 0.0224259
1326200 60.3145 216.648 55.7548 0.66305 0.0242796
1326400 60.3145 216.661 55.7548 0.66315 0.0189232
1326600 60.3145 216.674 55.7548 0.66325 0.0382036
1326800 60.3145 216.687 55.7548 0.66335 -0.00188458
1327000 60.3145 216.7 55.7548 0.66345 -0.00339113
1327200 60.3145 216.713 55.7548 0.66355 -0.0183371
1327400 60.3145 216.726 55.7548 0.66365 0.00142236
1327600 60.3145 216.739 55.7548 0.66375 -0.0131943
1327800 60.3145 216.752 55.7548 0.66385 -0.0239241
1328000 60.3145 216.765 55.7548 0.66395 -0.0242296
1328200 60.3145 216.778 55.7548 0.66405 -0.020317
1328400 60.3145 216.791 55.7548 0.66415 -0.021119
1328600 60.3145 216.804 55.7548 0.66425 -0.00917535
1328800 60.3145 216.817 55.7548 0.66435 0.0113018
1329000 60.3145 216.83 55.7548 0.66445 0.00646223
1329200 60.3145 216.843 55.7548 0.66455 0.0304472
1329400 60.3145 216.856 55.7548 0.66465 0.0200124
1329600 60.3145 216.869 55.7548 0.66475 0.0131661
1329800 60.3145 216.882 55.7548 0.66485 0.0268195
1330000 60.3145 216.895 55.7548 0.66495 0.0210703
1330200 60.3145 216.908 55.7548 0.66505 0.0450246
1330400 60.3145 216.921 55.7548 0.66515 0.018942
1330600 60.3145 216.934 55.7548 0.66525 0.00630238
1330800 60.3145 216.947 55.7548 0.66535 0.0205952
1331000 60.3145 216.96 55.7548 0.66545 -0.0210323
1331200 60.3145 216.973 55.7548 0.66555 -0.00416945
1331400 60.3145 216.986 55.7548 0.66565 -0.0226237
1331600 60.3145 216.999 55.7548 0.66575 -0.0216627
1331800 60.3145 217.012 55.7548 0.66585 -0.0264423
1332000 60.3145 217.025 55.7548 0.66595 0.000339249
1332200 60.3145 217.038 55.7548 0.66605 -0.013415
1332400 60.3145 217.051 55.7548 0.66615 -0.017988
1332600 60.3145 217.065 55.7548 0.66625 0.0112968
1332800 60.3145 217.078 55.7548 0.66635 -0.00664137
1333000 60.3145 217.091 55.7548 0.66645 0.0127359
1333200 60.3145 217.104 55.7548 0.66655 0.0323535
1333400 60.3145 217.117 55.7548 0.66665 0.0301084
1333600 60.3145 217.13 55.7548 0.66675 0.0262108
1333800 60.3145 217.143 55.7548 0.66685 0.0409434
1334000 60.3145 217.156 55.7548 0.66695 -0.0091552
1334200 60.3145 217.169 55.7548 0.66705 0.0319339
1334400 60.3145 217.182 55.7548 0.66715 0.00171952
1334600 60.3145 217.195 55.7548 0.66725 0.0197001
1334800 60.3145 217.208 55.7548 0.66735 -0.00365781
1335000 60.3145 217.221 55.7548 0.66745 -0.00460639
1335200 60.3145 217.234 55.7548 0.66755 -0.0215455
1335400 60.3145 217.247 55.7548 0.66765 -0.0131376
1335600 60.3145 217.26 55.7548 0.66775 -0.0214997
1335800 60.3145 217.273 55.7548 0.66785 -0.0189773
1336000 60.3145 217.286 55.7548 0.66795 -0.0139499
1336200 60.3145 217.299 55.7548 0.66805 0.0151074
1336400 60.3145 217.312 55.7548 0.66815 -0.0130168
1336600 60.3145 217.325 55.7548 0.66825 -0.000888685
1336800 60.3145 217.338 55.7548 0.66835 0.00363374
1337000 60.3145 217.351 55.7548 0.66845 0.00795026
1337200 60.3145 217.364 55.7548 0.66855 0.0189074
1337400 60.3145 217.377 55.7548 0.66865 0.0422909
1337600 60.3145 217.39 55.7548 0.66875 0.0523763
1337800 60.3145 217.403 55.7548 0.66885 0.0157126
1338000 60.3145 217.416 55.7548 0.66895 -0.00362109
1338200 60.3145 217.429 55.7548 0.66905 0.0134589
1338400 60.3145 217.442 55.7548 0.66915 0.0102535
1338600 60.3145 217.455 55.7548 0.66925 -0.00783916
1338800 60.3145 217.468 55.7548 0.66935 0.00601112
1339000 60.3145 217.481 55.7548 0.66945 -0.00160156
1339200 60.3145 217.494 55.7548 0.66955 -0.0155269
1339400 60.3145 217.507 55.7548 0.66965 -0.0355941
1339600 60.3145 217.52 55.7548 0.66975 -0.00884071
1339800 60.3145 217.534 55.7548 0.66985 0.011656
1340000 60.3145 217.547 55.7548 0.66995 -0.0213183
1340200 60.3145 217.56 55.7548 0.67005 0.0155157
1340400 60.3145 217.573 55.7548 0.67015 -0.000504372
1340600 60.3145 217.586 55.7548 0.67025 0.00561528
1340800 60.3145 217.599 55.7548 0.67035 0.00241254
1341000 60.3145 217.612 55.7548 0.67045 0.0228314
1341200 60.3145 217.625 55.7548 0.67055 0.0192028
1341400 60.3145 217.638 55.7548 0.67065 0.0269552
1341600 60.3145 217.651 55.7548 0.67075 0.0241728
1341800 60.3145 217.664 55.7548 0.67085 0.0135104
1342000 60.3145 217.677 55.7548 0.67095 0.0204265
1342200 60.3145 217.69 55.7548 0.67105 0.00551258
1342400 60.3145 217.703 55.7548 0.67115 0.0178449
1342600 60.3145 217.716 55.7548 0.67125 -0.0201041
1342800 60.3145 217.729 55.7548 0.67135 0.00241921
1343000 60.3145 217.742 55.7548 0.67145 -0.00524123
1343200 60.3145 217.755 55.7548 0.67155 -0.0179056
1343400 60.3145 217.768 55.7548 0.67165 -0.0101225
1343600 60.3145 217.781 55.7548 0.67175 -0.0222292
1343800 60.3145 217.794 55.7548 0.67185 -0.012641
1344000 60.3145 217.807 55.7548 0.67195 -0.00778895
1344200 60.3145 217.82 55.7548 0.67205 0.0109974
1344400 60.3145 217.833 55.7548 0.67215 -0.00989429
1344600 60.3145 217.846 55.7548 0.67225 0.0136196
1344800 60.3145 217.859 55.7548 0.67235 0.0134856
1345000 60.3145 217.872 55.7548 0.67245 0.0202491
1345200 60.3145 217.885 55.7548 0.67255 0.024401
1345400 60.3145 217.898 55.7548 0.67265 0.0255889
1345600 60.3145 217.911 55.7548 0.67275 0.0246167
1345800 60.3145 217.924 55.7548 0.67285 0.0230435
1346000 60.3145 217.937 55.7548 0.67295 0.00020633
1346200 60.3145 217.95 55.7548 0.67305 0.00263998
1346400 60.3145 217.963 55.7548 0.67315 -0.00153906
1346600 60.3145 217.976 55.7548 0.67325 0.0107299
1346800 60.3145 217.989 55.7548 0.67335 -0.0126499
1347000 60.3145 218.002 55.7548 0.67345 0.0061575
1347200 60.3145 218.016 55.7548 0.67355 -0.0231692
1347400 60.3145 218.029 55.7548 0.67365 -0.0199174
1347600 60.3145 218.042 55.7548 0.67375 -0.0103887
1347800 60.3145 218.055 55.7548 0.67385 -0.0174925
1348000 60.3145 218.068 55.7548 0.67395 -0.0138015
1348200 60.3145 218.081 55.7548 0.67405 0.0216355
1348400 60.3145 218.094 55.7548 0.67415 0.0149669
1348600 60.3145 218.107 55.7548 0.67425 0.0177003
1348800 60.3145 218.12 55.7548 0.67435 -0.000709744
1349000 60.3145 218.133 55.7548 0.67445 0.0262164
1349200 60.3145 218.146 55.7548 0.67455 0.0327497
1349400 60.3145 218.159 55.7548 0.67465 0.0251339
1349600 60.3145 218.172 55.7548 0.67475 0.0223248
1349800 60.3145 218.185 55.7548 0.67485 0.0155543
1350000 60.3145 218.198 55.7548 0.67495 0.0233798
1350200 60.3145 218.211 55.7548 0.67505 -0.0117459
1350400 60.3145 218.224 55.7548 0.67515 -0.00480118
1350600 60.3145 218.237 55.7548 0.67525 0.00218291
1350800 60.3145 218.25 55.7548 0.67535 -0.0202004
1351000 60.3145 218.263 55.7548 0.67545 -0.0216384
1351200 60.3145 218.276 55.7548 0.67555 -0.0182943
1351400 60.3145 218.289 55.7548 0.67565 0.00483057
1351600 60.3145 218.302 55.7548 0.67575 -0.0217811
1351800 60.3145 218.315 55.7548 0.67585 -0.0212362
1352000 60.3145 218.328 55.7548 0.67595 -0.0082893
1352200 60.3145 218.341 55.7548 0.67605 0.00605747
1352400 60.3145 218.354 55.7548 0.67615 0.0161681
1352600 60.3145 218.367 55.7548 0.67625 0.0208635
1352800 60.3145 218.38 55.7548 0.67635 0.0382112
1353000 60.3145 218.393 55.7548 0.67645 0.0383128
1353200 60.3145 218.406 55.7548 0.67655 0.00792466
1353400 60.3145 218.419 55.7548 0.67665 0.0253392
1353600 60.3145 218.432 55.7548 0.67675 0.022688
1353800 60.3145 218.445 55.7548 0.67685 0.01346
1354000 60.3145 218.458 55.7548 0.67695 0.0221755
1354200 60.3145 218.471 55.7548 0.67705 -0.00263835
1354400 60.3145 218.484 55.7548 0.67715 0.000101926
1354600 60.3145 218.498 55.7548 0.67725 -0.0336354
1354800 60.3145 218.511 55.7548 0.67735 -0.0184839
1355000 60.3145 218.524 55.7548 0.67745 -0.0222895
1355200 60.3145 218.537 55.7548 0.67755 -0.0308519
1355400 60.3145 218.55 55.7548 0.67765 0.00534879
1355600 60.3145 218.563 55.7548 0.67775 -0.00526138
1355800 60.3145 218.576 55.7548 0.67785 0.00104967
1356000 60.3145 218.589 55.7548 0.67795 -0.0109104
1356200 60.3145 218.602 55.7548 0.67805 0.00438253
1356400 60.3145 218.615 55.7548 0.67815 0.0225319
1356600 60.3145 218.628 55.7548 0.67825 0.0210646
1356800 60.3145 218.641 55.7548 0.67835 0.0370263
1357000 60.3145 218.654 55.7548 0.67845 0.0396717
1357200 60.3145 218.667 55.7548 0.67855 0.0207548
1357400 60.3145 218.68 55.7548 0.67865 0.0251366
1357600 60.3145 218.693 55.7548 0.67875 0.00600614
1357800 60.3145 218.706 55.7548 0.67885 0.0140639
1358000 60.3145 218.719 55.7548 0.67895 -0.00767333
1358200 60.3145 218.732 55.7548 0.67905 0.00730133
1358400 60.3145 218.745 55.7548 0.67915 -0.0139621
1358600 60.3145 218.758 55.7548 0.67925 -0.0160038
1358800 60.3145 218.771 55.7548 0.67935 -0.0270239
1359000 60.3145 218.784 55.7548 0.67945 -0.00382252
1359200 60.3145 218.797 55.7548 0.67955 -0.0236312
1359400 60.3145 218.81 55.7548 0.67965 -0.0107577
1359600 60.3145 218.823 55.7548 0.67975 -0.00811799
1359800 60.3145 218.836 55.7548 0.67985 -0.0028369
1360000 60.3145 218.849 55.7548 0.67995 0.0167547
1360200 60.3145 218.862 55.7548 0.68005 0.0117412
1360400 60.3145 218.875 55.7548 0.68015 0.0344095
1360600 60.3145 218.888 55.7548 0.68025 0.0225006
1360800 60.3145 218.901 55.7548 0.68035 0.0227661
1361000 60.3145 218.914 55.7548 0.68045 0.0225162
1361200 60.3145 218.927 55.7548 0.68055 0.0255839
1361400 60.3145 218.94 55.7548 0.68065 0.00792218
1361600 60.3145 218.953 55.7548 0.68075 0.0144991
1361800 60.3145 218.966 55.7548 0.68085 0.00261246
1362000 60.3145 218.98 55.7548 0.68095 0.00697856
1362200 60.3145 218.993 55.7548 0.68105 -0.0115708
1362400 60.3145 219.006 55.7548 0.68115 -0.0163087
1362600 60.3145 219.019 55.7548 0.68125 -0.0297706
1362800 60.3145 219.032 55.7548 0.68135 -0.0045723
1363000 60.3145 219.045 55.7548 0.68145 -0.0228997
1363200 60.3145 219.058 55.7548 0.68155 -0.00377321
1363400 60.3145 219.071 55.7548 0.68165 -0.00570938
1363600 60.3145 219.084 55.7548 0.68175 0.0122191
1363800 60.3145 219.097 55.7548 0.68185 0.0105435
1364000 60.3145 219.11 55.7548 0.68195 -0.00748112
1364200 60.3145 219.123 55.7548 0.68205 0.014917
1364400 60.3145 219.136 55.7548 0.68215 0.0366378
1364600 60.3145 219.149 55.7548 0.68225 0.0209354
1364800 60.3145 219.162 55.7548 0.68235 0.0240737
1365000 60.3145 219.175 55.7548 0.68245 0.0216814
1365200 60.3145 219.188 55.7548 0.68255 0.0164462
1365400 60.3145 219.201 55.7548 0.68265 0.0136879
1365600 60.3145 219.214 55.7548 0.68275 0.0131926
1365800 60.3145 219.227 55.7548 0.68285 -0.0080222
1366000 60.3145 219.24 55.7548 0.68295 -0.0010766
1366200 60.3145 219.253 55.7548 0.68305 -0.0164171
1366400 60.3145 219.266 55.7548 0.68315 -0.0283032
1366600 60.3145 219.279 55.7548 0.68325 0.000503817
1366800 60.3145 219.292 55.7548 0.68335 -0.0116078
1367000 60.3145 219.305 55.7548 0.68345 -0.0174051
1367200 60.3145 219.318 55.7548 0.68355 -0.00611682
1367400 60.3145 219.331 55.7548 0.68365 -0.0113165
1367600 60.3145 219.344 55.7548 0.68375 0.00260843
1367800 60.3145 219.357 55.7548 0.68385 0.0195732
1368000 60.3145 219.37 55.7548 0.68395 0.0207925
1368200 60.3145 219.383 55.7548 0.68405 0.0255489
1368400 60.3145 219.396 55.7548 0.68415 0.0169128
1368600 60.3145 219.409 55.7548 0.68425 0.0195335
1368800 60.3145 219.422 55.7548 0.68435 0.0153298
1369000 60.3145 219.435 55.7548 0.68445 0.0182392
1369200 60.3145 219.448 55.7548 0.68455 0.00152465
1369400 60.3145 219.462 55.7548 0.68465 0.0177988
1369600 60.3145 219.475 55.7548 0.68475 0.00885943
1369800 60.3145 219.488 55.7548 0.68485 0.0124456
1370000 60.3145 219.501 55.7548 0.68495 -0.0135292
1370200 60.3145 219.514 55.7548 0.68505 0.00642335
1370400 60.3145 219.527 55.7548 0.68515 -0.0321074
1370600 60.3145 219.54 55.7548 0.68525 -0.00926598
1370800 60.3145 219.553 55.7548 0.68535 -0.011123
1371000 60.3145 219.566 55.7548 0.68545 -0.00944142
1371200 60.3145 219.579 55.7548 0.68555 -0.00226968
1371400 60.3145 219.592 55.7548 0.68565 -0.00386248
1371600 60.3145 219.605 55.7548 0.68575 0.00399897
1371800 60.3145 219.618 55.7548 0.68585 0.0161013
1372000 60.3145 219.631 55.7548 0.68595 0.00630915
1372200 60.3145 219.644 55.7548 0.68605 0.00509164
1372400 60.3145 219.657 55.7548 0.68615 0.0479416
1372600 60.3145 219.67 55.7548 0.68625 0.0180939
1372800 60.3145 219.683 55.7548 0.68635 -0.000306371
1373000 60.3145 219.696 55.7548 0.68645 0.025499
1373200 60.3145 219.709 55.7548 0.68655 0.0164447
1373400 60.3145 219.722 55.7548 0.68665 -0.000920579
1373600 60.3145 219.735 55.7548 0.68675 0.00298968
1373800 60.3145 219.748 55.7548 0.68685 -0.00178936
1374000 60.3145 219.761 55.7548 0.68695 -0.00185452
1374200 60.3145 219.774 55.7548 0.68705 -0.00753642
1374400 60.3145 219.787 55.7548 0.68715 -0.00859817
1374600 60.3145 219.8 55.7548 0.68725 -0.00447583
1374800 60.3145 219.813 55.7548 0.68735 -0.00613455
1375000 60.3145 219.826 55.7548 0.68745 -0.0100529
1375200 60.3145 219.839 55.7548 0.68755 0.00641752
1375400 60.3145 219.852 55.7548 0.68765 -0.0245497
1375600 60.3145 219.865 55.7548 0.68775 0.0230085
1375800 60.3145 219.878 55.7548 0.68785 0.0027872
1376000 60.3145 219.891 55.7548 0.68795 0.0129873
1376200 60.3145 219.904 55.7548 0.68805 0.00803659
1376400 60.3145 219.917 55.7548 0.68815 0.0227651
1376600 60.3145 219.93 55.7548 0.68825 0.0133256
1376800 60.3145 219.944 55.7548 0.68835 0.0154954
1377000 60.3145 219.957 55.7548 0.68845 0.0184499
1377200 60.3145 219.97 55.7548 0.68855 0.00537369
1377400 60.3145 219.983 55.7548 0.68865 0.0134806
1377600 60.3145 219.996 55.7548 0.68875 -0.00028873
1377800 60.3145 220.009 55.7548 0.68885 0.00610645
1378000 60.3145 220.022 55.7548 0.68895 0.00530732
1378200 60.3145 220.035 55.7548 0.68905 -0.0134773
1378400 60.3145 220.048 55.7548 0.68915 -0.00349335
1378600 60.3145 220.061 55.7548 0.68925 -0.00239094
1378800 60.3145 220.074 55.7548 0.68935 -0.00347699
1379000 60.3145 220.087 55.7548 0.68945 0.000203598
1379200 60.3145 220.1 55.7548 0.68955 -0.0112598
1379400 60.3145 220.113 55.7548 0.68965 -0.0109613
1379600 60.3145 220.126 55.7548 0.68975 -0.0122795
1379800 60.3145 220.139 55.7548 0.68985 0.013177
1380000 60.3145 220.152 55.7548 0.68995 0.0183446
1380200 60.3145 220.165 55.7548 0.69005 0.000706138
1380400 60.3145 220.178 55.7548 0.69015 0.0192997
1380600 60.3145 220.191 55.7548 0.69025 0.00149299
1380800 60.3145 220.204 55.7548 0.69035 0.0262139
1381000 60.3145 220.217 55.7548 0.69045 0.00973325
1381200 60.3145 220.23 55.7548 0.69055 0.0221949
1381400 60.3145 220.243 55.7548 0.69065 0.0197642
1381600 60.3145 220.256 55.7548 0.69075 0.0195231
1381800 60.3145 220.269 55.7548 0.69085 0.00632735
1382000 60.3145 220.282 55.7548 0.69095 -0.019563
1382200 60.3145 220.295 55.7548 0.69105 0.00299888
1382400 60.3145 220.308 55.7548 0.69115 -0.00991306
1382600 60.3145 220.321 55.7548 0.69125 -0.0017641
1382800 60.3145 220.334 55.7548 0.69135 -0.00744137
1383000 60.3145 220.347 55.7548 0.69145 0.00247183
1383200 60.3145 220.36 55.7548 0.69155 -0.0126126
1383400 60.3145 220.373 55.7548 0.69165 -0.013206
1383600 60.3145 220.386 55.7548 0.69175 -0.0254135
1383800 60.3145 220.399 55.7548 0.69185 0.00728867
1384000 60.3145 220.412 55.7548 0.69195 0.0167361
1384200 60.3145 220.426 55.7548 0.69205 0.0213379
1384400 60.3145 220.439 55.7548 0.69215 0.0133349
1384600 60.3145 220.452 55.7548 0.69225 0.0223631
1384800 60.3145 220.465 55.7548 0.69235 0.00757679
1385000 60.3145 220.478 55.7548 0.69245 0.0161289
1385200 60.3145 220.491 55.7548 0.69255 0.0329422
1385400 60.3145 220.504 55.7548 0.69265 -0.00356917
1385600 60.3145 220.517 55.7548 0.69275 0.0186324
1385800 60.3145 220.53 55.7548 0.69285 0.0104296
1386000 60.3145 220.543 55.7548 0.69295 -0.00679036
1386200 60.3145 220.556 55.7548 0.69305 -0.00884046
1386400 60.3145 220.569 55.7548 0.69315 -0.0209488
1386600 60.3145 220.582 55.7548 0.69325 0.00113379
1386800 60.3145 220.595 55.7548 0.69335 -0.0133696
1387000 60.3145 220.608 55.7548 0.69345 -0.0161782
1387200 60.3145 220.621 55.7548 0.69355 -0.00888026
1387400 60.3145 220.634 55.7548 0.69365 0.0172095
1387600 60.3145 220.647 55.7548 0.69375 -0.00248056
1387800 60.3145 220.66 55.7548 0.69385 0.00210069
1388000 60.3145 220.673 55.7548 0.69395 0.00999828
1388200 60.3145 220.686 55.7548 0.69405 0.0193392
1388400 60.3145 220.699 55.7548 0.69415 0.0298202
1388600 60.3145 220.712 55.7548 0.69425 0.017579
1388800 60.3145 220.725 55.7548 0.69435 0.0147721
1389000 60.3145 220.738 55.7548 0.69445 0.00411013
1389200 60.3145 220.751 55.7548 0.69455 0.0182869
1389400 60.3145 220.764 55.7548 0.69465 0.0148174
1389600 60.3145 220.777 55.7548 0.69475 0.00777157
1389800 60.3145 220.79 55.7548 0.69485 0.00281923
1390000 60.3145 220.803 55.7548 0.69495 -0.0161214
1390200 60.3145 220.816 55.7548 0.69505 -0.0255206
1390400 60.3145 220.829 55.7548 0.69515 -0.0121027
1390600 60.3145 220.842 55.7548 0.69525 -0.0058821
1390800 60.3145 220.855 55.7548 0.69535 0.0019199
1391000 60.3145 220.868 55.7548 0.69545 -0.0096682
1391200 60.3145 220.881 55.7548 0.69555 -0.00682491
1391400 60.3145 220.894 55.7548 0.69565 0.00649277
1391600 60.3145 220.908 55.7548 0.69575 0.00564474
1391800 60.3145 220.921 55.7548 0.69585 0.0156348
1392000 60.3145 220.934 55.7548 0.69595 -0.00323867
1392200 60.3145 220.947 55.7548 0.69605 0.0263961
1392400 60.3145 220.96 55.7548 0.69615 0.0157492
1392600 60.3145 220.973 55.7548 0.69625 0.0233283
1392800 60.3145 220.986 55.7548 0.69635 0.0242095
1393000 60.3145 220.999 55.7548 0.69645 0.0217901
1393200 60.3145 221.012 55.7548 0.69655 -0.000939979
1393400 60.3145 221.025 55.7548 0.69665 0.00231975
1393600 60.3145 221.038 55.7548 0.69675 0.00739343
1393800 60.3145 221.051 55.7548 0.69685 -0.00343882
1394000 60.3145 221.064 55.7548 0.69695 -0.0124414
1394200 60.3145 221.077 55.7548 0.69705 0.00382214
1394400 60.3145 221.09 55.7548 0.69715 -0.0301557
1394600 60.3145 221.103 55.7548 0.69725 -0.0156006
1394800 60.3145 221.116 55.7548 0.69735 -0.0179662
1395000 60.3145 221.129 55.7548 0.69745 -0.0187817
1395200 60.3145 221.142 55.7548 0.69755 0.0136978
1395400 60.3145 221.155 55.7548 0.69765 0.00222474
1395600 60.3145 221.168 55.7548 0.69775 0.0171227
1395800 60.3145 221.181 55.7548 0.69785 0.0224707
1396000 60.3145 221.194 55.7548 0.69795 0.0109151
1396200 60.3145 221.207 55.7548 0.69805 0.0166994
1396400 60.3145 221.22 55.7548 0.69815 0.0276181
1396600 60.3145 221.233 55.7548 0.69825 0.0351373
1396800 60.3145 221.246 55.7548 0.69835 0.0309442
1397000 60.3145 221.259 55.7548 0.69845 0.0102236
1397200 60.3145 221.272 55.7548 0.69855 -0.000811789
1397400 60.3145 221.285 55.7548 0.69865 0.000809549
1397600 60.3145 221.298 55.7548 0.69875 -0.00976541
1397800 60.3145 221.311 55.7548 0.69885 -0.0011312
1398000 60.3145 221.324 55.7548 0.69895 -0.0192619
1398200 60.3145 221.337 55.7548 0.69905 -0.00882801
1398400 60.3145 221.35 55.7548 0.69915 -0.00473139
1398600 60.3145 221.363 55.7548 0.69925 -0.0410135
1398800 60.3145 221.377 55.7548 0.69935 -0.00728727
1399000 60.3145 221.39 55.7548 0.69945 -0.00956049
1399200 60.3145 221.403 55.7548 0.69955 0.00397645
1399400 60.3145 221.416 55.7548 0.69965 -0.00613894
1399600 60.3145 221.429 55.7548 0.69975 0.0128773
1399800 60.3145 221.442 55.7548 0.69985 0.0265122
1400000 60.3145 221.455 55.7548 0.69995 0.0255621
1400200 60.3145 221.468 55.7548 0.70005 0.0310057
1400400 60.3145 221.481 55.7548 0.70015 0.00462025
1400600 60.3145 221.494 55.7548 0.70025 0.020582
1400800 60.3145 221.507 55.7548 0.70035 0.0179346
1401000 60.3145 221.52 55.7548 0.70045 0.0220009
1401200 60.3145 221.533 55.7548 0.70055 0.0283932
1401400 60.3145 221.546 55.7548 0.70065 0.000563731
1401600 60.3145 221.559 55.7548 0.70075 0.00325039
1401800 60.3145 221.572 55.7548 0.70085 -0.0211918
1402000 60.3145 221.585 55.7548 0.70095 -0.0086494
1402200 60.3145 221.598 55.7548 0.70105 -0.0169518
1402400 60.3145 221.611 55.7548 0.70115 -0.0159985
1402600 60.3145 221.624 55.7548 0.70125 -0.00738027
1402800 60.3145 221.637 55.7548 0.70135 -0.0112265
1403000 60.3145 221.65 55.7548 0.70145 0.00359882
1403200 60.3145 221.663 55.7548 0.70155 -0.0243292
1403400 60.3145 221.676 55.7548 0.70165 0.000707662
1403600 60.3145 221.689 55.7548 0.70175 0.0111456
1403800 60.3145 221.702 55.7548 0.70185 -0.00482644
1404000 60.3145 221.715 55.7548 0.70195 0.0458888
1404200 60.3145 221.728 55.7548 0.70205 0.012851
1404400 60.3145 221.741 55.7548 0.70215 0.0331598
1404600 60.3145 221.754 55.7548 0.70225 0.0124312
1404800 60.3145 221.767 55.7548 0.70235 0.0171085
1405000 60.3145 221.78 55.7548 0.70245 0.0178376
1405200 60.3145 221.793 55.7548 0.70255 0.0292856
1405400 60.3145 221.806 55.7548 0.70265 -0.00368979
1405600 60.3145 221.819 55.7548 0.70275 -0.00192316
1405800 60.3145 221.832 55.7548 0.70285 -0.00279961
1406000 60.3145 221.845 55.7548 0.70295 -0.0199413
1406200 60.3145 221.859 55.7548 0.70305 -0.0212942
1406400 60.3145 221.872 55.7548 0.70315 -0.0210744
1406600 60.3145 221.885 55.7548 0.70325 -0.00353012
1406800 60.3145 221.898 55.7548 0.70335 -0.0277629
1407000 60.3145 221.911 55.7548 0.70345 -0.00681441
1407200 60.3145 221.924 55.7548 0.70355 -0.0025399
1407400 60.3145 221.937 55.7548 0.70365 0.00223827
1407600 60.3145 221.95 55.7548 0.70375 0.0243975
1407800 60.3145 221.963 55.7548 0.70385 0.00859916
1408000 60.3145 221.976 55.7548 0.70395 0.0289071
1408200 60.3145 221.989 55.7548 0.70405 0.01026
1408400 60.3145 222.002 55.7548 0.70415 0.0246224
1408600 60.3145 222.015 55.7548 0.70425 0.0382923
1408800 60.3145 222.028 55.7548 0.70435 0.0196986
1409000 60.3145 222.041 55.7548 0.70445 0.0207761
1409200 60.3145 222.054 55.7548 0.70455 0.0135231
1409400 60.3145 222.067 55.7548 0.70465 -0.0163414
1409600 60.3145 222.08 55.7548 0.70475 0.00608871
1409800 60.3145 222.093 55.7548 0.70485 -0.0222656
1410000 60.3145 222.106 55.7548 0.70495 -0.00878169
1410200 60.3145 222.119 55.7548 0.70505 -0.00476577
1410400 60.3145 222.132 55.7548 0.70515 -0.0181654
1410600 60.3145 222.145 55.7548 0.70525 -0.0146981
1410800 60.3145 222.158 55.7548 0.70535 -0.0215973
1411000 60.3145 222.171 55.7548 0.70545 -0.00504274
1411200 60.3145 222.184 55.7548 0.70555 -0.0141446
1411400 60.3145 222.197 55.7548 0.70565 0.0226383
1411600 60.3145 222.21 55.7548 0.70575 0.0222725
1411800 60.3145 222.223 55.7548 0.70585 0.0133468
1412000 60.3145 222.236 55.7548 0.70595 0.0243792
1412200 60.3145 222.249 55.7548 0.70605 0.0252583
1412400 60.3145 222.262 55.7548 0.70615 0.00905939
1412600 60.3145 222.275 55.7548 0.70625 0.0330274
1412800 60.3145 222.288 55.7548 0.70635 0.00366353
1413000 60.3145 222.301 55.7548 0.70645 0.0162676
1413200 60.3145 222.314 55.7548 0.70655 0.000582559
1413400 60.3145 222.327 55.7548 0.70665 0.00817757
1413600 60.3145 222.341 55.7548 0.70675 -0.00652514
1413800 60.3145 222.354 55.7548 0.70685 -0.0242683
1414000 60.3145 222.367 55.7548 0.70695 -0.0172096
1414200 60.3145 222.38 55.7548 0.70705 0.000350626
1414400 60.3145 222.393 55.7548 0.70715 -0.0176468
1414600 60.3145 222.406 55.7548 0.70725 -0.0165418
1414800 60.3145 222.419 55.7548 0.70735 0.00649441
1415000 60.3145 222.432 55.7548 0.70745 -0.0137006
1415200 60.3145 222.445 55.7548 0.70755 0.011109
1415400 60.3145 222.458 55.7548 0.70765 0.0108581
1415600 60.3145 222.471 55.7548 0.70775 0.0117418
1415800 60.3145 222.484 55.7548 0.70785 0.0233851
1416000 60.3145 222.497 55.7548 0.70795 0.0297298
1416200 60.3145 222.51 55.7548 0.70805 0.0139016
1416400 60.3145 222.523 55.7548 0.70815 0.0135326
1416600 60.3145 222.536 55.7548 0.70825 0.0333506
1416800 60.3145 222.549 55.7548 0.70835 0.00375767
1417000 60.3145 222.562 55.7548 0.70845 0.0184505
1417200 60.3145 222.575 55.7548 0.70855 -0.00315241
1417400 60.3145 222.588 55.7548 0.70865 0.00260596
1417600 60.3145 222.601 55.7548 0.70875 -0.00565736
1417800 60.3145 222.614 55.7548 0.70885 -0.0184484
1418000 60.3145 222.627 55.7548 0.70895 -0.0245241
1418200 60.3145 222.64 55.7548 0.70905 -0.0204326
1418400 60.3145 222.653 55.7548 0.70915 -0.0098499
1418600 60.3145 222.666 55.7548 0.70925 -0.00601489
1418800 60.3145 222.679 55.7548 0.70935 -0.0199716
1419000 60.3145 222.692 55.7548 0.70945 0.00270743
1419200 60.3145 222.705 55.7548 0.70955 0.00678798
1419400 60.3145 222.718 55.7548 0.70965 0.00733906
1419600 60.3145 222.731 55.7548 0.70975 0.021177
1419800 60.3145 222.744 55.7548 0.70985 0.0282082
1420000 60.3145 222.757 55.7548 0.70995 0.0227259
1420200 60.3145 222.77 55.7548 0.71005 0.0399758
1420400 60.3145 222.783 55.7548 0.71015 0.0290556
1420600 60.3145 222.796 55.7548 0.71025 0.0132809
1420800 60.3145 222.809 55.7548 0.71035 -0.00089747
1421000 60.3145 222.823 55.7548 0.71045 0.00640451
1421200 60.3145 222.836 55.7548 0.71055 -0.00390135
1421400 60.3145 222.849 55.7548 0.71065 -0.000367625
1421600 60.3145 222.862 55.7548 0.71075 -0.00130314
1421800 60.3145 222.875 55.7548 0.71085 -0.00909207
1422000 60.3145 222.888 55.7548 0.71095 -0.0197954
1422200 60.3145 222.901 55.7548 0.71105 -0.0396021
1422400 60.3145 222.914 55.7548 0.71115 -0.0071753
1422600 60.3145 222.927 55.7548 0.71125 -0.0063965
1422800 60.3145 222.94 55.7548 0.71135 0.00982391
1423000 60.3145 222.953 55.7548 0.71145 -0.0218467
1423200 60.3145 222.966 55.7548 0.71155 0.00616577
1423400 60.3145 222.979 55.7548 0.71165 0.0299595
1423600 60.3145 222.992 55.7548 0.71175 0.0234185
1423800 60.3145 223.005 55.7548 0.71185 0.00653722
1424000 60.3145 223.018 55.7548 0.71195 0.0267504
1424200 60.3145 223.031 55.7548 0.71205 0.0280883
1424400 60.3145 223.044 55.7548 0.71215 0.0287144
1424600 60.3145 223.057 55.7548 0.71225 0.00422083
1424800 60.3145 223.07 55.7548 0.71235 0.0168892
1425000 60.3145 223.083 55.7548 0.71245 -0.00422634
1425200 60.3145 223.096 55.7548 0.71255 -0.0093009
1425400 60.3145 223.109 55.7548 0.71265 0.0126455
1425600 60.3145 223.122 55.7548 0.71275 -0.00831661
1425800 60.3145 223.135 55.7548 0.71285 -0.0155742
1426000 60.3145 223.148 55.7548 0.71295 -0.0102871
1426200 60.3145 223.161 55.7548 0.71305 -0.0065573
1426400 60.3145 223.174 55.7548 0.71315 -0.0143857
1426600 60.3145 223.187 55.7548 0.71325 -0.000644778
1426800 60.3145 223.2 55.7548 0.71335 -0.0188824
1427000 60.3145 223.213 55.7548 0.71345 0.00600336
1427200 60.3145 223.226 55.7548 0.71355 0.00302391
1427400 60.3145 223.239 55.7548 0.71365 0.00589709
1427600 60.3145 223.252 55.7548 0.71375 0.0106928
1427800 60.3145 223.265 55.7548 0.71385 0.0327977
1428000 60.3145 223.278 55.7548 0.71395 0.0167199
1428200 60.3145 223.291 55.7548 0.71405 0.024348
1428400 60.3145 223.305 55.7548 0.71415 0.00986333
1428600 60.3145 223.318 55.7548 0.71425 0.0188275
1428800 60.3145 223.331 55.7548 0.71435 0.00422978
1429000 60.3145 223.344 55.7548 0.71445 0.00907031
1429200 60.3145 223.357 55.7548 0.71455 0.0273347
1429400 60.3145 223.37 55.7548 0.71465 -0.01682
1429600 60.3145 223.383 55.7548 0.71475 -0.023767
1429800 60.3145 223.396 55.7548 0.71485 -0.0122596
1430000 60.3145 223.409 55.7548 0.71495 -0.0193051
1430200 60.3145 223.422 55.7548 0.71505 -0.000121802
1430400 60.3145 223.435 55.7548 0.71515 0.000560097
1430600 60.3145 223.448 55.7548 0.71525 -0.000458093
1430800 60.3145 223.461 55.7548 0.71535 0.0069116
1431000 60.3145 223.474 55.7548 0.71545 -0.0183955
1431200 60.3145 223.487 55.7548 0.71555 0.00199413
1431400 60.3145 223.5 55.7548 0.71565 0.00957849
1431600 60.3145 223.513 55.7548 0.71575 0.0208453
1431800 60.3145 223.526 55.7548 0.71585 0.0315854
1432000 60.3145 223.539 55.7548 0.71595 0.0273204
1432200 60.3145 223.552 55.7548 0.71605 0.00839965
1432400 60.3145 223.565 55.7548 0.71615 0.0106167
1432600 60.3145 223.578 55.7548 0.71625 0.0255811
1432800 60.3145 223.591 55.7548 0.71635 0.00701049
1433000 60.3145 223.604 55.7548 0.71645 0.0131113
1433200 60.3145 223.617 55.7548 0.71655 -0.0143509
1433400 60.3145 223.63 55.7548 0.71665 -0.00807284
1433600 60.3145 223.643 55.7548 0.71675 -0.0039626
1433800 60.3145 223.656 55.7548 0.71685 -0.0160445
1434000 60.3145 223.669 55.7548 0.71695 -0.0113541
1434200 60.3145 223.682 55.7548 0.71705 -0.00645101
1434400 60.3145 223.695 55.7548 0.71715 -0.0212173
1434600 60.3145 223.708 55.7548 0.71725 -0.00704097
1434800 60.3145 223.721 55.7548 0.71735 0.000300645
1435000 60.3145 223.734 55.7548 0.71745 0.02146
1435200 60.3145 223.747 55.7548 0.71755 0.0222327
1435400 60.3145 223.76 55.7548 0.71765 0.0122351
1435600 60.3145 223.773 55.7548 0.71775 0.00956194
1435800 60.3145 223.787 55.7548 0.71785 0.0242038
1436000 60.3145 223.8 55.7548 0.71795 0.0234769
1436200 60.3145 223.813 55.7548 0.71805 0.0228305
1436400 60.3145 223.826 55.7548 0.71815 -0.00179826
1436600 60.3145 223.839 55.7548 0.71825 0.0108941
1436800 60.3145 223.852 55.7548 0.71835 0.00886289
1437000 60.3145 223.865 55.7548 0.71845 -0.0130908
1437200 60.3145 223.878 55.7548 0.71855 -0.00162459
1437400 60.3145 223.891 55.7548 0.71865 -0.0122949
1437600 60.3145 223.904 55.7548 0.71875 -0.00647463
1437800 60.3145 223.917 55.7548 0.71885 -0.0150629
1438000 60.3145 223.93 55.7548 0.71895 -0.00733411
1438200 60.3145 223.943 55.7548 0.71905 -0.0132617
1438400 60.3145 223.956 55.7548 0.71915 -0.00616582
1438600 60.3145 223.969 55.7548 0.71925 0.0164059
1438800 60.3145 223.982 55.7548 0.71935 -0.0028708
1439000 60.3145 223.995 55.7548 0.71945 0.0201115
1439200 60.3145 224.008 55.7548 0.71955 0.010708
1439400 60.3145 224.021 55.7548 0.71965 0.0262095
1439600 60.3145 224.034 55.7548 0.71975 0.010725
1439800 60.3145 224.047 55.7548 0.71985 0.0195974
1440000 60.3145 224.06 55.7548 0.71995 0.016109
1440200 60.3145 224.073 55.7548 0.72005 0.0175823
1440400 60.3145 224.086 55.7548 0.72015 0.016186
1440600 60.3145 224.099 55.7548 0.72025 0.00636426
1440800 60.3145 224.112 55.7548 0.72035 -0.0124971
1441000 60.3145 224.125 55.7548 0.72045 0.00399289
1441200 60.3145 224.138 55.7548 0.72055 -0.0145961
1441400 60.3145 224.151 55.7548 0.72065 -0.00303907
1441600 60.3145 224.164 55.7548 0.72075 -0.0195728
1441800 60.3145 224.177 55.7548 0.72085 -0.00908734
1442000 60.3145 224.19 55.7548 0.72095 -0.0138799
1442200 60.3145 224.203 55.7548 0.72105 -0.000117428
1442400 60.3145 224.216 55.7548 0.72115 0.00441449
1442600 60.3145 224.229 55.7548 0.72125 0.0104541
1442800 60.3145 224.242 55.7548 0.72135 0.00664343
1443000 60.3145 224.255 55.7548 0.72145 -0.00531796
1443200 60.3145 224.269 55.7548 0.72155 0.0255725
1443400 60.3145 224.282 55.7548 0.72165 0.0176455
1443600 60.3145 224.295 55.7548 0.72175 0.0396196
1443800 60.3145 224.308 55.7548 0.72185 0.000244927
1444000 60.3145 224.321 55.7548 0.72195 0.0199326
1444200 60.3145 224.334 55.7548 0.72205 0.00370664
1444400 60.3145 224.347 55.7548 0.72215 0.000995579
1444600 60.3145 224.36 55.7548 0.72225 0.00724209
1444800 60.3145 224.373 55.7548 0.72235 0.00757627
1445000 60.3145 224.386 55.7548 0.72245 0.0075094
1445200 60.3145 224.399 55.7548 0.72255 -0.026596
1445400 60.3145 224.412 55.7548 0.72265 -0.00773466
1445600 60.3145 224.425 55.7548 0.72275 0.00806728
1445800 60.3145 224.438 55.7548 0.72285 -0.0265715
1446000 60.3145 224.451 55.7548 0.72295 -0.00157718
1446200 60.3145 224.464 55.7548 0.72305 -0.000663985
1446400 60.3145 224.477 55.7548 0.72315 -0.000101225
1446600 60.3145 224.49 55.7548 0.72325 0.0184042
1446800 60.3145 224.503 55.7548 0.72335 0.00553586
1447000 60.3145 224.516 55.7548 0.72345 0.00414306
1447200 60.3145 224.529 55.7548 0.72355 0.0181036
1447400 60.3145 224.542 55.7548 0.72365 0.0151643
1447600 60.3145 224.555 55.7548 0.72375 0.0115805
1447800 60.3145 224.568 55.7548 0.72385 0.0189709
1448000 60.3145 224.581 55.7548 0.72395 0.00737296
1448200 60.3145 224.594 55.7548 0.72405 0.00902901
1448400 60.3145 224.607 55.7548 0.72415 -0.00279163
1448600 60.3145 224.62 55.7548 0.72425 -0.00322433
1448800 60.3145 224.633 55.7548 0.72435 0.00323028
1449000 60.3145 224.646 55.7548 0.72445 0.00446142
1449200 60.3145 224.659 55.7548 0.72455 0.00501392
1449400 60.3145 224.672 55.7548 0.72465 0.0172474
1449600 60.3145 224.685 55.7548 0.72475 -0.0147972
1449800 60.3145 224.698 55.7548 0.72485 -0.0188293
1450000 60.3145 224.711 55.7548 0.72495 0.000904851
1450200 60.3145 224.724 55.7548 0.72505 0.000540765
1450400 60.3145 224.738 55.7548 0.72515 0.00757653
1450600 60.3145 224.751 55.7548 0.72525 0.0181055
1450800 60.3145 224.764 55.7548 0.72535 -0.00498951
1451000 60.3145 224.777 55.7548 0.72545 0.000883465
1451200 60.3145 224.79 55.7548 0.72555 0.00591364
1451400 60.3145 224.803 55.7548 0.72565 0.00419523
1451600 60.3145 224.816 55.7548 0.72575 0.02825
1451800 60.3145 224.829 55.7548 0.72585 0.0139534
1452000 60.3145 224.842 55.7548 0.72595 0.0156657
1452200 60.3145 224.855 55.7548 0.72605 0.00846245
1452400 60.3145 224.868 55.7548 0.72615 -0.00953707
1452600 60.3145 224.881 55.7548 0.72625 -0.0128505
1452800 60.3145 224.894 55.7548 0.72635 0.00401761
1453000 60.3145 224.907 55.7548 0.72645 0.00327055
1453200 60.3145 224.92 55.7548 0.72655 0.00502112
1453400 60.3145 224.933 55.7548 0.72665 0.00294645
1453600 60.3145 224.946 55.7548 0.72675 0.00323146
1453800 60.3145 224.959 55.7548 0.72685 -0.00821086
1454000 60.3145 224.972 55.7548 0.72695 0.00826708
1454200 60.3145 224.985 55.7548 0.72705 0.00747568
1454400 60.3145 224.998 55.7548 0.72715 -0.000392575
1454600 60.3145 225.011 55.7548 0.72725 0.00299848
1454800 60.3145 225.024 55.7548 0.72735 0.0257945
1455000 60.3145 225.037 55.7548 0.72745 0.013732
1455200 60.3145 225.05 55.7548 0.72755 0.00974528
1455400 60.3145 225.063 55.7548 0.72765 -0.00431081
1455600 60.3145 225.076 55.7548 0.72775 0.00461233
1455800 60.3145 225.089 55.7548 0.72785 0.00964383
1456000 60.3145 225.102 55.7548 0.72795 0.00316423
1456200 60.3145 225.115 55.7548 0.72805 -0.00196028
1456400 60.3145 225.128 55.7548 0.72815 0.00927107
1456600 60.3145 225.141 55.7548 0.72825 -0.00310314
1456800 60.3145 225.154 55.7548 0.72835 -0.0247372
1457000 60.3145 225.167 55.7548 0.72845 0.00902802
1457200 60.3145 225.18 55.7548 0.72855 -0.00355539
1457400 60.3145 225.193 55.7548 0.72865 0.00107856
1457600 60.3145 225.206 55.7548 0.72875 0.00866634
1457800 60.3145 225.22 55.7548 0.72885 0.0162461
1458000 60.3145 225.233 55.7548 0.72895 0.0135145
1458200 60.3145 225.246 55.7548 0.72905 0.0029026
1458400 60.3145 225.259 55.7548 0.72915 -0.00133895
1458600 60.3145 225.272 55.7548 0.72925 0.0172307
1458800 60.3145 225.285 55.7548 0.72935 0.00977637
1459000 60.3145 225.298 55.7548 0.72945 0.0150155
1459200 60.3145 225.311 55.7548 0.72955 0.0203207
1459400 60.3145 225.324 55.7548 0.72965 -0.0108322
1459600 60.3145 225.337 55.7548 0.72975 -0.005237
1459800 60.3145 225.35 55.7548 0.72985 -0.00919252
1460000 60.3145 225.363 55.7548 0.72995 0.0116166
1460200 60.3145 225.376 55.7548 0.73005 0.012027
1460400 60.3145 225.389 55.7548 0.73015 -0.00527497
1460600 60.3145 225.402 55.7548 0.73025 0.0057833
1460800 60.3145 225.415 55.7548 0.73035 0.00447388
1461000 60.3145 225.428 55.7548 0.73045 0.00131446
1461200 60.3145 225.441 55.7548 0.73055 -0.00279326
1461400 60.3145 225.454 55.7548 0.73065 -0.00339395
1461600 60.3145 225.467 55.7548 0.73075 0.0118275
1461800 60.3145 225.48 55.7548 0.73085 0.00465707
1462000 60.3145 225.493 55.7548 0.73095 0.0243224
1462200 60.3145 225.506 55.7548 0.73105 0.00751479
1462400 60.3145 225.519 55.7548 0.73115 0.00810283
1462600 60.3145 225.532 55.7548 0.73125 -0.00900733
1462800 60.3145 225.545 55.7548 0.73135 -0.00335529
1463000 60.3145 225.558 55.7548 0.73145 0.00206083
1463200 60.3145 225.571 55.7548 0.73155 0.00810912
1463400 60.3145 225.584 55.7548 0.73165 0.0187797
1463600 60.3145 225.597 55.7548 0.73175 0.00279288
1463800 60.3145 225.61 55.7548 0.73185 -0.00656439
1464000 60.3145 225.623 55.7548 0.73195 -0.0128329
1464200 60.3145 225.636 55.7548 0.73205 -0.00286162
1464400 60.3145 225.649 55.7548 0.73215 -0.000276016
1464600 60.3145 225.662 55.7548 0.73225 0.0264072
1464800 60.3145 225.675 55.7548 0.73235 0.0334105
1465000 60.3145 225.688 55.7548 0.73245 -0.00039703
1465200 60.3145 225.702 55.7548 0.73255 0.00286784
1465400 60.3145 225.715 55.7548 0.73265 0.00502539
1465600 60.3145 225.728 55.7548 0.73275 -0.00790126
1465800 60.3145 225.741 55.7548 0.73285 -0.00509948
1466000 60.3145 225.754 55.7548 0.73295 0.00338274
1466200 60.3145 225.767 55.7548 0.73305 0.012241
1466400 60.3145 225.78 55.7548 0.73315 0.00399861
1466600 60.3145 225.793 55.7548 0.73325 0.00754095
1466800 60.3145 225.806 55.7548 0.73335 -0.0120493
1467000 60.3145 225.819 55.7548 0.73345 0.006191
1467200 60.3145 225.832 55.7548 0.73355 0.00682465
1467400 60.3145 225.845 55.7548 0.73365 -0.010078
1467600 60.3145 225.858 55.7548 0.73375 0.0174432
1467800 60.3145 225.871 55.7548 0.73385 0.0280985
1468000 60.3145 225.884 55.7548 0.73395 0.00704812
1468200 60.3145 225.897 55.7548 0.73405 0.000395109
1468400 60.3145 225.91 55.7548 0.73415 0.0125916
1468600 60.3145 225.923 55.7548 0.73425 -0.00796045
1468800 60.3145 225.936 55.7548 0.73435 0.0113479
1469000 60.3145 225.949 55.7548 0.73445 0.0101842
1469200 60.3145 225.962 55.7548 0.73455 0.0290639
1469400 60.3145 225.975 55.7548 0.73465 -0.00449895
1469600 60.3145 225.988 55.7548 0.73475 -0.0237367
1469800 60.3145 226.001 55.7548 0.73485 -0.00694608
1470000 60.3145 226.014 55.7548 0.73495 0.0018333
1470200 60.3145 226.027 55.7548 0.73505 -0.00586647
1470400 60.3145 226.04 55.7548 0.73515 0.00360391
1470600 60.3145 226.053 55.7548 0.73525 0.0100331
1470800 60.3145 226.066 55.7548 0.73535 0.00251747
1471000 60.3145 226.079 55.7548 0.73545 0.00189343
1471200 60.3145 226.092 55.7548 0.73555 -0.00325564
1471400 60.3145 226.105 55.7548 0.73565 0.00943652
1471600 60.3145 226.118 55.7548 0.73575 0.0139147
1471800 60.3145 226.131 55.7548 0.73585 0.016721
1472000 60.3145 226.144 55.7548 0.73595 0.0334874
1472200 60.3145 226.157 55.7548 0.73605 0.00732741
1472400 60.3145 226.17 55.7548 0.73615 -0.00235243
1472600 60.3145 226.184 55.7548 0.73625 0.00620858
1472800 60.3145 226.197 55.7548 0.73635 -0.00734767
1473000 60.3145 226.21 55.7548 0.73645 0.0194322
1473200 60.3145 226.223 55.7548 0.73655 0.0103605
1473400 60.3145 226.236 55.7548 0.73665 -0.00792139
1473600 60.3145 226.249 55.7548 0.73675 0.00328893
1473800 60.3145 226.262 55.7548 0.73685 -0.00875871
1474000 60.3145 226.275 55.7548 0.73695 -0.0174371
1474200 60.3145 226.288 55.7548 0.73705 -0.0123442
1474400 60.3145 226.301 55.7548 0.73715 0.0042004
1474600 60.3145 226.314 55.7548 0.73725 0.0160305
1474800 60.3145 226.327 55.7548 0.73735 0.00140378
1475000 60.3145 226.34 55.7548 0.73745 0.00743212
1475200 60.3145 226.353 55.7548 0.73755 0.0176792
1475400 60.3145 226.366 55.7548 0.73765 -0.0161259
1475600 60.3145 226.379 55.7548 0.73775 -0.00123532
1475800 60.3145 226.392 55.7548 0.73785 0.0355056
1476000 60.3145 226.405 55.7548 0.73795 0.0405163
1476200 60.3145 226.418 55.7548 0.73805 0.0127222
1476400 60.3145 226.431 55.7548 0.73815 0.00683784
1476600 60.3145 226.444 55.7548 0.73825 -0.00470145
1476800 60.3145 226.457 55.7548 0.73835 0.0080897
1477000 60.3145 226.47 55.7548 0.73845 -0.0145225
1477200 60.3145 226.483 55.7548 0.73855 0.00137695
1477400 60.3145 226.496 55.7548 0.73865 0.00461115
1477600 60.3145 226.509 55.7548 0.73875 0.00686688
1477800 60.3145 226.522 55.7548 0.73885 -0.0206458
1478000 60.3145 226.535 55.7548 0.73895 -0.0188762
1478200 60.3145 226.548 55.7548 0.73905 -0.0120569
1478400 60.3145 226.561 55.7548 0.73915 0.00711243
1478600 60.3145 226.574 55.7548 0.73925 0.000829286
1478800 60.3145 226.587 55.7548 0.73935 0.0265377
1479000 60.3145 226.6 55.7548 0.73945 0.0142335
1479200 60.3145 226.613 55.7548 0.73955 0.0121351
1479400 60.3145 226.626 55.7548 0.73965 0.00772172
1479600 60.3145 226.639 55.7548 0.73975 0.0147656
1479800 60.3145 226.652 55.7548 0.73985 0.0194395
1480000 60.3145 226.666 55.7548 0.73995 0.0183069
1480200 60.3145 226.679 55.7548 0.74005 0.0233865
1480400 60.3145 226.692 55.7548 0.74015 0.010693
1480600 60.3145 226.705 55.7548 0.74025 -0.00355834
1480800 60.3145 226.718 55.7548 0.74035 -0.0101212
1481000 60.3145 226.731 55.7548 0.74045 -0.0095403
1481200 60.3145 226.744 55.7548 0.74055 -0.00814089
1481400 60.3145 226.757 55.7548 0.74065 -0.00905111
1481600 60.3145 226.77 55.7548 0.74075 0.00713441
1481800 60.3145 226.783 55.7548 0.74085 -0.00817372
1482000 60.3145 226.796 55.7548 0.74095 -0.00988932
1482200 60.3145 226.809 55.7548 0.74105 -0.0103202
1482400 60.3145 226.822 55.7548 0.74115 0.00740434
1482600 60.3145 226.835 55.7548 0.74125 0.010056
1482800 60.3145 226.848 55.7548 0.74135 0.0138306
1483000 60.3145 226.861 55.7548 0.74145 0.0219186
1483200 60.3145 226.874 55.7548 0.74155 0.00245546
1483400 60.3145 226.887 55.7548 0.74165 0.020519
1483600 60.3145 226.9 55.7548 0.74175 0.00523495
1483800 60.3145 226.913 55.7548 0.74185 0.0127168
1484000 60.3145 226.926 55.7548 0.74195 0.0243122
1484200 60.3145 226.939 55.7548 0.74205 0.0205695
1484400 60.3145 226.952 55.7548 0.74215 0.00806957
1484600 60.3145 226.965 55.7548 0.74225 -0.00499289
1484800 60.3145 226.978 55.7548 0.74235 0.00395748
1485000 60.3145 226.991 55.7548 0.74245 -0.0121041
1485200 60.3145 227.004 55.7548 0.74255 -0.0121289
1485400 60.3145 227.017 55.7548 0.74265 -0.00424468
1485600 60.3145 227.03 55.7548 0.74275 -0.00749202
1485800 60.3145 227.043 55.7548 0.74285 -0.0112987
1486000 60.3145 227.056 55.7548 0.74295 -0.0065106
1486200 60.3145 227.069 55.7548 0.74305 -0.00795637
1486400 60.3145 227.082 55.7548 0.74315 -0.0111284
1486600 60.3145 227.095 55.7548 0.74325 0.0208993
1486800 60.3145 227.108 55.7548 0.74335 0.0129038
1487000 60.3145 227.121 55.7548 0.74345 0.02267
1487200 60.3145 227.134 55.7548 0.74355 0.0323844
1487400 60.3145 227.148 55.7548 0.74365 0.0103624
1487600 60.3145 227.161 55.7548 0.74375 0.0209205
1487800 60.3145 227.174 55.7548 0.74385 0.0227742
1488000 60.3145 227.187 55.7548 0.74395 0.0157505
1488200 60.3145 227.2 55.7548 0.74405 0.0128309
1488400 60.3145 227.213 55.7548 0.74415 -0.000392718
1488600 60.3145 227.226 55.7548 0.74425 0.00590521
1488800 60.3145 227.239 55.7548 0.74435 -0.00453508
1489000 60.3145 227.252 55.7548 0.74445 -0.0128082
1489200 60.3145 227.265 55.7548 0.74455 -0.019674
1489400 60.3145 227.278 55.7548 0.74465 -0.00796486
1489600 60.3145 227.291 55.7548 0.74475 -0.00940292
1489800 60.3145 227.304 55.7548 0.74485 -0.00602982
1490000 60.3145 227.317 55.7548 0.74495 0.00526393
1490200 60.3145 227.33 55.7548 0.74505 -0.010581
1490400 60.3145 227.343 55.7548 0.74515 -0.0110392
1490600 60.3145 227.356 55.7548 0.74525 0.000209165
1490800 60.3145 227.369 55.7548 0.74535 0.0283236
1491000 60.3145 227.382 55.7548 0.74545 0.0256316
1491200 60.3145 227.395 55.7548 0.74555 0.0166248
1491400 60.3145 227.408 55.7548 0.74565 0.0277694
1491600 60.3145 227.421 55.7548 0.74575 0.0233204
1491800 60.3145 227.434 55.7548 0.74585 0.0125947
1492000 60.3145 227.447 55.7548 0.74595 -0.00156504
1492200 60.3145 227.46 55.7548 0.74605 0.00401279
1492400 60.3145 227.473 55.7548 0.74615 0.0293151
1492600 60.3145 227.486 55.7548 0.74625 0.00768713
1492800 60.3145 227.499 55.7548 0.74635 -0.00628083
1493000 60.3145 227.512 55.7548 0.74645 -0.0281035
1493200 60.3145 227.525 55.7548 0.74655 -0.0122509
1493400 60.3145 227.538 55.7548 0.74665 -0.0107322
1493600 60.3145 227.551 55.7548 0.74675 -0.0030131
1493800 60.3145 227.564 55.7548 0.74685 -0.00970405
1494000 60.3145 227.577 55.7548 0.74695 0.00763945
1494200 60.3145 227.59 55.7548 0.74705 0.00986596
1494400 60.3145 227.603 55.7548 0.74715 -0.00800633
1494600 60.3145 227.616 55.7548 0.74725 0.0164652
1494800 60.3145 227.63 55.7548 0.74735 -0.0213863
1495000 60.3145 227.643 55.7548 0.74745 0.0141779
1495200 60.3145 227.656 55.7548 0.74755 0.0352695
1495400 60.3145 227.669 55.7548 0.74765 0.0230104
1495600 60.3145 227.682 55.7548 0.74775 0.0254233
1495800 60.3145 227.695 55.7548 0.74785 0.0205487
1496000 60.3145 227.708 55.7548 0.74795 -0.0118282
1496200 60.3145 227.721 55.7548 0.74805 0.00371489
1496400 60.3145 227.734 55.7548 0.74815 0.0169978
1496600 60.3145 227.747 55.7548 0.74825 0.00339763
1496800 60.3145 227.76 55.7548 0.74835 0.0140865
1497000 60.3145 227.773 55.7548 0.74845 -0.0185431
1497200 60.3145 227.786 55.7548 0.74855 -0.00380873
1497400 60.3145 227.799 55.7548 0.74865 -0.0117291
1497600 60.3145 227.812 55.7548 0.74875 -0.00663457
1497800 60.3145 227.825 55.7548 0.74885 -0.00429172
1498000 60.3145 227.838 55.7548 0.74895 -0.0134205
1498200 60.3145 227.851 55.7548 0.74905 0.012662
1498400 60.3145 227.864 55.7548 0.74915 0.00674971
1498600 60.3145 227.877 55.7548 0.74925 0.00345801
1498800 60.3145 227.89 55.7548 0.74935 -0.00583568
1499000 60.3145 227.903 55.7548 0.74945 0.0201343
1499200 60.3145 227.916 55.7548 0.74955 0.0151677
1499400 60.3145 227.929 55.7548 0.74965 0.0104588
1499600 60.3145 227.942 55.7548 0.74975 0.0296413
1499800 60.3145 227.955 55.7548 0.74985 0.0192977
1500000 60.3145 227.968 55.7548 0.74995 0.00520469
1500200 60.3145 227.981 55.7548 0.75005 0.00881258
1500400 60.3145 227.994 55.7548 0.75015 0.0098419
1500600 60.3145 228.007 55.7548 0.75025 -0.0218294
1500800 60.3145 228.02 55.7548 0.75035 0.00915509
1501000 60.3145 228.033 55.7548 0.75045 0.0126429
1501200 60.3145 228.046 55.7548 0.75055 -0.0135995
1501400 60.3145 228.059 55.7548 0.75065 -0.0144955
1501600 60.3145 228.072 55.7548 0.75075 -0.0105411
1501800 60.3145 228.085 55.7548 0.75085 -0.00471909
1502000 60.3145 228.099 55.7548 0.75095 0.00209095
1502200 60.3145 228.112 55.7548 0.75105 0.00831643
1502400 60.3145 228.125 55.7548 0.75115 0.00673146
1502600 60.3145 228.138 55.7548 0.75125 0.0179459
1502800 60.3145 228.151 55.7548 0.75135 0.0102493
1503000 60.3145 228.164 55.7548 0.75145 0.00862393
1503200 60.3145 228.177 55.7548 0.75155 0.0130376
1503400 60.3145 228.19 55.7548 0.75165 0.0172143
1503600 60.3145 228.203 55.7548 0.75175 0.00673282
1503800 60.3145 228.216 55.7548 0.75185 0.00948108
1504000 60.3145 228.229 55.7548 0.75195 0.0127976
1504200 60.3145 228.242 55.7548 0.75205 0.00853683
1504400 60.3145 228.255 55.7548 0.75215 -0.0138912
1504600 60.3145 228.268 55.7548 0.75225 0.0216045
1504800 60.3145 228.281 55.7548 0.75235 -0.011304
1505000 60.3145 228.294 55.7548 0.75245 -0.00091777
1505200 60.3145 228.307 55.7548 0.75255 -0.0165038
1505400 60.3145 228.32 55.7548 0.75265 0.0113538
1505600 60.3145 228.333 55.7548 0.75275 -0.00859574
1505800 60.3145 228.346 55.7548 0.75285 -0.0116266
1506000 60.3145 228.359 55.7548 0.75295 -0.00419249
1506200 60.3145 228.372 55.7548 0.75305 0.0136639
1506400 60.3145 228.385 55.7548 0.75315 0.00831385
1506600 60.3145 228.398 55.7548 0.75325 0.00535682
1506800 60.3145 228.411 55.7548 0.75335 0.00586067
1507000 60.3145 228.424 55.7548 0.75345 0.00556478
1507200 60.3145 228.437 55.7548 0.75355 0.0296604
1507400 60.3145 228.45 55.7548 0.75365 0.0090731
1507600 60.3145 228.463 55.7548 0.75375 0.0292101
1507800 60.3145 228.476 55.7548 0.75385 0.00311026
1508000 60.3145 228.489 55.7548 0.75395 -0.00392456
1508200 60.3145 228.502 55.7548 0.75405 0.000397708
1508400 60.3145 228.515 55.7548 0.75415 0.021191
1508600 60.3145 228.528 55.7548 0.75425 0.0101464
1508800 60.3145 228.541 55.7548 0.75435 -0.0206955
1509000 60.3145 228.554 55.7548 0.75445 0.00454363
1509200 60.3145 228.567 55.7548 0.75455 -0.000416614
1509400 60.3145 228.581 55.7548 0.75465 -0.00280656
1509600 60.3145 228.594 55.7548 0.75475 -0.021582
1509800 60.3145 228.607 55.7548 0.75485 -0.0105743
1510000 60.3145 228.62 55.7548 0.75495 0.0102692
1510200 60.3145 228.633 55.7548 0.75505 0.0107574
1510400 60.3145 228.646 55.7548 0.75515 0.00709737
1510600 60.3145 228.659 55.7548 0.75525 0.0100853
1510800 60.3145 228.672 55.7548 0.75535 -2.14956e-05
1511000 60.3145 228.685 55.7548 0.75545 0.00322764
1511200 60.3145 228.698 55.7548 0.75555 0.0207788
1511400 60.3145 228.711 55.7548 0.75565 0.0338905
1511600 60.3145 228.724 55.7548 0.75575 0.0115296
1511800 60.3145 228.737 55.7548 0.75585 -0.00279242
1512000 60.3145 228.75 55.7548 0.75595 0.00389914
1512200 60.3145 228.763 55.7548 0.75605 0.000705008
1512400 60.3145 228.776 55.7548 0.75615 -0.00016625
1512600 60.3145 228.789 55.7548 0.75625 0.00518835
1512800 60.3145 228.802 55.7548 0.75635 -0.00293312
1513000 60.3145 228.815 55.7548 0.75645 0.0134254
1513200 60.3145 228.828 55.7548 0.75655 -0.0109332
1513400 60.3145 228.841 55.7548 0.75665 0.000468402
1513600 60.3145 228.854 55.7548 0.75675 -0.0181536
1513800 60.3145 228.867 55.7548 0.75685 -0.00214347
1514000 60.3145 228.88 55.7548 0.75695 0.0327479
1514200 60.3145 228.893 55.7548 0.75705 -0.00253325
1514400 60.3145 228.906 55.7548 0.75715 0.0123197
1514600 60.3145 228.919 55.7548 0.75725 -0.0132364
1514800 60.3145 228.932 55.7548 0.75735 0.0102675
1515000 60.3145 228.945 55.7548 0.75745 0.0101349
1515200 60.3145 228.958 55.7548 0.75755 0.00979334
1515400 60.3145 228.971 55.7548 0.75765 0.0173658
1515600 60.3145 228.984 55.7548 0.75775 0.00538377
1515800 60.3145 228.997 55.7548 0.75785 0.00531485
1516000 60.3145 229.01 55.7548 0.75795 0.00421352
1516200 60.3145 229.023 55.7548 0.75805 0.00160113
1516400 60.3145 229.036 55.7548 0.75815 0.00177311
1516600 60.3145 229.049 55.7548 0.75825 0.0225722
1516800 60.3145 229.063 55.7548 0.75835 -0.0038436
1517000 60.3145 229.076 55.7548 0.75845 0.00489368
1517200 60.3145 229.089 55.7548 0.75855 -0.0044724
1517400 60.3145 229.102 55.7548 0.75865 -0.00580791
1517600 60.3145 229.115 55.7548 0.75875 0.00443829
1517800 60.3145 229.128 55.7548 0.75885 -0.00446073
1518000 60.3145 229.141 55.7548 0.75895 0.00590371
1518200 60.3145 229.154 55.7548 0.75905 -0.00955406
1518400 60.3145 229.167 55.7548 0.75915 0.0117104
1518600 60.3145 229.18 55.7548 0.75925 0.0237625
1518800 60.3145 229.193 55.7548 0.75935 -0.00598169
1519000 60.3145 229.206 55.7548 0.75945 0.0117684
1519200 60.3145 229.219 55.7548 0.75955 0.00511235
1519400 60.3145 229.232 55.7548 0.75965 0.00710715
1519600 60.3145 229.245 55.7548 0.75975 0.00736732
1519800 60.3145 229.258 55.7548 0.75985 0.000690123
1520000 60.3145 229.271 55.7548 0.75995 0.00490302
1520200 60.3145 229.284 55.7548 0.76005 0.0144136
1520400 60.3145 229.297 55.7548 0.76015 0.00982554
1520600 60.3145 229.31 55.7548 0.76025 -0.0261127
1520800 60.3145 229.323 55.7548 0.76035 0.0175435
1521000 60.3145 229.336 55.7548 0.76045 0.00031161
1521200 60.3145 229.349 55.7548 0.76055 0.016257
1521400 60.3145 229.362 55.7548 0.76065 -0.00219378
1521600 60.3145 229.375 55.7548 0.76075 -0.00360235
1521800 60.3145 229.388 55.7548 0.76085 0.00468294
1522000 60.3145 229.401 55.7548 0.76095 -0.00448505
1522200 60.3145 229.414 55.7548 0.76105 0.00430536
1522400 60.3145 229.427 55.7548 0.76115 -0.0122811
1522600 60.3145 229.44 55.7548 0.76125 0.0162577
1522800 60.3145 229.453 55.7548 0.76135 0.0126144
1523000 60.3145 229.466 55.7548 0.76145 0.00352722
1523200 60.3145 229.479 55.7548 0.76155 0.0202526
1523400 60.3145 229.492 55.7548 0.76165 -0.00808158
1523600 60.3145 229.505 55.7548 0.76175 0.0209896
1523800 60.3145 229.518 55.7548 0.76185 0.00217638
1524000 60.3145 229.531 55.7548 0.76195 0.0246454
1524200 60.3145 229.545 55.7548 0.76205 0.000680251
1524400 60.3145 229.558 55.7548 0.76215 0.0123872
1524600 60.3145 229.571 55.7548 0.76225 0.00297256
1524800 60.3145 229.584 55.7548 0.76235 -0.00609532
1525000 60.3145 229.597 55.7548 0.76245 -0.019501
1525200 60.3145 229.61 55.7548 0.76255 0.00328804
1525400 60.3145 229.623 55.7548 0.76265 -0.00688275
1525600 60.3145 229.636 55.7548 0.76275 0.00907673
1525800 60.3145 229.649 55.7548 0.76285 0.0139102
1526000 60.3145 229.662 55.7548 0.76295 -0.000849623
1526200 60.3145 229.675 55.7548 0.76305 -0.00830491
1526400 60.3145 229.688 55.7548 0.76315 0.0103551
1526600 60.3145 229.701 55.7548 0.76325 -0.00706132
1526800 60.3145 229.714 55.7548 0.76335 0.00378953
1527000 60.3145 229.727 55.7548 0.76345 0.0112238
1527200 60.3145 229.74 55.7548 0.76355 0.0131952
1527400 60.3145 229.753 55.7548 0.76365 0.0152156
1527600 60.3145 229.766 55.7548 0.76375 -0.000309068
1527800 60.3145 229.779 55.7548 0.76385 0.0118098
1528000 60.3145 229.792 55.7548 0.76395 0.00721074
1528200 60.3145 229.805 55.7548 0.76405 0.00250344
1528400 60.3145 229.818 55.7548 0.76415 0.0170422
1528600 60.3145 229.831 55.7548 0.76425 0.0202539
1528800 60.3145 229.844 55.7548 0.76435 -0.00313266
1529000 60.3145 229.857 55.7548 0.76445 -0.00105428
1529200 60.3145 229.87 55.7548 0.76455 0.00677612
1529400 60.3145 229.883 55.7548 0.76465 -0.0265698
1529600 60.3145 229.896 55.7548 0.76475 0.0220281
1529800 60.3145 229.909 55.7548 0.76485 -0.0178238
1530000 60.3145 229.922 55.7548 0.76495 -0.0109155
1530200 60.3145 229.935 55.7548 0.76505 0.0109068
1530400 60.3145 229.948 55.7548 0.76515 0.00131326
1530600 60.3145 229.961 55.7548 0.76525 0.00684018
1530800 60.3145 229.974 55.7548 0.76535 0.00530179
1531000 60.3145 229.987 55.7548 0.76545 -0.00154787
1531200 60.3145 230 55.7548 0.76555 0.0197059
1531400 60.3145 230.013 55.7548 0.76565 0.00313579
1531600 60.3145 230.027 55.7548 0.76575 0.0129743
1531800 60.3145 230.04 55.7548 0.76585 -0.00441897
1532000 60.3145 230.053 55.7548 0.76595 0.0215782
1532200 60.3145 230.066 55.7548 0.76605 0.0151436
1532400 60.3145 230.079 55.7548 0.76615 0.00640588
1532600 60.3145 230.092 55.7548 0.76625 0.00168479
1532800 60.3145 230.105 55.7548 0.76635 -0.015722
1533000 60.3145 230.118 55.7548 0.76645 0.0171867
1533200 60.3145 230.131 55.7548 0.76655 0.00120436
1533400 60.3145 230.144 55.7548 0.76665 0.00887366
1533600 60.3145 230.157 55.7548 0.76675 -0.00638847
1533800 60.3145 230.17 55.7548 0.76685 -0.000921567
1534000 60.3145 230.183 55.7548 0.76695 -0.0033209
1534200 60.3145 230.196 55.7548 0.76705 -0.0057204
1534400 60.3145 230.209 55.7548 0.76715 -0.010385
1534600 60.3145 230.222 55.7548 0.76725 0.00141828
1534800 60.3145 230.235 55.7548 0.76735 0.0137096
1535000 60.3145 230.248 55.7548 0.76745 0.0155223
1535200 60.3145 230.261 55.7548 0.76755 0.0139009
1535400 60.3145 230.274 55.7548 0.76765 0.0153866
1535600 60.3145 230.287 55.7548 0.76775 0.00843367
1535800 60.3145 230.3 55.7548 0.76785 0.0215219
1536000 60.3145 230.313 55.7548 0.76795 0.00492585
1536200 60.3145 230.326 55.7548 0.76805 0.00292964
1536400 60.3145 230.339 55.7548 0.76815 0.0121278
1536600 60.3145 230.352 55.7548 0.76825 0.00831425
1536800 60.3145 230.365 55.7548 0.76835 -0.0166341
1537000 60.3145 230.378 55.7548 0.76845 0.0143779
1537200 60.3145 230.391 55.7548 0.76855 -0.000162779
1537400 60.3145 230.404 55.7548 0.76865 -0.0147829
1537600 60.3145 230.417 55.7548 0.76875 -0.00345709
1537800 60.3145 230.43 55.7548 0.76885 -0.0104282
1538000 60.3145 230.443 55.7548 0.76895 -0.00852375
1538200 60.3145 230.456 55.7548 0.76905 -0.0111777
1538400 60.3145 230.469 55.7548 0.76915 0.00118288
1538600 60.3145 230.482 55.7548 0.76925 0.0190631
1538800 60.3145 230.495 55.7548 0.76935 0.00814463
1539000 60.3145 230.509 55.7548 0.76945 -0.00358123
1539200 60.3145 230.522 55.7548 0.76955 0.0123772
1539400 60.3145 230.535 55.7548 0.76965 0.0320994
1539600 60.3145 230.548 55.7548 0.76975 0.0152685
1539800 60.3145 230.561 55.7548 0.76985 0.0132818
1540000 60.3145 230.574 55.7548 0.76995 0.0109163
1540200 60.3145 230.587 55.7548 0.77005 0.0301109
1540400 60.3145 230.6 55.7548 0.77015 0.0104801
1540600 60.3145 230.613 55.7548 0.77025 -0.00687745
1540800 60.3145 230.626 55.7548 0.77035 -0.00501222
1541000 60.3145 230.639 55.7548 0.77045 -0.0118973
1541200 60.3145 230.652 55.7548 0.77055 -0.0030884
1541400 60.3145 230.665 55.7548 0.77065 -0.00316323
1541600 60.3145 230.678 55.7548 0.77075 -0.0144581
1541800 60.3145 230.691 55.7548 0.77085 -0.0168026
1542000 60.3145 230.704 55.7548 0.77095 0.020767
1542200 60.3145 230.717 55.7548 0.77105 -0.0366331
1542400 60.3145 230.73 55.7548 0.77115 0.0115992
1542600 60.3145 230.743 55.7548 0.77125 -0.00206287
1542800 60.3145 230.756 55.7548 0.77135 0.0177565
1543000 60.3145 230.769 55.7548 0.77145 0.0278439
1543200 60.3145 230.782 55.7548 0.77155 0.0269651
1543400 60.3145 230.795 55.7548 0.77165 0.0166645
1543600 60.3145 230.808 55.7548 0.77175 0.00434991
1543800 60.3145 230.821 55.7548 0.77185 0.0146848
1544000 60.3145 230.834 55.7548 0.77195 0.00687427
1544200 60.3145 230.847 55.7548 0.77205 0.0147872
1544400 60.3145 230.86 55.7548 0.77215 0.00605858
1544600 60.3145 230.873 55.7548 0.77225 0.0165758
1544800 60.3145 230.886 55.7548 0.77235 -0.00710672
1545000 60.3145 230.899 55.7548 0.77245 -0.0116234
1545200 60.3145 230.912 55.7548 0.77255 -0.00208762
1545400 60.3145 230.925 55.7548 0.77265 -0.025268
1545600 60.3145 230.938 55.7548 0.77275 -0.0185911
1545800 60.3145 230.951 55.7548 0.77285 -0.000548267
1546000 60.3145 230.964 55.7548 0.77295 0.00302971
1546200 60.3145 230.977 55.7548 0.77305 -0.015174
1546400 60.3145 230.991 55.7548 0.77315 0.00205627
1546600 60.3145 231.004 55.7548 0.77325 -0.00185655
1546800 60.3145 231.017 55.7548 0.77335 0.00853397
1547000 60.3145 231.03 55.7548 0.77345 0.0199812
1547200 60.3145 231.043 55.7548 0.77355 0.0347041
1547400 60.3145 231.056 55.7548 0.77365 0.035879
1547600 60.3145 231.069 55.7548 0.77375 0.0109659
1547800 60.3145 231.082 55.7548 0.77385 0.0134749
1548000 60.3145 231.095 55.7548 0.77395 0.00612853
1548200 60.3145 231.108 55.7548 0.77405 0.0104738
1548400 60.3145 231.121 55.7548 0.77415 0.0166551
1548600 60.3145 231.134 55.7548 0.77425 0.0100027
1548800 60.3145 231.147 55.7548 0.77435 -0.00580002
1549000 60.3145 231.16 55.7548 0.77445 -0.0150523
1549200 60.3145 231.173 55.7548 0.77455 -0.0144958
1549400 60.3145 231.186 55.7548 0.77465 -0.012018
1549600 60.3145 231.199 55.7548 0.77475 -0.0141063
1549800 60.3145 231.212 55.7548 0.77485 -0.0131615
1550000 60.3145 231.225 55.7548 0.77495 -0.00861294
1550200 60.3145 231.238 55.7548 0.77505 -0.0141731
1550400 60.3145 231.251 55.7548 0.77515 0.00371516
1550600 60.3145 231.264 55.7548 0.77525 0.00596291
1550800 60.3145 231.277 55.7548 0.77535 0.0182507
1551000 60.3145 231.29 55.7548 0.77545 0.0239724
1551200 60.3145 231.303 55.7548 0.77555 0.0173863
1551400 60.3145 231.316 55.7548 0.77565 0.0220986
1551600 60.3145 231.329 55.7548 0.77575 0.0267139
1551800 60.3145 231.342 55.7548 0.77585 0.0367667
1552000 60.3145 231.355 55.7548 0.77595 0.00861798
1552200 60.3145 231.368 55.7548 0.77605 0.0243745
1552400 60.3145 231.381 55.7548 0.77615 0.0145671
1552600 60.3145 231.394 55.7548 0.77625 -0.0209369
1552800 60.3145 231.407 55.7548 0.77635 -0.0142826
1553000 60.3145 231.42 55.7548 0.77645 -0.0200367
1553200 60.3145 231.433 55.7548 0.77655 -0.00492481
1553400 60.3145 231.446 55.7548 0.77665 -0.014134
1553600 60.3145 231.459 55.7548 0.77675 -0.0144096
1553800 60.3145 231.473 55.7548 0.77685 -0.0178196
1554000 60.3145 231.486 55.7548 0.77695 -0.0143889
1554200 60.3145 231.499 55.7548 0.77705 0.000579549
1554400 60.3145 231.512 55.7548 0.77715 -0.00553596
1554600 60.3145 231.525 55.7548 0.77725 0.00073973
1554800 60.3145 231.538 55.7548 0.77735 0.0304615
1555000 60.3145 231.551 55.7548 0.77745 0.0292761
1555200 60.3145 231.564 55.7548 0.77755 0.0269744
1555400 60.3145 231.577 55.7548 0.77765 0.0272983
1555600 60.3145 231.59 55.7548 0.77775 0.00803199
1555800 60.3145 231.603 55.7548 0.77785 0.0355428
1556000 60.3145 231.616 55.7548 0.77795 0.0166056
1556200 60.3145 231.629 55.7548 0.77805 0.0162831
1556400 60.3145 231.642 55.7548 0.77815 -0.00218942
1556600 60.3145 231.655 55.7548 0.77825 0.00107179
1556800 60.3145 231.668 55.7548 0.77835 -0.0182853
1557000 60.3145 231.681 55.7548 0.77845 -0.0167993
1557200 60.3145 231.694 55.7548 0.77855 -0.0163284
1557400 60.3145 231.707 55.7548 0.77865 -0.0105478
1557600 60.3145 231.72 55.7548 0.77875 -0.0288593
1557800 60.3145 231.733 55.7548 0.77885 -0.0115795
1558000 60.3145 231.746 55.7548 0.77895 -0.00675304
1558200 60.3145 231.759 55.7548 0.77905 0.00254801
1558400 60.3145 231.772 55.7548 0.77915 0.0041233
1558600 60.3145 231.785 55.7548 0.77925 0.00734678
1558800 60.3145 231.798 55.7548 0.77935 0.0181979
1559000 60.3145 231.811 55.7548 0.77945 0.0260024
1559200 60.3145 231.824 55.7548 0.77955 0.0185279
1559400 60.3145 231.837 55.7548 0.77965 0.042196
1559600 60.3145 231.85 55.7548 0.77975 0.0263654
1559800 60.3145 231.863 55.7548 0.77985 0.015543
1560000 60.3145 231.876 55.7548 0.77995 0.0189362
1560200 60.3145 231.889 55.7548 0.78005 0.0154398
1560400 60.3145 231.902 55.7548 0.78015 -0.00167349
1560600 60.3145 231.915 55.7548 0.78025 -0.0309695
1560800 60.3145 231.928 55.7548 0.78035 0.00703615
1561000 60.3145 231.942 55.7548 0.78045 -0.00593967
1561200 60.3145 231.955 55.7548 0.78055 -0.0174944
1561400 60.3145 231.968 55.7548 0.78065 -0.00753112
1561600 60.3145 231.981 55.7548 0.78075 -0.0275561
1561800 60.3145 231.994 55.7548 0.78085 -0.0114669
1562000 60.3145 232.007 55.7548 0.78095 -0.020541
1562200 60.3145 232.02 55.7548 0.78105 0.00862044
1562400 60.3145 232.033 55.7548 0.78115 0.0166475
1562600 60.3145 232.046 55.7548 0.78125 0.00272255
1562800 60.3145 232.059 55.7548 0.78135 0.0260358
1563000 60.3145 232.072 55.7548 0.78145 0.0244233
1563200 60.3145 232.085 55.7548 0.78155 -0.00620935
1563400 60.3145 232.098 55.7548 0.78165 0.0332221
1563600 60.3145 232.111 55.7548 0.78175 0.0200839
1563800 60.3145 232.124 55.7548 0.78185 0.00909817
1564000 60.3145 232.137 55.7548 0.78195 0.026724
1564200 60.3145 232.15 55.7548 0.78205 0.0159119
1564400 60.3145 232.163 55.7548 0.78215 0.0163168
1564600 60.3145 232.176 55.7548 0.78225 -0.00818514
1564800 60.3145 232.189 55.7548 0.78235 -0.0141988
1565000 60.3145 232.202 55.7548 0.78245 -0.00377724
1565200 60.3145 232.215 55.7548 0.78255 -0.0118632
1565400 60.3145 232.228 55.7548 0.78265 -0.0168233
1565600 60.3145 232.241 55.7548 0.78275 -0.0131205
1565800 60.3145 232.254 55.7548 0.78285 -0.0146139
1566000 60.3145 232.267 55.7548 0.78295 -0.00934903
1566200 60.3145 232.28 55.7548 0.78305 -0.0120053
1566400 60.3145 232.293 55.7548 0.78315 -0.0024831
1566600 60.3145 232.306 55.7548 0.78325 0.00912704
1566800 60.3145 232.319 55.7548 0.78335 0.0129048
1567000 60.3145 232.332 55.7548 0.78345 0.0334682
1567200 60.3145 232.345 55.7548 0.78355 0.023184
1567400 60.3145 232.358 55.7548 0.78365 0.0254851
1567600 60.3145 232.371 55.7548 0.78375 0.0136377
1567800 60.3145 232.384 55.7548 0.78385 0.0265409
1568000 60.3145 232.397 55.7548 0.78395 0.0281237
1568200 60.3145 232.41 55.7548 0.78405 0.0160538
1568400 60.3145 232.424 55.7548 0.78415 -0.00204683
1568600 60.3145 232.437 55.7548 0.78425 -0.00769393
1568800 60.3145 232.45 55.7548 0.78435 -0.012482
1569000 60.3145 232.463 55.7548 0.78445 -0.0120022
1569200 60.3145 232.476 55.7548 0.78455 -0.00813152
1569400 60.3145 232.489 55.7548 0.78465 -0.0203457
1569600 60.3145 232.502 55.7548 0.78475 -0.0116322
1569800 60.3145 232.515 55.7548 0.78485 -0.00819165
1570000 60.3145 232.528 55.7548 0.78495 -0.00963534
1570200 60.3145 232.541 55.7548 0.78505 -0.00635769
1570400 60.3145 232.554 55.7548 0.78515 0.0084383
1570600 60.3145 232.567 55.7548 0.78525 -0.00500265
1570800 60.3145 232.58 55.7548 0.78535 0.0239097
1571000 60.3145 232.593 55.7548 0.78545 0.0159177
1571200 60.3145 232.606 55.7548 0.78555 0.0239026
1571400 60.3145 232.619 55.7548 0.78565 0.013009
1571600 60.3145 232.632 55.7548 0.78575 0.0354332
1571800 60.3145 232.645 55.7548 0.78585 0.0230194
1572000 60.3145 232.658 55.7548 0.78595 0.0381993
1572200 60.3145 232.671 55.7548 0.78605 -0.002616
1572400 60.3145 232.684 55.7548 0.78615 0.00166471
1572600 60.3145 232.697 55.7548 0.78625 -0.0137549
1572800 60.3145 232.71 55.7548 0.78635 0.00250561
1573000 60.3145 232.723 55.7548 0.78645 -0.0221955
1573200 60.3145 232.736 55.7548 0.78655 0.000109885
1573400 60.3145 232.749 55.7548 0.78665 -0.0181835
1573600 60.3145 232.762 55.7548 0.78675 -0.0209141
1573800 60.3145 232.775 55.7548 0.78685 -0.0324317
1574000 60.3145 232.788 55.7548 0.78695 -0.00773605
1574200 60.3145 232.801 55.7548 0.78705 0.0010525
1574400 60.3145 232.814 55.7548 0.78715 0.000854959
1574600 60.3145 232.827 55.7548 0.78725 0.0178888
1574800 60.3145 232.84 55.7548 0.78735 0.0331359
1575000 60.3145 232.853 55.7548 0.78745 0.012833
1575200 60.3145 232.866 55.7548 0.78755 0.0289392
1575400 60.3145 232.879 55.7548 0.78765 0.0209645
1575600 60.3145 232.892 55.7548 0.78775 0.0347161
1575800 60.3145 232.906 55.7548 0.78785 0.0269825
1576000 60.3145 232.919 55.7548 0.78795 0.0189773
1576200 60.3145 232.932 55.7548 0.78805 0.0105593
1576400 60.3145 232.945 55.7548 0.78815 0.00305063
1576600 60.3145 232.958 55.7548 0.78825 -0.00773115
1576800 60.3145 232.971 55.7548 0.78835 -0.0249971
1577000 60.3145 232.984 55.7548 0.78845 -0.0225002
1577200 60.3145 232.997 55.7548 0.78855 -0.00842083
1577400 60.3145 233.01 55.7548 0.78865 -0.0350607
1577600 60.3145 233.023 55.7548 0.78875 -0.010987
1577800 60.3145 233.036 55.7548 0.78885 -0.0188477
1578000 60.3145 233.049 55.7548 0.78895 -0.0228365
1578200 60.3145 233.062 55.7548 0.78905 0.0125981
1578400 60.3145 233.075 55.7548 0.78915 -0.00262721
1578600 60.3145 233.088 55.7548 0.78925 0.0304128
1578800 60.3145 233.101 55.7548 0.78935 0.0261135
1579000 60.3145 233.114 55.7548 0.78945 0.0237988
1579200 60.3145 233.127 55.7548 0.78955 0.0395245
1579400 60.3145 233.14 55.7548 0.78965 0.0447625
1579600 60.3145 233.153 55.7548 0.78975 0.0340684
1579800 60.3145 233.166 55.7548 0.78985 0.0281493
1580000 60.3145 233.179 55.7548 0.78995 0.0137927
1580200 60.3145 233.192 55.7548 0.79005 0.00524238
1580400 60.3145 233.205 55.7548 0.79015 -0.00260476
1580600 60.3145 233.218 55.7548 0.79025 -0.0417528
1580800 60.3145 233.231 55.7548 0.79035 -0.0273765
1581000 60.3145 233.244 55.7548 0.79045 -0.0200708
1581200 60.3145 233.257 55.7548 0.79055 -0.0115243
1581400 60.3145 233.27 55.7548 0.79065 -0.0221838
1581600 60.3145 233.283 55.7548 0.79075 -0.0265856
1581800 60.3145 233.296 55.7548 0.79085 -0.0282002
1582000 60.3145 233.309 55.7548 0.79095 -0.00914742
1582200 60.3145 233.322 55.7548 0.79105 8.91464e-05
1582400 60.3145 233.335 55.7548 0.79115 0.0315702
1582600 60.3145 233.348 55.7548 0.79125 0.0382175
1582800 60.3145 233.361 55.7548 0.79135 0.0153435
1583000 60.3145 233.374 55.7548 0.79145 0.0313247
1583200 60.3145 233.388 55.7548 0.79155 0.0378242
1583400 60.3145 233.401 55.7548 0.79165 0.0285376
1583600 60.3145 233.414 55.7548 0.79175 0.0293165
1583800 60.3145 233.427 55.7548 0.79185 0.0390619
1584000 60.3145 233.44 55.7548 0.79195 0.0103497
1584200 60.3145 233.453 55.7548 0.79205 -0.00898556
1584400 60.3145 233.466 55.7548 0.79215 -0.0146752
1584600 60.3145 233.479 55.7548 0.79225 0.00135531
1584800 60.3145 233.492 55.7548 0.79235 -0.0292345
1585000 60.3145 233.505 55.7548 0.79245 -0.0294645
1585200 60.3145 233.518 55.7548 0.79255 -0.0303257
1585400 60.3145 233.531 55.7548 0.79265 -0.0201246
1585600 60.3145 233.544 55.7548 0.79275 -0.0187289
1585800 60.3145 233.557 55.7548 0.79285 -0.0197696
1586000 60.3145 233.57 55.7548 0.79295 -0.000576093
1586200 60.3145 233.583 55.7548 0.79305 0.0160349
1586400 60.3145 233.596 55.7548 0.79315 0.0160853
1586600 60.3145 233.609 55.7548 0.79325 0.0248123
1586800 60.3145 233.622 55.7548 0.79335 0.0307039
1587000 60.3145 233.635 55.7548 0.79345 0.0178624
1587200 60.3145 233.648 55.7548 0.79355 0.0504988
1587400 60.3145 233.661 55.7548 0.79365 0.0267736
1587600 60.3145 233.674 55.7548 0.79375 0.0234135
1587800 60.3145 233.687 55.7548 0.79385 0.0309961
1588000 60.3145 233.7 55.7548 0.79395 0.00230934
1588200 60.3145 233.713 55.7548 0.79405 0.00213878
1588400 60.3145 233.726 55.7548 0.79415 -0.00974111
1588600 60.3145 233.739 55.7548 0.79425 -0.0184725
1588800 60.3145 233.752 55.7548 0.79435 -0.0245313
1589000 60.3145 233.765 55.7548 0.79445 -0.0230854
1589200 60.3145 233.778 55.7548 0.79455 -0.0252667
1589400 60.3145 233.791 55.7548 0.79465 -0.00729326
1589600 60.3145 233.804 55.7548 0.79475 -0.0217693
1589800 60.3145 233.817 55.7548 0.79485 -0.00559863
1590000 60.3145 233.83 55.7548 0.79495 0.00065001
1590200 60.3145 233.843 55.7548 0.79505 -0.00293312
1590400 60.3145 233.856 55.7548 0.79515 0.0251383
1590600 60.3145 233.87 55.7548 0.79525 0.0133331
1590800 60.3145 233.883 55.7548 0.79535 0.0273441
1591000 60.3145 233.896 55.7548 0.79545 0.0392877
1591200 60.3145 233.909 55.7548 0.79555 0.0426789
1591400 60.3145 233.922 55.7548 0.79565 0.0102742
1591600 60.3145 233.935 55.7548 0.79575 0.0253184
1591800 60.3145 233.948 55.7548 0.79585 0.00690716
1592000 60.3145 233.961 55.7548 0.79595 0.00329439
1592200 60.3145 233.974 55.7548 0.79605 -0.0105055
1592400 60.3145 233.987 55.7548 0.79615 0.00287345
1592600 60.3145 234 55.7548 0.79625 -0.0115194
1592800 60.3145 234.013 55.7548 0.79635 -0.0208036
1593000 60.3145 234.026 55.7548 0.79645 -0.0182395
1593200 60.3145 234.039 55.7548 0.79655 -0.0301947
1593400 60.3145 234.052 55.7548 0.79665 -0.0219499
1593600 60.3145 234.065 55.7548 0.79675 0.00757336
1593800 60.3145 234.078 55.7548 0.79685 -0.000998245
1594000 60.3145 234.091 55.7548 0.79695 0.000966633
1594200 60.3145 234.104 55.7548 0.79705 0.0156255
1594400 60.3145 234.117 55.7548 0.79715 0.00542687
1594600 60.3145 234.13 55.7548 0.79725 0.029831
1594800 60.3145 234.143 55.7548 0.79735 0.0247156
1595000 60.3145 234.156 55.7548 0.79745 0.031414
1595200 60.3145 234.169 55.7548 0.79755 0.0127232
1595400 60.3145 234.182 55.7548 0.79765 0.0242226
1595600 60.3145 234.195 55.7548 0.79775 0.0324037
1595800 60.3145 234.208 55.7548 0.79785 0.0058692
1596000 60.3145 234.221 55.7548 0.79795 0.00434543
1596200 60.3145 234.234 55.7548 0.79805 -0.013271
1596400 60.3145 234.247 55.7548 0.79815 -0.0143813
1596600 60.3145 234.26 55.7548 0.79825 -0.00603898
1596800 60.3145 234.273 55.7548 0.79835 -0.0271947
1597000 60.3145 234.286 55.7548 0.79845 -0.0291575
1597200 60.3145 234.299 55.7548 0.79855 -0.00634901
1597400 60.3145 234.312 55.7548 0.79865 -0.0194058
1597600 60.3145 234.325 55.7548 0.79875 0.00693694
1597800 60.3145 234.338 55.7548 0.79885 -0.00575988
1598000 60.3145 234.352 55.7548 0.79895 0.00565601
1598200 60.3145 234.365 55.7548 0.79905 0.0310596
1598400 60.3145 234.378 55.7548 0.79915 0.00885631
1598600 60.3145 234.391 55.7548 0.79925 0.0424944
1598800 60.3145 234.404 55.7548 0.79935 0.019547
1599000 60.3145 234.417 55.7548 0.79945 0.012053
1599200 60.3145 234.43 55.7548 0.79955 0.0207314
1599400 60.3145 234.443 55.7548 0.79965 0.0260599
1599600 60.3145 234.456 55.7548 0.79975 0.00362025
1599800 60.3145 234.469 55.7548 0.79985 0.0230834
1600000 60.3145 234.482 55.7548 0.79995 -0.0202329
1600200 60.3145 234.495 55.7548 0.80005 -0.0283032
1600400 60.3145 234.508 55.7548 0.80015 -0.00129887
1600600 60.3145 234.521 55.7548 0.80025 -0.013255
1600800 60.3145 234.534 55.7548 0.80035 -0.02271
1601000 60.3145 234.547 55.7548 0.80045 -0.00545971
1601200 60.3145 234.56 55.7548 0.80055 -0.00691641
1601400 60.3145 234.573 55.7548 0.80065 -0.00622298
1601600 60.3145 234.586 55.7548 0.80075 -0.00998377
1601800 60.3145 234.599 55.7548 0.80085 0.0136692
1602000 60.3145 234.612 55.7548 0.80095 0.0147581
1602200 60.3145 234.625 55.7548 0.80105 0.0169578
1602400 60.3145 234.638 55.7548 0.80115 0.0347242
1602600 60.3145 234.651 55.7548 0.80125 0.0262532
1602800 60.3145 234.664 55.7548 0.80135 0.0144627
1603000 60.3145 234.677 55.7548 0.80145 0.0200538
1603200 60.3145 234.69 55.7548 0.80155 0.0158851
1603400 60.3145 234.703 55.7548 0.80165 0.00204726
1603600 60.3145 234.716 55.7548 0.80175 -0.00239953
1603800 60.3145 234.729 55.7548 0.80185 0.0114542
1604000 60.3145 234.742 55.7548 0.80195 0.0139341
1604200 60.3145 234.755 55.7548 0.80205 -0.0237623
1604400 60.3145 234.768 55.7548 0.80215 -0.00856364
1604600 60.3145 234.781 55.7548 0.80225 -0.0217823
1604800 60.3145 234.794 55.7548 0.80235 -0.0140916
1605000 60.3145 234.807 55.7548 0.80245 -0.0240311
1605200 60.3145 234.82 55.7548 0.80255 -0.0101428
1605400 60.3145 234.834 55.7548 0.80265 0.00912878
1605600 60.3145 234.847 55.7548 0.80275 0.00771766
1605800 60.3145 234.86 55.7548 0.80285 0.000523917
1606000 60.3145 234.873 55.7548 0.80295 0.0246683
1606200 60.3145 234.886 55.7548 0.80305 0.0119797
1606400 60.3145 234.899 55.7548 0.80315 0.00858344
1606600 60.3145 234.912 55.7548 0.80325 0.0315946
1606800 60.3145 234.925 55.7548 0.80335 0.0227254
1607000 60.3145 234.938 55.7548 0.80345 0.0209623
1607200 60.3145 234.951 55.7548 0.80355 0.0147405
1607400 60.3145 234.964 55.7548 0.80365 0.00327778
1607600 60.3145 234.977 55.7548 0.80375 -0.00914179
1607800 60.3145 234.99 55.7548 0.80385 -0.00653269
1608000 60.3145 235.003 55.7548 0.80395 0.00494305
1608200 60.3145 235.016 55.7548 0.80405 -5.60038e-05
1608400 60.3145 235.029 55.7548 0.80415 -0.0149535
1608600 60.3145 235.042 55.7548 0.80425 -0.00737337
1608800 60.3145 235.055 55.7548 0.80435 0.00239147
1609000 60.3145 235.068 55.7548 0.80445 -0.013548
1609200 60.3145 235.081 55.7548 0.80455 -0.0175666
1609400 60.3145 235.094 55.7548 0.80465 0.0113078
1609600 60.3145 235.107 55.7548 0.80475 0.0145863
1609800 60.3145 235.12 55.7548 0.80485 0.00295381
1610000 60.3145 235.133 55.7548 0.80495 0.0261631
1610200 60.3145 235.146 55.7548 0.80505 0.00161267
1610400 60.3145 235.159 55.7548 0.80515 0.0014507
1610600 60.3145 235.172 55.7548 0.80525 0.0227629
1610800 60.3145 235.185 55.7548 0.80535 -0.00127294
1611000 60.3145 235.198 55.7548 0.80545 0.0274497
1611200 60.3145 235.211 55.7548 0.80555 0.0015793
1611400 60.3145 235.224 55.7548 0.80565 0.0085845
1611600 60.3145 235.237 55.7548 0.80575 0.0055701
1611800 60.3145 235.25 55.7548 0.80585 0.00964939
1612000 60.3145 235.263 55.7548 0.80595 -0.00840565
1612200 60.3145 235.276 55.7548 0.80605 -0.00379757
1612400 60.3145 235.289 55.7548 0.80615 -0.000254036
1612600 60.3145 235.303 55.7548 0.80625 -0.00461336
1612800 60.3145 235.316 55.7548 0.80635 -0.00140408
1613000 60.3145 235.329 55.7548 0.80645 -0.00365368
1613200 60.3145 235.342 55.7548 0.80655 -0.0068927
1613400 60.3145 235.355 55.7548 0.80665 -0.00255505
1613600 60.3145 235.368 55.7548 0.80675 -0.020191
1613800 60.3145 235.381 55.7548 0.80685 0.0104214
1614000 60.3145 235.394 55.7548 0.80695 0.0220648
1614200 60.3145 235.407 55.7548 0.80705 0.0105401
1614400 60.3145 235.42 55.7548 0.80715 0.0166244
1614600 60.3145 235.433 55.7548 0.80725 -0.0052969
1614800 60.3145 235.446 55.7548 0.80735 0.0370626
1615000 60.3145 235.459 55.7548 0.80745 0.00850365
1615200 60.3145 235.472 55.7548 0.80755 0.0175074
1615400 60.3145 235.485 55.7548 0.80765 0.0118597
1615600 60.3145 235.498 55.7548 0.80775 0.0248902
1615800 60.3145 235.511 55.7548 0.80785 -0.00830061
1616000 60.3145 235.524 55.7548 0.80795 -0.010511
1616200 60.3145 235.537 55.7548 0.80805 -0.0185805
1616400 60.3145 235.55 55.7548 0.80815 -0.00717936
1616600 60.3145 235.563 55.7548 0.80825 -0.00436
1616800 60.3145 235.576 55.7548 0.80835 -0.00327397
1617000 60.3145 235.589 55.7548 0.80845 -0.0172984
1617200 60.3145 235.602 55.7548 0.80855 -0.00219609
1617400 60.3145 235.615 55.7548 0.80865 0.0048888
1617600 60.3145 235.628 55.7548 0.80875 -0.0109872
1617800 60.3145 235.641 55.7548 0.80885 0.0101997
1618000 60.3145 235.654 55.7548 0.80895 0.00665606
1618200 60.3145 235.667 55.7548 0.80905 0.0218131
1618400 60.3145 235.68 55.7548 0.80915 0.0339934
1618600 60.3145 235.693 55.7548 0.80925 0.0190688
1618800 60.3145 235.706 55.7548 0.80935 0.0191296
1619000 60.3145 235.719 55.7548 0.80945 -0.00162262
1619200 60.3145 235.732 55.7548 0.80955 0.0276683
1619400 60.3145 235.745 55.7548 0.80965 0.00143374
1619600 60.3145 235.758 55.7548 0.80975 0.0129759
1619800 60.3145 235.771 55.7548 0.80985 -0.00956432
1620000 60.3145 235.785 55.7548 0.80995 -0.0183029
1620200 60.3145 235.798 55.7548 0.81005 3.11347e-05
1620400 60.3145 235.811 55.7548 0.81015 -0.0130999
1620600 60.3145 235.824 55.7548 0.81025 -0.0127153
1620800 60.3145 235.837 55.7548 0.81035 -0.0133368
1621000 60.3145 235.85 55.7548 0.81045 -0.010327
1621200 60.3145 235.863 55.7548 0.81055 0.00514422
1621400 60.3145 235.876 55.7548 0.81065 -0.00439449
1621600 60.3145 235.889 55.7548 0.81075 0.0111786
1621800 60.3145 235.902 55.7548 0.81085 0.00650157
1622000 60.3145 235.915 55.7548 0.81095 0.0176179
1622200 60.3145 235.928 55.7548 0.81105 0.00276429
1622400 60.3145 235.941 55.7548 0.81115 0.0305205
1622600 60.3145 235.954 55.7548 0.81125 0.0158694
1622800 60.3145 235.967 55.7548 0.81135 0.0146751
1623000 60.3145 235.98 55.7548 0.81145 0.0225046
1623200 60.3145 235.993 55.7548 0.81155 0.00587828
1623400 60.3145 236.006 55.7548 0.81165 0.0097667
1623600 60.3145 236.019 55.7548 0.81175 -0.0126245
1623800 60.3145 236.032 55.7548 0.81185 0.00958221
1624000 60.3145 236.045 55.7548 0.81195 -0.0124437
1624200 60.3145 236.058 55.7548 0.81205 -0.00430316
1624400 60.3145 236.071 55.7548 0.81215 -0.000433114
1624600 60.3145 236.084 55.7548 0.81225 -0.0141234
1624800 60.3145 236.097 55.7548 0.81235 -0.004895
1625000 60.3145 236.11 55.7548 0.81245 -0.00592383
1625200 60.3145 236.123 55.7548 0.81255 -0.00336948
1625400 60.3145 236.136 55.7548 0.81265 -0.00157456
1625600 60.3145 236.149 55.7548 0.81275 0.00972628
1625800 60.3145 236.162 55.7548 0.81285 0.0146153
1626000 60.3145 236.175 55.7548 0.81295 0.00190925
1626200 60.3145 236.188 55.7548 0.81305 0.012304
1626400 60.3145 236.201 55.7548 0.81315 0.0222969
1626600 60.3145 236.214 55.7548 0.81325 0.0165445
1626800 60.3145 236.227 55.7548 0.81335 0.0246242
1627000 60.3145 236.24 55.7548 0.81345 0.00920558
1627200 60.3145 236.253 55.7548 0.81355 0.00269871
1627400 60.3145 236.267 55.7548 0.81365 -0.000889467
1627600 60.3145 236.28 55.7548 0.81375 0.00197673
1627800 60.3145 236.293 55.7548 0.81385 0.00343353
1628000 60.3145 236.306 55.7548 0.81395 -0.00180478
1628200 60.3145 236.319 55.7548 0.81405 -0.012564
1628400 60.3145 236.332 55.7548 0.81415 -0.00658381
1628600 60.3145 236.345 55.7548 0.81425 -0.00440511
1628800 60.3145 236.358 55.7548 0.81435 -0.00095092
1629000 60.3145 236.371 55.7548 0.81445 -0.00904597
1629200 60.3145 236.384 55.7548 0.81455 0.000706736
1629400 60.3145 236.397 55.7548 0.81465 -0.00145834
1629600 60.3145 236.41 55.7548 0.81475 0.00441864
1629800 60.3145 236.423 55.7548 0.81485 0.0044298
1630000 60.3145 236.436 55.7548 0.81495 0.00578011
1630200 60.3145 236.449 55.7548 0.81505 0.00544135
1630400 60.3145 236.462 55.7548 0.81515 0.00551337
1630600 60.3145 236.475 55.7548 0.81525 0.02743
1630800 60.3145 236.488 55.7548 0.81535 0.0147163
1631000 60.3145 236.501 55.7548 0.81545 0.0121219
1631200 60.3145 236.514 55.7548 0.81555 0.0202338
1631400 60.3145 236.527 55.7548 0.81565 0.00624584
1631600 60.3145 236.54 55.7548 0.81575 0.00543587
1631800 60.3145 236.553 55.7548 0.81585 0.0155343
1632000 60.3145 236.566 55.7548 0.81595 -0.000561149
1632200 60.3145 236.579 55.7548 0.81605 -0.00812461
1632400 60.3145 236.592 55.7548 0.81615 -0.0154003
1632600 60.3145 236.605 55.7548 0.81625 -0.00937999
1632800 60.3145 236.618 55.7548 0.81635 -0.00543425
1633000 60.3145 236.631 55.7548 0.81645 -0.0066218
1633200 60.3145 236.644 55.7548 0.81655 -0.0118257
1633400 60.3145 236.657 55.7548 0.81665 -0.0119983
1633600 60.3145 236.67 55.7548 0.81675 0.00299885
1633800 60.3145 236.683 55.7548 0.81685 0.00353725
1634000 60.3145 236.696 55.7548 0.81695 0.0137519
1634200 60.3145 236.709 55.7548 0.81705 0.0223966
1634400 60.3145 236.722 55.7548 0.81715 0.00854254
1634600 60.3145 236.735 55.7548 0.81725 0.0234073
1634800 60.3145 236.749 55.7548 0.81735 0.0158446
1635000 60.3145 236.762 55.7548 0.81745 0.0194194
1635200 60.3145 236.775 55.7548 0.81755 0.012956
1635400 60.3145 236.788 55.7548 0.81765 0.00878903
1635600 60.3145 236.801 55.7548 0.81775 -0.000901029
1635800 60.3145 236.814 55.7548 0.81785 0.0155507
1636000 60.3145 236.827 55.7548 0.81795 -0.00539361
1636200 60.3145 236.84 55.7548 0.81805 0.000992798
1636400 60.3145 236.853 55.7548 0.81815 -0.0262832
1636600 60.3145 236.866 55.7548 0.81825 -0.00631584
1636800 60.3145 236.879 55.7548 0.81835 -0.0138591
1637000 60.3145 236.892 55.7548 0.81845 -0.0021753
1637200 60.3145 236.905 55.7548 0.81855 0.00387329
1637400 60.3145 236.918 55.7548 0.81865 -0.00659079
1637600 60.3145 236.931 55.7548 0.81875 -0.00518492
1637800 60.3145 236.944 55.7548 0.81885 -0.00611737
1638000 60.3145 236.957 55.7548 0.81895 0.0108285
1638200 60.3145 236.97 55.7548 0.81905 0.018813
1638400 60.3145 236.983 55.7548 0.81915 0.0327547
1638600 60.3145 236.996 55.7548 0.81925 0.013894
1638800 60.3145 237.009 55.7548 0.81935 0.0196899
1639000 60.3145 237.022 55.7548 0.81945 0.0189713
1639200 60.3145 237.035 55.7548 0.81955 0.00127135
1639400 60.3145 237.048 55.7548 0.81965 0.0148488
1639600 60.3145 237.061 55.7548 0.81975 -0.001052
1639800 60.3145 237.074 55.7548 0.81985 0.00306877
1640000 60.3145 237.087 55.7548 0.81995 0.0226787
1640200 60.3145 237.1 55.7548 0.82005 -0.0107015
1640400 60.3145 237.113 55.7548 0.82015 -0.0253599
1640600 60.3145 237.126 55.7548 0.82025 -0.016958
1640800 60.3145 237.139 55.7548 0.82035 -0.0169579
1641000 60.3145 237.152 55.7548 0.82045 -0.0012767
1641200 60.3145 237.165 55.7548 0.82055 0.00378039
1641400 60.3145 237.178 55.7548 0.82065 -0.0099763
1641600 60.3145 237.191 55.7548 0.82075 0.00060855
1641800 60.3145 237.204 55.7548 0.82085 0.00275258
1642000 60.3145 237.217 55.7548 0.82095 0.0143661
1642200 60.3145 237.231 55.7548 0.82105 0.000551444
1642400 60.3145 237.244 55.7548 0.82115 0.0125742
1642600 60.3145 237.257 55.7548 0.82125 0.0364756
1642800 60.3145 237.27 55.7548 0.82135 0.0172714
1643000 60.3145 237.283 55.7548 0.82145 0.0131033
1643200 60.3145 237.296 55.7548 0.82155 0.0225543
1643400 60.3145 237.309 55.7548 0.82165 -0.000716678
1643600 60.3145 237.322 55.7548 0.82175 0.0196406
1643800 60.3145 237.335 55.7548 0.82185 0.00727956
1644000 60.3145 237.348 55.7548 0.82195 -0.00853601
1644200 60.3145 237.361 55.7548 0.82205 0.00695621
1644400 60.3145 237.374 55.7548 0.82215 -0.01244
1644600 60.3145 237.387 55.7548 0.82225 -0.0142841
1644800 60.3145 237.4 55.7548 0.82235 -0.0254008
1645000 60.3145 237.413 55.7548 0.82245 -0.00576421
1645200 60.3145 237.426 55.7548 0.82255 -0.0018513
1645400 60.3145 237.439 55.7548 0.82265 -0.00610934
1645600 60.3145 237.452 55.7548 0.82275 -0.0112371
1645800 60.3145 237.465 55.7548 0.82285 0.00599579
1646000 60.3145 237.478 55.7548 0.82295 0.00368603
1646200 60.3145 237.491 55.7548 0.82305 0.00457491
1646400 60.3145 237.504 55.7548 0.82315 0.0238069
1646600 60.3145 237.517 55.7548 0.82325 0.0344633
1646800 60.3145 237.53 55.7548 0.82335 0.0149338
1647000 60.3145 237.543 55.7548 0.82345 0.0180545
1647200 60.3145 237.556 55.7548 0.82355 0.0113843
1647400 60.3145 237.569 55.7548 0.82365 0.015239
1647600 60.3145 237.582 55.7548 0.82375 0.00167021
1647800 60.3145 237.595 55.7548 0.82385 0.00892652
1648000 60.3145 237.608 55.7548 0.82395 0.0109469
1648200 60.3145 237.621 55.7548 0.82405 0.00280672
1648400 60.3145 237.634 55.7548 0.82415 -0.0129918
1648600 60.3145 237.647 55.7548 0.82425 -0.0375068
1648800 60.3145 237.66 55.7548 0.82435 0.00327644
1649000 60.3145 237.673 55.7548 0.82445 -0.0227959
1649200 60.3145 237.686 55.7548 0.82455 -0.00918488
1649400 60.3145 237.699 55.7548 0.82465 -0.0034059
1649600 60.3145 237.713 55.7548 0.82475 -0.00872837
1649800 60.3145 237.726 55.7548 0.82485 -0.00172858
1650000 60.3145 237.739 55.7548 0.82495 0.012301
1650200 60.3145 237.752 55.7548 0.82505 0.0222104
1650400 60.3145 237.765 55.7548 0.82515 0.0137203
1650600 60.3145 237.778 55.7548 0.82525 0.0241947
1650800 60.3145 237.791 55.7548 0.82535 0.0334826
1651000 60.3145 237.804 55.7548 0.82545 0.0275751
1651200 60.3145 237.817 55.7548 0.82555 0.0325122
1651400 60.3145 237.83 55.7548 0.82565 -0.000565574
1651600 60.3145 237.843 55.7548 0.82575 0.00870033
1651800 60.3145 237.856 55.7548 0.82585 -0.0066611
1652000 60.3145 237.869 55.7548 0.82595 0.00952575
1652200 60.3145 237.882 55.7548 0.82605 -0.0100712
1652400 60.3145 237.895 55.7548 0.82615 -0.0216684
1652600 60.3145 237.908 55.7548 0.82625 -0.0163235
1652800 60.3145 237.921 55.7548 0.82635 -0.0220093
1653000 60.3145 237.934 55.7548 0.82645 -0.0213672
1653200 60.3145 237.947 55.7548 0.82655 -0.0121583
1653400 60.3145 237.96 55.7548 0.82665 -0.0153477
1653600 60.3145 237.973 55.7548 0.82675 -0.0113924
1653800 60.3145 237.986 55.7548 0.82685 0.0120622
1654000 60.3145 237.999 55.7548 0.82695 0.0272092
1654200 60.3145 238.012 55.7548 0.82705 0.024759
1654400 60.3145 238.025 55.7548 0.82715 0.0178475
1654600 60.3145 238.038 55.7548 0.82725 0.0304103
1654800 60.3145 238.051 55.7548 0.82735 0.0306863
1655000 60.3145 238.064 55.7548 0.82745 0.0192951
1655200 60.3145 238.077 55.7548 0.82755 0.0252542
1655400 60.3145 238.09 55.7548 0.82765 0.0321957
1655600 60.3145 238.103 55.7548 0.82775 -0.000140567
1655800 60.3145 238.116 55.7548 0.82785 -0.0105497
1656000 60.3145 238.129 55.7548 0.82795 -0.0108799
1656200 60.3145 238.142 55.7548 0.82805 -0.00359564
1656400 60.3145 238.155 55.7548 0.82815 -0.0237741
1656600 60.3145 238.168 55.7548 0.82825 -0.0284074
1656800 60.3145 238.181 55.7548 0.82835 -0.0230205
1657000 60.3145 238.195 55.7548 0.82845 -0.0103511
1657200 60.3145 238.208 55.7548 0.82855 -0.0180481
1657400 60.3145 238.221 55.7548 0.82865 -0.0129228
1657600 60.3145 238.234 55.7548 0.82875 0.0062317
1657800 60.3145 238.247 55.7548 0.82885 0.00938538
1658000 60.3145 238.26 55.7548 0.82895 0.0218425
1658200 60.3145 238.273 55.7548 0.82905 0.0288999
1658400 60.3145 238.286 55.7548 0.82915 0.0159066
1658600 60.3145 238.299 55.7548 0.82925 0.0322163
1658800 60.3145 238.312 55.7548 0.82935 0.0204754
1659000 60.3145 238.325 55.7548 0.82945 0.0350301
1659200 60.3145 238.338 55.7548 0.82955 0.0282825
1659400 60.3145 238.351 55.7548 0.82965 0.0101234
1659600 60.3145 238.364 55.7548 0.82975 0.0080076
1659800 60.3145 238.377 55.7548 0.82985 -0.00376895
1660000 60.3145 238.39 55.7548 0.82995 -0.0169083
1660200 60.3145 238.403 55.7548 0.83005 -0.0204791
1660400 60.3145 238.416 55.7548 0.83015 -0.0224884
1660600 60.3145 238.429 55.7548 0.83025 -0.0139609
1660800 60.3145 238.442 55.7548 0.83035 -0.0238099
1661000 60.3145 238.455 55.7548 0.83045 -0.0223928
1661200 60.3145 238.468 55.7548 0.83055 -0.00732963
1661400 60.3145 238.481 55.7548 0.83065 -0.000994717
1661600 60.3145 238.494 55.7548 0.83075 0.00947371
1661800 60.3145 238.507 55.7548 0.83085 0.0106589
1662000 60.3145 238.52 55.7548 0.83095 0.0127001
1662200 60.3145 238.533 55.7548 0.83105 0.0203136
1662400 60.3145 238.546 55.7548 0.83115 0.0278429
1662600 60.3145 238.559 55.7548 0.83125 0.0318548
1662800 60.3145 238.572 55.7548 0.83135 0.0352107
1663000 60.3145 238.585 55.7548 0.83145 0.0158228
1663200 60.3145 238.598 55.7548 0.83155 0.0190353
1663400 60.3145 238.611 55.7548 0.83165 -0.00795787
1663600 60.3145 238.624 55.7548 0.83175 0.000316784
1663800 60.3145 238.637 55.7548 0.83185 -0.00471209
1664000 60.3145 238.65 55.7548 0.83195 0.00618478
1664200 60.3145 238.663 55.7548 0.83205 -0.0306182
1664400 60.3145 238.677 55.7548 0.83215 -0.0105521
1664600 60.3145 238.69 55.7548 0.83225 -0.00943444
1664800 60.3145 238.703 55.7548 0.83235 -0.0211771
1665000 60.3145 238.716 55.7548 0.83245 -0.0212847
1665200 60.3145 238.729 55.7548 0.83255 -0.00925045
1665400 60.3145 238.742 55.7548 0.83265 0.00781365
1665600 60.3145 238.755 55.7548 0.83275 0.0260187
1665800 60.3145 238.768 55.7548 0.83285 0.00865918
1666000 60.3145 238.781 55.7548 0.83295 0.010599
1666200 60.3145 238.794 55.7548 0.83305 0.0174183
1666400 60.3145 238.807 55.7548 0.83315 0.0296041
1666600 60.3145 238.82 55.7548 0.83325 0.0117516
1666800 60.3145 238.833 55.7548 0.83335 0.0308842
1667000 60.3145 238.846 55.7548 0.83345 0.011188
1667200 60.3145 238.859 55.7548 0.83355 0.0257776
1667400 60.3145 238.872 55.7548 0.83365 -0.000730512
1667600 60.3145 238.885 55.7548 0.83375 -0.0165722
1667800 60.3145 238.898 55.7548 0.83385 0.00597108
1668000 60.3145 238.911 55.7548 0.83395 -0.0165608
1668200 60.3145 238.924 55.7548 0.83405 -0.0141797
1668400 60.3145 238.937 55.7548 0.83415 -0.0113306
1668600 60.3145 238.95 55.7548 0.83425 -0.0157987
1668800 60.3145 238.963 55.7548 0.83435 -0.00241577
1669000 60.3145 238.976 55.7548 0.83445 -0.0176341
1669200 60.3145 238.989 55.7548 0.83455 -0.00681002
1669400 60.3145 239.002 55.7548 0.83465 0.0138234
1669600 60.3145 239.015 55.7548 0.83475 0.00242317
1669800 60.3145 239.028 55.7548 0.83485 0.0152553
1670000 60.3145 239.041 55.7548 0.83495 0.0283843
1670200 60.3145 239.054 55.7548 0.83505 0.0241857
1670400 60.3145 239.067 55.7548 0.83515 0.016283
1670600 60.3145 239.08 55.7548 0.83525 0.0229076
1670800 60.3145 239.093 55.7548 0.83535 0.0163165
1671000 60.3145 239.106 55.7548 0.83545 0.0136242
1671200 60.3145 239.119 55.7548 0.83555 0.0171892
1671400 60.3145 239.132 55.7548 0.83565 -0.0160371
1671600 60.3145 239.146 55.7548 0.83575 -0.00690517
1671800 60.3145 239.159 55.7548 0.83585 -0.00550957
1672000 60.3145 239.172 55.7548 0.83595 -0.0117459
1672200 60.3145 239.185 55.7548 0.83605 -0.0172853
1672400 60.3145 239.198 55.7548 0.83615 -0.00477221
1672600 60.3145 239.211 55.7548 0.83625 -0.0266702
1672800 60.3145 239.224 55.7548 0.83635 -0.00380746
1673000 60.3145 239.237 55.7548 0.83645 -0.0031614
1673200 60.3145 239.25 55.7548 0.83655 0.00238817
1673400 60.3145 239.263 55.7548 0.83665 0.00580796
1673600 60.3145 239.276 55.7548 0.83675 0.00570757
1673800 60.3145 239.289 55.7548 0.83685 0.0298578
1674000 60.3145 239.302 55.7548 0.83695 0.0172644
1674200 60.3145 239.315 55.7548 0.83705 0.0160308
1674400 60.3145 239.328 55.7548 0.83715 0.0152793
1674600 60.3145 239.341 55.7548 0.83725 0.00817986
1674800 60.3145 239.354 55.7548 0.83735 0.0233616
1675000 60.3145 239.367 55.7548 0.83745 0.0244075
1675200 60.3145 239.38 55.7548 0.83755 0.00343557
1675400 60.3145 239.393 55.7548 0.83765 0.00436679
1675600 60.3145 239.406 55.7548 0.83775 -0.0198644
1675800 60.3145 239.419 55.7548 0.83785 -0.0035532
1676000 60.3145 239.432 55.7548 0.83795 -0.013647
1676200 60.3145 239.445 55.7548 0.83805 -0.00461705
1676400 60.3145 239.458 55.7548 0.83815 -0.00484738
1676600 60.3145 239.471 55.7548 0.83825 0.00262283
1676800 60.3145 239.484 55.7548 0.83835 -0.0070379
1677000 60.3145 239.497 55.7548 0.83845 -0.00918106
1677200 60.3145 239.51 55.7548 0.83855 0.00667963
1677400 60.3145 239.523 55.7548 0.83865 -0.0111854
1677600 60.3145 239.536 55.7548 0.83875 0.00393488
1677800 60.3145 239.549 55.7548 0.83885 0.0368036
1678000 60.3145 239.562 55.7548 0.83895 0.012139
1678200 60.3145 239.575 55.7548 0.83905 0.00906766
1678400 60.3145 239.588 55.7548 0.83915 0.0116701
1678600 60.3145 239.601 55.7548 0.83925 0.0315227
1678800 60.3145 239.614 55.7548 0.83935 0.0109861
1679000 60.3145 239.628 55.7548 0.83945 -0.00375054
1679200 60.3145 239.641 55.7548 0.83955 0.00248574
1679400 60.3145 239.654 55.7548 0.83965 0.013288
1679600 60.3145 239.667 55.7548 0.83975 -0.00206935
1679800 60.3145 239.68 55.7548 0.83985 -0.00806398
1680000 60.3145 239.693 55.7548 0.83995 -0.0256239
1680200 60.3145 239.706 55.7548 0.84005 -0.0111131
1680400 60.3145 239.719 55.7548 0.84015 -0.0053794
1680600 60.3145 239.732 55.7548 0.84025 -0.0135688
1680800 60.3145 239.745 55.7548 0.84035 0.0157859
1681000 60.3145 239.758 55.7548 0.84045 -0.000246028
1681200 60.3145 239.771 55.7548 0.84055 0.00501248
1681400 60.3145 239.784 55.7548 0.84065 0.00838135
1681600 60.3145 239.797 55.7548 0.84075 0.0116355
1681800 60.3145 239.81 55.7548 0.84085 0.0195688
1682000 60.3145 239.823 55.7548 0.84095 0.0194442
1682200 60.3145 239.836 55.7548 0.84105 0.0110026
1682400 60.3145 239.849 55.7548 0.84115 0.0190917
1682600 60.3145 239.862 55.7548 0.84125 0.0173635
1682800 60.3145 239.875 55.7548 0.84135 -0.00798967
1683000 60.3145 239.888 55.7548 0.84145 0.00783321
1683200 60.3145 239.901 55.7548 0.84155 0.00489115
1683400 60.3145 239.914 55.7548 0.84165 -0.00435792
1683600 60.3145 239.927 55.7548 0.84175 0.00327593
1683800 60.3145 239.94 55.7548 0.84185 -0.00803945
1684000 60.3145 239.953 55.7548 0.84195 -0.0251278
1684200 60.3145 239.966 55.7548 0.84205 -0.0154683
1684400 60.3145 239.979 55.7548 0.84215 0.0129217
1684600 60.3145 239.992 55.7548 0.84225 -0.00120387
1684800 60.3145 240.005 55.7548 0.84235 -0.0114256
1685000 60.3145 240.018 55.7548 0.84245 0.00214425
1685200 60.3145 240.031 55.7548 0.84255 0.00363692
1685400 60.3145 240.044 55.7548 0.84265 0.0189168
1685600 60.3145 240.057 55.7548 0.84275 0.00420969
1685800 60.3145 240.07 55.7548 0.84285 0.0176292
1686000 60.3145 240.083 55.7548 0.84295 0.0260304
1686200 60.3145 240.096 55.7548 0.84305 0.0186353
1686400 60.3145 240.11 55.7548 0.84315 0.00592861
1686600 60.3145 240.123 55.7548 0.84325 0.0108646
1686800 60.3145 240.136 55.7548 0.84335 0.00604155
1687000 60.3145 240.149 55.7548 0.84345 -0.00323633
1687200 60.3145 240.162 55.7548 0.84355 -1.84079e-05
1687400 60.3145 240.175 55.7548 0.84365 0.000218328
1687600 60.3145 240.188 55.7548 0.84375 -0.0172188
1687800 60.3145 240.201 55.7548 0.84385 -0.0111342
1688000 60.3145 240.214 55.7548 0.84395 -0.00191796
1688200 60.3145 240.227 55.7548 0.84405 0.0137612
1688400 60.3145 240.24 55.7548 0.84415 -0.019021
1688600 60.3145 240.253 55.7548 0.84425 -0.00101498
1688800 60.3145 240.266 55.7548 0.84435 0.014364
1689000 60.3145 240.279 55.7548 0.84445 0.00421063
1689200 60.3145 240.292 55.7548 0.84455 0.0132261
1689400 60.3145 240.305 55.7548 0.84465 -0.0058429
1689600 60.3145 240.318 55.7548 0.84475 0.0243561
1689800 60.3145 240.331 55.7548 0.84485 0.0181719
1690000 60.3145 240.344 55.7548 0.84495 0.0122968
1690200 60.3145 240.357 55.7548 0.84505 0.000328617
1690400 60.3145 240.37 55.7548 0.84515 0.020071
1690600 60.3145 240.383 55.7548 0.84525 0.00352785
1690800 60.3145 240.396 55.7548 0.84535 0.00384776
1691000 60.3145 240.409 55.7548 0.84545 -0.00587655
1691200 60.3145 240.422 55.7548 0.84555 -0.00233769
1691400 60.3145 240.435 55.7548 0.84565 -0.00923747
1691600 60.3145 240.448 55.7548 0.84575 -0.0074496
1691800 60.3145 240.461 55.7548 0.84585 0.00595899
1692000 60.3145 240.474 55.7548 0.84595 -0.0166183
1692200 60.3145 240.487 55.7548 0.84605 0.0047682
1692400 60.3145 240.5 55.7548 0.84615 -0.00309239
1692600 60.3145 240.513 55.7548 0.84625 0.00386616
1692800 60.3145 240.526 55.7548 0.84635 0.00883766
1693000 60.3145 240.539 55.7548 0.84645 0.00506871
1693200 60.3145 240.552 55.7548 0.84655 0.0136595
1693400 60.3145 240.565 55.7548 0.84665 0.0191372
1693600 60.3145 240.578 55.7548 0.84675 -0.00543163
1693800 60.3145 240.592 55.7548 0.84685 0.0295611
1694000 60.3145 240.605 55.7548 0.84695 0.0026605
1694200 60.3145 240.618 55.7548 0.84705 -0.000531413
1694400 60.3145 240.631 55.7548 0.84715 0.00183698
1694600 60.3145 240.644 55.7548 0.84725 0.00380013
1694800 60.3145 240.657 55.7548 0.84735 0.0171362
1695000 60.3145 240.67 55.7548 0.84745 0.00675764
1695200 60.3145 240.683 55.7548 0.84755 -0.00788832
1695400 60.3145 240.696 55.7548 0.84765 -0.0193088
1695600 60.3145 240.709 55.7548 0.84775 -0.00206841
1695800 60.3145 240.722 55.7548 0.84785 -0.000294049
1696000 60.3145 240.735 55.7548 0.84795 0.00704161
1696200 60.3145 240.748 55.7548 0.84805 0.00120164
1696400 60.3145 240.761 55.7548 0.84815 0.00248707
1696600 60.3145 240.774 55.7548 0.84825 -0.00184088
1696800 60.3145 240.787 55.7548 0.84835 0.000469647
1697000 60.3145 240.8 55.7548 0.84845 -0.0123394
1697200 60.3145 240.813 55.7548 0.84855 0.0163564
1697400 60.3145 240.826 55.7548 0.84865 0.0285795
1697600 60.3145 240.839 55.7548 0.84875 0.0193353
1697800 60.3145 240.852 55.7548 0.84885 0.0085602
1698000 60.3145 240.865 55.7548 0.84895 0.00937831
1698200 60.3145 240.878 55.7548 0.84905 -0.00875081
1698400 60.3145 240.891 55.7548 0.84915 0.00019768
1698600 60.3145 240.904 55.7548 0.84925 0.0200969
1698800 60.3145 240.917 55.7548 0.84935 0.00107827
1699000 60.3145 240.93 55.7548 0.84945 0.00556825
1699200 60.3145 240.943 55.7548 0.84955 -0.00746276
1699400 60.3145 240.956 55.7548 0.84965 0.00165419
1699600 60.3145 240.969 55.7548 0.84975 -0.00981805
1699800 60.3145 240.982 55.7548 0.84985 -0.00944712
1700000 60.3145 240.995 55.7548 0.84995 0.00896893
1700200 60.3145 241.008 55.7548 0.85005 0.00675616
1700400 60.3145 241.021 55.7548 0.85015 0.00142545
1700600 60.3145 241.034 55.7548 0.85025 -0.00622882
1700800 60.3145 241.047 55.7548 0.85035 0.0129106
1701000 60.3145 241.06 55.7548 0.85045 -0.013308
1701200 60.3145 241.074 55.7548 0.85055 -0.00318545
1701400 60.3145 241.087 55.7548 0.85065 0.0185034
1701600 60.3145 241.1 55.7548 0.85075 0.0231518
1701800 60.3145 241.113 55.7548 0.85085 0.00159663
1702000 60.3145 241.126 55.7548 0.85095 0.00371984
1702200 60.3145 241.139 55.7548 0.85105 0.00813287
1702400 60.3145 241.152 55.7548 0.85115 0.0100023
1702600 60.3145 241.165 55.7548 0.85125 0.0135378
1702800 60.3145 241.178 55.7548 0.85135 0.00789384
1703000 60.3145 241.191 55.7548 0.85145 0.0019562
1703200 60.3145 241.204 55.7548 0.85155 0.000848425
1703400 60.3145 241.217 55.7548 0.85165 -0.0245058
1703600 60.3145 241.23 55.7548 0.85175 0.00284357
1703800 60.3145 241.243 55.7548 0.85185 0.0212482
1704000 60.3145 241.256 55.7548 0.85195 -0.00923736
1704200 60.3145 241.269 55.7548 0.85205 0.00246131
1704400 60.3145 241.282 55.7548 0.85215 0.00599806
1704600 60.3145 241.295 55.7548 0.85225 -0.00505767
1704800 60.3145 241.308 55.7548 0.85235 -0.0133588
1705000 60.3145 241.321 55.7548 0.85245 0.000709852
1705200 60.3145 241.334 55.7548 0.85255 0.00911122
1705400 60.3145 241.347 55.7548 0.85265 0.0195639
1705600 60.3145 241.36 55.7548 0.85275 0.0126806
1705800 60.3145 241.373 55.7548 0.85285 0.00782103
1706000 60.3145 241.386 55.7548 0.85295 -0.00172588
1706200 60.3145 241.399 55.7548 0.85305 0.00870575
1706400 60.3145 241.412 55.7548 0.85315 0.00913667
1706600 60.3145 241.425 55.7548 0.85325 -1.22725e-05
1706800 60.3145 241.438 55.7548 0.85335 0.0167271
1707000 60.3145 241.451 55.7548 0.85345 -0.00422809
1707200 60.3145 241.464 55.7548 0.85355 0.0112034
1707400 60.3145 241.477 55.7548 0.85365 -0.0232363
1707600 60.3145 241.49 55.7548 0.85375 0.00252459
1707800 60.3145 241.503 55.7548 0.85385 -0.00536613
1708000 60.3145 241.516 55.7548 0.85395 -0.00117964
1708200 60.3145 241.529 55.7548 0.85405 0.00799771
1708400 60.3145 241.542 55.7548 0.85415 0.00507948
1708600 60.3145 241.556 55.7548 0.85425 0.00524387
1708800 60.3145 241.569 55.7548 0.85435 0.00869002
1709000 60.3145 241.582 55.7548 0.85445 0.0094018
1709200 60.3145 241.595 55.7548 0.85455 -0.00608746
1709400 60.3145 241.608 55.7548 0.85465 0.00912002
1709600 60.3145 241.621 55.7548 0.85475 0.0087548
1709800 60.3145 241.634 55.7548 0.85485 0.0187631
1710000 60.3145 241.647 55.7548 0.85495 0.0100846
1710200 60.3145 241.66 55.7548 0.85505 0.0118863
1710400 60.3145 241.673 55.7548 0.85515 -0.00393996
1710600 60.3145 241.686 55.7548 0.85525 -0.0030874
1710800 60.3145 241.699 55.7548 0.85535 0.00737769
1711000 60.3145 241.712 55.7548 0.85545 -0.00544703
1711200 60.3145 241.725 55.7548 0.85555 0.000403542
1711400 60.3145 241.738 55.7548 0.85565 -0.00441305
1711600 60.3145 241.751 55.7548 0.85575 0.0009247
1711800 60.3145 241.764 55.7548 0.85585 -0.00305806
1712000 60.3145 241.777 55.7548 0.85595 -0.0125335
1712200 60.3145 241.79 55.7548 0.85605 -0.0107403
1712400 60.3145 241.803 55.7548 0.85615 0.0190086
1712600 60.3145 241.816 55.7548 0.85625 0.0107761
1712800 60.3145 241.829 55.7548 0.85635 0.011227
1713000 60.3145 241.842 55.7548 0.85645 0.0127086
1713200 60.3145 241.855 55.7548 0.85655 0.0127823
1713400 60.3145 241.868 55.7548 0.85665 -0.00714067
1713600 60.3145 241.881 55.7548 0.85675 -0.00697304
1713800 60.3145 241.894 55.7548 0.85685 0.0158976
1714000 60.3145 241.907 55.7548 0.85695 0.0136088
1714200 60.3145 241.92 55.7548 0.85705 0.0165757
1714400 60.3145 241.933 55.7548 0.85715 0.00450573
1714600 60.3145 241.946 55.7548 0.85725 0.0030271
1714800 60.3145 241.959 55.7548 0.85735 0.00782755
1715000 60.3145 241.972 55.7548 0.85745 -0.0169679
1715200 60.3145 241.985 55.7548 0.85755 -0.00467974
1715400 60.3145 241.998 55.7548 0.85765 -0.0092203
1715600 60.3145 242.011 55.7548 0.85775 0.0150883
1715800 60.3145 242.024 55.7548 0.85785 0.00847685
1716000 60.3145 242.038 55.7548 0.85795 0.00625928
1716200 60.3145 242.051 55.7548 0.85805 -0.0207721
1716400 60.3145 242.064 55.7548 0.85815 -0.00574262
1716600 60.3145 242.077 55.7548 0.85825 0.000148147
1716800 60.3145 242.09 55.7548 0.85835 0.0168153
1717000 60.3145 242.103 55.7548 0.85845 0.0104506
1717200 60.3145 242.116 55.7548 0.85855 0.0167245
1717400 60.3145 242.129 55.7548 0.85865 0.00544895
1717600 60.3145 242.142 55.7548 0.85875 -0.00545706
1717800 60.3145 242.155 55.7548 0.85885 0.00272965
1718000 60.3145 242.168 55.7548 0.85895 -0.00535243
1718200 60.3145 242.181 55.7548 0.85905 0.0239208
1718400 60.3145 242.194 55.7548 0.85915 0.020652
1718600 60.3145 242.207 55.7548 0.85925 -0.00364012
1718800 60.3145 242.22 55.7548 0.85935 -0.010414
1719000 60.3145 242.233 55.7548 0.85945 -0.00531656
1719200 60.3145 242.246 55.7548 0.85955 0.000198276
1719400 60.3145 242.259 55.7548 0.85965 -0.000981643
1719600 60.3145 242.272 55.7548 0.85975 -4.53706e-05
1719800 60.3145 242.285 55.7548 0.85985 0.0205451
1720000 60.3145 242.298 55.7548 0.85995 0.0206908
1720200 60.3145 242.311 55.7548 0.86005 -0.00330035
1720400 60.3145 242.324 55.7548 0.86015 -0.0228465
1720600 60.3145 242.337 55.7548 0.86025 0.0112866
1720800 60.3145 242.35 55.7548 0.86035 0.00275333
1721000 60.3145 242.363 55.7548 0.86045 0.0185329
1721200 60.3145 242.376 55.7548 0.86055 0.00788893
1721400 60.3145 242.389 55.7548 0.86065 0.00570774
1721600 60.3145 242.402 55.7548 0.86075 -0.000702876
1721800 60.3145 242.415 55.7548 0.86085 0.00217927
1722000 60.3145 242.428 55.7548 0.86095 -0.0163396
1722200 60.3145 242.441 55.7548 0.86105 0.00240094
1722400 60.3145 242.454 55.7548 0.86115 0.0126368
1722600 60.3145 242.467 55.7548 0.86125 -0.000878569
1722800 60.3145 242.48 55.7548 0.86135 0.0111437
1723000 60.3145 242.493 55.7548 0.86145 -0.00731356
1723200 60.3145 242.507 55.7548 0.86155 -0.0113987
1723400 60.3145 242.52 55.7548 0.86165 0.00626515
1723600 60.3145 242.533 55.7548 0.86175 0.00538037
1723800 60.3145 242.546 55.7548 0.86185 0.00960112
1724000 60.3145 242.559 55.7548 0.86195 0.0221315
1724200 60.3145 242.572 55.7548 0.86205 0.00378625
1724400 60.3145 242.585 55.7548 0.86215 0.00394941
1724600 60.3145 242.598 55.7548 0.86225 0.00212859
1724800 60.3145 242.611 55.7548 0.86235 0.0239952
1725000 60.3145 242.624 55.7548 0.86245 -0.0105881
1725200 60.3145 242.637 55.7548 0.86255 -7.10073e-05
1725400 60.3145 242.65 55.7548 0.86265 0.0133985
1725600 60.3145 242.663 55.7548 0.86275 -0.00265256
1725800 60.3145 242.676 55.7548 0.86285 0.0010339
1726000 60.3145 242.689 55.7548 0.86295 0.00289888
1726200 60.3145 242.702 55.7548 0.86305 -0.0066086
1726400 60.3145 242.715 55.7548 0.86315 0.000653002
1726600 60.3145 242.728 55.7548 0.86325 -0.000575545
1726800 60.3145 242.741 55.7548 0.86335 0.00310019
1727000 60.3145 242.754 55.7548 0.86345 -0.0017013
1727200 60.3145 242.767 55.7548 0.86355 -0.00429974
1727400 60.3145 242.78 55.7548 0.86365 0.00419489
1727600 60.3145 242.793 55.7548 0.86375 0.00790664
1727800 60.3145 242.806 55.7548 0.86385 0.00751021
1728000 60.3145 242.819 55.7548 0.86395 0.0117693
1728200 60.3145 242.832 55.7548 0.86405 0.0109779
1728400 60.3145 242.845 55.7548 0.86415 0.00139421
1728600 60.3145 242.858 55.7548 0.86425 0.000977824
1728800 60.3145 242.871 55.7548 0.86435 0.0106965
1729000 60.3145 242.884 55.7548 0.86445 0.0112854
1729200 60.3145 242.897 55.7548 0.86455 0.0013861
1729400 60.3145 242.91 55.7548 0.86465 0.00498918
1729600 60.3145 242.923 55.7548 0.86475 0.0016213
1729800 60.3145 242.936 55.7548 0.86485 -0.00707224
1730000 60.3145 242.949 55.7548 0.86495 0.0006967
1730200 60.3145 242.962 55.7548 0.86505 0.00331027
1730400 60.3145 242.975 55.7548 0.86515 0.00524471
1730600 60.3145 242.989 55.7548 0.86525 -0.00196421
1730800 60.3145 243.002 55.7548 0.86535 0.00138388
1731000 60.3145 243.015 55.7548 0.86545 -0.011935
1731200 60.3145 243.028 55.7548 0.86555 -0.000883673
1731400 60.3145 243.041 55.7548 0.86565 0.00543231
1731600 60.3145 243.054 55.7548 0.86575 0.00953816
1731800 60.3145 243.067 55.7548 0.86585 0.0195449
1732000 60.3145 243.08 55.7548 0.86595 -0.00060282
1732200 60.3145 243.093 55.7548 0.86605 0.00224313
1732400 60.3145 243.106 55.7548 0.86615 0.0181284
1732600 60.3145 243.119 55.7548 0.86625 0.000914263
1732800 60.3145 243.132 55.7548 0.86635 0.0215108
1733000 60.3145 243.145 55.7548 0.86645 0.00453365
1733200 60.3145 243.158 55.7548 0.86655 -0.0042451
1733400 60.3145 243.171 55.7548 0.86665 0.00460212
1733600 60.3145 243.184 55.7548 0.86675 0.00548056
1733800 60.3145 243.197 55.7548 0.86685 -0.0191788
1734000 60.3145 243.21 55.7548 0.86695 -0.0185385
1734200 60.3145 243.223 55.7548 0.86705 -0.00260693
1734400 60.3145 243.236 55.7548 0.86715 0.00397566
1734600 60.3145 243.249 55.7548 0.86725 0.00370956
1734800 60.3145 243.262 55.7548 0.86735 0.00752856
1735000 60.3145 243.275 55.7548 0.86745 -0.000101151
1735200 60.3145 243.288 55.7548 0.86755 0.00509684
1735400 60.3145 243.301 55.7548 0.86765 0.0118592
1735600 60.3145 243.314 55.7548 0.86775 0.00919598
1735800 60.3145 243.327 55.7548 0.86785 0.0135099
1736000 60.3145 243.34 55.7548 0.86795 0.0112519
1736200 60.3145 243.353 55.7548 0.86805 0.00422607
1736400 60.3145 243.366 55.7548 0.86815 0.0181346
1736600 60.3145 243.379 55.7548 0.86825 0.0118284
1736800 60.3145 243.392 55.7548 0.86835 -0.00266577
1737000 60.3145 243.405 55.7548 0.86845 -0.00744182
1737200 60.3145 243.418 55.7548 0.86855 -0.00875685
1737400 60.3145 243.431 55.7548 0.86865 0.0145329
1737600 60.3145 243.444 55.7548 0.86875 -0.00889429
1737800 60.3145 243.457 55.7548 0.86885 0.00266126
1738000 60.3145 243.471 55.7548 0.86895 0.00153578
1738200 60.3145 243.484 55.7548 0.86905 -0.00151339
1738400 60.3145 243.497 55.7548 0.86915 -0.0017555
1738600 60.3145 243.51 55.7548 0.86925 -0.00844275
1738800 60.3145 243.523 55.7548 0.86935 0.00330133
1739000 60.3145 243.536 55.7548 0.86945 0.0194792
1739200 60.3145 243.549 55.7548 0.86955 0.00277868
1739400 60.3145 243.562 55.7548 0.86965 0.000387373
1739600 60.3145 243.575 55.7548 0.86975 0.011404
1739800 60.3145 243.588 55.7548 0.86985 -0.00300423
1740000 60.3145 243.601 55.7548 0.86995 0.00361138
1740200 60.3145 243.614 55.7548 0.87005 -0.00107442
1740400 60.3145 243.627 55.7548 0.87015 0.0135234
1740600 60.3145 243.64 55.7548 0.87025 -0.00423239
1740800 60.3145 243.653 55.7548 0.87035 0.00440932
1741000 60.3145 243.666 55.7548 0.87045 0.0157706
1741200 60.3145 243.679 55.7548 0.87055 -0.000433511
1741400 60.3145 243.692 55.7548 0.87065 0.00916819
1741600 60.3145 243.705 55.7548 0.87075 -0.00267766
1741800 60.3145 243.718 55.7548 0.87085 0.000682214
1742000 60.3145 243.731 55.7548 0.87095 0.0190747
1742200 60.3145 243.744 55.7548 0.87105 -0.00560791
1742400 60.3145 243.757 55.7548 0.87115 0.0100719
1742600 60.3145 243.77 55.7548 0.87125 0.0111969
1742800 60.3145 243.783 55.7548 0.87135 -0.0151287
1743000 60.3145 243.796 55.7548 0.87145 -0.00197286
1743200 60.3145 243.809 55.7548 0.87155 0.00916631
1743400 60.3145 243.822 55.7548 0.87165 -0.0039564
1743600 60.3145 243.835 55.7548 0.87175 -0.000549644
1743800 60.3145 243.848 55.7548 0.87185 0.00454308
1744000 60.3145 243.861 55.7548 0.87195 -0.00157787
1744200 60.3145 243.874 55.7548 0.87205 -0.00285333
1744400 60.3145 243.887 55.7548 0.87215 0.00193029
1744600 60.3145 243.9 55.7548 0.87225 0.0165008
1744800 60.3145 243.913 55.7548 0.87235 0.000507487
1745000 60.3145 243.926 55.7548 0.87245 0.008211
1745200 60.3145 243.939 55.7548 0.87255 0.00582341
1745400 60.3145 243.953 55.7548 0.87265 0.0156594
1745600 60.3145 243.966 55.7548 0.87275 0.0164017
1745800 60.3145 243.979 55.7548 0.87285 -0.000349831
1746000 60.3145 243.992 55.7548 0.87295 0.00280685
1746200 60.3145 244.005 55.7548 0.87305 0.00556039
1746400 60.3145 244.018 55.7548 0.87315 0.0111874
1746600 60.3145 244.031 55.7548 0.87325 -0.0146261
1746800 60.3145 244.044 55.7548 0.87335 -0.0114129
1747000 60.3145 244.057 55.7548 0.87345 0.0157334
1747200 60.3145 244.07 55.7548 0.87355 -0.0153735
1747400 60.3145 244.083 55.7548 0.87365 0.005793
1747600 60.3145 244.096 55.7548 0.87375 -0.0013207
1747800 60.3145 244.109 55.7548 0.87385 0.00610737
1748000 60.3145 244.122 55.7548 0.87395 -0.0175877
1748200 60.3145 244.135 55.7548 0.87405 0.0137269
1748400 60.3145 244.148 55.7548 0.87415 0.00934393
1748600 60.3145 244.161 55.7548 0.87425 0.000412771
1748800 60.3145 244.174 55.7548 0.87435 0.0175554
1749000 60.3145 244.187 55.7548 0.87445 0.00485588
1749200 60.3145 244.2 55.7548 0.87455 0.00939271
1749400 60.3145 244.213 55.7548 0.87465 0.00419772
1749600 60.3145 244.226 55.7548 0.87475 0.0120723
1749800 60.3145 244.239 55.7548 0.87485 0.0132077
1750000 60.3145 244.252 55.7548 0.87495 -0.00300496
1750200 60.3145 244.265 55.7548 0.87505 0.00745849
1750400 60.3145 244.278 55.7548 0.87515 0.00322267
1750600 60.3145 244.291 55.7548 0.87525 -0.00870727
1750800 60.3145 244.304 55.7548 0.87535 0.000900705
1751000 60.3145 244.317 55.7548 0.87545 -0.0174272
1751200 60.3145 244.33 55.7548 0.87555 -0.00293815
1751400 60.3145 244.343 55.7548 0.87565 0.0103583
1751600 60.3145 244.356 55.7548 0.87575 0.000743494
1751800 60.3145 244.369 55.7548 0.87585 0.00939815
1752000 60.3145 244.382 55.7548 0.87595 -0.00988392
1752200 60.3145 244.395 55.7548 0.87605 0.000400761
1752400 60.3145 244.408 55.7548 0.87615 0.0050754
1752600 60.3145 244.421 55.7548 0.87625 0.0174308
1752800 60.3145 244.435 55.7548 0.87635 0.011464
1753000 60.3145 244.448 55.7548 0.87645 0.010215
1753200 60.3145 244.461 55.7548 0.87655 0.007039
1753400 60.3145 244.474 55.7548 0.87665 0.000607704
1753600 60.3145 244.487 55.7548 0.87675 0.00157087
1753800 60.3145 244.5 55.7548 0.87685 0.00842843
1754000 60.3145 244.513 55.7548 0.87695 0.015747
1754200 60.3145 244.526 55.7548 0.87705 0.0097292
1754400 60.3145 244.539 55.7548 0.87715 -0.00608794
1754600 60.3145 244.552 55.7548 0.87725 -0.0182129
1754800 60.3145 244.565 55.7548 0.87735 0.00443426
1755000 60.3145 244.578 55.7548 0.87745 -0.00414325
1755200 60.3145 244.591 55.7548 0.87755 -0.00543798
1755400 60.3145 244.604 55.7548 0.87765 0.00844697
1755600 60.3145 244.617 55.7548 0.87775 0.00610541
1755800 60.3145 244.63 55.7548 0.87785 -0.00403323
1756000 60.3145 244.643 55.7548 0.87795 -0.00087582
1756200 60.3145 244.656 55.7548 0.87805 0.00505896
1756400 60.3145 244.669 55.7548 0.87815 0.00412772
1756600 60.3145 244.682 55.7548 0.87825 0.0133626
1756800 60.3145 244.695 55.7548 0.87835 0.0185023
1757000 60.3145 244.708 55.7548 0.87845 0.00846238
1757200 60.3145 244.721 55.7548 0.87855 0.00941225
1757400 60.3145 244.734 55.7548 0.87865 -0.00458763
1757600 60.3145 244.747 55.7548 0.87875 -0.00580217
1757800 60.3145 244.76 55.7548 0.87885 0.0127888
1758000 60.3145 244.773 55.7548 0.87895 0.0146179
1758200 60.3145 244.786 55.7548 0.87905 0.00247911
1758400 60.3145 244.799 55.7548 0.87915 -0.00451418
1758600 60.3145 244.812 55.7548 0.87925 -0.00949526
1758800 60.3145 244.825 55.7548 0.87935 -0.0154676
1759000 60.3145 244.838 55.7548 0.87945 0.0153889
1759200 60.3145 244.851 55.7548 0.87955 -0.00952404
1759400 60.3145 244.864 55.7548 0.87965 0.0186981
1759600 60.3145 244.877 55.7548 0.87975 0.00428582
1759800 60.3145 244.89 55.7548 0.87985 -0.0163934
1760000 60.3145 244.903 55.7548 0.87995 0.010756
1760200 60.3145 244.917 55.7548 0.88005 0.00521795
1760400 60.3145 244.93 55.7548 0.88015 0.0098523
1760600 60.3145 244.943 55.7548 0.88025 0.0205235
1760800 60.3145 244.956 55.7548 0.88035 0.00535991
1761000 60.3145 244.969 55.7548 0.88045 0.0175371
1761200 60.3145 244.982 55.7548 0.88055 -0.00487788
1761400 60.3145 244.995 55.7548 0.88065 -0.00163127
1761600 60.3145 245.008 55.7548 0.88075 0.011779
1761800 60.3145 245.021 55.7548 0.88085 -0.00693772
1762000 60.3145 245.034 55.7548 0.88095 0.0147811
1762200 60.3145 245.047 55.7548 0.88105 -0.0120837
1762400 60.3145 245.06 55.7548 0.88115 -0.0161513
1762600 60.3145 245.073 55.7548 0.88125 -0.00276926
1762800 60.3145 245.086 55.7548 0.88135 0.00824756
1763000 60.3145 245.099 55.7548 0.88145 -0.0126478
1763200 60.3145 245.112 55.7548 0.88155 0.00379151
1763400 60.3145 245.125 55.7548 0.88165 0.0155322
1763600 60.3145 245.138 55.7548 0.88175 -0.0200187
1763800 60.3145 245.151 55.7548 0.88185 0.0117146
1764000 60.3145 245.164 55.7548 0.88195 0.0228666
1764200 60.3145 245.177 55.7548 0.88205 0.015039
1764400 60.3145 245.19 55.7548 0.88215 0.0177801
1764600 60.3145 245.203 55.7548 0.88225 0.0128315
1764800 60.3145 245.216 55.7548 0.88235 0.0103172
1765000 60.3145 245.229 55.7548 0.88245 0.00111095
1765200 60.3145 245.242 55.7548 0.88255 -0.00531202
1765400 60.3145 245.255 55.7548 0.88265 -0.0115851
1765600 60.3145 245.268 55.7548 0.88275 0.0126795
1765800 60.3145 245.281 55.7548 0.88285 -0.000115354
1766000 60.3145 245.294 55.7548 0.88295 -0.0114443
1766200 60.3145 245.307 55.7548 0.88305 0.00714133
1766400 60.3145 245.32 55.7548 0.88315 -0.0129404
1766600 60.3145 245.333 55.7548 0.88325 -0.00328441
1766800 60.3145 245.346 55.7548 0.88335 -0.0146908
1767000 60.3145 245.359 55.7548 0.88345 0.00729534
1767200 60.3145 245.372 55.7548 0.88355 0.0130206
1767400 60.3145 245.385 55.7548 0.88365 0.0245146
1767600 60.3145 245.399 55.7548 0.88375 -0.00275024
1767800 60.3145 245.412 55.7548 0.88385 -0.00544456
1768000 60.3145 245.425 55.7548 0.88395 0.00803057
1768200 60.3145 245.438 55.7548 0.88405 0.0221745
1768400 60.3145 245.451 55.7548 0.88415 0.0146081
1768600 60.3145 245.464 55.7548 0.88425 0.000508532
1768800 60.3145 245.477 55.7548 0.88435 0.0127846
1769000 60.3145 245.49 55.7548 0.88445 0.00732274
1769200 60.3145 245.503 55.7548 0.88455 -0.00495881
1769400 60.3145 245.516 55.7548 0.88465 -0.00449292
1769600 60.3145 245.529 55.7548 0.88475 -0.0030753
1769800 60.3145 245.542 55.7548 0.88485 0.00909747
1770000 60.3145 245.555 55.7548 0.88495 0.00929439
1770200 60.3145 245.568 55.7548 0.88505 -0.00585228
1770400 60.3145 245.581 55.7548 0.88515 0.000279101
1770600 60.3145 245.594 55.7548 0.88525 -0.0130609
1770800 60.3145 245.607 55.7548 0.88535 0.00115423
1771000 60.3145 245.62 55.7548 0.88545 -0.00508184
1771200 60.3145 245.633 55.7548 0.88555 0.0203314
1771400 60.3145 245.646 55.7548 0.88565 0.00169297
1771600 60.3145 245.659 55.7548 0.88575 -0.00509561
1771800 60.3145 245.672 55.7548 0.88585 0.0142397
1772000 60.3145 245.685 55.7548 0.88595 -0.00491861
1772200 60.3145 245.698 55.7548 0.88605 0.00140102
1772400 60.3145 245.711 55.7548 0.88615 0.0102573
1772600 60.3145 245.724 55.7548 0.88625 0.0083816
1772800 60.3145 245.737 55.7548 0.88635 0.00850692
1773000 60.3145 245.75 55.7548 0.88645 0.0106508
1773200 60.3145 245.763 55.7548 0.88655 0.0116874
1773400 60.3145 245.776 55.7548 0.88665 -0.00380986
1773600 60.3145 245.789 55.7548 0.88675 0.00133709
1773800 60.3145 245.802 55.7548 0.88685 0.0171899
1774000 60.3145 245.815 55.7548 0.88695 -0.00709387
1774200 60.3145 245.828 55.7548 0.88705 0.000338495
1774400 60.3145 245.841 55.7548 0.88715 0.00440034
1774600 60.3145 245.854 55.7548 0.88725 0.00180716
1774800 60.3145 245.868 55.7548 0.88735 0.00648338
1775000 60.3145 245.881 55.7548 0.88745 -0.00790705
1775200 60.3145 245.894 55.7548 0.88755 -0.00918137
1775400 60.3145 245.907 55.7548 0.88765 -0.00313972
1775600 60.3145 245.92 55.7548 0.88775 0.0129532
1775800 60.3145 245.933 55.7548 0.88785 0.00883496
1776000 60.3145 245.946 55.7548 0.88795 -0.00819199
1776200 60.3145 245.959 55.7548 0.88805 -0.00049782
1776400 60.3145 245.972 55.7548 0.88815 0.00873897
1776600 60.3145 245.985 55.7548 0.88825 0.00480583
1776800 60.3145 245.998 55.7548 0.88835 0.0102889
1777000 60.3145 246.011 55.7548 0.88845 0.00537507
1777200 60.3145 246.024 55.7548 0.88855 0.0158663
1777400 60.3145 246.037 55.7548 0.88865 0.0100372
1777600 60.3145 246.05 55.7548 0.88875 -0.00636393
1777800 60.3145 246.063 55.7548 0.88885 0.00846298
1778000 60.3145 246.076 55.7548 0.88895 -0.00494095
1778200 60.3145 246.089 55.7548 0.88905 0.00276776
1778400 60.3145 246.102 55.7548 0.88915 0.0165144
1778600 60.3145 246.115 55.7548 0.88925 -0.00493897
1778800 60.3145 246.128 55.7548 0.88935 -0.00239737
1779000 60.3145 246.141 55.7548 0.88945 0.00189978
1779200 60.3145 246.154 55.7548 0.88955 -0.00451741
1779400 60.3145 246.167 55.7548 0.88965 0.0218333
1779600 60.3145 246.18 55.7548 0.88975 -0.00108106
1779800 60.3145 246.193 55.7548 0.88985 0.00160689
1780000 60.3145 246.206 55.7548 0.88995 0.00464956
1780200 60.3145 246.219 55.7548 0.89005 -0.0134609
1780400 60.3145 246.232 55.7548 0.89015 0.00132155
1780600 60.3145 246.245 55.7548 0.89025 0.0177497
1780800 60.3145 246.258 55.7548 0.89035 -0.0069735
1781000 60.3145 246.271 55.7548 0.89045 -0.000861829
1781200 60.3145 246.284 55.7548 0.89055 0.0145467
1781400 60.3145 246.297 55.7548 0.89065 0.00263694
1781600 60.3145 246.31 55.7548 0.89075 -0.00404742
1781800 60.3145 246.323 55.7548 0.89085 0.00796859
1782000 60.3145 246.336 55.7548 0.89095 0.0113365
1782200 60.3145 246.35 55.7548 0.89105 0.00920123
1782400 60.3145 246.363 55.7548 0.89115 0.0154526
1782600 60.3145 246.376 55.7548 0.89125 0.000115436
1782800 60.3145 246.389 55.7548 0.89135 -0.00865888
1783000 60.3145 246.402 55.7548 0.89145 -0.0090104
1783200 60.3145 246.415 55.7548 0.89155 0.0165875
1783400 60.3145 246.428 55.7548 0.89165 0.00831409
1783600 60.3145 246.441 55.7548 0.89175 -0.0110308
1783800 60.3145 246.454 55.7548 0.89185 0.00669837
1784000 60.3145 246.467 55.7548 0.89195 -0.00727073
1784200 60.3145 246.48 55.7548 0.89205 -0.0010302
1784400 60.3145 246.493 55.7548 0.89215 0.0202788
1784600 60.3145 246.506 55.7548 0.89225 -0.00682476
1784800 60.3145 246.519 55.7548 0.89235 0.000250778
1785000 60.3145 246.532 55.7548 0.89245 0.00388993
1785200 60.3145 246.545 55.7548 0.89255 0.0228989
1785400 60.3145 246.558 55.7548 0.89265 -0.0121897
1785600 60.3145 246.571 55.7548 0.89275 0.00459391
1785800 60.3145 246.584 55.7548 0.89285 -0.00547521
1786000 60.3145 246.597 55.7548 0.89295 0.00703632
1786200 60.3145 246.61 55.7548 0.89305 0.00504046
1786400 60.3145 246.623 55.7548 0.89315 0.000570134
1786600 60.3145 246.636 55.7548 0.89325 0.0255276
1786800 60.3145 246.649 55.7548 0.89335 -0.00710307
1787000 60.3145 246.662 55.7548 0.89345 0.00393795
1787200 60.3145 246.675 55.7548 0.89355 0.0127544
1787400 60.3145 246.688 55.7548 0.89365 -0.00190142
1787600 60.3145 246.701 55.7548 0.89375 -0.00181737
1787800 60.3145 246.714 55.7548 0.89385 0.0167239
1788000 60.3145 246.727 55.7548 0.89395 -0.00557333
1788200 60.3145 246.74 55.7548 0.89405 0.00283112
1788400 60.3145 246.753 55.7548 0.89415 -0.00483659
1788600 60.3145 246.766 55.7548 0.89425 -0.00227139
1788800 60.3145 246.779 55.7548 0.89435 0.00709455
1789000 60.3145 246.792 55.7548 0.89445 0.00600552
1789200 60.3145 246.805 55.7548 0.89455 -0.00437831
1789400 60.3145 246.818 55.7548 0.89465 0.00103117
1789600 60.3145 246.832 55.7548 0.89475 -0.00371009
1789800 60.3145 246.845 55.7548 0.89485 -0.00306919
1790000 60.3145 246.858 55.7548 0.89495 0.0230492
1790200 60.3145 246.871 55.7548 0.89505 0.0214639
1790400 60.3145 246.884 55.7548 0.89515 -0.00986226
1790600 60.3145 246.897 55.7548 0.89525 -0.000363183
1790800 60.3145 246.91 55.7548 0.89535 0.00960001
1791000 60.3145 246.923 55.7548 0.89545 -0.000553879
1791200 60.3145 246.936 55.7548 0.89555 0.0119626
1791400 60.3145 246.949 55.7548 0.89565 -0.00129828
1791600 60.3145 246.962 55.7548 0.89575 0.0127214
1791800 60.3145 246.975 55.7548 0.89585 0.00788572
1792000 60.3145 246.988 55.7548 0.89595 -0.000953743
1792200 60.3145 247.001 55.7548 0.89605 -0.0040223
1792400 60.3145 247.014 55.7548 0.89615 -0.00426255
1792600 60.3145 247.027 55.7548 0.89625 -0.00183677
1792800 60.3145 247.04 55.7548 0.89635 -0.0115544
1793000 60.3145 247.053 55.7548 0.89645 0.0214351
1793200 60.3145 247.066 55.7548 0.89655 0.00239126
1793400 60.3145 247.079 55.7548 0.89665 0.00792706
1793600 60.3145 247.092 55.7548 0.89675 -0.026543
1793800 60.3145 247.105 55.7548 0.89685 0.0103163
1794000 60.3145 247.118 55.7548 0.89695 0.00982183
1794200 60.3145 247.131 55.7548 0.89705 0.00287866
1794400 60.3145 247.144 55.7548 0.89715 0.0253512
1794600 60.3145 247.157 55.7548 0.89725 0.0107745
1794800 60.3145 247.17 55.7548 0.89735 -0.00166808
1795000 60.3145 247.183 55.7548 0.89745 -0.00232344
1795200 60.3145 247.196 55.7548 0.89755 -0.00455235
1795400 60.3145 247.209 55.7548 0.89765 0.00631122
1795600 60.3145 247.222 55.7548 0.89775 0.0155999
1795800 60.3145 247.235 55.7548 0.89785 0.00748548
1796000 60.3145 247.248 55.7548 0.89795 0.00597628
1796200 60.3145 247.261 55.7548 0.89805 -0.00496149
1796400 60.3145 247.274 55.7548 0.89815 0.00035267
1796600 60.3145 247.287 55.7548 0.89825 -0.00503006
1796800 60.3145 247.3 55.7548 0.89835 0.0073016
1797000 60.3145 247.314 55.7548 0.89845 -0.0021362
1797200 60.3145 247.327 55.7548 0.89855 -0.00680804
1797400 60.3145 247.34 55.7548 0.89865 0.0126263
1797600 60.3145 247.353 55.7548 0.89875 -0.000156923
1797800 60.3145 247.366 55.7548 0.89885 -0.000238741
1798000 60.3145 247.379 55.7548 0.89895 -0.00438687
1798200 60.3145 247.392 55.7548 0.89905 0.00924066
1798400 60.3145 247.405 55.7548 0.89915 0.00280934
1798600 60.3145 247.418 55.7548 0.89925 0.00799372
1798800 60.3145 247.431 55.7548 0.89935 0.00546379
1799000 60.3145 247.444 55.7548 0.89945 0.00359928
1799200 60.3145 247.457 55.7548 0.89955 0.0124751
1799400 60.3145 247.47 55.7548 0.89965 -0.00231078
1799600 60.3145 247.483 55.7548 0.89975 0.014313
1799800 60.3145 247.496 55.7548 0.89985 0.0019531
1800000 60.3145 247.509 55.7548 0.89995 0.00225417
1800200 60.3145 247.522 55.7548 0.90005 0.0132819
1800400 60.3145 247.535 55.7548 0.90015 -0.0094016
1800600 60.3145 247.548 55.7548 0.90025 -0.00642037
1800800 60.3145 247.561 55.7548 0.90035 0.0080361
1801000 60.3145 247.574 55.7548 0.90045 0.00675306
1801200 60.3145 247.587 55.7548 0.90055 -0.0176277
1801400 60.3145 247.6 55.7548 0.90065 0.00518315
1801600 60.3145 247.613 55.7548 0.90075 -0.000585838
1801800 60.3145 247.626 55.7548 0.90085 0.0105976
1802000 60.3145 247.639 55.7548 0.90095 0.011501
1802200 60.3145 247.652 55.7548 0.90105 0.00232236
1802400 60.3145 247.665 55.7548 0.90115 -0.00289894
1802600 60.3145 247.678 55.7548 0.90125 0.0121124
1802800 60.3145 247.691 55.7548 0.90135 0.00930821
1803000 60.3145 247.704 55.7548 0.90145 -0.00739241
1803200 60.3145 247.717 55.7548 0.90155 0.015781
1803400 60.3145 247.73 55.7548 0.90165 0.0147616
1803600 60.3145 247.743 55.7548 0.90175 -0.0115378
1803800 60.3145 247.756 55.7548 0.90185 0.00534009
1804000 60.3145 247.769 55.7548 0.90195 -0.00872013
1804200 60.3145 247.782 55.7548 0.90205 0.0163276
1804400 60.3145 247.796 55.7548 0.90215 0.0111272
1804600 60.3145 247.809 55.7548 0.90225 0.000307906
1804800 60.3145 247.822 55.7548 0.90235 -0.00555277
1805000 60.3145 247.835 55.7548 0.90245 -0.0101841
1805200 60.3145 247.848 55.7548 0.90255 0.00366896
1805400 60.3145 247.861 55.7548 0.90265 0.0114208
1805600 60.3145 247.874 55.7548 0.90275 0.00253107
1805800 60.3145 247.887 55.7548 0.90285 -0.000584299
1806000 60.3145 247.9 55.7548 0.90295 0.0135753
1806200 60.3145 247.913 55.7548 0.90305 -0.00393073
1806400 60.3145 247.926 55.7548 0.90315 -0.00118706
1806600 60.3145 247.939 55.7548 0.90325 0.0071277
1806800 60.3145 247.952 55.7548 0.90335 0.0136935
1807000 60.3145 247.965 55.7548 0.90345 0.00301541
1807200 60.3145 247.978 55.7548 0.90355 0.0020064
1807400 60.3145 247.991 55.7548 0.90365 -0.0101528
1807600 60.3145 248.004 55.7548 0.90375 -0.00420594
1807800 60.3145 248.017 55.7548 0.90385 -0.00710281
1808000 60.3145 248.03 55.7548 0.90395 0.0180456
1808200 60.3145 248.043 55.7548 0.90405 -0.011449
1808400 60.3145 248.056 55.7548 0.90415 0.00600788
1808600 60.3145 248.069 55.7548 0.90425 0.000690403
1808800 60.3145 248.082 55.7548 0.90435 0.00313758
1809000 60.3145 248.095 55.7548 0.90445 0.0130726
1809200 60.3145 248.108 55.7548 0.90455 0.00844313
1809400 60.3145 248.121 55.7548 0.90465 0.00242564
1809600 60.3145 248.134 55.7548 0.90475 0.01794
1809800 60.3145 248.147 55.7548 0.90485 0.00700015
1810000 60.3145 248.16 55.7548 0.90495 0.0129675
1810200 60.3145 248.173 55.7548 0.90505 -0.00534106
1810400 60.3145 248.186 55.7548 0.90515 0.00690235
1810600 60.3145 248.199 55.7548 0.90525 -0.0143056
1810800 60.3145 248.212 55.7548 0.90535 0.0155647
1811000 60.3145 248.225 55.7548 0.90545 -0.00811099
1811200 60.3145 248.238 55.7548 0.90555 0.0110678
1811400 60.3145 248.251 55.7548 0.90565 -0.00935762
1811600 60.3145 248.264 55.7548 0.90575 -0.0112947
1811800 60.3145 248.278 55.7548 0.90585 -0.00758066
1812000 60.3145 248.291 55.7548 0.90595 0.0105919
1812200 60.3145 248.304 55.7548 0.90605 0.00385705
1812400 60.3145 248.317 55.7548 0.90615 0.0135504
1812600 60.3145 248.33 55.7548 0.90625 0.00383876
1812800 60.3145 248.343 55.7548 0.90635 0.00145466
1813000 60.3145 248.356 55.7548 0.90645 0.0120695
1813200 60.3145 248.369 55.7548 0.90655 -0.00957282
1813400 60.3145 248.382 55.7548 0.90665 0.00622687
1813600 60.3145 248.395 55.7548 0.90675 0.0040246
1813800 60.3145 248.408 55.7548 0.90685 0.0245401
1814000 60.3145 248.421 55.7548 0.90695 0.00186571
1814200 60.3145 248.434 55.7548 0.90705 -0.000997324
1814400 60.3145 248.447 55.7548 0.90715 0.00479872
1814600 60.3145 248.46 55.7548 0.90725 -0.00227741
1814800 60.3145 248.473 55.7548 0.90735 -0.0100039
1815000 60.3145 248.486 55.7548 0.90745 0.00305241
1815200 60.3145 248.499 55.7548 0.90755 0.0164118
1815400 60.3145 248.512 55.7548 0.90765 0.0137952
1815600 60.3145 248.525 55.7548 0.90775 -0.00800193
1815800 60.3145 248.538 55.7548 0.90785 -0.00282359
1816000 60.3145 248.551 55.7548 0.90795 -0.000602262
1816200 60.3145 248.564 55.7548 0.90805 -0.0204869
1816400 60.3145 248.577 55.7548 0.90815 0.00791437
1816600 60.3145 248.59 55.7548 0.90825 0.0218318
1816800 60.3145 248.603 55.7548 0.90835 -0.00154522
1817000 60.3145 248.616 55.7548 0.90845 -0.0105808
1817200 60.3145 248.629 55.7548 0.90855 -0.000890737
1817400 60.3145 248.642 55.7548 0.90865 0.0060672
1817600 60.3145 248.655 55.7548 0.90875 -0.000645253
1817800 60.3145 248.668 55.7548 0.90885 0.000859252
1818000 60.3145 248.681 55.7548 0.90895 0.0361007
1818200 60.3145 248.694 55.7548 0.90905 0.016473
1818400 60.3145 248.707 55.7548 0.90915 0.0157797
1818600 60.3145 248.72 55.7548 0.90925 -0.00182676
1818800 60.3145 248.733 55.7548 0.90935 -0.0148158
1819000 60.3145 248.746 55.7548 0.90945 0.00815102
1819200 60.3145 248.76 55.7548 0.90955 -0.00959501
1819400 60.3145 248.773 55.7548 0.90965 0.0169257
1819600 60.3145 248.786 55.7548 0.90975 -0.00608655
1819800 60.3145 248.799 55.7548 0.90985 -0.00145138
1820000 60.3145 248.812 55.7548 0.90995 -0.00295042
1820200 60.3145 248.825 55.7548 0.91005 -0.0184365
1820400 60.3145 248.838 55.7548 0.91015 -0.0165958
1820600 60.3145 248.851 55.7548 0.91025 -0.00320217
1820800 60.3145 248.864 55.7548 0.91035 0.0103952
1821000 60.3145 248.877 55.7548 0.91045 0.0284821
1821200 60.3145 248.89 55.7548 0.91055 0.00674301
1821400 60.3145 248.903 55.7548 0.91065 0.00298881
1821600 60.3145 248.916 55.7548 0.91075 0.0133067
1821800 60.3145 248.929 55.7548 0.91085 -0.00362279
1822000 60.3145 248.942 55.7548 0.91095 0.0118141
1822200 60.3145 248.955 55.7548 0.91105 0.0185585
1822400 60.3145 248.968 55.7548 0.91115 0.013828
1822600 60.3145 248.981 55.7548 0.91125 -0.00723507
1822800 60.3145 248.994 55.7548 0.91135 0.00938034
1823000 60.3145 249.007 55.7548 0.91145 -0.00804263
1823200 60.3145 249.02 55.7548 0.91155 -0.015094
1823400 60.3145 249.033 55.7548 0.91165 0.00223111
1823600 60.3145 249.046 55.7548 0.91175 0.00279182
1823800 60.3145 249.059 55.7548 0.91185 0.00748082
1824000 60.3145 249.072 55.7548 0.91195 -0.0125613
1824200 60.3145 249.085 55.7548 0.91205 -0.00941496
1824400 60.3145 249.098 55.7548 0.91215 -0.0104159
1824600 60.3145 249.111 55.7548 0.91225 0.00348203
1824800 60.3145 249.124 55.7548 0.91235 0.0178905
1825000 60.3145 249.137 55.7548 0.91245 0.0058383
1825200 60.3145 249.15 55.7548 0.91255 0.0159079
1825400 60.3145 249.163 55.7548 0.91265 -0.000769257
1825600 60.3145 249.176 55.7548 0.91275 0.00800121
1825800 60.3145 249.189 55.7548 0.91285 0.0105904
1826000 60.3145 249.202 55.7548 0.91295 -0.0056792
1826200 60.3145 249.215 55.7548 0.91305 0.0100523
1826400 60.3145 249.228 55.7548 0.91315 0.0242523
1826600 60.3145 249.242 55.7548 0.91325 0.0103991
1826800 60.3145 249.255 55.7548 0.91335 0.0121644
1827000 60.3145 249.268 55.7548 0.91345 -0.0131409
1827200 60.3145 249.281 55.7548 0.91355 -0.00727213
1827400 60.3145 249.294 55.7548 0.91365 -0.0143857
1827600 60.3145 249.307 55.7548 0.91375 -0.00233195
1827800 60.3145 249.32 55.7548 0.91385 0.00424205
1828000 60.3145 249.333 55.7548 0.91395 0.00550817
1828200 60.3145 249.346 55.7548 0.91405 -0.00641057
1828400 60.3145 249.359 55.7548 0.91415 -0.0059939
1828600 60.3145 249.372 55.7548 0.91425 -0.0148953
1828800 60.3145 249.385 55.7548 0.91435 -2.81393e-05
1829000 60.3145 249.398 55.7548 0.91445 0.00624882
1829200 60.3145 249.411 55.7548 0.91455 0.00654166
1829400 60.3145 249.424 55.7548 0.91465 0.0185228
1829600 60.3145 249.437 55.7548 0.91475 0.0116752
1829800 60.3145 249.45 55.7548 0.91485 0.0124399
1830000 60.3145 249.463 55.7548 0.91495 0.00300619
1830200 60.3145 249.476 55.7548 0.91505 0.00975682
1830400 60.3145 249.489 55.7548 0.91515 0.00360672
1830600 60.3145 249.502 55.7548 0.91525 0.0209417
1830800 60.3145 249.515 55.7548 0.91535 0.00794811
1831000 60.3145 249.528 55.7548 0.91545 0.0061085
1831200 60.3145 249.541 55.7548 0.91555 0.00665898
1831400 60.3145 249.554 55.7548 0.91565 -0.0290319
1831600 60.3145 249.567 55.7548 0.91575 -0.00829951
1831800 60.3145 249.58 55.7548 0.91585 -0.0124396
1832000 60.3145 249.593 55.7548 0.91595 0.00102028
1832200 60.3145 249.606 55.7548 0.91605 0.00462225
1832400 60.3145 249.619 55.7548 0.91615 -0.0185304
1832600 60.3145 249.632 55.7548 0.91625 -0.00350722
1832800 60.3145 249.645 55.7548 0.91635 -0.0086389
1833000 60.3145 249.658 55.7548 0.91645 0.0117194
1833200 60.3145 249.671 55.7548 0.91655 0.00641588
1833400 60.3145 249.684 55.7548 0.91665 0.0167897
1833600 60.3145 249.697 55.7548 0.91675 0.00400414
1833800 60.3145 249.711 55.7548 0.91685 0.0325284
1834000 60.3145 249.724 55.7548 0.91695 0.00436549
1834200 60.3145 249.737 55.7548 0.91705 0.0153389
1834400 60.3145 249.75 55.7548 0.91715 0.00878942
1834600 60.3145 249.763 55.7548 0.91725 0.00481844
1834800 60.3145 249.776 55.7548 0.91735 0.0106858
1835000 60.3145 249.789 55.7548 0.91745 0.00760266
1835200 60.3145 249.802 55.7548 0.91755 -0.0103978
1835400 60.3145 249.815 55.7548 0.91765 -0.00439854
1835600 60.3145 249.828 55.7548 0.91775 -0.0114331
1835800 60.3145 249.841 55.7548 0.91785 -0.00307775
1836000 60.3145 249.854 55.7548 0.91795 -0.0148005
1836200 60.3145 249.867 55.7548 0.91805 -0.00723158
1836400 60.3145 249.88 55.7548 0.91815 -0.0144939
1836600 60.3145 249.893 55.7548 0.91825 0.0105033
1836800 60.3145 249.906 55.7548 0.91835 -0.0137849
1837000 60.3145 249.919 55.7548 0.91845 0.0119266
1837200 60.3145 249.932 55.7548 0.91855 0.00699294
1837400 60.3145 249.945 55.7548 0.91865 0.013945
1837600 60.3145 249.958 55.7548 0.91875 0.0160576
1837800 60.3145 249.971 55.7548 0.91885 0.0042539
1838000 60.3145 249.984 55.7548 0.91895 0.0194271
1838200 60.3145 249.997 55.7548 0.91905 0.0171774
1838400 60.3145 250.01 55.7548 0.91915 0.00687886
1838600 60.3145 250.023 55.7548 0.91925 0.0122633
1838800 60.3145 250.036 55.7548 0.91935 -0.00740978
1839000 60.3145 250.049 55.7548 0.91945 -0.00887455
1839200 60.3145 250.062 55.7548 0.91955 0.0125147
1839400 60.3145 250.075 55.7548 0.91965 -0.0155911
1839600 60.3145 250.088 55.7548 0.91975 -0.0133799
1839800 60.3145 250.101 55.7548 0.91985 -0.00346773
1840000 60.3145 250.114 55.7548 0.91995 -0.00562052
1840200 60.3145 250.127 55.7548 0.92005 -0.0032768
1840400 60.3145 250.14 55.7548 0.92015 -0.00591189
1840600 60.3145 250.153 55.7548 0.92025 -0.00131708
1840800 60.3145 250.166 55.7548 0.92035 -0.00235537
1841000 60.3145 250.179 55.7548 0.92045 0.0074582
1841200 60.3145 250.193 55.7548 0.92055 0.00940796
1841400 60.3145 250.206 55.7548 0.92065 0.0134755
1841600 60.3145 250.219 55.7548 0.92075 0.0117072
1841800 60.3145 250.232 55.7548 0.92085 0.0201577
1842000 60.3145 250.245 55.7548 0.92095 0.0133184
1842200 60.3145 250.258 55.7548 0.92105 0.00254691
1842400 60.3145 250.271 55.7548 0.92115 0.0140429
1842600 60.3145 250.284 55.7548 0.92125 -0.00200323
1842800 60.3145 250.297 55.7548 0.92135 0.0214087
1843000 60.3145 250.31 55.7548 0.92145 -0.00223139
1843200 60.3145 250.323 55.7548 0.92155 -0.0179229
1843400 60.3145 250.336 55.7548 0.92165 -0.00752905
1843600 60.3145 250.349 55.7548 0.92175 -0.00625558
1843800 60.3145 250.362 55.7548 0.92185 -0.00663888
1844000 60.3145 250.375 55.7548 0.92195 -0.0189971
1844200 60.3145 250.388 55.7548 0.92205 -0.00572903
1844400 60.3145 250.401 55.7548 0.92215 -0.0008624
1844600 60.3145 250.414 55.7548 0.92225 0.00199273
1844800 60.3145 250.427 55.7548 0.92235 0.000766985
1845000 60.3145 250.44 55.7548 0.92245 0.00576149
1845200 60.3145 250.453 55.7548 0.92255 0.00412412
1845400 60.3145 250.466 55.7548 0.92265 0.0193317
1845600 60.3145 250.479 55.7548 0.92275 0.00479242
1845800 60.3145 250.492 55.7548 0.92285 0.0269371
1846000 60.3145 250.505 55.7548 0.92295 0.0101612
1846200 60.3145 250.518 55.7548 0.92305 0.0189362
1846400 60.3145 250.531 55.7548 0.92315 0.0111652
1846600 60.3145 250.544 55.7548 0.92325 -0.00232531
1846800 60.3145 250.557 55.7548 0.92335 -0.00184819
1847000 60.3145 250.57 55.7548 0.92345 0.00827713
1847200 60.3145 250.583 55.7548 0.92355 -0.0174644
1847400 60.3145 250.596 55.7548 0.92365 -0.000672147
1847600 60.3145 250.609 55.7548 0.92375 -0.00357854
1847800 60.3145 250.622 55.7548 0.92385 -0.00245298
1848000 60.3145 250.635 55.7548 0.92395 -0.0275032
1848200 60.3145 250.648 55.7548 0.92405 -0.00483853
1848400 60.3145 250.661 55.7548 0.92415 -0.0175762
1848600 60.3145 250.675 55.7548 0.92425 -0.00700328
1848800 60.3145 250.688 55.7548 0.92435 0.00895095
1849000 60.3145 250.701 55.7548 0.92445 0.0227996
1849200 60.3145 250.714 55.7548 0.92455 0.000945394
1849400 60.3145 250.727 55.7548 0.92465 0.0121913
1849600 60.3145 250.74 55.7548 0.92475 0.0102604
1849800 60.3145 250.753 55.7548 0.92485 0.00706529
1850000 60.3145 250.766 55.7548 0.92495 0.0103353
1850200 60.3145 250.779 55.7548 0.92505 0.0277512
1850400 60.3145 250.792 55.7548 0.92515 0.0251054
1850600 60.3145 250.805 55.7548 0.92525 0.018733
1850800 60.3145 250.818 55.7548 0.92535 -0.00734682
1851000 60.3145 250.831 55.7548 0.92545 -0.00868233
1851200 60.3145 250.844 55.7548 0.92555 -0.0174096
1851400 60.3145 250.857 55.7548 0.92565 -0.00722407
1851600 60.3145 250.87 55.7548 0.92575 -0.00847201
1851800 60.3145 250.883 55.7548 0.92585 -0.00209034
1852000 60.3145 250.896 55.7548 0.92595 -0.00260677
1852200 60.3145 250.909 55.7548 0.92605 -0.015972
1852400 60.3145 250.922 55.7548 0.92615 -0.0129965
1852600 60.3145 250.935 55.7548 0.92625 -0.0106508
1852800 60.3145 250.948 55.7548 0.92635 -0.00300756
1853000 60.3145 250.961 55.7548 0.92645 0.0155286
1853200 60.3145 250.974 55.7548 0.92655 0.0183764
1853400 60.3145 250.987 55.7548 0.92665 0.0194396
1853600 60.3145 251 55.7548 0.92675 0.00759817
1853800 60.3145 251.013 55.7548 0.92685 0.00558976
1854000 60.3145 251.026 55.7548 0.92695 0.00903498
1854200 60.3145 251.039 55.7548 0.92705 0.00278026
1854400 60.3145 251.052 55.7548 0.92715 0.0100302
1854600 60.3145 251.065 55.7548 0.92725 0.0290812
1854800 60.3145 251.078 55.7548 0.92735 0.0115796
1855000 60.3145 251.091 55.7548 0.92745 0.00384484
1855200 60.3145 251.104 55.7548 0.92755 -0.0143101
1855400 60.3145 251.117 55.7548 0.92765 -0.0163267
1855600 60.3145 251.13 55.7548 0.92775 -0.00216055
1855800 60.3145 251.143 55.7548 0.92785 -0.00597187
1856000 60.3145 251.157 55.7548 0.92795 0.000377434
1856200 60.3145 251.17 55.7548 0.92805 -0.00436705
1856400 60.3145 251.183 55.7548 0.92815 -0.0144454
1856600 60.3145 251.196 55.7548 0.92825 -0.0132085
1856800 60.3145 251.209 55.7548 0.92835 -0.00104476
1857000 60.3145 251.222 55.7548 0.92845 -0.0129013
1857200 60.3145 251.235 55.7548 0.92855 0.017876
1857400 60.3145 251.248 55.7548 0.92865 0.00317757
1857600 60.3145 251.261 55.7548 0.92875 0.0235417
1857800 60.3145 251.274 55.7548 0.92885 0.0051271
1858000 60.3145 251.287 55.7548 0.92895 0.0110778
1858200 60.3145 251.3 55.7548 0.92905 0.0329358
1858400 60.3145 251.313 55.7548 0.92915 0.00410213
1858600 60.3145 251.326 55.7548 0.92925 0.00489883
1858800 60.3145 251.339 55.7548 0.92935 0.012115
1859000 60.3145 251.352 55.7548 0.92945 0.00925857
1859200 60.3145 251.365 55.7548 0.92955 -0.0119232
1859400 60.3145 251.378 55.7548 0.92965 0.00684617
1859600 60.3145 251.391 55.7548 0.92975 -0.0156764
1859800 60.3145 251.404 55.7548 0.92985 -0.00818574
1860000 60.3145 251.417 55.7548 0.92995 -0.0132249
1860200 60.3145 251.43 55.7548 0.93005 -0.00596778
1860400 60.3145 251.443 55.7548 0.93015 -0.0117904
1860600 60.3145 251.456 55.7548 0.93025 -0.0214768
1860800 60.3145 251.469 55.7548 0.93035 0.0122075
1861000 60.3145 251.482 55.7548 0.93045 0.00219333
1861200 60.3145 251.495 55.7548 0.93055 0.00233424
1861400 60.3145 251.508 55.7548 0.93065 -0.00184418
1861600 60.3145 251.521 55.7548 0.93075 0.0141073
1861800 60.3145 251.534 55.7548 0.93085 0.0137755
1862000 60.3145 251.547 55.7548 0.93095 0.0267844
1862200 60.3145 251.56 55.7548 0.93105 0.0168008
1862400 60.3145 251.573 55.7548 0.93115 0.0111103
1862600 60.3145 251.586 55.7548 0.93125 0.0108639
1862800 60.3145 251.599 55.7548 0.93135 0.00667644
1863000 60.3145 251.612 55.7548 0.93145 -0.0128945
1863200 60.3145 251.625 55.7548 0.93155 0.00272669
1863400 60.3145 251.639 55.7548 0.93165 -0.00316114
1863600 60.3145 251.652 55.7548 0.93175 -0.00641007
1863800 60.3145 251.665 55.7548 0.93185 0.00291538
1864000 60.3145 251.678 55.7548 0.93195 -0.00346488
1864200 60.3145 251.691 55.7548 0.93205 -0.0167281
1864400 60.3145 251.704 55.7548 0.93215 -0.0144494
1864600 60.3145 251.717 55.7548 0.93225 -0.00261478
1864800 60.3145 251.73 55.7548 0.93235 6.85725e-05
1865000 60.3145 251.743 55.7548 0.93245 0.00368009
1865200 60.3145 251.756 55.7548 0.93255 0.00117272
1865400 60.3145 251.769 55.7548 0.93265 0.022548
1865600 60.3145 251.782 55.7548 0.93275 0.00369636
1865800 60.3145 251.795 55.7548 0.93285 -0.000868374
1866000 60.3145 251.808 55.7548 0.93295 0.0157631
1866200 60.3145 251.821 55.7548 0.93305 0.0153733
1866400 60.3145 251.834 55.7548 0.93315 0.0116225
1866600 60.3145 251.847 55.7548 0.93325 0.00316566
1866800 60.3145 251.86 55.7548 0.93335 0.00286687
1867000 60.3145 251.873 55.7548 0.93345 0.00153022
1867200 60.3145 251.886 55.7548 0.93355 -0.00249066
1867400 60.3145 251.899 55.7548 0.93365 -0.0152516
1867600 60.3145 251.912 55.7548 0.93375 0.00386566
1867800 60.3145 251.925 55.7548 0.93385 0.00808342
1868000 60.3145 251.938 55.7548 0.93395 -0.0152853
1868200 60.3145 251.951 55.7548 0.93405 -0.00896781
1868400 60.3145 251.964 55.7548 0.93415 0.000490851
1868600 60.3145 251.977 55.7548 0.93425 -0.00650914
1868800 60.3145 251.99 55.7548 0.93435 0.00709349
1869000 60.3145 252.003 55.7548 0.93445 0.0182243
1869200 60.3145 252.016 55.7548 0.93455 -0.00121209
1869400 60.3145 252.029 55.7548 0.93465 0.00204423
1869600 60.3145 252.042 55.7548 0.93475 0.00460322
1869800 60.3145 252.055 55.7548 0.93485 0.0117895
1870000 60.3145 252.068 55.7548 0.93495 -0.00289318
1870200 60.3145 252.081 55.7548 0.93505 0.0124652
1870400 60.3145 252.094 55.7548 0.93515 0.0109053
1870600 60.3145 252.107 55.7548 0.93525 -0.0064902
1870800 60.3145 252.121 55.7548 0.93535 0.0198995
1871000 60.3145 252.134 55.7548 0.93545 -0.00778121
1871200 60.3145 252.147 55.7548 0.93555 -0.00926314
1871400 60.3145 252.16 55.7548 0.93565 0.000624561
1871600 60.3145 252.173 55.7548 0.93575 0.0025758
1871800 60.3145 252.186 55.7548 0.93585 0.0130752
1872000 60.3145 252.199 55.7548 0.93595 0.00737758
1872200 60.3145 252.212 55.7548 0.93605 -0.0194663
1872400 60.3145 252.225 55.7548 0.93615 0.00513552
1872600 60.3145 252.238 55.7548 0.93625 -0.00508097
1872800 60.3145 252.251 55.7548 0.93635 0.00564644
1873000 60.3145 252.264 55.7548 0.93645 -0.00334703
1873200 60.3145 252.277 55.7548 0.93655 0.00117563
1873400 60.3145 252.29 55.7548 0.93665 0.0042031
1873600 60.3145 252.303 55.7548 0.93675 0.00262675
1873800 60.3145 252.316 55.7548 0.93685 0.00301401
1874000 60.3145 252.329 55.7548 0.93695 -0.018771
1874200 60.3145 252.342 55.7548 0.93705 0.0175694
1874400 60.3145 252.355 55.7548 0.93715 0.005556
1874600 60.3145 252.368 55.7548 0.93725 0.00749613
1874800 60.3145 252.381 55.7548 0.93735 -0.00499809
1875000 60.3145 252.394 55.7548 0.93745 0.00792651
1875200 60.3145 252.407 55.7548 0.93755 0.00173789
1875400 60.3145 252.42 55.7548 0.93765 0.00794791
1875600 60.3145 252.433 55.7548 0.93775 0.00292065
1875800 60.3145 252.446 55.7548 0.93785 0.0105305
1876000 60.3145 252.459 55.7548 0.93795 -0.000829219
1876200 60.3145 252.472 55.7548 0.93805 -0.00833062
1876400 60.3145 252.485 55.7548 0.93815 0.0136836
1876600 60.3145 252.498 55.7548 0.93825 -0.000663606
1876800 60.3145 252.511 55.7548 0.93835 0.00540624
1877000 60.3145 252.524 55.7548 0.93845 0.00520294
1877200 60.3145 252.537 55.7548 0.93855 -0.00892596
1877400 60.3145 252.55 55.7548 0.93865 -0.00388748
1877600 60.3145 252.563 55.7548 0.93875 -0.00174668
1877800 60.3145 252.576 55.7548 0.93885 -0.00338321
1878000 60.3145 252.589 55.7548 0.93895 0.00172567
1878200 60.3145 252.603 55.7548 0.93905 0.0104888
1878400 60.3145 252.616 55.7548 0.93915 0.00409993
1878600 60.3145 252.629 55.7548 0.93925 0.00891754
1878800 60.3145 252.642 55.7548 0.93935 -0.0106134
1879000 60.3145 252.655 55.7548 0.93945 0.000582111
1879200 60.3145 252.668 55.7548 0.93955 0.0086718
1879400 60.3145 252.681 55.7548 0.93965 -0.000234458
1879600 60.3145 252.694 55.7548 0.93975 0.0190558
1879800 60.3145 252.707 55.7548 0.93985 0.016626
1880000 60.3145 252.72 55.7548 0.93995 -0.0198714
1880200 60.3145 252.733 55.7548 0.94005 -0.00521764
1880400 60.3145 252.746 55.7548 0.94015 0.0122202
1880600 60.3145 252.759 55.7548 0.94025 -0.00654878
1880800 60.3145 252.772 55.7548 0.94035 0.00191318
1881000 60.3145 252.785 55.7548 0.94045 0.00664054
1881200 60.3145 252.798 55.7548 0.94055 0.00163047
1881400 60.3145 252.811 55.7548 0.94065 0.000734785
1881600 60.3145 252.824 55.7548 0.94075 -0.0158108
1881800 60.3145 252.837 55.7548 0.94085 0.00112309
1882000 60.3145 252.85 55.7548 0.94095 0.00853016
1882200 60.3145 252.863 55.7548 0.94105 0.00665606
1882400 60.3145 252.876 55.7548 0.94115 0.0190746
1882600 60.3145 252.889 55.7548 0.94125 -0.00972927
1882800 60.3145 252.902 55.7548 0.94135 -0.00199757
1883000 60.3145 252.915 55.7548 0.94145 -0.0041306
1883200 60.3145 252.928 55.7548 0.94155 0.00144304
1883400 60.3145 252.941 55.7548 0.94165 -0.00188501
1883600 60.3145 252.954 55.7548 0.94175 0.0181455
1883800 60.3145 252.967 55.7548 0.94185 0.0177019
1884000 60.3145 252.98 55.7548 0.94195 -0.00480273
1884200 60.3145 252.993 55.7548 0.94205 0.00975799
1884400 60.3145 253.006 55.7548 0.94215 -0.0218872
1884600 60.3145 253.019 55.7548 0.94225 0.00266824
1884800 60.3145 253.032 55.7548 0.94235 0.00898129
1885000 60.3145 253.045 55.7548 0.94245 0.0122414
1885200 60.3145 253.058 55.7548 0.94255 0.00617833
1885400 60.3145 253.072 55.7548 0.94265 -0.000800341
1885600 60.3145 253.085 55.7548 0.94275 -0.00212993
1885800 60.3145 253.098 55.7548 0.94285 -0.0199447
1886000 60.3145 253.111 55.7548 0.94295 -0.00050281
1886200 60.3145 253.124 55.7548 0.94305 0.00869407
1886400 60.3145 253.137 55.7548 0.94315 0.00304099
1886600 60.3145 253.15 55.7548 0.94325 0.0174771
1886800 60.3145 253.163 55.7548 0.94335 0.0146615
1887000 60.3145 253.176 55.7548 0.94345 -0.011986
1887200 60.3145 253.189 55.7548 0.94355 -0.00878247
1887400 60.3145 253.202 55.7548 0.94365 -0.00181955
1887600 60.3145 253.215 55.7548 0.94375 0.000917044
1887800 60.3145 253.228 55.7548 0.94385 0.0209965
1888000 60.3145 253.241 55.7548 0.94395 0.00811344
1888200 60.3145 253.254 55.7548 0.94405 0.00148884
1888400 60.3145 253.267 55.7548 0.94415 -0.00552621
1888600 60.3145 253.28 55.7548 0.94425 -0.000155064
1888800 60.3145 253.293 55.7548 0.94435 -0.0133233
1889000 60.3145 253.306 55.7548 0.94445 0.00369697
1889200 60.3145 253.319 55.7548 0.94455 0.0207802
1889400 60.3145 253.332 55.7548 0.94465 -0.00547937
1889600 60.3145 253.345 55.7548 0.94475 0.00292592
1889800 60.3145 253.358 55.7548 0.94485 -0.000222657
1890000 60.3145 253.371 55.7548 0.94495 0.00320862
1890200 60.3145 253.384 55.7548 0.94505 0.0027128
1890400 60.3145 253.397 55.7548 0.94515 -0.0117128
1890600 60.3145 253.41 55.7548 0.94525 0.0147688
1890800 60.3145 253.423 55.7548 0.94535 -0.00225728
1891000 60.3145 253.436 55.7548 0.94545 0.00511138
1891200 60.3145 253.449 55.7548 0.94555 0.00334336
1891400 60.3145 253.462 55.7548 0.94565 -0.00810565
1891600 60.3145 253.475 55.7548 0.94575 0.00728698
1891800 60.3145 253.488 55.7548 0.94585 -0.00387655
1892000 60.3145 253.501 55.7548 0.94595 0.0170852
1892200 60.3145 253.514 55.7548 0.94605 0.00225578
1892400 60.3145 253.527 55.7548 0.94615 -0.00549359
1892600 60.3145 253.54 55.7548 0.94625 -0.0039094
1892800 60.3145 253.554 55.7548 0.94635 0.00384005
1893000 60.3145 253.567 55.7548 0.94645 0.00770203
1893200 60.3145 253.58 55.7548 0.94655 0.00981078
1893400 60.3145 253.593 55.7548 0.94665 0.0116024
1893600 60.3145 253.606 55.7548 0.94675 -0.0017742
1893800 60.3145 253.619 55.7548 0.94685 -0.00812857
1894000 60.3145 253.632 55.7548 0.94695 0.00248385
1894200 60.3145 253.645 55.7548 0.94705 0.000532675
1894400 60.3145 253.658 55.7548 0.94715 -0.00534717
1894600 60.3145 253.671 55.7548 0.94725 -0.000666831
1894800 60.3145 253.684 55.7548 0.94735 0.00151969
1895000 60.3145 253.697 55.7548 0.94745 0.0266712
1895200 60.3145 253.71 55.7548 0.94755 -0.0280084
1895400 60.3145 253.723 55.7548 0.94765 0.0106388
1895600 60.3145 253.736 55.7548 0.94775 0.00179588
1895800 60.3145 253.749 55.7548 0.94785 0.00628232
1896000 60.3145 253.762 55.7548 0.94795 0.0024652
1896200 60.3145 253.775 55.7548 0.94805 0.0189389
1896400 60.3145 253.788 55.7548 0.94815 0.000916887
1896600 60.3145 253.801 55.7548 0.94825 -0.00795879
1896800 60.3145 253.814 55.7548 0.94835 0.00171435
1897000 60.3145 253.827 55.7548 0.94845 -0.00142225
1897200 60.3145 253.84 55.7548 0.94855 0.00385212
1897400 60.3145 253.853 55.7548 0.94865 0.00321153
1897600 60.3145 253.866 55.7548 0.94875 0.00246828
1897800 60.3145 253.879 55.7548 0.94885 0.0125651
1898000 60.3145 253.892 55.7548 0.94895 -0.00799951
1898200 60.3145 253.905 55.7548 0.94905 -0.00606081
1898400 60.3145 253.918 55.7548 0.94915 -0.000189832
1898600 60.3145 253.931 55.7548 0.94925 0.00797876
1898800 60.3145 253.944 55.7548 0.94935 0.00438074
1899000 60.3145 253.957 55.7548 0.94945 -0.00234344
1899200 60.3145 253.97 55.7548 0.94955 0.00843549
1899400 60.3145 253.983 55.7548 0.94965 0.00406936
1899600 60.3145 253.996 55.7548 0.94975 -0.0109049
1899800 60.3145 254.009 55.7548 0.94985 0.00465667
1900000 60.3145 254.022 55.7548 0.94995 0.0103129
1900200 60.3145 254.036 55.7548 0.95005 0.00391893
1900400 60.3145 254.049 55.7548 0.95015 0.0105789
1900600 60.3145 254.062 55.7548 0.95025 -0.00448303
1900800 60.3145 254.075 55.7548 0.95035 -0.0144574
1901000 60.3145 254.088 55.7548 0.95045 0.00387327
1901200 60.3145 254.101 55.7548 0.95055 0.0071796
1901400 60.3145 254.114 55.7548 0.95065 0.00629791
1901600 60.3145 254.127 55.7548 0.95075 -0.00575751
1901800 60.3145 254.14 55.7548 0.95085 -0.00650739
1902000 60.3145 254.153 55.7548 0.95095 0.0213857
1902200 60.3145 254.166 55.7548 0.95105 -0.00307108
1902400 60.3145 254.179 55.7548 0.95115 0.0027787
1902600 60.3145 254.192 55.7548 0.95125 0.00803071
1902800 60.3145 254.205 55.7548 0.95135 -0.000792352
1903000 60.3145 254.218 55.7548 0.95145 0.0114703
1903200 60.3145 254.231 55.7548 0.95155 0.00244391
1903400 60.3145 254.244 55.7548 0.95165 0.000765061
1903600 60.3145 254.257 55.7548 0.95175 0.00977876
1903800 60.3145 254.27 55.7548 0.95185 0.00553909
1904000 60.3145 254.283 55.7548 0.95195 -0.0107041
1904200 60.3145 254.296 55.7548 0.95205 -0.00467948
1904400 60.3145 254.309 55.7548 0.95215 -0.010913
1904600 60.3145 254.322 55.7548 0.95225 0.00570123
1904800 60.3145 254.335 55.7548 0.95235 0.0020267
1905000 60.3145 254.348 55.7548 0.95245 0.00385936
1905200 60.3145 254.361 55.7548 0.95255 -0.00687214
1905400 60.3145 254.374 55.7548 0.95265 -0.00306662
1905600 60.3145 254.387 55.7548 0.95275 -0.0032244
1905800 60.3145 254.4 55.7548 0.95285 0.0103415
1906000 60.3145 254.413 55.7548 0.95295 0.00248874
1906200 60.3145 254.426 55.7548 0.95305 0.0130649
1906400 60.3145 254.439 55.7548 0.95315 0.0149634
1906600 60.3145 254.452 55.7548 0.95325 -0.0107647
1906800 60.3145 254.465 55.7548 0.95335 0.00562337
1907000 60.3145 254.478 55.7548 0.95345 0.0119419
1907200 60.3145 254.491 55.7548 0.95355 -0.00506852
1907400 60.3145 254.504 55.7548 0.95365 0.00565157
1907600 60.3145 254.518 55.7548 0.95375 0.0210206
1907800 60.3145 254.531 55.7548 0.95385 -0.00594866
1908000 60.3145 254.544 55.7548 0.95395 0.000182746
1908200 60.3145 254.557 55.7548 0.95405 -0.0025953
1908400 60.3145 254.57 55.7548 0.95415 0.00144664
1908600 60.3145 254.583 55.7548 0.95425 -0.00490981
1908800 60.3145 254.596 55.7548 0.95435 0.00348636
1909000 60.3145 254.609 55.7548 0.95445 -0.00485502
1909200 60.3145 254.622 55.7548 0.95455 0.00837203
1909400 60.3145 254.635 55.7548 0.95465 -0.0130045
1909600 60.3145 254.648 55.7548 0.95475 0.00726211
1909800 60.3145 254.661 55.7548 0.95485 0.00645444
1910000 60.3145 254.674 55.7548 0.95495 -0.00790147
1910200 60.3145 254.687 55.7548 0.95505 0.00388963
1910400 60.3145 254.7 55.7548 0.95515 0.000123767
1910600 60.3145 254.713 55.7548 0.95525 0.00814502
1910800 60.3145 254.726 55.7548 0.95535 -0.00196956
1911000 60.3145 254.739 55.7548 0.95545 0.00763889
1911200 60.3145 254.752 55.7548 0.95555 0.00110702
1911400 60.3145 254.765 55.7548 0.95565 0.0109881
1911600 60.3145 254.778 55.7548 0.95575 0.00459308
1911800 60.3145 254.791 55.7548 0.95585 0.00736961
1912000 60.3145 254.804 55.7548 0.95595 0.00542288
1912200 60.3145 254.817 55.7548 0.95605 -0.0060412
1912400 60.3145 254.83 55.7548 0.95615 0.00193403
1912600 60.3145 254.843 55.7548 0.95625 -0.00359824
1912800 60.3145 254.856 55.7548 0.95635 -0.00379936
1913000 60.3145 254.869 55.7548 0.95645 0.0132338
1913200 60.3145 254.882 55.7548 0.95655 -0.010289
1913400 60.3145 254.895 55.7548 0.95665 0.0120017
1913600 60.3145 254.908 55.7548 0.95675 -0.00109915
1913800 60.3145 254.921 55.7548 0.95685 -0.00375072
1914000 60.3145 254.934 55.7548 0.95695 0.00640468
1914200 60.3145 254.947 55.7548 0.95705 -0.00891915
1914400 60.3145 254.96 55.7548 0.95715 9.06306e-05
1914600 60.3145 254.973 55.7548 0.95725 0.00901558
1914800 60.3145 254.986 55.7548 0.95735 0.0140144
1915000 60.3145 255 55.7548 0.95745 -0.00532402
1915200 60.3145 255.013 55.7548 0.95755 -0.0113725
1915400 60.3145 255.026 55.7548 0.95765 0.00507894
1915600 60.3145 255.039 55.7548 0.95775 0.00597789
1915800 60.3145 255.052 55.7548 0.95785 0.0248364
1916000 60.3145 255.065 55.7548 0.95795 0.00498473
1916200 60.3145 255.078 55.7548 0.95805 -0.00139548
1916400 60.3145 255.091 55.7548 0.95815 0.0101367
1916600 60.3145 255.104 55.7548 0.95825 -0.000682999
1916800 60.3145 255.117 55.7548 0.95835 -0.0165864
1917000 60.3145 255.13 55.7548 0.95845 -0.00131176
1917200 60.3145 255.143 55.7548 0.95855 0.00240109
1917400 60.3145 255.156 55.7548 0.95865 -0.00716487
1917600 60.3145 255.169 55.7548 0.95875 0.012533
1917800 60.3145 255.182 55.7548 0.95885 -0.00105933
1918000 60.3145 255.195 55.7548 0.95895 -0.00345286
1918200 60.3145 255.208 55.7548 0.95905 -0.0109991
1918400 60.3145 255.221 55.7548 0.95915 -0.00122319
1918600 60.3145 255.234 55.7548 0.95925 0.0114559
1918800 60.3145 255.247 55.7548 0.95935 0.0010765
1919000 60.3145 255.26 55.7548 0.95945 0.0249921
1919200 60.3145 255.273 55.7548 0.95955 0.0158678
1919400 60.3145 255.286 55.7548 0.95965 0.00618197
1919600 60.3145 255.299 55.7548 0.95975 0.00185061
1919800 60.3145 255.312 55.7548 0.95985 -0.00502533
1920000 60.3145 255.325 55.7548 0.95995 -0.000102531
1920200 60.3145 255.338 55.7548 0.96005 0.00253408
1920400 60.3145 255.351 55.7548 0.96015 0.00405602
1920600 60.3145 255.364 55.7548 0.96025 -0.000200284
1920800 60.3145 255.377 55.7548 0.96035 -0.00745367
1921000 60.3145 255.39 55.7548 0.96045 -0.0247182
1921200 60.3145 255.403 55.7548 0.96055 -0.00697569
1921400 60.3145 255.416 55.7548 0.96065 -0.0135455
1921600 60.3145 255.429 55.7548 0.96075 0.0108219
1921800 60.3145 255.442 55.7548 0.96085 0.00889169
1922000 60.3145 255.455 55.7548 0.96095 -0.00459173
1922200 60.3145 255.468 55.7548 0.96105 0.0173744
1922400 60.3145 255.482 55.7548 0.96115 -0.00665568
1922600 60.3145 255.495 55.7548 0.96125 0.00696014
1922800 60.3145 255.508 55.7548 0.96135 0.03083
1923000 60.3145 255.521 55.7548 0.96145 0.0103169
1923200 60.3145 255.534 55.7548 0.96155 0.0228298
1923400 60.3145 255.547 55.7548 0.96165 0.000571345
1923600 60.3145 255.56 55.7548 0.96175 0.00596514
1923800 60.3145 255.573 55.7548 0.96185 -0.0111824
1924000 60.3145 255.586 55.7548 0.96195 0.0149761
1924200 60.3145 255.599 55.7548 0.96205 -0.00789615
1924400 60.3145 255.612 55.7548 0.96215 -0.00577112
1924600 60.3145 255.625 55.7548 0.96225 -0.0153357
1924800 60.3145 255.638 55.7548 0.96235 -0.00947901
1925000 60.3145 255.651 55.7548 0.96245 -0.0161928
1925200 60.3145 255.664 55.7548 0.96255 -0.0167599
1925400 60.3145 255.677 55.7548 0.96265 -0.00513405
1925600 60.3145 255.69 55.7548 0.96275 0.00629748
1925800 60.3145 255.703 55.7548 0.96285 0.00417707
1926000 60.3145 255.716 55.7548 0.96295 0.0163746
1926200 60.3145 255.729 55.7548 0.96305 0.0141074
1926400 60.3145 255.742 55.7548 0.96315 0.0232079
1926600 60.3145 255.755 55.7548 0.96325 0.00469141
1926800 60.3145 255.768 55.7548 0.96335 -0.00299049
1927000 60.3145 255.781 55.7548 0.96345 0.0198066
1927200 60.3145 255.794 55.7548 0.96355 0.00640932
1927400 60.3145 255.807 55.7548 0.96365 0.0122495
1927600 60.3145 255.82 55.7548 0.96375 0.0103127
1927800 60.3145 255.833 55.7548 0.96385 -0.00316417
1928000 60.3145 255.846 55.7548 0.96395 -0.009456
1928200 60.3145 255.859 55.7548 0.96405 -0.00735653
1928400 60.3145 255.872 55.7548 0.96415 -0.011238
1928600 60.3145 255.885 55.7548 0.96425 -0.0065837
1928800 60.3145 255.898 55.7548 0.96435 -0.0115179
1929000 60.3145 255.911 55.7548 0.96445 -0.00728336
1929200 60.3145 255.924 55.7548 0.96455 0.0136576
1929400 60.3145 255.937 55.7548 0.96465 -0.0213881
1929600 60.3145 255.95 55.7548 0.96475 -0.00711254
1929800 60.3145 255.964 55.7548 0.96485 0.00379197
1930000 60.3145 255.977 55.7548 0.96495 0.00804637
1930200 60.3145 255.99 55.7548 0.96505 0.0115569
1930400 60.3145 256.003 55.7548 0.96515 0.0350552
1930600 60.3145 256.016 55.7548 0.96525 0.0193687
1930800 60.3145 256.029 55.7548 0.96535 0.0129821
1931000 60.3145 256.042 55.7548 0.96545 -0.00418636
1931200 60.3145 256.055 55.7548 0.96555 0.00626769
1931400 60.3145 256.068 55.7548 0.96565 0.0021808
1931600 60.3145 256.081 55.7548 0.96575 -0.0010562
1931800 60.3145 256.094 55.7548 0.96585 -0.0082316
1932000 60.3145 256.107 55.7548 0.96595 -0.00436244
1932200 60.3145 256.12 55.7548 0.96605 0.00962446
1932400 60.3145 256.133 55.7548 0.96615 -0.0244465
1932600 60.3145 256.146 55.7548 0.96625 -0.00826319
1932800 60.3145 256.159 55.7548 0.96635 -0.00313965
1933000 60.3145 256.172 55.7548 0.96645 -0.00869838
1933200 60.3145 256.185 55.7548 0.96655 0.00147484
1933400 60.3145 256.198 55.7548 0.96665 -0.00811349
1933600 60.3145 256.211 55.7548 0.96675 0.00617849
1933800 60.3145 256.224 55.7548 0.96685 0.00871767
1934000 60.3145 256.237 55.7548 0.96695 0.00108757
1934200 60.3145 256.25 55.7548 0.96705 0.0187919
1934400 60.3145 256.263 55.7548 0.96715 0.000114715
1934600 60.3145 256.276 55.7548 0.96725 0.0215411
1934800 60.3145 256.289 55.7548 0.96735 0.00973462
1935000 60.3145 256.302 55.7548 0.96745 0.00809819
1935200 60.3145 256.315 55.7548 0.96755 0.0110616
1935400 60.3145 256.328 55.7548 0.96765 0.00476693
1935600 60.3145 256.341 55.7548 0.96775 0.00395268
1935800 60.3145 256.354 55.7548 0.96785 -0.00083998
1936000 60.3145 256.367 55.7548 0.96795 -0.00495513
1936200 60.3145 256.38 55.7548 0.96805 -0.0123942
1936400 60.3145 256.393 55.7548 0.96815 0.00210562
1936600 60.3145 256.406 55.7548 0.96825 -0.0138292
1936800 60.3145 256.419 55.7548 0.96835 -0.0160742
1937000 60.3145 256.433 55.7548 0.96845 -0.00944214
1937200 60.3145 256.446 55.7548 0.96855 5.58117e-06
1937400 60.3145 256.459 55.7548 0.96865 0.00892024
1937600 60.3145 256.472 55.7548 0.96875 0.00357451
1937800 60.3145 256.485 55.7548 0.96885 0.00240849
1938000 60.3145 256.498 55.7548 0.96895 0.00369106
1938200 60.3145 256.511 55.7548 0.96905 0.0210458
1938400 60.3145 256.524 55.7548 0.96915 0.00864542
1938600 60.3145 256.537 55.7548 0.96925 0.0121079
1938800 60.3145 256.55 55.7548 0.96935 0.00539107
1939000 60.3145 256.563 55.7548 0.96945 0.00594975
1939200 60.3145 256.576 55.7548 0.96955 0.0104875
1939400 60.3145 256.589 55.7548 0.96965 -0.00358268
1939600 60.3145 256.602 55.7548 0.96975 0.00447648
1939800 60.3145 256.615 55.7548 0.96985 -0.00214593
1940000 60.3145 256.628 55.7548 0.96995 -0.0173645
1940200 60.3145 256.641 55.7548 0.97005 0.00431179
1940400 60.3145 256.654 55.7548 0.97015 -0.0143663
1940600 60.3145 256.667 55.7548 0.97025 -0.0120852
1940800 60.3145 256.68 55.7548 0.97035 0.00237259
1941000 60.3145 256.693 55.7548 0.97045 -0.00430394
1941200 60.3145 256.706 55.7548 0.97055 0.00442352
1941400 60.3145 256.719 55.7548 0.97065 -0.00310062
1941600 60.3145 256.732 55.7548 0.97075 0.0122925
1941800 60.3145 256.745 55.7548 0.97085 0.00421485
1942000 60.3145 256.758 55.7548 0.97095 0.0111993
1942200 60.3145 256.771 55.7548 0.97105 0.00598071
1942400 60.3145 256.784 55.7548 0.97115 0.0201583
1942600 60.3145 256.797 55.7548 0.97125 0.00639281
1942800 60.3145 256.81 55.7548 0.97135 0.00353179
1943000 60.3145 256.823 55.7548 0.97145 0.00167392
1943200 60.3145 256.836 55.7548 0.97155 -0.0074296
1943400 60.3145 256.849 55.7548 0.97165 -0.00225525
1943600 60.3145 256.862 55.7548 0.97175 0.0202805
1943800 60.3145 256.875 55.7548 0.97185 -0.000848865
1944000 60.3145 256.888 55.7548 0.97195 -0.00142791
1944200 60.3145 256.901 55.7548 0.97205 -0.0195043
1944400 60.3145 256.915 55.7548 0.97215 -0.00642027
1944600 60.3145 256.928 55.7548 0.97225 -0.0129283
1944800 60.3145 256.941 55.7548 0.97235 0.00101917
1945000 60.3145 256.954 55.7548 0.97245 -0.000526946
1945200 60.3145 256.967 55.7548 0.97255 0.00599366
1945400 60.3145 256.98 55.7548 0.97265 0.00865006
1945600 60.3145 256.993 55.7548 0.97275 -0.00958718
1945800 60.3145 257.006 55.7548 0.97285 0.00318416
1946000 60.3145 257.019 55.7548 0.97295 -0.0068213
1946200 60.3145 257.032 55.7548 0.97305 0.009159
1946400 60.3145 257.045 55.7548 0.97315 0.0187567
1946600 60.3145 257.058 55.7548 0.97325 0.0153791
1946800 60.3145 257.071 55.7548 0.97335 0.020122
1947000 60.3145 257.084 55.7548 0.97345 0.00675812
1947200 60.3145 257.097 55.7548 0.97355 0.00100918
1947400 60.3145 257.11 55.7548 0.97365 -0.00910646
1947600 60.3145 257.123 55.7548 0.97375 0.00767218
1947800 60.3145 257.136 55.7548 0.97385 0.000296146
1948000 60.3145 257.149 55.7548 0.97395 0.00143892
1948200 60.3145 257.162 55.7548 0.97405 0.0129446
1948400 60.3145 257.175 55.7548 0.97415 -0.0127165
1948600 60.3145 257.188 55.7548 0.97425 -0.0271744
1948800 60.3145 257.201 55.7548 0.97435 -0.0238067
1949000 60.3145 257.214 55.7548 0.97445 -0.0109534
1949200 60.3145 257.227 55.7548 0.97455 0.00264697
1949400 60.3145 257.24 55.7548 0.97465 0.00672685
1949600 60.3145 257.253 55.7548 0.97475 0.00977078
1949800 60.3145 257.266 55.7548 0.97485 0.0129652
1950000 60.3145 257.279 55.7548 0.97495 0.00795259
1950200 60.3145 257.292 55.7548 0.97505 -0.0048615
1950400 60.3145 257.305 55.7548 0.97515 0.0162291
1950600 60.3145 257.318 55.7548 0.97525 0.0141986
1950800 60.3145 257.331 55.7548 0.97535 0.0284002
1951000 60.3145 257.344 55.7548 0.97545 0.0124988
1951200 60.3145 257.357 55.7548 0.97555 0.0158917
1951400 60.3145 257.37 55.7548 0.97565 -0.01967
1951600 60.3145 257.383 55.7548 0.97575 0.00245386
1951800 60.3145 257.397 55.7548 0.97585 -0.00313132
1952000 60.3145 257.41 55.7548 0.97595 -0.00984148
1952200 60.3145 257.423 55.7548 0.97605 -0.00884932
1952400 60.3145 257.436 55.7548 0.97615 -0.00611317
1952600 60.3145 257.449 55.7548 0.97625 -0.0197481
1952800 60.3145 257.462 55.7548 0.97635 -0.0122023
1953000 60.3145 257.475 55.7548 0.97645 -0.0119389
1953200 60.3145 257.488 55.7548 0.97655 -0.00261944
1953400 60.3145 257.501 55.7548 0.97665 0.00771828
1953600 60.3145 257.514 55.7548 0.97675 -0.0043848
1953800 60.3145 257.527 55.7548 0.97685 0.0129882
1954000 60.3145 257.54 55.7548 0.97695 0.00654328
1954200 60.3145 257.553 55.7548 0.97705 0.0231668
1954400 60.3145 257.566 55.7548 0.97715 0.0275476
1954600 60.3145 257.579 55.7548 0.97725 0.00148588
1954800 60.3145 257.592 55.7548 0.97735 0.013388
1955000 60.3145 257.605 55.7548 0.97745 0.0104469
1955200 60.3145 257.618 55.7548 0.97755 0.0102131
1955400 60.3145 257.631 55.7548 0.97765 0.00532393
1955600 60.3145 257.644 55.7548 0.97775 -0.0138479
1955800 60.3145 257.657 55.7548 0.97785 -0.0166666
1956000 60.3145 257.67 55.7548 0.97795 0.00576332
1956200 60.3145 257.683 55.7548 0.97805 -0.00155861
1956400 60.3145 257.696 55.7548 0.97815 -0.013048
1956600 60.3145 257.709 55.7548 0.97825 -0.0139325
1956800 60.3145 257.722 55.7548 0.97835 -0.024302
1957000 60.3145 257.735 55.7548 0.97845 0.00210388
1957200 60.3145 257.748 55.7548 0.97855 0.00176409
1957400 60.3145 257.761 55.7548 0.97865 -0.00565626
1957600 60.3145 257.774 55.7548 0.97875 0.0116181
1957800 60.3145 257.787 55.7548 0.97885 0.0112421
1958000 60.3145 257.8 55.7548 0.97895 0.0129476
1958200 60.3145 257.813 55.7548 0.97905 0.00121354
1958400 60.3145 257.826 55.7548 0.97915 0.0137982
1958600 60.3145 257.839 55.7548 0.97925 0.0144314
1958800 60.3145 257.852 55.7548 0.97935 0.0202651
1959000 60.3145 257.865 55.7548 0.97945 -0.000961007
1959200 60.3145 257.879 55.7548 0.97955 0.0111003
1959400 60.3145 257.892 55.7548 0.97965 0.010489
1959600 60.3145 257.905 55.7548 0.97975 -0.0010357
1959800 60.3145 257.918 55.7548 0.97985 -0.0154404
1960000 60.3145 257.931 55.7548 0.97995 0.00601216
1960200 60.3145 257.944 55.7548 0.98005 -0.013805
1960400 60.3145 257.957 55.7548 0.98015 -0.000786178
1960600 60.3145 257.97 55.7548 0.98025 -0.0175986
1960800 60.3145 257.983 55.7548 0.98035 -0.0115398
1961000 60.3145 257.996 55.7548 0.98045 -0.00994206
1961200 60.3145 258.009 55.7548 0.98055 -0.0107451
1961400 60.3145 258.022 55.7548 0.98065 0.0103062
1961600 60.3145 258.035 55.7548 0.98075 0.00544047
1961800 60.3145 258.048 55.7548 0.98085 0.0112278
1962000 60.3145 258.061 55.7548 0.98095 -0.000213094
1962200 60.3145 258.074 55.7548 0.98105 0.00440445
1962400 60.3145 258.087 55.7548 0.98115 0.0173245
1962600 60.3145 258.1 55.7548 0.98125 0.0136859
1962800 60.3145 258.113 55.7548 0.98135 0.0161651
1963000 60.3145 258.126 55.7548 0.98145 -0.00944741
1963200 60.3145 258.139 55.7548 0.98155 0.017519
1963400 60.3145 258.152 55.7548 0.98165 0.0103006
1963600 60.3145 258.165 55.7548 0.98175 -0.00632885
1963800 60.3145 258.178 55.7548 0.98185 0.00521864
1964000 60.3145 258.191 55.7548 0.98195 -9.92646e-05
1964200 60.3145 258.204 55.7548 0.98205 -0.0141774
1964400 60.3145 258.217 55.7548 0.98215 -0.0110664
1964600 60.3145 258.23 55.7548 0.98225 -0.00395052
1964800 60.3145 258.243 55.7548 0.98235 0.00316053
1965000 60.3145 258.256 55.7548 0.98245 -0.0240544
1965200 60.3145 258.269 55.7548 0.98255 0.00866501
1965400 60.3145 258.282 55.7548 0.98265 -0.00414003
1965600 60.3145 258.295 55.7548 0.98275 -0.00385368
1965800 60.3145 258.308 55.7548 0.98285 -0.00215084
1966000 60.3145 258.321 55.7548 0.98295 2.64048e-05
1966200 60.3145 258.334 55.7548 0.98305 0.0119165
1966400 60.3145 258.347 55.7548 0.98315 0.0216563
1966600 60.3145 258.361 55.7548 0.98325 0.0239151
1966800 60.3145 258.374 55.7548 0.98335 0.0138808
1967000 60.3145 258.387 55.7548 0.98345 0.00647707
1967200 60.3145 258.4 55.7548 0.98355 -0.00374684
1967400 60.3145 258.413 55.7548 0.98365 0.00783113
1967600 60.3145 258.426 55.7548 0.98375 -0.00112014
1967800 60.3145 258.439 55.7548 0.98385 0.00022567
1968000 60.3145 258.452 55.7548 0.98395 -0.00368086
1968200 60.3145 258.465 55.7548 0.98405 -0.0163559
1968400 60.3145 258.478 55.7548 0.98415 -0.00628218
1968600 60.3145 258.491 55.7548 0.98425 -0.0130787
1968800 60.3145 258.504 55.7548 0.98435 -0.0139808
1969000 60.3145 258.517 55.7548 0.98445 -0.0219079
1969200 60.3145 258.53 55.7548 0.98455 0.0164235
1969400 60.3145 258.543 55.7548 0.98465 -0.00734075
1969600 60.3145 258.556 55.7548 0.98475 0.00903878
1969800 60.3145 258.569 55.7548 0.98485 0.0198278
1970000 60.3145 258.582 55.7548 0.98495 -0.00197329
1970200 60.3145 258.595 55.7548 0.98505 0.0151176
1970400 60.3145 258.608 55.7548 0.98515 0.0108942
1970600 60.3145 258.621 55.7548 0.98525 0.0306128
1970800 60.3145 258.634 55.7548 0.98535 0.0301626
1971000 60.3145 258.647 55.7548 0.98545 0.00425159
1971200 60.3145 258.66 55.7548 0.98555 0.00119599
1971400 60.3145 258.673 55.7548 0.98565 -0.0028827
1971600 60.3145 258.686 55.7548 0.98575 0.00451225
1971800 60.3145 258.699 55.7548 0.98585 -0.0141098
1972000 60.3145 258.712 55.7548 0.98595 -0.0189734
1972200 60.3145 258.725 55.7548 0.98605 0.00623562
1972400 60.3145 258.738 55.7548 0.98615 -0.023452
1972600 60.3145 258.751 55.7548 0.98625 -0.0327498
1972800 60.3145 258.764 55.7548 0.98635 0.0019253
1973000 60.3145 258.777 55.7548 0.98645 -0.0241341
1973200 60.3145 258.79 55.7548 0.98655 0.00215005
1973400 60.3145 258.803 55.7548 0.98665 -0.00358481
1973600 60.3145 258.816 55.7548 0.98675 0.014774
1973800 60.3145 258.829 55.7548 0.98685 0.0137395
1974000 60.3145 258.843 55.7548 0.98695 0.020091
1974200 60.3145 258.856 55.7548 0.98705 0.0064857
1974400 60.3145 258.869 55.7548 0.98715 0.0217921
1974600 60.3145 258.882 55.7548 0.98725 0.0164358
1974800 60.3145 258.895 55.7548 0.98735 0.0165627
1975000 60.3145 258.908 55.7548 0.98745 0.0193794
1975200 60.3145 258.921 55.7548 0.98755 0.0200797
1975400 60.3145 258.934 55.7548 0.98765 -0.00972746
1975600 60.3145 258.947 55.7548 0.98775 -0.00934515
1975800 60.3145 258.96 55.7548 0.98785 0.00195198
1976000 60.3145 258.973 55.7548 0.98795 -0.0112173
1976200 60.3145 258.986 55.7548 0.98805 -0.0196264
1976400 60.3145 258.999 55.7548 0.98815 -0.0212954
1976600 60.3145 259.012 55.7548 0.98825 -0.00647629
1976800 60.3145 259.025 55.7548 0.98835 -0.0217892
1977000 60.3145 259.038 55.7548 0.98845 -0.00455817
1977200 60.3145 259.051 55.7548 0.98855 -0.0201659
1977400 60.3145 259.064 55.7548 0.98865 0.0108314
1977600 60.3145 259.077 55.7548 0.98875 0.0103126
1977800 60.3145 259.09 55.7548 0.98885 0.00922362
1978000 60.3145 259.103 55.7548 0.98895 0.0121756
1978200 60.3145 259.116 55.7548 0.98905 0.0140776
1978400 60.3145 259.129 55.7548 0.98915 0.03112
1978600 60.3145 259.142 55.7548 0.98925 0.022323
1978800 60.3145 259.155 55.7548 0.98935 0.00590238
1979000 60.3145 259.168 55.7548 0.98945 0.0174462
1979200 60.3145 259.181 55.7548 0.98955 0.016795
1979400 60.3145 259.194 55.7548 0.98965 -0.0106649
1979600 60.3145 259.207 55.7548 0.98975 -0.00381258
1979800 60.3145 259.22 55.7548 0.98985 -0.00468997
1980000 60.3145 259.233 55.7548 0.98995 -0.0146537
1980200 60.3145 259.246 55.7548 0.99005 -0.0237521
1980400 60.3145 259.259 55.7548 0.99015 -0.0188906
1980600 60.3145 259.272 55.7548 0.99025 -0.0045961
1980800 60.3145 259.285 55.7548 0.99035 -0.0119114
1981000 60.3145 259.298 55.7548 0.99045 -0.00524833
1981200 60.3145 259.311 55.7548 0.99055 -0.0100117
1981400 60.3145 259.325 55.7548 0.99065 0.0041304
1981600 60.3145 259.338 55.7548 0.99075 0.00365129
1981800 60.3145 259.351 55.7548 0.99085 0.0175657
1982000 60.3145 259.364 55.7548 0.99095 0.0119746
1982200 60.3145 259.377 55.7548 0.99105 0.0355603
1982400 60.3145 259.39 55.7548 0.99115 0.0137541
1982600 60.3145 259.403 55.7548 0.99125 0.0154592
1982800 60.3145 259.416 55.7548 0.99135 0.00797585
1983000 60.3145 259.429 55.7548 0.99145 0.00537059
1983200 60.3145 259.442 55.7548 0.99155 0.027719
1983400 60.3145 259.455 55.7548 0.99165 0.000777856
1983600 60.3145 259.468 55.7548 0.99175 -0.0158848
1983800 60.3145 259.481 55.7548 0.99185 -0.0152936
1984000 60.3145 259.494 55.7548 0.99195 -0.0218681
1984200 60.3145 259.507 55.7548 0.99205 -0.0155172
1984400 60.3145 259.52 55.7548 0.99215 -0.00848535
1984600 60.3145 259.533 55.7548 0.99225 -0.0110208
1984800 60.3145 259.546 55.7548 0.99235 -0.0133774
1985000 60.3145 259.559 55.7548 0.99245 0.00386405
1985200 60.3145 259.572 55.7548 0.99255 -0.000127227
1985400 60.3145 259.585 55.7548 0.99265 -0.00505518
1985600 60.3145 259.598 55.7548 0.99275 0.00872886
1985800 60.3145 259.611 55.7548 0.99285 0.00439649
1986000 60.3145 259.624 55.7548 0.99295 0.0178646
1986200 60.3145 259.637 55.7548 0.99305 0.0247639
1986400 60.3145 259.65 55.7548 0.99315 0.00509076
1986600 60.3145 259.663 55.7548 0.99325 0.0170008
1986800 60.3145 259.676 55.7548 0.99335 0.0233969
1987000 60.3145 259.689 55.7548 0.99345 0.00594213
1987200 60.3145 259.702 55.7548 0.99355 0.000932817
1987400 60.3145 259.715 55.7548 0.99365 0.00360928
1987600 60.3145 259.728 55.7548 0.99375 0.00728749
1987800 60.3145 259.741 55.7548 0.99385 -0.00906467
1988000 60.3145 259.754 55.7548 0.99395 -0.0116402
1988200 60.3145 259.767 55.7548 0.99405 -0.00649487
1988400 60.3145 259.78 55.7548 0.99415 -0.00867015
1988600 60.3145 259.793 55.7548 0.99425 -0.0221384
1988800 60.3145 259.807 55.7548 0.99435 -0.00825829
1989000 60.3145 259.82 55.7548 0.99445 0.000482463
1989200 60.3145 259.833 55.7548 0.99455 -0.00922212
1989400 60.3145 259.846 55.7548 0.99465 -0.00796485
1989600 60.3145 259.859 55.7548 0.99475 0.00615074
1989800 60.3145 259.872 55.7548 0.99485 0.00745486
1990000 60.3145 259.885 55.7548 0.99495 0.016543
1990200 60.3145 259.898 55.7548 0.99505 0.0031302
1990400 60.3145 259.911 55.7548 0.99515 0.0255825
1990600 60.3145 259.924 55.7548 0.99525 0.0143139
1990800 60.3145 259.937 55.7548 0.99535 0.0130021
1991000 60.3145 259.95 55.7548 0.99545 0.000354619
1991200 60.3145 259.963 55.7548 0.99555 0.017487
1991400 60.3145 259.976 55.7548 0.99565 0.00496273
1991600 60.3145 259.989 55.7548 0.99575 -0.0110695
1991800 60.3145 260.002 55.7548 0.99585 0.00252689
1992000 60.3145 260.015 55.7548 0.99595 -0.00213108
1992200 60.3145 260.028 55.7548 0.99605 -0.020356
1992400 60.3145 260.041 55.7548 0.99615 -0.0294764
1992600 60.3145 260.054 55.7548 0.99625 -0.00223898
1992800 60.3145 260.067 55.7548 0.99635 0.0134011
1993000 60.3145 260.08 55.7548 0.99645 -0.0132089
1993200 60.3145 260.093 55.7548 0.99655 0.00817174
1993400 60.3145 260.106 55.7548 0.99665 -0.00436379
1993600 60.3145 260.119 55.7548 0.99675 -0.00294585
1993800 60.3145 260.132 55.7548 0.99685 0.00876395
1994000 60.3145 260.145 55.7548 0.99695 0.0147971
1994200 60.3145 260.158 55.7548 0.99705 0.00161813
1994400 60.3145 260.171 55.7548 0.99715 0.0282189
1994600 60.3145 260.184 55.7548 0.99725 0.00387835
1994800 60.3145 260.197 55.7548 0.99735 0.0246269
1995000 60.3145 260.21 55.7548 0.99745 0.00847883
1995200 60.3145 260.223 55.7548 0.99755 0.00263043
1995400 60.3145 260.236 55.7548 0.99765 0.00105225
1995600 60.3145 260.249 55.7548 0.99775 0.000170063
1995800 60.3145 260.262 55.7548 0.99785 0.0035177
1996000 60.3145 260.276 55.7548 0.99795 -0.0192464
1996200 60.3145 260.289 55.7548 0.99805 -0.0196705
1996400 60.3145 260.302 55.7548 0.99815 -0.0113115
1996600 60.3145 260.315 55.7548 0.99825 -0.00473455
1996800 60.3145 260.328 55.7548 0.99835 -0.0101923
1997000 60.3145 260.341 55.7548 0.99845 -0.0224215
1997200 60.3145 260.354 55.7548 0.99855 0.00461809
1997400 60.3145 260.367 55.7548 0.99865 -0.00389546
1997600 60.3145 260.38 55.7548 0.99875 0.0074263
1997800 60.3145 260.393 55.7548 0.99885 0.0199905
1998000 60.3145 260.406 55.7548 0.99895 0.0167742
1998200 60.3145 260.419 55.7548 0.99905 0.0197224
1998400 60.3145 260.432 55.7548 0.99915 0.00912752
1998600 60.3145 260.445 55.7548 0.99925 0.017037
1998800 60.3145 260.458 55.7548 0.99935 0.0143963
1999000 60.3145 260.471 55.7548 0.99945 0.00891482
1999200 60.3145 260.484 55.7548 0.99955 0.0151714
1999400 60.3145 260.497 55.7548 0.99965 -0.00194879
1999600 60.3145 260.51 55.7548 0.99975 -0.0054412
1999800 60.3145 260.523 55.7548 0.99985 -0.00819329
2000000 60.3145 260.536 55.7548 0.99995 -0.0093249
