# Time-averaged data for fix Re_Primary
Step Lx Ly Lz StrainY StressYY
200 60.2689 130.219 55.7864 5.025e-05 0.0890012
400 60.2689 130.232 55.7864 0.00015025 0.094827
600 60.2689 130.245 55.7864 0.00025025 0.0613409
800 60.2689 130.258 55.7864 0.00035025 0.0952976
1000 60.2689 130.271 55.7864 0.00045025 0.0954321
1200 60.2689 130.284 55.7864 0.00055025 0.135843
1400 60.2689 130.297 55.7864 0.00065025 0.122624
1600 60.2689 130.31 55.7864 0.00075025 0.137836
1800 60.2689 130.323 55.7864 0.00085025 0.161016
2000 60.2689 130.336 55.7864 0.00095025 0.13742
2200 60.2689 130.349 55.7864 0.00105025 0.176037
2400 60.2689 130.362 55.7864 0.00115025 0.170778
2600 60.2689 130.375 55.7864 0.00125025 0.187163
2800 60.2689 130.388 55.7864 0.00135025 0.191298
3000 60.2689 130.401 55.7864 0.00145025 0.228317
3200 60.2689 130.414 55.7864 0.00155025 0.227196
3400 60.2689 130.427 55.7864 0.00165025 0.246311
3600 60.2689 130.44 55.7864 0.00175025 0.225731
3800 60.2689 130.453 55.7864 0.00185025 0.259265
4000 60.2689 130.466 55.7864 0.00195025 0.283259
4200 60.2689 130.479 55.7864 0.00205025 0.258971
4400 60.2689 130.492 55.7864 0.00215025 0.290078
4600 60.2689 130.505 55.7864 0.00225025 0.305412
4800 60.2689 130.518 55.7864 0.00235025 0.312105
5000 60.2689 130.531 55.7864 0.00245025 0.291876
5200 60.2689 130.544 55.7864 0.00255025 0.318216
5400 60.2689 130.557 55.7864 0.00265025 0.339082
5600 60.2689 130.57 55.7864 0.00275025 0.343484
5800 60.2689 130.583 55.7864 0.00285025 0.3528
6000 60.2689 130.596 55.7864 0.00295025 0.374136
6200 60.2689 130.609 55.7864 0.00305025 0.36942
6400 60.2689 130.622 55.7864 0.00315025 0.399747
6600 60.2689 130.636 55.7864 0.00325025 0.381761
6800 60.2689 130.649 55.7864 0.00335025 0.398874
7000 60.2689 130.662 55.7864 0.00345025 0.431001
7200 60.2689 130.675 55.7864 0.00355025 0.42741
7400 60.2689 130.688 55.7864 0.00365025 0.441084
7600 60.2689 130.701 55.7864 0.00375025 0.446646
7800 60.2689 130.714 55.7864 0.00385025 0.446057
8000 60.2689 130.727 55.7864 0.00395025 0.466324
8200 60.2689 130.74 55.7864 0.00405025 0.48369
8400 60.2689 130.753 55.7864 0.00415025 0.485847
8600 60.2689 130.766 55.7864 0.00425025 0.510358
8800 60.2689 130.779 55.7864 0.00435025 0.506246
9000 60.2689 130.792 55.7864 0.00445025 0.544238
9200 60.2689 130.805 55.7864 0.00455025 0.536154
9400 60.2689 130.818 55.7864 0.00465025 0.518733
9600 60.2689 130.831 55.7864 0.00475025 0.57257
9800 60.2689 130.844 55.7864 0.00485025 0.557896
10000 60.2689 130.857 55.7864 0.00495025 0.56425
10200 60.2689 130.87 55.7864 0.00505025 0.579486
10400 60.2689 130.883 55.7864 0.00515025 0.600351
10600 60.2689 130.896 55.7864 0.00525025 0.616901
10800 60.2689 130.909 55.7864 0.00535025 0.615393
11000 60.2689 130.922 55.7864 0.00545025 0.604823
11200 60.2689 130.935 55.7864 0.00555025 0.639809
11400 60.2689 130.948 55.7864 0.00565025 0.650469
11600 60.2689 130.961 55.7864 0.00575025 0.652825
11800 60.2689 130.974 55.7864 0.00585025 0.659957
12000 60.2689 130.987 55.7864 0.00595025 0.68715
12200 60.2689 131 55.7864 0.00605025 0.703294
12400 60.2689 131.013 55.7864 0.00615025 0.658625
12600 60.2689 131.026 55.7864 0.00625025 0.712428
12800 60.2689 131.039 55.7864 0.00635025 0.714229
13000 60.2689 131.052 55.7864 0.00645025 0.742973
13200 60.2689 131.065 55.7864 0.00655025 0.750114
13400 60.2689 131.078 55.7864 0.00665025 0.736887
13600 60.2689 131.091 55.7864 0.00675025 0.786376
13800 60.2689 131.104 55.7864 0.00685025 0.768036
14000 60.2689 131.117 55.7864 0.00695025 0.793485
14200 60.2689 131.13 55.7864 0.00705025 0.761992
14400 60.2689 131.143 55.7864 0.00715025 0.820982
14600 60.2689 131.156 55.7864 0.00725025 0.807784
14800 60.2689 131.169 55.7864 0.00735025 0.835273
15000 60.2689 131.182 55.7864 0.00745025 0.83161
15200 60.2689 131.195 55.7864 0.00755025 0.839411
15400 60.2689 131.208 55.7864 0.00765025 0.873569
15600 60.2689 131.221 55.7864 0.00775025 0.850481
15800 60.2689 131.234 55.7864 0.00785025 0.874817
16000 60.2689 131.248 55.7864 0.00795025 0.893102
16200 60.2689 131.261 55.7864 0.00805025 0.900405
16400 60.2689 131.274 55.7864 0.00815025 0.913507
16600 60.2689 131.287 55.7864 0.00825025 0.923505
16800 60.2689 131.3 55.7864 0.00835025 0.925104
17000 60.2689 131.313 55.7864 0.00845025 0.948955
17200 60.2689 131.326 55.7864 0.00855025 0.951257
17400 60.2689 131.339 55.7864 0.00865025 0.970159
17600 60.2689 131.352 55.7864 0.00875025 0.98889
17800 60.2689 131.365 55.7864 0.00885025 0.983703
18000 60.2689 131.378 55.7864 0.00895025 0.996533
18200 60.2689 131.391 55.7864 0.00905025 0.999989
18400 60.2689 131.404 55.7864 0.00915025 1.01799
18600 60.2689 131.417 55.7864 0.00925025 1.04155
18800 60.2689 131.43 55.7864 0.00935025 1.02605
19000 60.2689 131.443 55.7864 0.00945025 1.07687
19200 60.2689 131.456 55.7864 0.00955025 1.04983
19400 60.2689 131.469 55.7864 0.00965025 1.08999
19600 60.2689 131.482 55.7864 0.00975025 1.06772
19800 60.2689 131.495 55.7864 0.00985025 1.09124
20000 60.2689 131.508 55.7864 0.00995025 1.11678
20200 60.2689 131.521 55.7864 0.0100502 1.09098
20400 60.2689 131.534 55.7864 0.0101502 1.14727
20600 60.2689 131.547 55.7864 0.0102502 1.12518
20800 60.2689 131.56 55.7864 0.0103502 1.12474
21000 60.2689 131.573 55.7864 0.0104502 1.17408
21200 60.2689 131.586 55.7864 0.0105502 1.16671
21400 60.2689 131.599 55.7864 0.0106502 1.16279
21600 60.2689 131.612 55.7864 0.0107502 1.19588
21800 60.2689 131.625 55.7864 0.0108502 1.18989
22000 60.2689 131.638 55.7864 0.0109502 1.19118
22200 60.2689 131.651 55.7864 0.0110502 1.25206
22400 60.2689 131.664 55.7864 0.0111502 1.21132
22600 60.2689 131.677 55.7864 0.0112502 1.23457
22800 60.2689 131.69 55.7864 0.0113502 1.26482
23000 60.2689 131.703 55.7864 0.0114502 1.25758
23200 60.2689 131.716 55.7864 0.0115502 1.27917
23400 60.2689 131.729 55.7864 0.0116502 1.27512
23600 60.2689 131.742 55.7864 0.0117502 1.31846
23800 60.2689 131.755 55.7864 0.0118502 1.29223
24000 60.2689 131.768 55.7864 0.0119502 1.30683
24200 60.2689 131.781 55.7864 0.0120502 1.33821
24400 60.2689 131.794 55.7864 0.0121502 1.34897
24600 60.2689 131.807 55.7864 0.0122502 1.3358
24800 60.2689 131.82 55.7864 0.0123502 1.36579
25000 60.2689 131.833 55.7864 0.0124502 1.36856
25200 60.2689 131.846 55.7864 0.0125502 1.40048
25400 60.2689 131.86 55.7864 0.0126502 1.37553
25600 60.2689 131.873 55.7864 0.0127502 1.42649
25800 60.2689 131.886 55.7864 0.0128502 1.41737
26000 60.2689 131.899 55.7864 0.0129502 1.41871
26200 60.2689 131.912 55.7864 0.0130502 1.44614
26400 60.2689 131.925 55.7864 0.0131502 1.4263
26600 60.2689 131.938 55.7864 0.0132502 1.46036
26800 60.2689 131.951 55.7864 0.0133502 1.45879
27000 60.2689 131.964 55.7864 0.0134502 1.5094
27200 60.2689 131.977 55.7864 0.0135502 1.46788
27400 60.2689 131.99 55.7864 0.0136502 1.5292
27600 60.2689 132.003 55.7864 0.0137502 1.50858
27800 60.2689 132.016 55.7864 0.0138502 1.52934
28000 60.2689 132.029 55.7864 0.0139502 1.5545
28200 60.2689 132.042 55.7864 0.0140502 1.54303
28400 60.2689 132.055 55.7864 0.0141502 1.5785
28600 60.2689 132.068 55.7864 0.0142502 1.56891
28800 60.2689 132.081 55.7864 0.0143502 1.57057
29000 60.2689 132.094 55.7864 0.0144502 1.6148
29200 60.2689 132.107 55.7864 0.0145502 1.6069
29400 60.2689 132.12 55.7864 0.0146502 1.61697
29600 60.2689 132.133 55.7864 0.0147502 1.62625
29800 60.2689 132.146 55.7864 0.0148502 1.63
30000 60.2689 132.159 55.7864 0.0149502 1.64799
30200 60.2689 132.172 55.7864 0.0150502 1.63541
30400 60.2689 132.185 55.7864 0.0151502 1.70593
30600 60.2689 132.198 55.7864 0.0152502 1.66529
30800 60.2689 132.211 55.7864 0.0153502 1.66495
31000 60.2689 132.224 55.7864 0.0154502 1.71651
31200 60.2689 132.237 55.7864 0.0155502 1.70201
31400 60.2689 132.25 55.7864 0.0156502 1.72672
31600 60.2689 132.263 55.7864 0.0157502 1.73583
31800 60.2689 132.276 55.7864 0.0158502 1.73781
32000 60.2689 132.289 55.7864 0.0159502 1.76254
32200 60.2689 132.302 55.7864 0.0160502 1.77923
32400 60.2689 132.315 55.7864 0.0161502 1.7574
32600 60.2689 132.328 55.7864 0.0162502 1.80048
32800 60.2689 132.341 55.7864 0.0163502 1.81199
33000 60.2689 132.354 55.7864 0.0164502 1.79223
33200 60.2689 132.367 55.7864 0.0165502 1.8164
33400 60.2689 132.38 55.7864 0.0166502 1.85437
33600 60.2689 132.393 55.7864 0.0167502 1.84126
33800 60.2689 132.406 55.7864 0.0168502 1.85976
34000 60.2689 132.419 55.7864 0.0169502 1.85834
34200 60.2689 132.432 55.7864 0.0170502 1.89134
34400 60.2689 132.445 55.7864 0.0171502 1.8717
34600 60.2689 132.458 55.7864 0.0172502 1.91269
34800 60.2689 132.472 55.7864 0.0173502 1.90326
35000 60.2689 132.485 55.7864 0.0174502 1.92193
35200 60.2689 132.498 55.7864 0.0175502 1.94952
35400 60.2689 132.511 55.7864 0.0176502 1.95325
35600 60.2689 132.524 55.7864 0.0177502 1.94436
35800 60.2689 132.537 55.7864 0.0178502 1.94336
36000 60.2689 132.55 55.7864 0.0179502 1.97361
36200 60.2689 132.563 55.7864 0.0180502 2.02591
36400 60.2689 132.576 55.7864 0.0181502 1.994
36600 60.2689 132.589 55.7864 0.0182502 2.00473
36800 60.2689 132.602 55.7864 0.0183502 2.02198
37000 60.2689 132.615 55.7864 0.0184502 2.03815
37200 60.2689 132.628 55.7864 0.0185502 2.03251
37400 60.2689 132.641 55.7864 0.0186502 2.07508
37600 60.2689 132.654 55.7864 0.0187502 2.0476
37800 60.2689 132.667 55.7864 0.0188502 2.10448
38000 60.2689 132.68 55.7864 0.0189502 2.07488
38200 60.2689 132.693 55.7864 0.0190502 2.10685
38400 60.2689 132.706 55.7864 0.0191502 2.11205
38600 60.2689 132.719 55.7864 0.0192502 2.11822
38800 60.2689 132.732 55.7864 0.0193502 2.14342
39000 60.2689 132.745 55.7864 0.0194502 2.15413
39200 60.2689 132.758 55.7864 0.0195502 2.14787
39400 60.2689 132.771 55.7864 0.0196502 2.16752
39600 60.2689 132.784 55.7864 0.0197502 2.18901
39800 60.2689 132.797 55.7864 0.0198502 2.19632
40000 60.2689 132.81 55.7864 0.0199502 2.19214
40200 60.2689 132.823 55.7864 0.0200502 2.23254
40400 60.2689 132.836 55.7864 0.0201502 2.21766
40600 60.2689 132.849 55.7864 0.0202502 2.22759
40800 60.2689 132.862 55.7864 0.0203502 2.24127
41000 60.2689 132.875 55.7864 0.0204502 2.26211
41200 60.2689 132.888 55.7864 0.0205502 2.26551
41400 60.2689 132.901 55.7864 0.0206502 2.28632
41600 60.2689 132.914 55.7864 0.0207502 2.30405
41800 60.2689 132.927 55.7864 0.0208502 2.29937
42000 60.2689 132.94 55.7864 0.0209502 2.30293
42200 60.2689 132.953 55.7864 0.0210502 2.34397
42400 60.2689 132.966 55.7864 0.0211502 2.3429
42600 60.2689 132.979 55.7864 0.0212502 2.34692
42800 60.2689 132.992 55.7864 0.0213502 2.3724
43000 60.2689 133.005 55.7864 0.0214502 2.37185
43200 60.2689 133.018 55.7864 0.0215502 2.39559
43400 60.2689 133.031 55.7864 0.0216502 2.39511
43600 60.2689 133.044 55.7864 0.0217502 2.40056
43800 60.2689 133.057 55.7864 0.0218502 2.41261
44000 60.2689 133.07 55.7864 0.0219502 2.43357
44200 60.2689 133.084 55.7864 0.0220502 2.44427
44400 60.2689 133.097 55.7864 0.0221502 2.47427
44600 60.2689 133.11 55.7864 0.0222502 2.44762
44800 60.2689 133.123 55.7864 0.0223502 2.46923
45000 60.2689 133.136 55.7864 0.0224502 2.49959
45200 60.2689 133.149 55.7864 0.0225502 2.49046
45400 60.2689 133.162 55.7864 0.0226502 2.515
45600 60.2689 133.175 55.7864 0.0227502 2.52615
45800 60.2689 133.188 55.7864 0.0228502 2.54033
46000 60.2689 133.201 55.7864 0.0229502 2.53082
46200 60.2689 133.214 55.7864 0.0230502 2.57052
46400 60.2689 133.227 55.7864 0.0231502 2.5443
46600 60.2689 133.24 55.7864 0.0232502 2.59979
46800 60.2689 133.253 55.7864 0.0233502 2.59202
47000 60.2689 133.266 55.7864 0.0234502 2.59856
47200 60.2689 133.279 55.7864 0.0235502 2.61612
47400 60.2689 133.292 55.7864 0.0236502 2.63326
47600 60.2689 133.305 55.7864 0.0237502 2.63602
47800 60.2689 133.318 55.7864 0.0238502 2.64333
48000 60.2689 133.331 55.7864 0.0239502 2.68178
48200 60.2689 133.344 55.7864 0.0240502 2.66248
48400 60.2689 133.357 55.7864 0.0241502 2.67435
48600 60.2689 133.37 55.7864 0.0242502 2.69974
48800 60.2689 133.383 55.7864 0.0243502 2.70967
49000 60.2689 133.396 55.7864 0.0244502 2.72236
49200 60.2689 133.409 55.7864 0.0245502 2.7259
49400 60.2689 133.422 55.7864 0.0246502 2.74269
49600 60.2689 133.435 55.7864 0.0247502 2.76629
49800 60.2689 133.448 55.7864 0.0248502 2.75824
50000 60.2689 133.461 55.7864 0.0249502 2.7604
50200 60.2689 133.474 55.7864 0.0250502 2.82326
50400 60.2689 133.487 55.7864 0.0251502 2.77723
50600 60.2689 133.5 55.7864 0.0252502 2.79969
50800 60.2689 133.513 55.7864 0.0253502 2.8183
51000 60.2689 133.526 55.7864 0.0254502 2.8431
51200 60.2689 133.539 55.7864 0.0255502 2.84601
51400 60.2689 133.552 55.7864 0.0256502 2.83788
51600 60.2689 133.565 55.7864 0.0257502 2.86554
51800 60.2689 133.578 55.7864 0.0258502 2.88497
52000 60.2689 133.591 55.7864 0.0259502 2.89258
52200 60.2689 133.604 55.7864 0.0260502 2.90907
52400 60.2689 133.617 55.7864 0.0261502 2.90093
52600 60.2689 133.63 55.7864 0.0262502 2.92723
52800 60.2689 133.643 55.7864 0.0263502 2.94499
53000 60.2689 133.656 55.7864 0.0264502 2.96937
53200 60.2689 133.669 55.7864 0.0265502 2.95615
53400 60.2689 133.682 55.7864 0.0266502 2.96332
53600 60.2689 133.696 55.7864 0.0267502 2.97688
53800 60.2689 133.709 55.7864 0.0268502 3.01284
54000 60.2689 133.722 55.7864 0.0269502 2.99852
54200 60.2689 133.735 55.7864 0.0270502 3.00315
54400 60.2689 133.748 55.7864 0.0271502 3.03231
54600 60.2689 133.761 55.7864 0.0272502 3.05433
54800 60.2689 133.774 55.7864 0.0273502 3.07063
55000 60.2689 133.787 55.7864 0.0274502 3.0479
55200 60.2689 133.8 55.7864 0.0275502 3.08583
55400 60.2689 133.813 55.7864 0.0276502 3.10157
55600 60.2689 133.826 55.7864 0.0277502 3.0903
55800 60.2689 133.839 55.7864 0.0278502 3.13073
56000 60.2689 133.852 55.7864 0.0279502 3.10671
56200 60.2689 133.865 55.7864 0.0280502 3.13223
56400 60.2689 133.878 55.7864 0.0281502 3.15935
56600 60.2689 133.891 55.7864 0.0282502 3.15702
56800 60.2689 133.904 55.7864 0.0283502 3.14211
57000 60.2689 133.917 55.7864 0.0284502 3.18514
57200 60.2689 133.93 55.7864 0.0285502 3.1936
57400 60.2689 133.943 55.7864 0.0286502 3.22034
57600 60.2689 133.956 55.7864 0.0287502 3.20975
57800 60.2689 133.969 55.7864 0.0288502 3.20529
58000 60.2689 133.982 55.7864 0.0289502 3.24507
58200 60.2689 133.995 55.7864 0.0290502 3.25334
58400 60.2689 134.008 55.7864 0.0291502 3.23759
58600 60.2689 134.021 55.7864 0.0292502 3.25372
58800 60.2689 134.034 55.7864 0.0293502 3.29667
59000 60.2689 134.047 55.7864 0.0294502 3.26966
59200 60.2689 134.06 55.7864 0.0295502 3.32842
59400 60.2689 134.073 55.7864 0.0296502 3.30233
59600 60.2689 134.086 55.7864 0.0297502 3.33854
59800 60.2689 134.099 55.7864 0.0298502 3.33543
60000 60.2689 134.112 55.7864 0.0299502 3.35826
60200 60.2689 134.125 55.7864 0.0300502 3.35244
60400 60.2689 134.138 55.7864 0.0301502 3.38632
60600 60.2689 134.151 55.7864 0.0302502 3.38952
60800 60.2689 134.164 55.7864 0.0303502 3.39693
61000 60.2689 134.177 55.7864 0.0304502 3.43104
61200 60.2689 134.19 55.7864 0.0305502 3.41177
61400 60.2689 134.203 55.7864 0.0306502 3.44812
61600 60.2689 134.216 55.7864 0.0307502 3.43302
61800 60.2689 134.229 55.7864 0.0308502 3.45291
62000 60.2689 134.242 55.7864 0.0309502 3.48385
62200 60.2689 134.255 55.7864 0.0310502 3.48202
62400 60.2689 134.268 55.7864 0.0311502 3.4934
62600 60.2689 134.281 55.7864 0.0312502 3.50767
62800 60.2689 134.294 55.7864 0.0313502 3.53401
63000 60.2689 134.307 55.7864 0.0314502 3.50883
63200 60.2689 134.321 55.7864 0.0315502 3.55129
63400 60.2689 134.334 55.7864 0.0316502 3.52702
63600 60.2689 134.347 55.7864 0.0317502 3.57334
63800 60.2689 134.36 55.7864 0.0318502 3.59093
64000 60.2689 134.373 55.7864 0.0319502 3.60966
64200 60.2689 134.386 55.7864 0.0320502 3.60499
64400 60.2689 134.399 55.7864 0.0321502 3.59881
64600 60.2689 134.412 55.7864 0.0322502 3.61856
64800 60.2689 134.425 55.7864 0.0323502 3.64542
65000 60.2689 134.438 55.7864 0.0324502 3.63052
65200 60.2689 134.451 55.7864 0.0325502 3.66714
65400 60.2689 134.464 55.7864 0.0326502 3.68524
65600 60.2689 134.477 55.7864 0.0327502 3.67582
65800 60.2689 134.49 55.7864 0.0328502 3.71132
66000 60.2689 134.503 55.7864 0.0329502 3.7013
66200 60.2689 134.516 55.7864 0.0330502 3.72509
66400 60.2689 134.529 55.7864 0.0331502 3.73873
66600 60.2689 134.542 55.7864 0.0332502 3.72646
66800 60.2689 134.555 55.7864 0.0333502 3.76515
67000 60.2689 134.568 55.7864 0.0334502 3.78936
67200 60.2689 134.581 55.7864 0.0335502 3.75967
67400 60.2689 134.594 55.7864 0.0336502 3.78924
67600 60.2689 134.607 55.7864 0.0337502 3.80334
67800 60.2689 134.62 55.7864 0.0338502 3.82631
68000 60.2689 134.633 55.7864 0.0339502 3.82395
68200 60.2689 134.646 55.7864 0.0340502 3.85347
68400 60.2689 134.659 55.7864 0.0341502 3.82962
68600 60.2689 134.672 55.7864 0.0342502 3.8735
68800 60.2689 134.685 55.7864 0.0343502 3.88037
69000 60.2689 134.698 55.7864 0.0344502 3.87582
69200 60.2689 134.711 55.7864 0.0345502 3.90809
69400 60.2689 134.724 55.7864 0.0346502 3.91753
69600 60.2689 134.737 55.7864 0.0347502 3.92226
69800 60.2689 134.75 55.7864 0.0348502 3.93214
70000 60.2689 134.763 55.7864 0.0349502 3.97068
70200 60.2689 134.776 55.7864 0.0350502 3.96075
70400 60.2689 134.789 55.7864 0.0351502 3.97245
70600 60.2689 134.802 55.7864 0.0352502 3.98274
70800 60.2689 134.815 55.7864 0.0353502 4.00562
71000 60.2689 134.828 55.7864 0.0354502 4.02772
71200 60.2689 134.841 55.7864 0.0355502 4.01612
71400 60.2689 134.854 55.7864 0.0356502 4.02534
71600 60.2689 134.867 55.7864 0.0357502 4.05276
71800 60.2689 134.88 55.7864 0.0358502 4.0665
72000 60.2689 134.893 55.7864 0.0359502 4.05777
72200 60.2689 134.906 55.7864 0.0360502 4.08352
72400 60.2689 134.919 55.7864 0.0361502 4.10638
72600 60.2689 134.933 55.7864 0.0362502 4.0968
72800 60.2689 134.946 55.7864 0.0363502 4.13513
73000 60.2689 134.959 55.7864 0.0364502 4.1336
73200 60.2689 134.972 55.7864 0.0365502 4.1503
73400 60.2689 134.985 55.7864 0.0366502 4.14894
73600 60.2689 134.998 55.7864 0.0367502 4.1784
73800 60.2689 135.011 55.7864 0.0368502 4.16833
74000 60.2689 135.024 55.7864 0.0369502 4.20207
74200 60.2689 135.037 55.7864 0.0370502 4.2145
74400 60.2689 135.05 55.7864 0.0371502 4.19679
74600 60.2689 135.063 55.7864 0.0372502 4.23564
74800 60.2689 135.076 55.7864 0.0373502 4.24436
75000 60.2689 135.089 55.7864 0.0374502 4.23741
75200 60.2689 135.102 55.7864 0.0375502 4.26343
75400 60.2689 135.115 55.7864 0.0376502 4.28136
75600 60.2689 135.128 55.7864 0.0377502 4.29073
75800 60.2689 135.141 55.7864 0.0378502 4.29312
76000 60.2689 135.154 55.7864 0.0379502 4.33316
76200 60.2689 135.167 55.7864 0.0380502 4.31107
76400 60.2689 135.18 55.7864 0.0381502 4.32217
76600 60.2689 135.193 55.7864 0.0382502 4.34303
76800 60.2689 135.206 55.7864 0.0383502 4.37092
77000 60.2689 135.219 55.7864 0.0384502 4.3515
77200 60.2689 135.232 55.7864 0.0385502 4.36998
77400 60.2689 135.245 55.7864 0.0386502 4.37417
77600 60.2689 135.258 55.7864 0.0387502 4.41906
77800 60.2689 135.271 55.7864 0.0388502 4.41381
78000 60.2689 135.284 55.7864 0.0389502 4.41263
78200 60.2689 135.297 55.7864 0.0390502 4.4473
78400 60.2689 135.31 55.7864 0.0391502 4.45902
78600 60.2689 135.323 55.7864 0.0392502 4.45741
78800 60.2689 135.336 55.7864 0.0393502 4.4691
79000 60.2689 135.349 55.7864 0.0394502 4.49678
79200 60.2689 135.362 55.7864 0.0395502 4.49156
79400 60.2689 135.375 55.7864 0.0396502 4.49738
79600 60.2689 135.388 55.7864 0.0397502 4.525
79800 60.2689 135.401 55.7864 0.0398502 4.54187
80000 60.2689 135.414 55.7864 0.0399502 4.53852
80200 60.2689 135.427 55.7864 0.0400502 4.55745
80400 60.2689 135.44 55.7864 0.0401502 4.56871
80600 60.2689 135.453 55.7864 0.0402502 4.58227
80800 60.2689 135.466 55.7864 0.0403502 4.60153
81000 60.2689 135.479 55.7864 0.0404502 4.61253
81200 60.2689 135.492 55.7864 0.0405502 4.62226
81400 60.2689 135.505 55.7864 0.0406502 4.62294
81600 60.2689 135.518 55.7864 0.0407502 4.63991
81800 60.2689 135.531 55.7864 0.0408502 4.66414
82000 60.2689 135.545 55.7864 0.0409502 4.67793
82200 60.2689 135.558 55.7864 0.0410502 4.65789
82400 60.2689 135.571 55.7864 0.0411502 4.69914
82600 60.2689 135.584 55.7864 0.0412502 4.70884
82800 60.2689 135.597 55.7864 0.0413502 4.71171
83000 60.2689 135.61 55.7864 0.0414502 4.70599
83200 60.2689 135.623 55.7864 0.0415502 4.76887
83400 60.2689 135.636 55.7864 0.0416502 4.74892
83600 60.2689 135.649 55.7864 0.0417502 4.74586
83800 60.2689 135.662 55.7864 0.0418502 4.78918
84000 60.2689 135.675 55.7864 0.0419502 4.79711
84200 60.2689 135.688 55.7864 0.0420502 4.79415
84400 60.2689 135.701 55.7864 0.0421502 4.81044
84600 60.2689 135.714 55.7864 0.0422502 4.82198
84800 60.2689 135.727 55.7864 0.0423502 4.83439
85000 60.2689 135.74 55.7864 0.0424502 4.8608
85200 60.2689 135.753 55.7864 0.0425502 4.86243
85400 60.2689 135.766 55.7864 0.0426502 4.88709
85600 60.2689 135.779 55.7864 0.0427502 4.87997
85800 60.2689 135.792 55.7864 0.0428502 4.91023
86000 60.2689 135.805 55.7864 0.0429502 4.93638
86200 60.2689 135.818 55.7864 0.0430502 4.90232
86400 60.2689 135.831 55.7864 0.0431502 4.9502
86600 60.2689 135.844 55.7864 0.0432502 4.96468
86800 60.2689 135.857 55.7864 0.0433502 4.95872
87000 60.2689 135.87 55.7864 0.0434502 4.98111
87200 60.2689 135.883 55.7864 0.0435502 4.97943
87400 60.2689 135.896 55.7864 0.0436502 5.00146
87600 60.2689 135.909 55.7864 0.0437502 5.02641
87800 60.2689 135.922 55.7864 0.0438502 5.02406
88000 60.2689 135.935 55.7864 0.0439502 5.04176
88200 60.2689 135.948 55.7864 0.0440502 5.04812
88400 60.2689 135.961 55.7864 0.0441502 5.08249
88600 60.2689 135.974 55.7864 0.0442502 5.10739
88800 60.2689 135.987 55.7864 0.0443502 5.06298
89000 60.2689 136 55.7864 0.0444502 5.11614
89200 60.2689 136.013 55.7864 0.0445502 5.11511
89400 60.2689 136.026 55.7864 0.0446502 5.11696
89600 60.2689 136.039 55.7864 0.0447502 5.13055
89800 60.2689 136.052 55.7864 0.0448502 5.15939
90000 60.2689 136.065 55.7864 0.0449502 5.15168
90200 60.2689 136.078 55.7864 0.0450502 5.17672
90400 60.2689 136.091 55.7864 0.0451502 5.18585
90600 60.2689 136.104 55.7864 0.0452502 5.20283
90800 60.2689 136.117 55.7864 0.0453502 5.18882
91000 60.2689 136.13 55.7864 0.0454502 5.23343
91200 60.2689 136.143 55.7864 0.0455502 5.23422
91400 60.2689 136.157 55.7864 0.0456502 5.25037
91600 60.2689 136.17 55.7864 0.0457502 5.23234
91800 60.2689 136.183 55.7864 0.0458502 5.29614
92000 60.2689 136.196 55.7864 0.0459502 5.28277
92200 60.2689 136.209 55.7864 0.0460502 5.28099
92400 60.2689 136.222 55.7864 0.0461502 5.31212
92600 60.2689 136.235 55.7864 0.0462502 5.34059
92800 60.2689 136.248 55.7864 0.0463502 5.32109
93000 60.2689 136.261 55.7864 0.0464502 5.35647
93200 60.2689 136.274 55.7864 0.0465502 5.35146
93400 60.2689 136.287 55.7864 0.0466502 5.36518
93600 60.2689 136.3 55.7864 0.0467502 5.39381
93800 60.2689 136.313 55.7864 0.0468502 5.3918
94000 60.2689 136.326 55.7864 0.0469502 5.42871
94200 60.2689 136.339 55.7864 0.0470502 5.42073
94400 60.2689 136.352 55.7864 0.0471502 5.42917
94600 60.2689 136.365 55.7864 0.0472502 5.43743
94800 60.2689 136.378 55.7864 0.0473502 5.47353
95000 60.2689 136.391 55.7864 0.0474502 5.47026
95200 60.2689 136.404 55.7864 0.0475502 5.48948
95400 60.2689 136.417 55.7864 0.0476502 5.48138
95600 60.2689 136.43 55.7864 0.0477502 5.50829
95800 60.2689 136.443 55.7864 0.0478502 5.53591
96000 60.2689 136.456 55.7864 0.0479502 5.52412
96200 60.2689 136.469 55.7864 0.0480502 5.54721
96400 60.2689 136.482 55.7864 0.0481502 5.56649
96600 60.2689 136.495 55.7864 0.0482502 5.5685
96800 60.2689 136.508 55.7864 0.0483502 5.58354
97000 60.2689 136.521 55.7864 0.0484502 5.59453
97200 60.2689 136.534 55.7864 0.0485502 5.60884
97400 60.2689 136.547 55.7864 0.0486502 5.61615
97600 60.2689 136.56 55.7864 0.0487502 5.62673
97800 60.2689 136.573 55.7864 0.0488502 5.66247
98000 60.2689 136.586 55.7864 0.0489502 5.65159
98200 60.2689 136.599 55.7864 0.0490502 5.67041
98400 60.2689 136.612 55.7864 0.0491502 5.68568
98600 60.2689 136.625 55.7864 0.0492502 5.69103
98800 60.2689 136.638 55.7864 0.0493502 5.71113
99000 60.2689 136.651 55.7864 0.0494502 5.70873
99200 60.2689 136.664 55.7864 0.0495502 5.74734
99400 60.2689 136.677 55.7864 0.0496502 5.75664
99600 60.2689 136.69 55.7864 0.0497502 5.72712
99800 60.2689 136.703 55.7864 0.0498502 5.79246
100000 60.2689 136.716 55.7864 0.0499502 5.79683
100200 60.2689 136.729 55.7864 0.0500502 5.79359
100400 60.2689 136.742 55.7864 0.0501502 5.80928
100600 60.2689 136.755 55.7864 0.0502502 5.82071
100800 60.2689 136.769 55.7864 0.0503502 5.84561
101000 60.2689 136.782 55.7864 0.0504502 5.83579
101200 60.2689 136.795 55.7864 0.0505502 5.86119
101400 60.2689 136.808 55.7864 0.0506502 5.88259
101600 60.2689 136.821 55.7864 0.0507502 5.89061
101800 60.2689 136.834 55.7864 0.0508502 5.88996
102000 60.2689 136.847 55.7864 0.0509502 5.91211
102200 60.2689 136.86 55.7864 0.0510502 5.9338
102400 60.2689 136.873 55.7864 0.0511502 5.936
102600 60.2689 136.886 55.7864 0.0512502 5.93624
102800 60.2689 136.899 55.7864 0.0513502 5.96478
103000 60.2689 136.912 55.7864 0.0514502 5.97418
103200 60.2689 136.925 55.7864 0.0515502 5.97228
103400 60.2689 136.938 55.7864 0.0516502 6.00279
103600 60.2689 136.951 55.7864 0.0517502 6.0166
103800 60.2689 136.964 55.7864 0.0518502 6.01245
104000 60.2689 136.977 55.7864 0.0519502 6.04316
104200 60.2689 136.99 55.7864 0.0520502 6.06333
104400 60.2689 137.003 55.7864 0.0521502 6.05943
104600 60.2689 137.016 55.7864 0.0522502 6.08362
104800 60.2689 137.029 55.7864 0.0523502 6.08572
105000 60.2689 137.042 55.7864 0.0524502 6.11462
105200 60.2689 137.055 55.7864 0.0525502 6.10932
105400 60.2689 137.068 55.7864 0.0526502 6.13055
105600 60.2689 137.081 55.7864 0.0527502 6.14403
105800 60.2689 137.094 55.7864 0.0528502 6.14416
106000 60.2689 137.107 55.7864 0.0529502 6.18046
106200 60.2689 137.12 55.7864 0.0530502 6.17726
106400 60.2689 137.133 55.7864 0.0531502 6.20044
106600 60.2689 137.146 55.7864 0.0532502 6.20444
106800 60.2689 137.159 55.7864 0.0533502 6.21728
107000 60.2689 137.172 55.7864 0.0534502 6.23218
107200 60.2689 137.185 55.7864 0.0535502 6.23482
107400 60.2689 137.198 55.7864 0.0536502 6.24263
107600 60.2689 137.211 55.7864 0.0537502 6.28773
107800 60.2689 137.224 55.7864 0.0538502 6.27701
108000 60.2689 137.237 55.7864 0.0539502 6.28398
108200 60.2689 137.25 55.7864 0.0540502 6.32103
108400 60.2689 137.263 55.7864 0.0541502 6.30571
108600 60.2689 137.276 55.7864 0.0542502 6.33021
108800 60.2689 137.289 55.7864 0.0543502 6.35297
109000 60.2689 137.302 55.7864 0.0544502 6.34994
109200 60.2689 137.315 55.7864 0.0545502 6.38232
109400 60.2689 137.328 55.7864 0.0546502 6.37391
109600 60.2689 137.341 55.7864 0.0547502 6.39392
109800 60.2689 137.354 55.7864 0.0548502 6.39461
110000 60.2689 137.367 55.7864 0.0549502 6.41793
110200 60.2689 137.381 55.7864 0.0550502 6.4504
110400 60.2689 137.394 55.7864 0.0551502 6.44043
110600 60.2689 137.407 55.7864 0.0552502 6.44568
110800 60.2689 137.42 55.7864 0.0553502 6.47121
111000 60.2689 137.433 55.7864 0.0554502 6.48301
111200 60.2689 137.446 55.7864 0.0555502 6.51497
111400 60.2689 137.459 55.7864 0.0556502 6.50645
111600 60.2689 137.472 55.7864 0.0557502 6.53873
111800 60.2689 137.485 55.7864 0.0558502 6.52878
112000 60.2689 137.498 55.7864 0.0559502 6.544
112200 60.2689 137.511 55.7864 0.0560502 6.56148
112400 60.2689 137.524 55.7864 0.0561502 6.56999
112600 60.2689 137.537 55.7864 0.0562502 6.58385
112800 60.2689 137.55 55.7864 0.0563502 6.6036
113000 60.2689 137.563 55.7864 0.0564502 6.62278
113200 60.2689 137.576 55.7864 0.0565502 6.61664
113400 60.2689 137.589 55.7864 0.0566502 6.64529
113600 60.2689 137.602 55.7864 0.0567502 6.6476
113800 60.2689 137.615 55.7864 0.0568502 6.661
114000 60.2689 137.628 55.7864 0.0569502 6.67593
114200 60.2689 137.641 55.7864 0.0570502 6.69073
114400 60.2689 137.654 55.7864 0.0571502 6.70052
114600 60.2689 137.667 55.7864 0.0572502 6.72576
114800 60.2689 137.68 55.7864 0.0573502 6.72249
115000 60.2689 137.693 55.7864 0.0574502 6.73874
115200 60.2689 137.706 55.7864 0.0575502 6.76457
115400 60.2689 137.719 55.7864 0.0576502 6.77572
115600 60.2689 137.732 55.7864 0.0577502 6.77724
115800 60.2689 137.745 55.7864 0.0578502 6.79899
116000 60.2689 137.758 55.7864 0.0579502 6.78974
116200 60.2689 137.771 55.7864 0.0580502 6.81583
116400 60.2689 137.784 55.7864 0.0581502 6.84297
116600 60.2689 137.797 55.7864 0.0582502 6.83514
116800 60.2689 137.81 55.7864 0.0583502 6.88019
117000 60.2689 137.823 55.7864 0.0584502 6.84293
117200 60.2689 137.836 55.7864 0.0585502 6.89801
117400 60.2689 137.849 55.7864 0.0586502 6.8891
117600 60.2689 137.862 55.7864 0.0587502 6.93575
117800 60.2689 137.875 55.7864 0.0588502 6.93651
118000 60.2689 137.888 55.7864 0.0589502 6.93046
118200 60.2689 137.901 55.7864 0.0590502 6.95075
118400 60.2689 137.914 55.7864 0.0591502 6.95997
118600 60.2689 137.927 55.7864 0.0592502 6.97866
118800 60.2689 137.94 55.7864 0.0593502 6.98705
119000 60.2689 137.953 55.7864 0.0594502 7.02086
119200 60.2689 137.966 55.7864 0.0595502 7.00517
119400 60.2689 137.979 55.7864 0.0596502 7.02324
119600 60.2689 137.993 55.7864 0.0597502 7.05242
119800 60.2689 138.006 55.7864 0.0598502 7.0538
120000 60.2689 138.019 55.7864 0.0599502 7.06568
120200 60.2689 138.032 55.7864 0.0600502 7.07984
120400 60.2689 138.045 55.7864 0.0601502 7.09232
120600 60.2689 138.058 55.7864 0.0602502 7.11963
120800 60.2689 138.071 55.7864 0.0603502 7.11219
121000 60.2689 138.084 55.7864 0.0604502 7.1216
121200 60.2689 138.097 55.7864 0.0605502 7.14372
121400 60.2689 138.11 55.7864 0.0606502 7.16187
121600 60.2689 138.123 55.7864 0.0607502 7.16413
121800 60.2689 138.136 55.7864 0.0608502 7.18293
122000 60.2689 138.149 55.7864 0.0609502 7.20846
122200 60.2689 138.162 55.7864 0.0610502 7.21251
122400 60.2689 138.175 55.7864 0.0611502 7.21937
122600 60.2689 138.188 55.7864 0.0612502 7.24144
122800 60.2689 138.201 55.7864 0.0613502 7.24455
123000 60.2689 138.214 55.7864 0.0614502 7.28144
123200 60.2689 138.227 55.7864 0.0615502 7.27028
123400 60.2689 138.24 55.7864 0.0616502 7.30144
123600 60.2689 138.253 55.7864 0.0617502 7.29698
123800 60.2689 138.266 55.7864 0.0618502 7.32487
124000 60.2689 138.279 55.7864 0.0619502 7.32891
124200 60.2689 138.292 55.7864 0.0620502 7.33668
124400 60.2689 138.305 55.7864 0.0621502 7.3516
124600 60.2689 138.318 55.7864 0.0622502 7.36432
124800 60.2689 138.331 55.7864 0.0623502 7.39011
125000 60.2689 138.344 55.7864 0.0624502 7.41244
125200 60.2689 138.357 55.7864 0.0625502 7.38889
125400 60.2689 138.37 55.7864 0.0626502 7.43147
125600 60.2689 138.383 55.7864 0.0627502 7.41185
125800 60.2689 138.396 55.7864 0.0628502 7.46685
126000 60.2689 138.409 55.7864 0.0629502 7.45399
126200 60.2689 138.422 55.7864 0.0630502 7.47863
126400 60.2689 138.435 55.7864 0.0631502 7.48372
126600 60.2689 138.448 55.7864 0.0632502 7.50085
126800 60.2689 138.461 55.7864 0.0633502 7.5196
127000 60.2689 138.474 55.7864 0.0634502 7.51782
127200 60.2689 138.487 55.7864 0.0635502 7.51925
127400 60.2689 138.5 55.7864 0.0636502 7.5619
127600 60.2689 138.513 55.7864 0.0637502 7.54922
127800 60.2689 138.526 55.7864 0.0638502 7.57955
128000 60.2689 138.539 55.7864 0.0639502 7.58469
128200 60.2689 138.552 55.7864 0.0640502 7.59825
128400 60.2689 138.565 55.7864 0.0641502 7.60687
128600 60.2689 138.578 55.7864 0.0642502 7.62436
128800 60.2689 138.591 55.7864 0.0643502 7.6345
129000 60.2689 138.605 55.7864 0.0644502 7.64608
129200 60.2689 138.618 55.7864 0.0645502 7.67034
129400 60.2689 138.631 55.7864 0.0646502 7.6602
129600 60.2689 138.644 55.7864 0.0647502 7.7076
129800 60.2689 138.657 55.7864 0.0648502 7.68236
130000 60.2689 138.67 55.7864 0.0649502 7.72694
130200 60.2689 138.683 55.7864 0.0650502 7.72404
130400 60.2689 138.696 55.7864 0.0651502 7.74734
130600 60.2689 138.709 55.7864 0.0652502 7.75763
130800 60.2689 138.722 55.7864 0.0653502 7.75315
131000 60.2689 138.735 55.7864 0.0654502 7.79731
131200 60.2689 138.748 55.7864 0.0655502 7.79753
131400 60.2689 138.761 55.7864 0.0656502 7.79188
131600 60.2689 138.774 55.7864 0.0657502 7.83933
131800 60.2689 138.787 55.7864 0.0658502 7.82296
132000 60.2689 138.8 55.7864 0.0659502 7.85813
132200 60.2689 138.813 55.7864 0.0660502 7.86552
132400 60.2689 138.826 55.7864 0.0661502 7.87832
132600 60.2689 138.839 55.7864 0.0662502 7.88999
132800 60.2689 138.852 55.7864 0.0663502 7.89488
133000 60.2689 138.865 55.7864 0.0664502 7.90919
133200 60.2689 138.878 55.7864 0.0665502 7.93203
133400 60.2689 138.891 55.7864 0.0666502 7.93819
133600 60.2689 138.904 55.7864 0.0667502 7.92946
133800 60.2689 138.917 55.7864 0.0668502 7.9772
134000 60.2689 138.93 55.7864 0.0669502 7.96766
134200 60.2689 138.943 55.7864 0.0670502 8.00093
134400 60.2689 138.956 55.7864 0.0671502 7.99544
134600 60.2689 138.969 55.7864 0.0672502 8.01606
134800 60.2689 138.982 55.7864 0.0673502 8.04452
135000 60.2689 138.995 55.7864 0.0674502 8.04233
135200 60.2689 139.008 55.7864 0.0675502 8.05327
135400 60.2689 139.021 55.7864 0.0676502 8.05417
135600 60.2689 139.034 55.7864 0.0677502 8.09327
135800 60.2689 139.047 55.7864 0.0678502 8.07955
136000 60.2689 139.06 55.7864 0.0679502 8.12084
136200 60.2689 139.073 55.7864 0.0680502 8.1187
136400 60.2689 139.086 55.7864 0.0681502 8.13848
136600 60.2689 139.099 55.7864 0.0682502 8.14356
136800 60.2689 139.112 55.7864 0.0683502 8.16311
137000 60.2689 139.125 55.7864 0.0684502 8.16822
137200 60.2689 139.138 55.7864 0.0685502 8.18281
137400 60.2689 139.151 55.7864 0.0686502 8.21991
137600 60.2689 139.164 55.7864 0.0687502 8.20635
137800 60.2689 139.177 55.7864 0.0688502 8.23317
138000 60.2689 139.19 55.7864 0.0689502 8.24276
138200 60.2689 139.203 55.7864 0.0690502 8.25608
138400 60.2689 139.217 55.7864 0.0691502 8.2656
138600 60.2689 139.23 55.7864 0.0692502 8.29093
138800 60.2689 139.243 55.7864 0.0693502 8.28678
139000 60.2689 139.256 55.7864 0.0694502 8.31006
139200 60.2689 139.269 55.7864 0.0695502 8.34288
139400 60.2689 139.282 55.7864 0.0696502 8.34156
139600 60.2689 139.295 55.7864 0.0697502 8.33325
139800 60.2689 139.308 55.7864 0.0698502 8.36845
140000 60.2689 139.321 55.7864 0.0699502 8.38177
140200 60.2689 139.334 55.7864 0.0700502 8.39673
140400 60.2689 139.347 55.7864 0.0701502 8.40821
140600 60.2689 139.36 55.7864 0.0702502 8.42083
140800 60.2689 139.373 55.7864 0.0703502 8.40727
141000 60.2689 139.386 55.7864 0.0704502 8.45579
141200 60.2689 139.399 55.7864 0.0705502 8.44617
141400 60.2689 139.412 55.7864 0.0706502 8.46993
141600 60.2689 139.425 55.7864 0.0707502 8.47622
141800 60.2689 139.438 55.7864 0.0708502 8.51128
142000 60.2689 139.451 55.7864 0.0709502 8.49231
142200 60.2689 139.464 55.7864 0.0710502 8.53172
142400 60.2689 139.477 55.7864 0.0711502 8.53713
142600 60.2689 139.49 55.7864 0.0712502 8.53663
142800 60.2689 139.503 55.7864 0.0713502 8.56771
143000 60.2689 139.516 55.7864 0.0714502 8.56476
143200 60.2689 139.529 55.7864 0.0715502 8.58236
143400 60.2689 139.542 55.7864 0.0716502 8.586
143600 60.2689 139.555 55.7864 0.0717502 8.60237
143800 60.2689 139.568 55.7864 0.0718502 8.6241
144000 60.2689 139.581 55.7864 0.0719502 8.63601
144200 60.2689 139.594 55.7864 0.0720502 8.62809
144400 60.2689 139.607 55.7864 0.0721502 8.66919
144600 60.2689 139.62 55.7864 0.0722502 8.66079
144800 60.2689 139.633 55.7864 0.0723502 8.69551
145000 60.2689 139.646 55.7864 0.0724502 8.70114
145200 60.2689 139.659 55.7864 0.0725502 8.69498
145400 60.2689 139.672 55.7864 0.0726502 8.71912
145600 60.2689 139.685 55.7864 0.0727502 8.72597
145800 60.2689 139.698 55.7864 0.0728502 8.74485
146000 60.2689 139.711 55.7864 0.0729502 8.75896
146200 60.2689 139.724 55.7864 0.0730502 8.75491
146400 60.2689 139.737 55.7864 0.0731502 8.79461
146600 60.2689 139.75 55.7864 0.0732502 8.80036
146800 60.2689 139.763 55.7864 0.0733502 8.80698
147000 60.2689 139.776 55.7864 0.0734502 8.81648
147200 60.2689 139.789 55.7864 0.0735502 8.83864
147400 60.2689 139.802 55.7864 0.0736502 8.84195
147600 60.2689 139.815 55.7864 0.0737502 8.87766
147800 60.2689 139.829 55.7864 0.0738502 8.85662
148000 60.2689 139.842 55.7864 0.0739502 8.89029
148200 60.2689 139.855 55.7864 0.0740502 8.90822
148400 60.2689 139.868 55.7864 0.0741502 8.91303
148600 60.2689 139.881 55.7864 0.0742502 8.93092
148800 60.2689 139.894 55.7864 0.0743502 8.94972
149000 60.2689 139.907 55.7864 0.0744502 8.94934
149200 60.2689 139.92 55.7864 0.0745502 8.97076
149400 60.2689 139.933 55.7864 0.0746502 8.98878
149600 60.2689 139.946 55.7864 0.0747502 8.99312
149800 60.2689 139.959 55.7864 0.0748502 8.99724
150000 60.2689 139.972 55.7864 0.0749502 9.03089
150200 60.2689 139.985 55.7864 0.0750502 9.03693
150400 60.2689 139.998 55.7864 0.0751502 9.04226
150600 60.2689 140.011 55.7864 0.0752502 9.0578
150800 60.2689 140.024 55.7864 0.0753502 9.08219
151000 60.2689 140.037 55.7864 0.0754502 9.07601
151200 60.2689 140.05 55.7864 0.0755502 9.1084
151400 60.2689 140.063 55.7864 0.0756502 9.11999
151600 60.2689 140.076 55.7864 0.0757502 9.11732
151800 60.2689 140.089 55.7864 0.0758502 9.15627
152000 60.2689 140.102 55.7864 0.0759502 9.14769
152200 60.2689 140.115 55.7864 0.0760502 9.18581
152400 60.2689 140.128 55.7864 0.0761502 9.1661
152600 60.2689 140.141 55.7864 0.0762502 9.21179
152800 60.2689 140.154 55.7864 0.0763502 9.21868
153000 60.2689 140.167 55.7864 0.0764502 9.22783
153200 60.2689 140.18 55.7864 0.0765502 9.23706
153400 60.2689 140.193 55.7864 0.0766502 9.25677
153600 60.2689 140.206 55.7864 0.0767502 9.26445
153800 60.2689 140.219 55.7864 0.0768502 9.26738
154000 60.2689 140.232 55.7864 0.0769502 9.30867
154200 60.2689 140.245 55.7864 0.0770502 9.29979
154400 60.2689 140.258 55.7864 0.0771502 9.28933
154600 60.2689 140.271 55.7864 0.0772502 9.30688
154800 60.2689 140.284 55.7864 0.0773502 9.32683
155000 60.2689 140.297 55.7864 0.0774502 9.33104
155200 60.2689 140.31 55.7864 0.0775502 9.3588
155400 60.2689 140.323 55.7864 0.0776502 9.35092
155600 60.2689 140.336 55.7864 0.0777502 9.37427
155800 60.2689 140.349 55.7864 0.0778502 9.4114
156000 60.2689 140.362 55.7864 0.0779502 9.39989
156200 60.2689 140.375 55.7864 0.0780502 9.41546
156400 60.2689 140.388 55.7864 0.0781502 9.43682
156600 60.2689 140.401 55.7864 0.0782502 9.43737
156800 60.2689 140.414 55.7864 0.0783502 9.45527
157000 60.2689 140.427 55.7864 0.0784502 9.48371
157200 60.2689 140.44 55.7864 0.0785502 9.47706
157400 60.2689 140.454 55.7864 0.0786502 9.50149
157600 60.2689 140.467 55.7864 0.0787502 9.51375
157800 60.2689 140.48 55.7864 0.0788502 9.53582
158000 60.2689 140.493 55.7864 0.0789502 9.54079
158200 60.2689 140.506 55.7864 0.0790502 9.54746
158400 60.2689 140.519 55.7864 0.0791502 9.57653
158600 60.2689 140.532 55.7864 0.0792502 9.57537
158800 60.2689 140.545 55.7864 0.0793502 9.59523
159000 60.2689 140.558 55.7864 0.0794502 9.61102
159200 60.2689 140.571 55.7864 0.0795502 9.60301
159400 60.2689 140.584 55.7864 0.0796502 9.64948
159600 60.2689 140.597 55.7864 0.0797502 9.64143
159800 60.2689 140.61 55.7864 0.0798502 9.67403
160000 60.2689 140.623 55.7864 0.0799502 9.67069
160200 60.2689 140.636 55.7864 0.0800502 9.69437
160400 60.2689 140.649 55.7864 0.0801502 9.7071
160600 60.2689 140.662 55.7864 0.0802502 9.71138
160800 60.2689 140.675 55.7864 0.0803502 9.73771
161000 60.2689 140.688 55.7864 0.0804502 9.74138
161200 60.2689 140.701 55.7864 0.0805502 9.77929
161400 60.2689 140.714 55.7864 0.0806502 9.77115
161600 60.2689 140.727 55.7864 0.0807502 9.78453
161800 60.2689 140.74 55.7864 0.0808502 9.80161
162000 60.2689 140.753 55.7864 0.0809502 9.80643
162200 60.2689 140.766 55.7864 0.0810502 9.8253
162400 60.2689 140.779 55.7864 0.0811502 9.84471
162600 60.2689 140.792 55.7864 0.0812502 9.85923
162800 60.2689 140.805 55.7864 0.0813502 9.87085
163000 60.2689 140.818 55.7864 0.0814502 9.87396
163200 60.2689 140.831 55.7864 0.0815502 9.88604
163400 60.2689 140.844 55.7864 0.0816502 9.90475
163600 60.2689 140.857 55.7864 0.0817502 9.91965
163800 60.2689 140.87 55.7864 0.0818502 9.94528
164000 60.2689 140.883 55.7864 0.0819502 9.9435
164200 60.2689 140.896 55.7864 0.0820502 9.97134
164400 60.2689 140.909 55.7864 0.0821502 9.97916
164600 60.2689 140.922 55.7864 0.0822502 9.99277
164800 60.2689 140.935 55.7864 0.0823502 10.0175
165000 60.2689 140.948 55.7864 0.0824502 10.01
165200 60.2689 140.961 55.7864 0.0825502 10.0221
165400 60.2689 140.974 55.7864 0.0826502 10.0477
165600 60.2689 140.987 55.7864 0.0827502 10.0626
165800 60.2689 141 55.7864 0.0828502 10.0595
166000 60.2689 141.013 55.7864 0.0829502 10.0931
166200 60.2689 141.026 55.7864 0.0830502 10.091
166400 60.2689 141.039 55.7864 0.0831502 10.1117
166600 60.2689 141.052 55.7864 0.0832502 10.1218
166800 60.2689 141.066 55.7864 0.0833502 10.1337
167000 60.2689 141.079 55.7864 0.0834502 10.1729
167200 60.2689 141.092 55.7864 0.0835502 10.172
167400 60.2689 141.105 55.7864 0.0836502 10.1869
167600 60.2689 141.118 55.7864 0.0837502 10.1994
167800 60.2689 141.131 55.7864 0.0838502 10.2095
168000 60.2689 141.144 55.7864 0.0839502 10.2198
168200 60.2689 141.157 55.7864 0.0840502 10.2278
168400 60.2689 141.17 55.7864 0.0841502 10.2559
168600 60.2689 141.183 55.7864 0.0842502 10.2684
168800 60.2689 141.196 55.7864 0.0843502 10.2734
169000 60.2689 141.209 55.7864 0.0844502 10.3019
169200 60.2689 141.222 55.7864 0.0845502 10.2924
169400 60.2689 141.235 55.7864 0.0846502 10.3217
169600 60.2689 141.248 55.7864 0.0847502 10.3342
169800 60.2689 141.261 55.7864 0.0848502 10.3564
170000 60.2689 141.274 55.7864 0.0849502 10.3431
170200 60.2689 141.287 55.7864 0.0850502 10.38
170400 60.2689 141.3 55.7864 0.0851502 10.3891
170600 60.2689 141.313 55.7864 0.0852502 10.4024
170800 60.2689 141.326 55.7864 0.0853502 10.4149
171000 60.2689 141.339 55.7864 0.0854502 10.4161
171200 60.2689 141.352 55.7864 0.0855502 10.4432
171400 60.2689 141.365 55.7864 0.0856502 10.4391
171600 60.2689 141.378 55.7864 0.0857502 10.4833
171800 60.2689 141.391 55.7864 0.0858502 10.4708
172000 60.2689 141.404 55.7864 0.0859502 10.4935
172200 60.2689 141.417 55.7864 0.0860502 10.5096
172400 60.2689 141.43 55.7864 0.0861502 10.5265
172600 60.2689 141.443 55.7864 0.0862502 10.5479
172800 60.2689 141.456 55.7864 0.0863502 10.5458
173000 60.2689 141.469 55.7864 0.0864502 10.5829
173200 60.2689 141.482 55.7864 0.0865502 10.5834
173400 60.2689 141.495 55.7864 0.0866502 10.5855
173600 60.2689 141.508 55.7864 0.0867502 10.611
173800 60.2689 141.521 55.7864 0.0868502 10.6152
174000 60.2689 141.534 55.7864 0.0869502 10.6404
174200 60.2689 141.547 55.7864 0.0870502 10.6376
174400 60.2689 141.56 55.7864 0.0871502 10.6681
174600 60.2689 141.573 55.7864 0.0872502 10.6706
174800 60.2689 141.586 55.7864 0.0873502 10.6755
175000 60.2689 141.599 55.7864 0.0874502 10.7023
175200 60.2689 141.612 55.7864 0.0875502 10.7024
175400 60.2689 141.625 55.7864 0.0876502 10.7361
175600 60.2689 141.638 55.7864 0.0877502 10.734
175800 60.2689 141.651 55.7864 0.0878502 10.7529
176000 60.2689 141.664 55.7864 0.0879502 10.7644
176200 60.2689 141.678 55.7864 0.0880502 10.7764
176400 60.2689 141.691 55.7864 0.0881502 10.7915
176600 60.2689 141.704 55.7864 0.0882502 10.8019
176800 60.2689 141.717 55.7864 0.0883502 10.8174
177000 60.2689 141.73 55.7864 0.0884502 10.8363
177200 60.2689 141.743 55.7864 0.0885502 10.8446
177400 60.2689 141.756 55.7864 0.0886502 10.8554
177600 60.2689 141.769 55.7864 0.0887502 10.8738
177800 60.2689 141.782 55.7864 0.0888502 10.8921
178000 60.2689 141.795 55.7864 0.0889502 10.9078
178200 60.2689 141.808 55.7864 0.0890502 10.9083
178400 60.2689 141.821 55.7864 0.0891502 10.9269
178600 60.2689 141.834 55.7864 0.0892502 10.9295
178800 60.2689 141.847 55.7864 0.0893502 10.9467
179000 60.2689 141.86 55.7864 0.0894502 10.9538
179200 60.2689 141.873 55.7864 0.0895502 10.9858
179400 60.2689 141.886 55.7864 0.0896502 10.9759
179600 60.2689 141.899 55.7864 0.0897502 11.0005
179800 60.2689 141.912 55.7864 0.0898502 11.0127
180000 60.2689 141.925 55.7864 0.0899502 11.0322
180200 60.2689 141.938 55.7864 0.0900502 11.0404
180400 60.2689 141.951 55.7864 0.0901502 11.0553
180600 60.2689 141.964 55.7864 0.0902502 11.0791
180800 60.2689 141.977 55.7864 0.0903502 11.071
181000 60.2689 141.99 55.7864 0.0904502 11.1003
181200 60.2689 142.003 55.7864 0.0905502 11.119
181400 60.2689 142.016 55.7864 0.0906502 11.1175
181600 60.2689 142.029 55.7864 0.0907502 11.1323
181800 60.2689 142.042 55.7864 0.0908502 11.1424
182000 60.2689 142.055 55.7864 0.0909502 11.1731
182200 60.2689 142.068 55.7864 0.0910502 11.1764
182400 60.2689 142.081 55.7864 0.0911502 11.183
182600 60.2689 142.094 55.7864 0.0912502 11.1953
182800 60.2689 142.107 55.7864 0.0913502 11.219
183000 60.2689 142.12 55.7864 0.0914502 11.2249
183200 60.2689 142.133 55.7864 0.0915502 11.2503
183400 60.2689 142.146 55.7864 0.0916502 11.2549
183600 60.2689 142.159 55.7864 0.0917502 11.2697
183800 60.2689 142.172 55.7864 0.0918502 11.2927
184000 60.2689 142.185 55.7864 0.0919502 11.299
184200 60.2689 142.198 55.7864 0.0920502 11.3117
184400 60.2689 142.211 55.7864 0.0921502 11.3403
184600 60.2689 142.224 55.7864 0.0922502 11.3413
184800 60.2689 142.237 55.7864 0.0923502 11.3549
185000 60.2689 142.25 55.7864 0.0924502 11.3587
185200 60.2689 142.263 55.7864 0.0925502 11.371
185400 60.2689 142.276 55.7864 0.0926502 11.4139
185600 60.2689 142.29 55.7864 0.0927502 11.4011
185800 60.2689 142.303 55.7864 0.0928502 11.4273
186000 60.2689 142.316 55.7864 0.0929502 11.4386
186200 60.2689 142.329 55.7864 0.0930502 11.4553
186400 60.2689 142.342 55.7864 0.0931502 11.4426
186600 60.2689 142.355 55.7864 0.0932502 11.4796
186800 60.2689 142.368 55.7864 0.0933502 11.4696
187000 60.2689 142.381 55.7864 0.0934502 11.4868
187200 60.2689 142.394 55.7864 0.0935502 11.5118
187400 60.2689 142.407 55.7864 0.0936502 11.5155
187600 60.2689 142.42 55.7864 0.0937502 11.5382
187800 60.2689 142.433 55.7864 0.0938502 11.537
188000 60.2689 142.446 55.7864 0.0939502 11.5536
188200 60.2689 142.459 55.7864 0.0940502 11.5882
188400 60.2689 142.472 55.7864 0.0941502 11.5716
188600 60.2689 142.485 55.7864 0.0942502 11.6065
188800 60.2689 142.498 55.7864 0.0943502 11.6262
189000 60.2689 142.511 55.7864 0.0944502 11.6198
189200 60.2689 142.524 55.7864 0.0945502 11.6295
189400 60.2689 142.537 55.7864 0.0946502 11.6703
189600 60.2689 142.55 55.7864 0.0947502 11.6693
189800 60.2689 142.563 55.7864 0.0948502 11.6658
190000 60.2689 142.576 55.7864 0.0949502 11.7137
190200 60.2689 142.589 55.7864 0.0950502 11.7003
190400 60.2689 142.602 55.7864 0.0951502 11.7252
190600 60.2689 142.615 55.7864 0.0952502 11.739
190800 60.2689 142.628 55.7864 0.0953502 11.7261
191000 60.2689 142.641 55.7864 0.0954502 11.7368
191200 60.2689 142.654 55.7864 0.0955502 11.7405
191400 60.2689 142.667 55.7864 0.0956502 11.762
191600 60.2689 142.68 55.7864 0.0957502 11.7486
191800 60.2689 142.693 55.7864 0.0958502 11.797
192000 60.2689 142.706 55.7864 0.0959502 11.7881
192200 60.2689 142.719 55.7864 0.0960502 11.8214
192400 60.2689 142.732 55.7864 0.0961502 11.8144
192600 60.2689 142.745 55.7864 0.0962502 11.8408
192800 60.2689 142.758 55.7864 0.0963502 11.8478
193000 60.2689 142.771 55.7864 0.0964502 11.866
193200 60.2689 142.784 55.7864 0.0965502 11.866
193400 60.2689 142.797 55.7864 0.0966502 11.8897
193600 60.2689 142.81 55.7864 0.0967502 11.8889
193800 60.2689 142.823 55.7864 0.0968502 11.9169
194000 60.2689 142.836 55.7864 0.0969502 11.9205
194200 60.2689 142.849 55.7864 0.0970502 11.9469
194400 60.2689 142.862 55.7864 0.0971502 11.9556
194600 60.2689 142.875 55.7864 0.0972502 11.9665
194800 60.2689 142.888 55.7864 0.0973502 11.989
195000 60.2689 142.902 55.7864 0.0974502 11.9956
195200 60.2689 142.915 55.7864 0.0975502 12.0145
195400 60.2689 142.928 55.7864 0.0976502 12.0209
195600 60.2689 142.941 55.7864 0.0977502 12.0435
195800 60.2689 142.954 55.7864 0.0978502 12.0609
196000 60.2689 142.967 55.7864 0.0979502 12.053
196200 60.2689 142.98 55.7864 0.0980502 12.056
196400 60.2689 142.993 55.7864 0.0981502 12.0719
196600 60.2689 143.006 55.7864 0.0982502 12.1045
196800 60.2689 143.019 55.7864 0.0983502 12.0926
197000 60.2689 143.032 55.7864 0.0984502 12.1239
197200 60.2689 143.045 55.7864 0.0985502 12.1207
197400 60.2689 143.058 55.7864 0.0986502 12.1271
197600 60.2689 143.071 55.7864 0.0987502 12.1493
197800 60.2689 143.084 55.7864 0.0988502 12.146
198000 60.2689 143.097 55.7864 0.0989502 12.1572
198200 60.2689 143.11 55.7864 0.0990502 12.1849
198400 60.2689 143.123 55.7864 0.0991502 12.1776
198600 60.2689 143.136 55.7864 0.0992502 12.2133
198800 60.2689 143.149 55.7864 0.0993502 12.2115
199000 60.2689 143.162 55.7864 0.0994502 12.2305
199200 60.2689 143.175 55.7864 0.0995502 12.239
199400 60.2689 143.188 55.7864 0.0996502 12.2495
199600 60.2689 143.201 55.7864 0.0997502 12.2875
199800 60.2689 143.214 55.7864 0.0998502 12.2795
200000 60.2689 143.227 55.7864 0.0999502 12.2895
200200 60.2689 143.24 55.7864 0.10005 12.334
200400 60.2689 143.253 55.7864 0.10015 12.3011
200600 60.2689 143.266 55.7864 0.10025 12.3467
200800 60.2689 143.279 55.7864 0.10035 12.3471
201000 60.2689 143.292 55.7864 0.10045 12.3703
201200 60.2689 143.305 55.7864 0.10055 12.3761
201400 60.2689 143.318 55.7864 0.10065 12.3455
201600 60.2689 143.331 55.7864 0.10075 12.3691
201800 60.2689 143.344 55.7864 0.10085 12.369
202000 60.2689 143.357 55.7864 0.10095 12.3641
202200 60.2689 143.37 55.7864 0.10105 12.3853
202400 60.2689 143.383 55.7864 0.10115 12.4038
202600 60.2689 143.396 55.7864 0.10125 12.4271
202800 60.2689 143.409 55.7864 0.10135 12.435
203000 60.2689 143.422 55.7864 0.10145 12.4469
203200 60.2689 143.435 55.7864 0.10155 12.4593
203400 60.2689 143.448 55.7864 0.10165 12.4767
203600 60.2689 143.461 55.7864 0.10175 12.4799
203800 60.2689 143.474 55.7864 0.10185 12.5064
204000 60.2689 143.487 55.7864 0.10195 12.5097
204200 60.2689 143.5 55.7864 0.10205 12.5065
204400 60.2689 143.514 55.7864 0.10215 12.5463
204600 60.2689 143.527 55.7864 0.10225 12.5441
204800 60.2689 143.54 55.7864 0.10235 12.5705
205000 60.2689 143.553 55.7864 0.10245 12.572
205200 60.2689 143.566 55.7864 0.10255 12.5999
205400 60.2689 143.579 55.7864 0.10265 12.6003
205600 60.2689 143.592 55.7864 0.10275 12.6285
205800 60.2689 143.605 55.7864 0.10285 12.6226
206000 60.2689 143.618 55.7864 0.10295 12.6634
206200 60.2689 143.631 55.7864 0.10305 12.6566
206400 60.2689 143.644 55.7864 0.10315 12.6855
206600 60.2689 143.657 55.7864 0.10325 12.7014
206800 60.2689 143.67 55.7864 0.10335 12.7036
207000 60.2689 143.683 55.7864 0.10345 12.7105
207200 60.2689 143.696 55.7864 0.10355 12.7265
207400 60.2689 143.709 55.7864 0.10365 12.7292
207600 60.2689 143.722 55.7864 0.10375 12.777
207800 60.2689 143.735 55.7864 0.10385 12.7576
208000 60.2689 143.748 55.7864 0.10395 12.7817
208200 60.2689 143.761 55.7864 0.10405 12.7946
208400 60.2689 143.774 55.7864 0.10415 12.8194
208600 60.2689 143.787 55.7864 0.10425 12.8288
208800 60.2689 143.8 55.7864 0.10435 12.8338
209000 60.2689 143.813 55.7864 0.10445 12.8602
209200 60.2689 143.826 55.7864 0.10455 12.8561
209400 60.2689 143.839 55.7864 0.10465 12.8917
209600 60.2689 143.852 55.7864 0.10475 12.8841
209800 60.2689 143.865 55.7864 0.10485 12.9068
210000 60.2689 143.878 55.7864 0.10495 12.9223
210200 60.2689 143.891 55.7864 0.10505 12.9401
210400 60.2689 143.904 55.7864 0.10515 12.9456
210600 60.2689 143.917 55.7864 0.10525 12.9605
210800 60.2689 143.93 55.7864 0.10535 12.948
211000 60.2689 143.943 55.7864 0.10545 12.969
211200 60.2689 143.956 55.7864 0.10555 12.9665
211400 60.2689 143.969 55.7864 0.10565 12.9867
211600 60.2689 143.982 55.7864 0.10575 12.999
211800 60.2689 143.995 55.7864 0.10585 13.008
212000 60.2689 144.008 55.7864 0.10595 13.0214
212200 60.2689 144.021 55.7864 0.10605 13.0466
212400 60.2689 144.034 55.7864 0.10615 13.0194
212600 60.2689 144.047 55.7864 0.10625 13.0447
212800 60.2689 144.06 55.7864 0.10635 13.0711
213000 60.2689 144.073 55.7864 0.10645 13.0751
213200 60.2689 144.086 55.7864 0.10655 13.0983
213400 60.2689 144.099 55.7864 0.10665 13.1042
213600 60.2689 144.112 55.7864 0.10675 13.1233
213800 60.2689 144.126 55.7864 0.10685 13.1271
214000 60.2689 144.139 55.7864 0.10695 13.1509
214200 60.2689 144.152 55.7864 0.10705 13.1581
214400 60.2689 144.165 55.7864 0.10715 13.1788
214600 60.2689 144.178 55.7864 0.10725 13.1846
214800 60.2689 144.191 55.7864 0.10735 13.2047
215000 60.2689 144.204 55.7864 0.10745 13.2145
215200 60.2689 144.217 55.7864 0.10755 13.235
215400 60.2689 144.23 55.7864 0.10765 13.2312
215600 60.2689 144.243 55.7864 0.10775 13.2609
215800 60.2689 144.256 55.7864 0.10785 13.2646
216000 60.2689 144.269 55.7864 0.10795 13.2926
216200 60.2689 144.282 55.7864 0.10805 13.2995
216400 60.2689 144.295 55.7864 0.10815 13.3115
216600 60.2689 144.308 55.7864 0.10825 13.3345
216800 60.2689 144.321 55.7864 0.10835 13.3189
217000 60.2689 144.334 55.7864 0.10845 13.3546
217200 60.2689 144.347 55.7864 0.10855 13.3816
217400 60.2689 144.36 55.7864 0.10865 13.378
217600 60.2689 144.373 55.7864 0.10875 13.3782
217800 60.2689 144.386 55.7864 0.10885 13.4234
218000 60.2689 144.399 55.7864 0.10895 13.4194
218200 60.2689 144.412 55.7864 0.10905 13.4339
218400 60.2689 144.425 55.7864 0.10915 13.4305
218600 60.2689 144.438 55.7864 0.10925 13.4391
218800 60.2689 144.451 55.7864 0.10935 13.4599
219000 60.2689 144.464 55.7864 0.10945 13.4606
219200 60.2689 144.477 55.7864 0.10955 13.4926
219400 60.2689 144.49 55.7864 0.10965 13.4903
219600 60.2689 144.503 55.7864 0.10975 13.5141
219800 60.2689 144.516 55.7864 0.10985 13.5127
220000 60.2689 144.529 55.7864 0.10995 13.5347
220200 60.2689 144.542 55.7864 0.11005 13.5584
220400 60.2689 144.555 55.7864 0.11015 13.5625
220600 60.2689 144.568 55.7864 0.11025 13.5716
220800 60.2689 144.581 55.7864 0.11035 13.5937
221000 60.2689 144.594 55.7864 0.11045 13.6108
221200 60.2689 144.607 55.7864 0.11055 13.6222
221400 60.2689 144.62 55.7864 0.11065 13.6361
221600 60.2689 144.633 55.7864 0.11075 13.6513
221800 60.2689 144.646 55.7864 0.11085 13.6585
222000 60.2689 144.659 55.7864 0.11095 13.6795
222200 60.2689 144.672 55.7864 0.11105 13.6889
222400 60.2689 144.685 55.7864 0.11115 13.71
222600 60.2689 144.698 55.7864 0.11125 13.71
222800 60.2689 144.711 55.7864 0.11135 13.742
223000 60.2689 144.724 55.7864 0.11145 13.7343
223200 60.2689 144.738 55.7864 0.11155 13.7842
223400 60.2689 144.751 55.7864 0.11165 13.7441
223600 60.2689 144.764 55.7864 0.11175 13.7647
223800 60.2689 144.777 55.7864 0.11185 13.7847
224000 60.2689 144.79 55.7864 0.11195 13.7832
224200 60.2689 144.803 55.7864 0.11205 13.8023
224400 60.2689 144.816 55.7864 0.11215 13.8131
224600 60.2689 144.829 55.7864 0.11225 13.8278
224800 60.2689 144.842 55.7864 0.11235 13.8385
225000 60.2689 144.855 55.7864 0.11245 13.8624
225200 60.2689 144.868 55.7864 0.11255 13.8594
225400 60.2689 144.881 55.7864 0.11265 13.8898
225600 60.2689 144.894 55.7864 0.11275 13.9015
225800 60.2689 144.907 55.7864 0.11285 13.8755
226000 60.2689 144.92 55.7864 0.11295 13.906
226200 60.2689 144.933 55.7864 0.11305 13.9121
226400 60.2689 144.946 55.7864 0.11315 13.9343
226600 60.2689 144.959 55.7864 0.11325 13.9529
226800 60.2689 144.972 55.7864 0.11335 13.9533
227000 60.2689 144.985 55.7864 0.11345 13.9732
227200 60.2689 144.998 55.7864 0.11355 13.9922
227400 60.2689 145.011 55.7864 0.11365 13.9892
227600 60.2689 145.024 55.7864 0.11375 14.0143
227800 60.2689 145.037 55.7864 0.11385 14.0315
228000 60.2689 145.05 55.7864 0.11395 14.0326
228200 60.2689 145.063 55.7864 0.11405 14.053
228400 60.2689 145.076 55.7864 0.11415 14.0729
228600 60.2689 145.089 55.7864 0.11425 14.0845
228800 60.2689 145.102 55.7864 0.11435 14.0864
229000 60.2689 145.115 55.7864 0.11445 14.1109
229200 60.2689 145.128 55.7864 0.11455 14.1298
229400 60.2689 145.141 55.7864 0.11465 14.1385
229600 60.2689 145.154 55.7864 0.11475 14.1607
229800 60.2689 145.167 55.7864 0.11485 14.1594
230000 60.2689 145.18 55.7864 0.11495 14.162
230200 60.2689 145.193 55.7864 0.11505 14.2119
230400 60.2689 145.206 55.7864 0.11515 14.2015
230600 60.2689 145.219 55.7864 0.11525 14.2273
230800 60.2689 145.232 55.7864 0.11535 14.232
231000 60.2689 145.245 55.7864 0.11545 14.2408
231200 60.2689 145.258 55.7864 0.11555 14.2465
231400 60.2689 145.271 55.7864 0.11565 14.2502
231600 60.2689 145.284 55.7864 0.11575 14.2441
231800 60.2689 145.297 55.7864 0.11585 14.2728
232000 60.2689 145.31 55.7864 0.11595 14.2535
232200 60.2689 145.323 55.7864 0.11605 14.2941
232400 60.2689 145.336 55.7864 0.11615 14.2865
232600 60.2689 145.35 55.7864 0.11625 14.2958
232800 60.2689 145.363 55.7864 0.11635 14.3201
233000 60.2689 145.376 55.7864 0.11645 14.3294
233200 60.2689 145.389 55.7864 0.11655 14.3416
233400 60.2689 145.402 55.7864 0.11665 14.3631
233600 60.2689 145.415 55.7864 0.11675 14.3459
233800 60.2689 145.428 55.7864 0.11685 14.3628
234000 60.2689 145.441 55.7864 0.11695 14.3717
234200 60.2689 145.454 55.7864 0.11705 14.3814
234400 60.2689 145.467 55.7864 0.11715 14.3998
234600 60.2689 145.48 55.7864 0.11725 14.429
234800 60.2689 145.493 55.7864 0.11735 14.4138
235000 60.2689 145.506 55.7864 0.11745 14.4523
235200 60.2689 145.519 55.7864 0.11755 14.4587
235400 60.2689 145.532 55.7864 0.11765 14.4681
235600 60.2689 145.545 55.7864 0.11775 14.4783
235800 60.2689 145.558 55.7864 0.11785 14.4973
236000 60.2689 145.571 55.7864 0.11795 14.5157
236200 60.2689 145.584 55.7864 0.11805 14.5196
236400 60.2689 145.597 55.7864 0.11815 14.5447
236600 60.2689 145.61 55.7864 0.11825 14.5493
236800 60.2689 145.623 55.7864 0.11835 14.5616
237000 60.2689 145.636 55.7864 0.11845 14.5886
237200 60.2689 145.649 55.7864 0.11855 14.579
237400 60.2689 145.662 55.7864 0.11865 14.6137
237600 60.2689 145.675 55.7864 0.11875 14.619
237800 60.2689 145.688 55.7864 0.11885 14.6405
238000 60.2689 145.701 55.7864 0.11895 14.6394
238200 60.2689 145.714 55.7864 0.11905 14.6484
238400 60.2689 145.727 55.7864 0.11915 14.6401
238600 60.2689 145.74 55.7864 0.11925 14.6801
238800 60.2689 145.753 55.7864 0.11935 14.6779
239000 60.2689 145.766 55.7864 0.11945 14.6813
239200 60.2689 145.779 55.7864 0.11955 14.7055
239400 60.2689 145.792 55.7864 0.11965 14.7025
239600 60.2689 145.805 55.7864 0.11975 14.7395
239800 60.2689 145.818 55.7864 0.11985 14.7333
240000 60.2689 145.831 55.7864 0.11995 14.7662
240200 60.2689 145.844 55.7864 0.12005 14.7678
240400 60.2689 145.857 55.7864 0.12015 14.7808
240600 60.2689 145.87 55.7864 0.12025 14.7924
240800 60.2689 145.883 55.7864 0.12035 14.8071
241000 60.2689 145.896 55.7864 0.12045 14.8272
241200 60.2689 145.909 55.7864 0.12055 14.8365
241400 60.2689 145.922 55.7864 0.12065 14.8567
241600 60.2689 145.935 55.7864 0.12075 14.8666
241800 60.2689 145.948 55.7864 0.12085 14.8783
242000 60.2689 145.961 55.7864 0.12095 14.9001
242200 60.2689 145.975 55.7864 0.12105 14.8999
242400 60.2689 145.988 55.7864 0.12115 14.936
242600 60.2689 146.001 55.7864 0.12125 14.9363
242800 60.2689 146.014 55.7864 0.12135 14.9353
243000 60.2689 146.027 55.7864 0.12145 14.9795
243200 60.2689 146.04 55.7864 0.12155 14.9667
243400 60.2689 146.053 55.7864 0.12165 14.9957
243600 60.2689 146.066 55.7864 0.12175 14.9915
243800 60.2689 146.079 55.7864 0.12185 15.0073
244000 60.2689 146.092 55.7864 0.12195 15.0431
244200 60.2689 146.105 55.7864 0.12205 15.0256
244400 60.2689 146.118 55.7864 0.12215 15.0241
244600 60.2689 146.131 55.7864 0.12225 15.0187
244800 60.2689 146.144 55.7864 0.12235 14.9954
245000 60.2689 146.157 55.7864 0.12245 15.0431
245200 60.2689 146.17 55.7864 0.12255 15.0533
245400 60.2689 146.183 55.7864 0.12265 15.0273
245600 60.2689 146.196 55.7864 0.12275 15.0435
245800 60.2689 146.209 55.7864 0.12285 15.0509
246000 60.2689 146.222 55.7864 0.12295 15.0807
246200 60.2689 146.235 55.7864 0.12305 15.0833
246400 60.2689 146.248 55.7864 0.12315 15.0915
246600 60.2689 146.261 55.7864 0.12325 15.1118
246800 60.2689 146.274 55.7864 0.12335 15.1291
247000 60.2689 146.287 55.7864 0.12345 15.1364
247200 60.2689 146.3 55.7864 0.12355 15.144
247400 60.2689 146.313 55.7864 0.12365 15.1382
247600 60.2689 146.326 55.7864 0.12375 15.1408
247800 60.2689 146.339 55.7864 0.12385 15.1427
248000 60.2689 146.352 55.7864 0.12395 15.1743
248200 60.2689 146.365 55.7864 0.12405 15.1349
248400 60.2689 146.378 55.7864 0.12415 15.1463
248600 60.2689 146.391 55.7864 0.12425 15.1648
248800 60.2689 146.404 55.7864 0.12435 15.1783
249000 60.2689 146.417 55.7864 0.12445 15.1774
249200 60.2689 146.43 55.7864 0.12455 15.1815
249400 60.2689 146.443 55.7864 0.12465 15.1704
249600 60.2689 146.456 55.7864 0.12475 15.1987
249800 60.2689 146.469 55.7864 0.12485 15.2002
250000 60.2689 146.482 55.7864 0.12495 15.2176
250200 60.2689 146.495 55.7864 0.12505 15.2415
250400 60.2689 146.508 55.7864 0.12515 15.249
250600 60.2689 146.521 55.7864 0.12525 15.2581
250800 60.2689 146.534 55.7864 0.12535 15.2296
251000 60.2689 146.547 55.7864 0.12545 15.2602
251200 60.2689 146.56 55.7864 0.12555 15.2662
251400 60.2689 146.573 55.7864 0.12565 15.2874
251600 60.2689 146.587 55.7864 0.12575 15.2851
251800 60.2689 146.6 55.7864 0.12585 15.3157
252000 60.2689 146.613 55.7864 0.12595 15.3139
252200 60.2689 146.626 55.7864 0.12605 15.3286
252400 60.2689 146.639 55.7864 0.12615 15.362
252600 60.2689 146.652 55.7864 0.12625 15.3557
252800 60.2689 146.665 55.7864 0.12635 15.3687
253000 60.2689 146.678 55.7864 0.12645 15.3831
253200 60.2689 146.691 55.7864 0.12655 15.3974
253400 60.2689 146.704 55.7864 0.12665 15.4156
253600 60.2689 146.717 55.7864 0.12675 15.4123
253800 60.2689 146.73 55.7864 0.12685 15.4306
254000 60.2689 146.743 55.7864 0.12695 15.4517
254200 60.2689 146.756 55.7864 0.12705 15.459
254400 60.2689 146.769 55.7864 0.12715 15.4733
254600 60.2689 146.782 55.7864 0.12725 15.4851
254800 60.2689 146.795 55.7864 0.12735 15.484
255000 60.2689 146.808 55.7864 0.12745 15.5149
255200 60.2689 146.821 55.7864 0.12755 15.516
255400 60.2689 146.834 55.7864 0.12765 15.4959
255600 60.2689 146.847 55.7864 0.12775 15.4925
255800 60.2689 146.86 55.7864 0.12785 15.526
256000 60.2689 146.873 55.7864 0.12795 15.5097
256200 60.2689 146.886 55.7864 0.12805 15.5166
256400 60.2689 146.899 55.7864 0.12815 15.5019
256600 60.2689 146.912 55.7864 0.12825 15.5104
256800 60.2689 146.925 55.7864 0.12835 15.4994
257000 60.2689 146.938 55.7864 0.12845 15.519
257200 60.2689 146.951 55.7864 0.12855 15.5308
257400 60.2689 146.964 55.7864 0.12865 15.558
257600 60.2689 146.977 55.7864 0.12875 15.5304
257800 60.2689 146.99 55.7864 0.12885 15.5823
258000 60.2689 147.003 55.7864 0.12895 15.5472
258200 60.2689 147.016 55.7864 0.12905 15.5809
258400 60.2689 147.029 55.7864 0.12915 15.5997
258600 60.2689 147.042 55.7864 0.12925 15.5975
258800 60.2689 147.055 55.7864 0.12935 15.5871
259000 60.2689 147.068 55.7864 0.12945 15.6177
259200 60.2689 147.081 55.7864 0.12955 15.6229
259400 60.2689 147.094 55.7864 0.12965 15.6371
259600 60.2689 147.107 55.7864 0.12975 15.653
259800 60.2689 147.12 55.7864 0.12985 15.6628
260000 60.2689 147.133 55.7864 0.12995 15.6841
260200 60.2689 147.146 55.7864 0.13005 15.6667
260400 60.2689 147.159 55.7864 0.13015 15.6793
260600 60.2689 147.172 55.7864 0.13025 15.6826
260800 60.2689 147.185 55.7864 0.13035 15.7028
261000 60.2689 147.199 55.7864 0.13045 15.7108
261200 60.2689 147.212 55.7864 0.13055 15.7285
261400 60.2689 147.225 55.7864 0.13065 15.7229
261600 60.2689 147.238 55.7864 0.13075 15.7184
261800 60.2689 147.251 55.7864 0.13085 15.7407
262000 60.2689 147.264 55.7864 0.13095 15.7376
262200 60.2689 147.277 55.7864 0.13105 15.7553
262400 60.2689 147.29 55.7864 0.13115 15.7681
262600 60.2689 147.303 55.7864 0.13125 15.7878
262800 60.2689 147.316 55.7864 0.13135 15.8074
263000 60.2689 147.329 55.7864 0.13145 15.8048
263200 60.2689 147.342 55.7864 0.13155 15.8107
263400 60.2689 147.355 55.7864 0.13165 15.804
263600 60.2689 147.368 55.7864 0.13175 15.8063
263800 60.2689 147.381 55.7864 0.13185 15.8265
264000 60.2689 147.394 55.7864 0.13195 15.823
264200 60.2689 147.407 55.7864 0.13205 15.8461
264400 60.2689 147.42 55.7864 0.13215 15.8641
264600 60.2689 147.433 55.7864 0.13225 15.841
264800 60.2689 147.446 55.7864 0.13235 15.8496
265000 60.2689 147.459 55.7864 0.13245 15.8772
265200 60.2689 147.472 55.7864 0.13255 15.8901
265400 60.2689 147.485 55.7864 0.13265 15.9025
265600 60.2689 147.498 55.7864 0.13275 15.9164
265800 60.2689 147.511 55.7864 0.13285 15.9271
266000 60.2689 147.524 55.7864 0.13295 15.9441
266200 60.2689 147.537 55.7864 0.13305 15.9607
266400 60.2689 147.55 55.7864 0.13315 15.9671
266600 60.2689 147.563 55.7864 0.13325 15.9742
266800 60.2689 147.576 55.7864 0.13335 15.9633
267000 60.2689 147.589 55.7864 0.13345 15.9629
267200 60.2689 147.602 55.7864 0.13355 15.9718
267400 60.2689 147.615 55.7864 0.13365 15.9798
267600 60.2689 147.628 55.7864 0.13375 15.9783
267800 60.2689 147.641 55.7864 0.13385 15.9647
268000 60.2689 147.654 55.7864 0.13395 15.9581
268200 60.2689 147.667 55.7864 0.13405 15.9644
268400 60.2689 147.68 55.7864 0.13415 15.9643
268600 60.2689 147.693 55.7864 0.13425 15.9906
268800 60.2689 147.706 55.7864 0.13435 15.9819
269000 60.2689 147.719 55.7864 0.13445 15.9655
269200 60.2689 147.732 55.7864 0.13455 15.9738
269400 60.2689 147.745 55.7864 0.13465 15.9535
269600 60.2689 147.758 55.7864 0.13475 15.9798
269800 60.2689 147.771 55.7864 0.13485 15.9735
270000 60.2689 147.784 55.7864 0.13495 15.9897
270200 60.2689 147.797 55.7864 0.13505 15.9619
270400 60.2689 147.811 55.7864 0.13515 15.9783
270600 60.2689 147.824 55.7864 0.13525 16.0012
270800 60.2689 147.837 55.7864 0.13535 16.0045
271000 60.2689 147.85 55.7864 0.13545 16.0146
271200 60.2689 147.863 55.7864 0.13555 15.9901
271400 60.2689 147.876 55.7864 0.13565 15.9955
271600 60.2689 147.889 55.7864 0.13575 15.9505
271800 60.2689 147.902 55.7864 0.13585 15.99
272000 60.2689 147.915 55.7864 0.13595 15.9815
272200 60.2689 147.928 55.7864 0.13605 15.9991
272400 60.2689 147.941 55.7864 0.13615 16.0067
272600 60.2689 147.954 55.7864 0.13625 16.046
272800 60.2689 147.967 55.7864 0.13635 16.0261
273000 60.2689 147.98 55.7864 0.13645 16.0436
273200 60.2689 147.993 55.7864 0.13655 16.0736
273400 60.2689 148.006 55.7864 0.13665 16.0775
273600 60.2689 148.019 55.7864 0.13675 16.067
273800 60.2689 148.032 55.7864 0.13685 16.0839
274000 60.2689 148.045 55.7864 0.13695 16.0874
274200 60.2689 148.058 55.7864 0.13705 16.1128
274400 60.2689 148.071 55.7864 0.13715 16.1067
274600 60.2689 148.084 55.7864 0.13725 16.109
274800 60.2689 148.097 55.7864 0.13735 16.1238
275000 60.2689 148.11 55.7864 0.13745 16.1349
275200 60.2689 148.123 55.7864 0.13755 16.1582
275400 60.2689 148.136 55.7864 0.13765 16.1096
275600 60.2689 148.149 55.7864 0.13775 16.0951
275800 60.2689 148.162 55.7864 0.13785 16.1054
276000 60.2689 148.175 55.7864 0.13795 16.0613
276200 60.2689 148.188 55.7864 0.13805 16.0867
276400 60.2689 148.201 55.7864 0.13815 16.0817
276600 60.2689 148.214 55.7864 0.13825 16.0986
276800 60.2689 148.227 55.7864 0.13835 16.09
277000 60.2689 148.24 55.7864 0.13845 16.1065
277200 60.2689 148.253 55.7864 0.13855 16.1194
277400 60.2689 148.266 55.7864 0.13865 16.1094
277600 60.2689 148.279 55.7864 0.13875 16.0798
277800 60.2689 148.292 55.7864 0.13885 16.0889
278000 60.2689 148.305 55.7864 0.13895 16.0809
278200 60.2689 148.318 55.7864 0.13905 16.1161
278400 60.2689 148.331 55.7864 0.13915 16.1043
278600 60.2689 148.344 55.7864 0.13925 16.1224
278800 60.2689 148.357 55.7864 0.13935 16.1123
279000 60.2689 148.37 55.7864 0.13945 16.1299
279200 60.2689 148.383 55.7864 0.13955 16.1548
279400 60.2689 148.396 55.7864 0.13965 16.1268
279600 60.2689 148.409 55.7864 0.13975 16.1265
279800 60.2689 148.423 55.7864 0.13985 16.1153
280000 60.2689 148.436 55.7864 0.13995 16.1198
280200 60.2689 148.449 55.7864 0.14005 16.1216
280400 60.2689 148.462 55.7864 0.14015 16.0868
280600 60.2689 148.475 55.7864 0.14025 16.1156
280800 60.2689 148.488 55.7864 0.14035 16.1209
281000 60.2689 148.501 55.7864 0.14045 16.1297
281200 60.2689 148.514 55.7864 0.14055 16.1328
281400 60.2689 148.527 55.7864 0.14065 16.1459
281600 60.2689 148.54 55.7864 0.14075 16.1675
281800 60.2689 148.553 55.7864 0.14085 16.1515
282000 60.2689 148.566 55.7864 0.14095 16.1863
282200 60.2689 148.579 55.7864 0.14105 16.1803
282400 60.2689 148.592 55.7864 0.14115 16.1962
282600 60.2689 148.605 55.7864 0.14125 16.1809
282800 60.2689 148.618 55.7864 0.14135 16.1828
283000 60.2689 148.631 55.7864 0.14145 16.157
283200 60.2689 148.644 55.7864 0.14155 16.1979
283400 60.2689 148.657 55.7864 0.14165 16.1828
283600 60.2689 148.67 55.7864 0.14175 16.212
283800 60.2689 148.683 55.7864 0.14185 16.2258
284000 60.2689 148.696 55.7864 0.14195 16.1996
284200 60.2689 148.709 55.7864 0.14205 16.1986
284400 60.2689 148.722 55.7864 0.14215 16.2324
284600 60.2689 148.735 55.7864 0.14225 16.215
284800 60.2689 148.748 55.7864 0.14235 16.2389
285000 60.2689 148.761 55.7864 0.14245 16.2388
285200 60.2689 148.774 55.7864 0.14255 16.2112
285400 60.2689 148.787 55.7864 0.14265 16.1702
285600 60.2689 148.8 55.7864 0.14275 16.2046
285800 60.2689 148.813 55.7864 0.14285 16.2292
286000 60.2689 148.826 55.7864 0.14295 16.2281
286200 60.2689 148.839 55.7864 0.14305 16.2569
286400 60.2689 148.852 55.7864 0.14315 16.2577
286600 60.2689 148.865 55.7864 0.14325 16.2807
286800 60.2689 148.878 55.7864 0.14335 16.28
287000 60.2689 148.891 55.7864 0.14345 16.2961
287200 60.2689 148.904 55.7864 0.14355 16.32
287400 60.2689 148.917 55.7864 0.14365 16.322
287600 60.2689 148.93 55.7864 0.14375 16.3237
287800 60.2689 148.943 55.7864 0.14385 16.3255
288000 60.2689 148.956 55.7864 0.14395 16.3336
288200 60.2689 148.969 55.7864 0.14405 16.3482
288400 60.2689 148.982 55.7864 0.14415 16.3744
288600 60.2689 148.995 55.7864 0.14425 16.3773
288800 60.2689 149.008 55.7864 0.14435 16.4106
289000 60.2689 149.021 55.7864 0.14445 16.3881
289200 60.2689 149.035 55.7864 0.14455 16.4142
289400 60.2689 149.048 55.7864 0.14465 16.3995
289600 60.2689 149.061 55.7864 0.14475 16.3963
289800 60.2689 149.074 55.7864 0.14485 16.4087
290000 60.2689 149.087 55.7864 0.14495 16.3952
290200 60.2689 149.1 55.7864 0.14505 16.3793
290400 60.2689 149.113 55.7864 0.14515 16.3774
290600 60.2689 149.126 55.7864 0.14525 16.292
290800 60.2689 149.139 55.7864 0.14535 16.2662
291000 60.2689 149.152 55.7864 0.14545 16.2776
291200 60.2689 149.165 55.7864 0.14555 16.2664
291400 60.2689 149.178 55.7864 0.14565 16.2574
291600 60.2689 149.191 55.7864 0.14575 16.2252
291800 60.2689 149.204 55.7864 0.14585 16.191
292000 60.2689 149.217 55.7864 0.14595 16.1502
292200 60.2689 149.23 55.7864 0.14605 16.1866
292400 60.2689 149.243 55.7864 0.14615 16.1919
292600 60.2689 149.256 55.7864 0.14625 16.1452
292800 60.2689 149.269 55.7864 0.14635 16.1901
293000 60.2689 149.282 55.7864 0.14645 16.1896
293200 60.2689 149.295 55.7864 0.14655 16.157
293400 60.2689 149.308 55.7864 0.14665 16.1505
293600 60.2689 149.321 55.7864 0.14675 16.1897
293800 60.2689 149.334 55.7864 0.14685 16.1644
294000 60.2689 149.347 55.7864 0.14695 16.1828
294200 60.2689 149.36 55.7864 0.14705 16.1895
294400 60.2689 149.373 55.7864 0.14715 16.1824
294600 60.2689 149.386 55.7864 0.14725 16.2106
294800 60.2689 149.399 55.7864 0.14735 16.1943
295000 60.2689 149.412 55.7864 0.14745 16.1875
295200 60.2689 149.425 55.7864 0.14755 16.1952
295400 60.2689 149.438 55.7864 0.14765 16.2002
295600 60.2689 149.451 55.7864 0.14775 16.209
295800 60.2689 149.464 55.7864 0.14785 16.2068
296000 60.2689 149.477 55.7864 0.14795 16.224
296200 60.2689 149.49 55.7864 0.14805 16.2128
296400 60.2689 149.503 55.7864 0.14815 16.2214
296600 60.2689 149.516 55.7864 0.14825 16.245
296800 60.2689 149.529 55.7864 0.14835 16.2363
297000 60.2689 149.542 55.7864 0.14845 16.2285
297200 60.2689 149.555 55.7864 0.14855 16.2476
297400 60.2689 149.568 55.7864 0.14865 16.2288
297600 60.2689 149.581 55.7864 0.14875 16.2448
297800 60.2689 149.594 55.7864 0.14885 16.2619
298000 60.2689 149.607 55.7864 0.14895 16.2362
298200 60.2689 149.62 55.7864 0.14905 16.2413
298400 60.2689 149.633 55.7864 0.14915 16.2767
298600 60.2689 149.647 55.7864 0.14925 16.2951
298800 60.2689 149.66 55.7864 0.14935 16.2668
299000 60.2689 149.673 55.7864 0.14945 16.2993
299200 60.2689 149.686 55.7864 0.14955 16.294
299400 60.2689 149.699 55.7864 0.14965 16.3015
299600 60.2689 149.712 55.7864 0.14975 16.3028
299800 60.2689 149.725 55.7864 0.14985 16.2997
300000 60.2689 149.738 55.7864 0.14995 16.2758
300200 60.2689 149.751 55.7864 0.15005 16.2976
300400 60.2689 149.764 55.7864 0.15015 16.2967
300600 60.2689 149.777 55.7864 0.15025 16.2872
300800 60.2689 149.79 55.7864 0.15035 16.2637
301000 60.2689 149.803 55.7864 0.15045 16.3066
301200 60.2689 149.816 55.7864 0.15055 16.2658
301400 60.2689 149.829 55.7864 0.15065 16.3039
301600 60.2689 149.842 55.7864 0.15075 16.2847
301800 60.2689 149.855 55.7864 0.15085 16.2859
302000 60.2689 149.868 55.7864 0.15095 16.2721
302200 60.2689 149.881 55.7864 0.15105 16.2734
302400 60.2689 149.894 55.7864 0.15115 16.2855
302600 60.2689 149.907 55.7864 0.15125 16.2812
302800 60.2689 149.92 55.7864 0.15135 16.2904
303000 60.2689 149.933 55.7864 0.15145 16.309
303200 60.2689 149.946 55.7864 0.15155 16.2911
303400 60.2689 149.959 55.7864 0.15165 16.3139
303600 60.2689 149.972 55.7864 0.15175 16.3314
303800 60.2689 149.985 55.7864 0.15185 16.3151
304000 60.2689 149.998 55.7864 0.15195 16.3569
304200 60.2689 150.011 55.7864 0.15205 16.3404
304400 60.2689 150.024 55.7864 0.15215 16.3527
304600 60.2689 150.037 55.7864 0.15225 16.3611
304800 60.2689 150.05 55.7864 0.15235 16.3623
305000 60.2689 150.063 55.7864 0.15245 16.3818
305200 60.2689 150.076 55.7864 0.15255 16.385
305400 60.2689 150.089 55.7864 0.15265 16.3508
305600 60.2689 150.102 55.7864 0.15275 16.3528
305800 60.2689 150.115 55.7864 0.15285 16.3828
306000 60.2689 150.128 55.7864 0.15295 16.3986
306200 60.2689 150.141 55.7864 0.15305 16.3824
306400 60.2689 150.154 55.7864 0.15315 16.3727
306600 60.2689 150.167 55.7864 0.15325 16.3709
306800 60.2689 150.18 55.7864 0.15335 16.3961
307000 60.2689 150.193 55.7864 0.15345 16.366
307200 60.2689 150.206 55.7864 0.15355 16.3955
307400 60.2689 150.219 55.7864 0.15365 16.3662
307600 60.2689 150.232 55.7864 0.15375 16.371
307800 60.2689 150.245 55.7864 0.15385 16.367
308000 60.2689 150.259 55.7864 0.15395 16.3881
308200 60.2689 150.272 55.7864 0.15405 16.3797
308400 60.2689 150.285 55.7864 0.15415 16.3785
308600 60.2689 150.298 55.7864 0.15425 16.3841
308800 60.2689 150.311 55.7864 0.15435 16.3872
309000 60.2689 150.324 55.7864 0.15445 16.3908
309200 60.2689 150.337 55.7864 0.15455 16.3953
309400 60.2689 150.35 55.7864 0.15465 16.396
309600 60.2689 150.363 55.7864 0.15475 16.428
309800 60.2689 150.376 55.7864 0.15485 16.3815
310000 60.2689 150.389 55.7864 0.15495 16.3881
310200 60.2689 150.402 55.7864 0.15505 16.3863
310400 60.2689 150.415 55.7864 0.15515 16.3769
310600 60.2689 150.428 55.7864 0.15525 16.3963
310800 60.2689 150.441 55.7864 0.15535 16.3869
311000 60.2689 150.454 55.7864 0.15545 16.3719
311200 60.2689 150.467 55.7864 0.15555 16.2888
311400 60.2689 150.48 55.7864 0.15565 16.2661
311600 60.2689 150.493 55.7864 0.15575 16.2244
311800 60.2689 150.506 55.7864 0.15585 16.2372
312000 60.2689 150.519 55.7864 0.15595 16.2023
312200 60.2689 150.532 55.7864 0.15605 16.2334
312400 60.2689 150.545 55.7864 0.15615 16.2324
312600 60.2689 150.558 55.7864 0.15625 16.236
312800 60.2689 150.571 55.7864 0.15635 16.2449
313000 60.2689 150.584 55.7864 0.15645 16.2746
313200 60.2689 150.597 55.7864 0.15655 16.2983
313400 60.2689 150.61 55.7864 0.15665 16.2936
313600 60.2689 150.623 55.7864 0.15675 16.28
313800 60.2689 150.636 55.7864 0.15685 16.232
314000 60.2689 150.649 55.7864 0.15695 16.1764
314200 60.2689 150.662 55.7864 0.15705 16.1615
314400 60.2689 150.675 55.7864 0.15715 16.1656
314600 60.2689 150.688 55.7864 0.15725 16.1576
314800 60.2689 150.701 55.7864 0.15735 16.1622
315000 60.2689 150.714 55.7864 0.15745 16.1705
315200 60.2689 150.727 55.7864 0.15755 16.1333
315400 60.2689 150.74 55.7864 0.15765 16.0866
315600 60.2689 150.753 55.7864 0.15775 16.0255
315800 60.2689 150.766 55.7864 0.15785 15.9614
316000 60.2689 150.779 55.7864 0.15795 15.9336
316200 60.2689 150.792 55.7864 0.15805 15.7976
316400 60.2689 150.805 55.7864 0.15815 15.6176
316600 60.2689 150.818 55.7864 0.15825 15.4943
316800 60.2689 150.831 55.7864 0.15835 15.316
317000 60.2689 150.844 55.7864 0.15845 15.0218
317200 60.2689 150.857 55.7864 0.15855 14.5589
317400 60.2689 150.871 55.7864 0.15865 13.8773
317600 60.2689 150.884 55.7864 0.15875 12.8368
317800 60.2689 150.897 55.7864 0.15885 11.2733
318000 60.2689 150.91 55.7864 0.15895 9.39057
318200 60.2689 150.923 55.7864 0.15905 7.30466
318400 60.2689 150.936 55.7864 0.15915 5.11017
318600 60.2689 150.949 55.7864 0.15925 3.26608
318800 60.2689 150.962 55.7864 0.15935 1.69222
319000 60.2689 150.975 55.7864 0.15945 0.301778
319200 60.2689 150.988 55.7864 0.15955 -0.922361
319400 60.2689 151.001 55.7864 0.15965 -1.95455
319600 60.2689 151.014 55.7864 0.15975 -2.71371
319800 60.2689 151.027 55.7864 0.15985 -3.18374
320000 60.2689 151.04 55.7864 0.15995 -3.43335
320200 60.2689 151.053 55.7864 0.16005 -3.4397
320400 60.2689 151.066 55.7864 0.16015 -3.24599
320600 60.2689 151.079 55.7864 0.16025 -2.87983
320800 60.2689 151.092 55.7864 0.16035 -2.4252
321000 60.2689 151.105 55.7864 0.16045 -1.91584
321200 60.2689 151.118 55.7864 0.16055 -1.18902
321400 60.2689 151.131 55.7864 0.16065 -0.275701
321600 60.2689 151.144 55.7864 0.16075 0.879464
321800 60.2689 151.157 55.7864 0.16085 2.15432
322000 60.2689 151.17 55.7864 0.16095 3.35038
322200 60.2689 151.183 55.7864 0.16105 4.1032
322400 60.2689 151.196 55.7864 0.16115 4.36034
322600 60.2689 151.209 55.7864 0.16125 3.95526
322800 60.2689 151.222 55.7864 0.16135 3.12992
323000 60.2689 151.235 55.7864 0.16145 2.1136
323200 60.2689 151.248 55.7864 0.16155 0.983317
323400 60.2689 151.261 55.7864 0.16165 -0.0869843
323600 60.2689 151.274 55.7864 0.16175 -1.05204
323800 60.2689 151.287 55.7864 0.16185 -1.88554
324000 60.2689 151.3 55.7864 0.16195 -2.48572
324200 60.2689 151.313 55.7864 0.16205 -2.78173
324400 60.2689 151.326 55.7864 0.16215 -2.96654
324600 60.2689 151.339 55.7864 0.16225 -2.91986
324800 60.2689 151.352 55.7864 0.16235 -2.73119
325000 60.2689 151.365 55.7864 0.16245 -2.38888
325200 60.2689 151.378 55.7864 0.16255 -1.95627
325400 60.2689 151.391 55.7864 0.16265 -1.26561
325600 60.2689 151.404 55.7864 0.16275 -0.458488
325800 60.2689 151.417 55.7864 0.16285 0.52083
326000 60.2689 151.43 55.7864 0.16295 1.55898
326200 60.2689 151.443 55.7864 0.16305 2.61523
326400 60.2689 151.456 55.7864 0.16315 3.39879
326600 60.2689 151.469 55.7864 0.16325 3.79667
326800 60.2689 151.482 55.7864 0.16335 3.65551
327000 60.2689 151.496 55.7864 0.16345 2.99609
327200 60.2689 151.509 55.7864 0.16355 2.13153
327400 60.2689 151.522 55.7864 0.16365 1.10764
327600 60.2689 151.535 55.7864 0.16375 0.139173
327800 60.2689 151.548 55.7864 0.16385 -0.734172
328000 60.2689 151.561 55.7864 0.16395 -1.49821
328200 60.2689 151.574 55.7864 0.16405 -2.09103
328400 60.2689 151.587 55.7864 0.16415 -2.48539
328600 60.2689 151.6 55.7864 0.16425 -2.69365
328800 60.2689 151.613 55.7864 0.16435 -2.71725
329000 60.2689 151.626 55.7864 0.16445 -2.5779
329200 60.2689 151.639 55.7864 0.16455 -2.2504
329400 60.2689 151.652 55.7864 0.16465 -1.80841
329600 60.2689 151.665 55.7864 0.16475 -1.18498
329800 60.2689 151.678 55.7864 0.16485 -0.433905
330000 60.2689 151.691 55.7864 0.16495 0.434591
330200 60.2689 151.704 55.7864 0.16505 1.40325
330400 60.2689 151.717 55.7864 0.16515 2.34361
330600 60.2689 151.73 55.7864 0.16525 3.04433
330800 60.2689 151.743 55.7864 0.16535 3.41302
331000 60.2689 151.756 55.7864 0.16545 3.29984
331200 60.2689 151.769 55.7864 0.16555 2.76572
331400 60.2689 151.782 55.7864 0.16565 1.97121
331600 60.2689 151.795 55.7864 0.16575 1.03918
331800 60.2689 151.808 55.7864 0.16585 0.132754
332000 60.2689 151.821 55.7864 0.16595 -0.706202
332200 60.2689 151.834 55.7864 0.16605 -1.40083
332400 60.2689 151.847 55.7864 0.16615 -1.91919
332600 60.2689 151.86 55.7864 0.16625 -2.25655
332800 60.2689 151.873 55.7864 0.16635 -2.47425
333000 60.2689 151.886 55.7864 0.16645 -2.56011
333200 60.2689 151.899 55.7864 0.16655 -2.39851
333400 60.2689 151.912 55.7864 0.16665 -2.08594
333600 60.2689 151.925 55.7864 0.16675 -1.62465
333800 60.2689 151.938 55.7864 0.16685 -1.02923
334000 60.2689 151.951 55.7864 0.16695 -0.26821
334200 60.2689 151.964 55.7864 0.16705 0.563681
334400 60.2689 151.977 55.7864 0.16715 1.44352
334600 60.2689 151.99 55.7864 0.16725 2.22671
334800 60.2689 152.003 55.7864 0.16735 2.85551
335000 60.2689 152.016 55.7864 0.16745 3.15441
335200 60.2689 152.029 55.7864 0.16755 2.98859
335400 60.2689 152.042 55.7864 0.16765 2.47222
335600 60.2689 152.055 55.7864 0.16775 1.71595
335800 60.2689 152.068 55.7864 0.16785 0.784583
336000 60.2689 152.081 55.7864 0.16795 -0.0239142
336200 60.2689 152.094 55.7864 0.16805 -0.77933
336400 60.2689 152.108 55.7864 0.16815 -1.40695
336600 60.2689 152.121 55.7864 0.16825 -1.88133
336800 60.2689 152.134 55.7864 0.16835 -2.17111
337000 60.2689 152.147 55.7864 0.16845 -2.31298
337200 60.2689 152.16 55.7864 0.16855 -2.314
337400 60.2689 152.173 55.7864 0.16865 -2.21215
337600 60.2689 152.186 55.7864 0.16875 -1.86987
337800 60.2689 152.199 55.7864 0.16885 -1.42233
338000 60.2689 152.212 55.7864 0.16895 -0.7619
338200 60.2689 152.225 55.7864 0.16905 -0.0536783
338400 60.2689 152.238 55.7864 0.16915 0.767131
338600 60.2689 152.251 55.7864 0.16925 1.5867
338800 60.2689 152.264 55.7864 0.16935 2.28215
339000 60.2689 152.277 55.7864 0.16945 2.70919
339200 60.2689 152.29 55.7864 0.16955 2.86687
339400 60.2689 152.303 55.7864 0.16965 2.63401
339600 60.2689 152.316 55.7864 0.16975 2.06768
339800 60.2689 152.329 55.7864 0.16985 1.36662
340000 60.2689 152.342 55.7864 0.16995 0.5151
340200 60.2689 152.355 55.7864 0.17005 -0.286337
340400 60.2689 152.368 55.7864 0.17015 -0.948521
340600 60.2689 152.381 55.7864 0.17025 -1.48993
340800 60.2689 152.394 55.7864 0.17035 -1.85655
341000 60.2689 152.407 55.7864 0.17045 -2.06936
341200 60.2689 152.42 55.7864 0.17055 -2.19052
341400 60.2689 152.433 55.7864 0.17065 -2.15536
341600 60.2689 152.446 55.7864 0.17075 -1.88893
341800 60.2689 152.459 55.7864 0.17085 -1.54855
342000 60.2689 152.472 55.7864 0.17095 -1.06043
342200 60.2689 152.485 55.7864 0.17105 -0.438525
342400 60.2689 152.498 55.7864 0.17115 0.268873
342600 60.2689 152.511 55.7864 0.17125 1.02873
342800 60.2689 152.524 55.7864 0.17135 1.74983
343000 60.2689 152.537 55.7864 0.17145 2.2943
343200 60.2689 152.55 55.7864 0.17155 2.61121
343400 60.2689 152.563 55.7864 0.17165 2.51219
343600 60.2689 152.576 55.7864 0.17175 2.18632
343800 60.2689 152.589 55.7864 0.17185 1.6077
344000 60.2689 152.602 55.7864 0.17195 0.877453
344200 60.2689 152.615 55.7864 0.17205 0.143303
344400 60.2689 152.628 55.7864 0.17215 -0.534482
344600 60.2689 152.641 55.7864 0.17225 -1.0878
344800 60.2689 152.654 55.7864 0.17235 -1.54575
345000 60.2689 152.667 55.7864 0.17245 -1.86569
345200 60.2689 152.68 55.7864 0.17255 -2.00598
345400 60.2689 152.693 55.7864 0.17265 -2.0127
345600 60.2689 152.706 55.7864 0.17275 -1.87597
345800 60.2689 152.72 55.7864 0.17285 -1.59977
346000 60.2689 152.733 55.7864 0.17295 -1.18766
346200 60.2689 152.746 55.7864 0.17305 -0.683727
346400 60.2689 152.759 55.7864 0.17315 0.00570019
346600 60.2689 152.772 55.7864 0.17325 0.661613
346800 60.2689 152.785 55.7864 0.17335 1.35215
347000 60.2689 152.798 55.7864 0.17345 1.89191
347200 60.2689 152.811 55.7864 0.17355 2.26639
347400 60.2689 152.824 55.7864 0.17365 2.37856
347600 60.2689 152.837 55.7864 0.17375 2.16723
347800 60.2689 152.85 55.7864 0.17385 1.70638
348000 60.2689 152.863 55.7864 0.17395 1.10104
348200 60.2689 152.876 55.7864 0.17405 0.404836
348400 60.2689 152.889 55.7864 0.17415 -0.244729
348600 60.2689 152.902 55.7864 0.17425 -0.793698
348800 60.2689 152.915 55.7864 0.17435 -1.28362
349000 60.2689 152.928 55.7864 0.17445 -1.64958
349200 60.2689 152.941 55.7864 0.17455 -1.8167
349400 60.2689 152.954 55.7864 0.17465 -1.87275
349600 60.2689 152.967 55.7864 0.17475 -1.80556
349800 60.2689 152.98 55.7864 0.17485 -1.60288
350000 60.2689 152.993 55.7864 0.17495 -1.23609
350200 60.2689 153.006 55.7864 0.17505 -0.746954
350400 60.2689 153.019 55.7864 0.17515 -0.216462
350600 60.2689 153.032 55.7864 0.17525 0.406221
350800 60.2689 153.045 55.7864 0.17535 1.02968
351000 60.2689 153.058 55.7864 0.17545 1.58411
351200 60.2689 153.071 55.7864 0.17555 2.03746
351400 60.2689 153.084 55.7864 0.17565 2.16661
351600 60.2689 153.097 55.7864 0.17575 2.06764
351800 60.2689 153.11 55.7864 0.17585 1.75371
352000 60.2689 153.123 55.7864 0.17595 1.17698
352200 60.2689 153.136 55.7864 0.17605 0.568814
352400 60.2689 153.149 55.7864 0.17615 -0.0209197
352600 60.2689 153.162 55.7864 0.17625 -0.588555
352800 60.2689 153.175 55.7864 0.17635 -1.06622
353000 60.2689 153.188 55.7864 0.17645 -1.46523
353200 60.2689 153.201 55.7864 0.17655 -1.66823
353400 60.2689 153.214 55.7864 0.17665 -1.76504
353600 60.2689 153.227 55.7864 0.17675 -1.67807
353800 60.2689 153.24 55.7864 0.17685 -1.53911
354000 60.2689 153.253 55.7864 0.17695 -1.2621
354200 60.2689 153.266 55.7864 0.17705 -0.834953
354400 60.2689 153.279 55.7864 0.17715 -0.331542
354600 60.2689 153.292 55.7864 0.17725 0.202994
354800 60.2689 153.305 55.7864 0.17735 0.825164
355000 60.2689 153.318 55.7864 0.17745 1.37267
355200 60.2689 153.332 55.7864 0.17755 1.77389
355400 60.2689 153.345 55.7864 0.17765 2.01827
355600 60.2689 153.358 55.7864 0.17775 1.95557
355800 60.2689 153.371 55.7864 0.17785 1.70732
356000 60.2689 153.384 55.7864 0.17795 1.24672
356200 60.2689 153.397 55.7864 0.17805 0.693825
356400 60.2689 153.41 55.7864 0.17815 0.112244
356600 60.2689 153.423 55.7864 0.17825 -0.415956
356800 60.2689 153.436 55.7864 0.17835 -0.892035
357000 60.2689 153.449 55.7864 0.17845 -1.28282
357200 60.2689 153.462 55.7864 0.17855 -1.52544
357400 60.2689 153.475 55.7864 0.17865 -1.61383
357600 60.2689 153.488 55.7864 0.17875 -1.64797
357800 60.2689 153.501 55.7864 0.17885 -1.50757
358000 60.2689 153.514 55.7864 0.17895 -1.2446
358200 60.2689 153.527 55.7864 0.17905 -0.882596
358400 60.2689 153.54 55.7864 0.17915 -0.409718
358600 60.2689 153.553 55.7864 0.17925 0.10237
358800 60.2689 153.566 55.7864 0.17935 0.669059
359000 60.2689 153.579 55.7864 0.17945 1.18366
359200 60.2689 153.592 55.7864 0.17955 1.59015
359400 60.2689 153.605 55.7864 0.17965 1.86794
359600 60.2689 153.618 55.7864 0.17975 1.86112
359800 60.2689 153.631 55.7864 0.17985 1.68938
360000 60.2689 153.644 55.7864 0.17995 1.27205
360200 60.2689 153.657 55.7864 0.18005 0.740736
360400 60.2689 153.67 55.7864 0.18015 0.2233
360600 60.2689 153.683 55.7864 0.18025 -0.310787
360800 60.2689 153.696 55.7864 0.18035 -0.758885
361000 60.2689 153.709 55.7864 0.18045 -1.164
361200 60.2689 153.722 55.7864 0.18055 -1.39464
361400 60.2689 153.735 55.7864 0.18065 -1.55447
361600 60.2689 153.748 55.7864 0.18075 -1.54417
361800 60.2689 153.761 55.7864 0.18085 -1.47107
362000 60.2689 153.774 55.7864 0.18095 -1.2042
362200 60.2689 153.787 55.7864 0.18105 -0.905896
362400 60.2689 153.8 55.7864 0.18115 -0.463807
362600 60.2689 153.813 55.7864 0.18125 0.0296879
362800 60.2689 153.826 55.7864 0.18135 0.51898
363000 60.2689 153.839 55.7864 0.18145 1.03713
363200 60.2689 153.852 55.7864 0.18155 1.45636
363400 60.2689 153.865 55.7864 0.18165 1.70738
363600 60.2689 153.878 55.7864 0.18175 1.75643
363800 60.2689 153.891 55.7864 0.18185 1.62814
364000 60.2689 153.904 55.7864 0.18195 1.27692
364200 60.2689 153.917 55.7864 0.18205 0.819055
364400 60.2689 153.93 55.7864 0.18215 0.300474
364600 60.2689 153.944 55.7864 0.18225 -0.213497
364800 60.2689 153.957 55.7864 0.18235 -0.665638
365000 60.2689 153.97 55.7864 0.18245 -1.01782
365200 60.2689 153.983 55.7864 0.18255 -1.28463
365400 60.2689 153.996 55.7864 0.18265 -1.4349
365600 60.2689 154.009 55.7864 0.18275 -1.49225
365800 60.2689 154.022 55.7864 0.18285 -1.40952
366000 60.2689 154.035 55.7864 0.18295 -1.20099
366200 60.2689 154.048 55.7864 0.18305 -0.902947
366400 60.2689 154.061 55.7864 0.18315 -0.508523
366600 60.2689 154.074 55.7864 0.18325 -0.0451045
366800 60.2689 154.087 55.7864 0.18335 0.465904
367000 60.2689 154.1 55.7864 0.18345 0.936765
367200 60.2689 154.113 55.7864 0.18355 1.31862
367400 60.2689 154.126 55.7864 0.18365 1.57668
367600 60.2689 154.139 55.7864 0.18375 1.66799
367800 60.2689 154.152 55.7864 0.18385 1.56249
368000 60.2689 154.165 55.7864 0.18395 1.26578
368200 60.2689 154.178 55.7864 0.18405 0.854113
368400 60.2689 154.191 55.7864 0.18415 0.340333
368600 60.2689 154.204 55.7864 0.18425 -0.153374
368800 60.2689 154.217 55.7864 0.18435 -0.571493
369000 60.2689 154.23 55.7864 0.18445 -0.961558
369200 60.2689 154.243 55.7864 0.18455 -1.18641
369400 60.2689 154.256 55.7864 0.18465 -1.3586
369600 60.2689 154.269 55.7864 0.18475 -1.4011
369800 60.2689 154.282 55.7864 0.18485 -1.36737
370000 60.2689 154.295 55.7864 0.18495 -1.16892
370200 60.2689 154.308 55.7864 0.18505 -0.904199
370400 60.2689 154.321 55.7864 0.18515 -0.519648
370600 60.2689 154.334 55.7864 0.18525 -0.0918599
370800 60.2689 154.347 55.7864 0.18535 0.37981
371000 60.2689 154.36 55.7864 0.18545 0.849546
371200 60.2689 154.373 55.7864 0.18555 1.25152
371400 60.2689 154.386 55.7864 0.18565 1.48992
371600 60.2689 154.399 55.7864 0.18575 1.56224
371800 60.2689 154.412 55.7864 0.18585 1.50062
372000 60.2689 154.425 55.7864 0.18595 1.25431
372200 60.2689 154.438 55.7864 0.18605 0.836131
372400 60.2689 154.451 55.7864 0.18615 0.386739
372600 60.2689 154.464 55.7864 0.18625 -0.0863602
372800 60.2689 154.477 55.7864 0.18635 -0.519494
373000 60.2689 154.49 55.7864 0.18645 -0.860782
373200 60.2689 154.503 55.7864 0.18655 -1.13822
373400 60.2689 154.516 55.7864 0.18665 -1.30231
373600 60.2689 154.529 55.7864 0.18675 -1.35938
373800 60.2689 154.542 55.7864 0.18685 -1.29044
374000 60.2689 154.556 55.7864 0.18695 -1.14336
374200 60.2689 154.569 55.7864 0.18705 -0.88166
374400 60.2689 154.582 55.7864 0.18715 -0.518729
374600 60.2689 154.595 55.7864 0.18725 -0.118648
374800 60.2689 154.608 55.7864 0.18735 0.327345
375000 60.2689 154.621 55.7864 0.18745 0.803877
375200 60.2689 154.634 55.7864 0.18755 1.14805
375400 60.2689 154.647 55.7864 0.18765 1.43857
375600 60.2689 154.66 55.7864 0.18775 1.51214
375800 60.2689 154.673 55.7864 0.18785 1.4373
376000 60.2689 154.686 55.7864 0.18795 1.19207
376200 60.2689 154.699 55.7864 0.18805 0.805334
376400 60.2689 154.712 55.7864 0.18815 0.387502
376600 60.2689 154.725 55.7864 0.18825 -0.0475058
376800 60.2689 154.738 55.7864 0.18835 -0.471055
377000 60.2689 154.751 55.7864 0.18845 -0.815196
377200 60.2689 154.764 55.7864 0.18855 -1.07615
377400 60.2689 154.777 55.7864 0.18865 -1.25877
377600 60.2689 154.79 55.7864 0.18875 -1.30406
377800 60.2689 154.803 55.7864 0.18885 -1.24157
378000 60.2689 154.816 55.7864 0.18895 -1.06966
378200 60.2689 154.829 55.7864 0.18905 -0.856818
378400 60.2689 154.842 55.7864 0.18915 -0.510745
378600 60.2689 154.855 55.7864 0.18925 -0.121948
378800 60.2689 154.868 55.7864 0.18935 0.304502
379000 60.2689 154.881 55.7864 0.18945 0.724513
379200 60.2689 154.894 55.7864 0.18955 1.1185
379400 60.2689 154.907 55.7864 0.18965 1.34273
379600 60.2689 154.92 55.7864 0.18975 1.43438
379800 60.2689 154.933 55.7864 0.18985 1.37853
380000 60.2689 154.946 55.7864 0.18995 1.1435
380200 60.2689 154.959 55.7864 0.19005 0.783881
380400 60.2689 154.972 55.7864 0.19015 0.411567
380600 60.2689 154.985 55.7864 0.19025 -0.038442
380800 60.2689 154.998 55.7864 0.19035 -0.418739
381000 60.2689 155.011 55.7864 0.19045 -0.779701
381200 60.2689 155.024 55.7864 0.19055 -1.02134
381400 60.2689 155.037 55.7864 0.19065 -1.17451
381600 60.2689 155.05 55.7864 0.19075 -1.26166
381800 60.2689 155.063 55.7864 0.19085 -1.22812
382000 60.2689 155.076 55.7864 0.19095 -1.04821
382200 60.2689 155.089 55.7864 0.19105 -0.836468
382400 60.2689 155.102 55.7864 0.19115 -0.512241
382600 60.2689 155.115 55.7864 0.19125 -0.130265
382800 60.2689 155.128 55.7864 0.19135 0.298139
383000 60.2689 155.141 55.7864 0.19145 0.682768
383200 60.2689 155.154 55.7864 0.19155 1.04743
383400 60.2689 155.168 55.7864 0.19165 1.31224
383600 60.2689 155.181 55.7864 0.19175 1.4111
383800 60.2689 155.194 55.7864 0.19185 1.32916
384000 60.2689 155.207 55.7864 0.19195 1.1245
384200 60.2689 155.22 55.7864 0.19205 0.789507
384400 60.2689 155.233 55.7864 0.19215 0.370986
384600 60.2689 155.246 55.7864 0.19225 -0.0234903
384800 60.2689 155.259 55.7864 0.19235 -0.411545
385000 60.2689 155.272 55.7864 0.19245 -0.71486
385200 60.2689 155.285 55.7864 0.19255 -1.00626
385400 60.2689 155.298 55.7864 0.19265 -1.14899
385600 60.2689 155.311 55.7864 0.19275 -1.23101
385800 60.2689 155.324 55.7864 0.19285 -1.17772
386000 60.2689 155.337 55.7864 0.19295 -1.01224
386200 60.2689 155.35 55.7864 0.19305 -0.776912
386400 60.2689 155.363 55.7864 0.19315 -0.494831
386600 60.2689 155.376 55.7864 0.19325 -0.12005
386800 60.2689 155.389 55.7864 0.19335 0.289211
387000 60.2689 155.402 55.7864 0.19345 0.669618
387200 60.2689 155.415 55.7864 0.19355 0.989572
387400 60.2689 155.428 55.7864 0.19365 1.25026
387600 60.2689 155.441 55.7864 0.19375 1.33729
387800 60.2689 155.454 55.7864 0.19385 1.30898
388000 60.2689 155.467 55.7864 0.19395 1.05668
388200 60.2689 155.48 55.7864 0.19405 0.759216
388400 60.2689 155.493 55.7864 0.19415 0.371681
388600 60.2689 155.506 55.7864 0.19425 -0.0239538
388800 60.2689 155.519 55.7864 0.19435 -0.392151
389000 60.2689 155.532 55.7864 0.19445 -0.714621
389200 60.2689 155.545 55.7864 0.19455 -0.966062
389400 60.2689 155.558 55.7864 0.19465 -1.1095
389600 60.2689 155.571 55.7864 0.19475 -1.15124
389800 60.2689 155.584 55.7864 0.19485 -1.13286
390000 60.2689 155.597 55.7864 0.19495 -1.00685
390200 60.2689 155.61 55.7864 0.19505 -0.783197
390400 60.2689 155.623 55.7864 0.19515 -0.441371
390600 60.2689 155.636 55.7864 0.19525 -0.116045
390800 60.2689 155.649 55.7864 0.19535 0.280004
391000 60.2689 155.662 55.7864 0.19545 0.678934
391200 60.2689 155.675 55.7864 0.19555 0.974408
391400 60.2689 155.688 55.7864 0.19565 1.18942
391600 60.2689 155.701 55.7864 0.19575 1.28793
391800 60.2689 155.714 55.7864 0.19585 1.24162
392000 60.2689 155.727 55.7864 0.19595 1.032
392200 60.2689 155.74 55.7864 0.19605 0.715747
392400 60.2689 155.753 55.7864 0.19615 0.377891
392600 60.2689 155.766 55.7864 0.19625 -0.0476815
392800 60.2689 155.78 55.7864 0.19635 -0.386055
393000 60.2689 155.793 55.7864 0.19645 -0.708888
393200 60.2689 155.806 55.7864 0.19655 -0.937148
393400 60.2689 155.819 55.7864 0.19665 -1.05348
393600 60.2689 155.832 55.7864 0.19675 -1.10959
393800 60.2689 155.845 55.7864 0.19685 -1.09496
394000 60.2689 155.858 55.7864 0.19695 -0.952059
394200 60.2689 155.871 55.7864 0.19705 -0.759623
394400 60.2689 155.884 55.7864 0.19715 -0.439601
394600 60.2689 155.897 55.7864 0.19725 -0.109036
394800 60.2689 155.91 55.7864 0.19735 0.296595
395000 60.2689 155.923 55.7864 0.19745 0.657332
395200 60.2689 155.936 55.7864 0.19755 0.95386
395400 60.2689 155.949 55.7864 0.19765 1.16429
395600 60.2689 155.962 55.7864 0.19775 1.25095
395800 60.2689 155.975 55.7864 0.19785 1.18062
396000 60.2689 155.988 55.7864 0.19795 0.980194
396200 60.2689 156.001 55.7864 0.19805 0.69772
396400 60.2689 156.014 55.7864 0.19815 0.335007
396600 60.2689 156.027 55.7864 0.19825 -0.0274162
396800 60.2689 156.04 55.7864 0.19835 -0.403731
397000 60.2689 156.053 55.7864 0.19845 -0.676986
397200 60.2689 156.066 55.7864 0.19855 -0.918368
397400 60.2689 156.079 55.7864 0.19865 -1.04633
397600 60.2689 156.092 55.7864 0.19875 -1.10678
397800 60.2689 156.105 55.7864 0.19885 -1.06436
398000 60.2689 156.118 55.7864 0.19895 -0.888643
398200 60.2689 156.131 55.7864 0.19905 -0.684858
398400 60.2689 156.144 55.7864 0.19915 -0.432472
398600 60.2689 156.157 55.7864 0.19925 -0.0841249
398800 60.2689 156.17 55.7864 0.19935 0.310384
399000 60.2689 156.183 55.7864 0.19945 0.652326
399200 60.2689 156.196 55.7864 0.19955 0.927295
399400 60.2689 156.209 55.7864 0.19965 1.15804
399600 60.2689 156.222 55.7864 0.19975 1.18427
399800 60.2689 156.235 55.7864 0.19985 1.13849
400000 60.2689 156.248 55.7864 0.19995 0.946075
400200 60.2689 156.261 55.7864 0.20005 0.648158
400400 60.2689 156.274 55.7864 0.20015 0.298352
400600 60.2689 156.287 55.7864 0.20025 -0.0489159
400800 60.2689 156.3 55.7864 0.20035 -0.372563
401000 60.2689 156.313 55.7864 0.20045 -0.72672
401200 60.2689 156.326 55.7864 0.20055 -0.867013
401400 60.2689 156.339 55.7864 0.20065 -1.00251
401600 60.2689 156.352 55.7864 0.20075 -1.07669
401800 60.2689 156.365 55.7864 0.20085 -1.02168
402000 60.2689 156.378 55.7864 0.20095 -0.891818
402200 60.2689 156.392 55.7864 0.20105 -0.654031
402400 60.2689 156.405 55.7864 0.20115 -0.385922
402600 60.2689 156.418 55.7864 0.20125 -0.0400516
402800 60.2689 156.431 55.7864 0.20135 0.295686
403000 60.2689 156.444 55.7864 0.20145 0.623196
403200 60.2689 156.457 55.7864 0.20155 0.934854
403400 60.2689 156.47 55.7864 0.20165 1.09771
403600 60.2689 156.483 55.7864 0.20175 1.17999
403800 60.2689 156.496 55.7864 0.20185 1.11127
404000 60.2689 156.509 55.7864 0.20195 0.906907
404200 60.2689 156.522 55.7864 0.20205 0.60834
404400 60.2689 156.535 55.7864 0.20215 0.279039
404600 60.2689 156.548 55.7864 0.20225 -0.0508891
404800 60.2689 156.561 55.7864 0.20235 -0.39497
405000 60.2689 156.574 55.7864 0.20245 -0.676968
405200 60.2689 156.587 55.7864 0.20255 -0.873314
405400 60.2689 156.6 55.7864 0.20265 -0.972467
405600 60.2689 156.613 55.7864 0.20275 -1.03996
405800 60.2689 156.626 55.7864 0.20285 -0.986274
406000 60.2689 156.639 55.7864 0.20295 -0.836479
406200 60.2689 156.652 55.7864 0.20305 -0.641535
406400 60.2689 156.665 55.7864 0.20315 -0.352141
406600 60.2689 156.678 55.7864 0.20325 -0.0513926
406800 60.2689 156.691 55.7864 0.20335 0.328083
407000 60.2689 156.704 55.7864 0.20345 0.643799
407200 60.2689 156.717 55.7864 0.20355 0.900246
407400 60.2689 156.73 55.7864 0.20365 1.0666
407600 60.2689 156.743 55.7864 0.20375 1.13037
407800 60.2689 156.756 55.7864 0.20385 1.07125
408000 60.2689 156.769 55.7864 0.20395 0.863464
408200 60.2689 156.782 55.7864 0.20405 0.582153
408400 60.2689 156.795 55.7864 0.20415 0.249596
408600 60.2689 156.808 55.7864 0.20425 -0.0644744
408800 60.2689 156.821 55.7864 0.20435 -0.396261
409000 60.2689 156.834 55.7864 0.20445 -0.684841
409200 60.2689 156.847 55.7864 0.20455 -0.861965
409400 60.2689 156.86 55.7864 0.20465 -0.964767
409600 60.2689 156.873 55.7864 0.20475 -1.01342
409800 60.2689 156.886 55.7864 0.20485 -0.949614
410000 60.2689 156.899 55.7864 0.20495 -0.826767
410200 60.2689 156.912 55.7864 0.20505 -0.606961
410400 60.2689 156.925 55.7864 0.20515 -0.334436
410600 60.2689 156.938 55.7864 0.20525 0.00802522
410800 60.2689 156.951 55.7864 0.20535 0.323864
411000 60.2689 156.964 55.7864 0.20545 0.643368
411200 60.2689 156.977 55.7864 0.20555 0.888106
411400 60.2689 156.99 55.7864 0.20565 1.06182
411600 60.2689 157.004 55.7864 0.20575 1.0984
411800 60.2689 157.017 55.7864 0.20585 1.02588
412000 60.2689 157.03 55.7864 0.20595 0.828449
412200 60.2689 157.043 55.7864 0.20605 0.56935
412400 60.2689 157.056 55.7864 0.20615 0.247999
412600 60.2689 157.069 55.7864 0.20625 -0.0932321
412800 60.2689 157.082 55.7864 0.20635 -0.41488
413000 60.2689 157.095 55.7864 0.20645 -0.653739
413200 60.2689 157.108 55.7864 0.20655 -0.821004
413400 60.2689 157.121 55.7864 0.20665 -0.963394
413600 60.2689 157.134 55.7864 0.20675 -1.00288
413800 60.2689 157.147 55.7864 0.20685 -0.938082
414000 60.2689 157.16 55.7864 0.20695 -0.768443
414200 60.2689 157.173 55.7864 0.20705 -0.552274
414400 60.2689 157.186 55.7864 0.20715 -0.322035
414600 60.2689 157.199 55.7864 0.20725 0.00298094
414800 60.2689 157.212 55.7864 0.20735 0.333887
415000 60.2689 157.225 55.7864 0.20745 0.612931
415200 60.2689 157.238 55.7864 0.20755 0.873066
415400 60.2689 157.251 55.7864 0.20765 1.03175
415600 60.2689 157.264 55.7864 0.20775 1.07461
415800 60.2689 157.277 55.7864 0.20785 1.00974
416000 60.2689 157.29 55.7864 0.20795 0.788144
416200 60.2689 157.303 55.7864 0.20805 0.529103
416400 60.2689 157.316 55.7864 0.20815 0.206452
416600 60.2689 157.329 55.7864 0.20825 -0.111055
416800 60.2689 157.342 55.7864 0.20835 -0.366435
417000 60.2689 157.355 55.7864 0.20845 -0.65265
417200 60.2689 157.368 55.7864 0.20855 -0.836342
417400 60.2689 157.381 55.7864 0.20865 -0.929767
417600 60.2689 157.394 55.7864 0.20875 -0.949256
417800 60.2689 157.407 55.7864 0.20885 -0.92599
418000 60.2689 157.42 55.7864 0.20895 -0.747592
418200 60.2689 157.433 55.7864 0.20905 -0.548733
418400 60.2689 157.446 55.7864 0.20915 -0.263668
418600 60.2689 157.459 55.7864 0.20925 0.039816
418800 60.2689 157.472 55.7864 0.20935 0.312105
419000 60.2689 157.485 55.7864 0.20945 0.634434
419200 60.2689 157.498 55.7864 0.20955 0.875086
419400 60.2689 157.511 55.7864 0.20965 0.989356
419600 60.2689 157.524 55.7864 0.20975 1.02959
419800 60.2689 157.537 55.7864 0.20985 0.966059
420000 60.2689 157.55 55.7864 0.20995 0.794573
420200 60.2689 157.563 55.7864 0.21005 0.474525
420400 60.2689 157.576 55.7864 0.21015 0.186218
420600 60.2689 157.589 55.7864 0.21025 -0.132985
420800 60.2689 157.602 55.7864 0.21035 -0.411213
421000 60.2689 157.615 55.7864 0.21045 -0.624759
421200 60.2689 157.629 55.7864 0.21055 -0.822676
421400 60.2689 157.642 55.7864 0.21065 -0.89035
421600 60.2689 157.655 55.7864 0.21075 -0.926279
421800 60.2689 157.668 55.7864 0.21085 -0.871415
422000 60.2689 157.681 55.7864 0.21095 -0.721036
422200 60.2689 157.694 55.7864 0.21105 -0.515032
422400 60.2689 157.707 55.7864 0.21115 -0.29087
422600 60.2689 157.72 55.7864 0.21125 0.0406403
422800 60.2689 157.733 55.7864 0.21135 0.351983
423000 60.2689 157.746 55.7864 0.21145 0.639112
423200 60.2689 157.759 55.7864 0.21155 0.816981
423400 60.2689 157.772 55.7864 0.21165 0.999483
423600 60.2689 157.785 55.7864 0.21175 1.00196
423800 60.2689 157.798 55.7864 0.21185 0.920035
424000 60.2689 157.811 55.7864 0.21195 0.74441
424200 60.2689 157.824 55.7864 0.21205 0.480311
424400 60.2689 157.837 55.7864 0.21215 0.191349
424600 60.2689 157.85 55.7864 0.21225 -0.108282
424800 60.2689 157.863 55.7864 0.21235 -0.43221
425000 60.2689 157.876 55.7864 0.21245 -0.64946
425200 60.2689 157.889 55.7864 0.21255 -0.793325
425400 60.2689 157.902 55.7864 0.21265 -0.88939
425600 60.2689 157.915 55.7864 0.21275 -0.883908
425800 60.2689 157.928 55.7864 0.21285 -0.827223
426000 60.2689 157.941 55.7864 0.21295 -0.714565
426200 60.2689 157.954 55.7864 0.21305 -0.508035
426400 60.2689 157.967 55.7864 0.21315 -0.229083
426600 60.2689 157.98 55.7864 0.21325 0.0550275
426800 60.2689 157.993 55.7864 0.21335 0.339696
427000 60.2689 158.006 55.7864 0.21345 0.617515
427200 60.2689 158.019 55.7864 0.21355 0.839961
427400 60.2689 158.032 55.7864 0.21365 0.955623
427600 60.2689 158.045 55.7864 0.21375 0.993764
427800 60.2689 158.058 55.7864 0.21385 0.877938
428000 60.2689 158.071 55.7864 0.21395 0.697514
428200 60.2689 158.084 55.7864 0.21405 0.446259
428400 60.2689 158.097 55.7864 0.21415 0.172508
428600 60.2689 158.11 55.7864 0.21425 -0.126836
428800 60.2689 158.123 55.7864 0.21435 -0.41996
429000 60.2689 158.136 55.7864 0.21445 -0.621768
429200 60.2689 158.149 55.7864 0.21455 -0.787044
429400 60.2689 158.162 55.7864 0.21465 -0.895144
429600 60.2689 158.175 55.7864 0.21475 -0.884349
429800 60.2689 158.188 55.7864 0.21485 -0.807006
430000 60.2689 158.201 55.7864 0.21495 -0.672283
430200 60.2689 158.214 55.7864 0.21505 -0.441116
430400 60.2689 158.227 55.7864 0.21515 -0.223468
430600 60.2689 158.241 55.7864 0.21525 0.0556361
430800 60.2689 158.254 55.7864 0.21535 0.366581
431000 60.2689 158.267 55.7864 0.21545 0.60229
431200 60.2689 158.28 55.7864 0.21555 0.830232
431400 60.2689 158.293 55.7864 0.21565 0.955289
431600 60.2689 158.306 55.7864 0.21575 0.983154
431800 60.2689 158.319 55.7864 0.21585 0.848099
432000 60.2689 158.332 55.7864 0.21595 0.650668
432200 60.2689 158.345 55.7864 0.21605 0.41714
432400 60.2689 158.358 55.7864 0.21615 0.136778
432600 60.2689 158.371 55.7864 0.21625 -0.137216
432800 60.2689 158.384 55.7864 0.21635 -0.404534
433000 60.2689 158.397 55.7864 0.21645 -0.640391
433200 60.2689 158.41 55.7864 0.21655 -0.752295
433400 60.2689 158.423 55.7864 0.21665 -0.865415
433600 60.2689 158.436 55.7864 0.21675 -0.883911
433800 60.2689 158.449 55.7864 0.21685 -0.777668
434000 60.2689 158.462 55.7864 0.21695 -0.656211
434200 60.2689 158.475 55.7864 0.21705 -0.424586
434400 60.2689 158.488 55.7864 0.21715 -0.169135
434600 60.2689 158.501 55.7864 0.21725 0.0928064
434800 60.2689 158.514 55.7864 0.21735 0.38109
435000 60.2689 158.527 55.7864 0.21745 0.603543
435200 60.2689 158.54 55.7864 0.21755 0.807532
435400 60.2689 158.553 55.7864 0.21765 0.942463
435600 60.2689 158.566 55.7864 0.21775 0.909167
435800 60.2689 158.579 55.7864 0.21785 0.828075
436000 60.2689 158.592 55.7864 0.21795 0.635977
436200 60.2689 158.605 55.7864 0.21805 0.40354
436400 60.2689 158.618 55.7864 0.21815 0.0925323
436600 60.2689 158.631 55.7864 0.21825 -0.153918
436800 60.2689 158.644 55.7864 0.21835 -0.45265
437000 60.2689 158.657 55.7864 0.21845 -0.628791
437200 60.2689 158.67 55.7864 0.21855 -0.782934
437400 60.2689 158.683 55.7864 0.21865 -0.826912
437600 60.2689 158.696 55.7864 0.21875 -0.841769
437800 60.2689 158.709 55.7864 0.21885 -0.769934
438000 60.2689 158.722 55.7864 0.21895 -0.625804
438200 60.2689 158.735 55.7864 0.21905 -0.393257
438400 60.2689 158.748 55.7864 0.21915 -0.150207
438600 60.2689 158.761 55.7864 0.21925 0.14439
438800 60.2689 158.774 55.7864 0.21935 0.389504
439000 60.2689 158.787 55.7864 0.21945 0.634465
439200 60.2689 158.8 55.7864 0.21955 0.833945
439400 60.2689 158.813 55.7864 0.21965 0.895897
439600 60.2689 158.826 55.7864 0.21975 0.914461
439800 60.2689 158.839 55.7864 0.21985 0.770302
440000 60.2689 158.853 55.7864 0.21995 0.636714
440200 60.2689 158.866 55.7864 0.22005 0.363656
440400 60.2689 158.879 55.7864 0.22015 0.0459385
440600 60.2689 158.892 55.7864 0.22025 -0.198854
440800 60.2689 158.905 55.7864 0.22035 -0.422258
441000 60.2689 158.918 55.7864 0.22045 -0.657821
441200 60.2689 158.931 55.7864 0.22055 -0.768468
441400 60.2689 158.944 55.7864 0.22065 -0.828599
441600 60.2689 158.957 55.7864 0.22075 -0.825997
441800 60.2689 158.97 55.7864 0.22085 -0.753009
442000 60.2689 158.983 55.7864 0.22095 -0.601802
442200 60.2689 158.996 55.7864 0.22105 -0.382447
442400 60.2689 159.009 55.7864 0.22115 -0.144294
442600 60.2689 159.022 55.7864 0.22125 0.154029
442800 60.2689 159.035 55.7864 0.22135 0.449392
443000 60.2689 159.048 55.7864 0.22145 0.641682
443200 60.2689 159.061 55.7864 0.22155 0.826779
443400 60.2689 159.074 55.7864 0.22165 0.89309
443600 60.2689 159.087 55.7864 0.22175 0.874483
443800 60.2689 159.1 55.7864 0.22185 0.762066
444000 60.2689 159.113 55.7864 0.22195 0.584671
444200 60.2689 159.126 55.7864 0.22205 0.333748
444400 60.2689 159.139 55.7864 0.22215 0.0416422
444600 60.2689 159.152 55.7864 0.22225 -0.209191
444800 60.2689 159.165 55.7864 0.22235 -0.466809
445000 60.2689 159.178 55.7864 0.22245 -0.63712
445200 60.2689 159.191 55.7864 0.22255 -0.771213
445400 60.2689 159.204 55.7864 0.22265 -0.811308
445600 60.2689 159.217 55.7864 0.22275 -0.818992
445800 60.2689 159.23 55.7864 0.22285 -0.72304
446000 60.2689 159.243 55.7864 0.22295 -0.553306
446200 60.2689 159.256 55.7864 0.22305 -0.346392
446400 60.2689 159.269 55.7864 0.22315 -0.0855757
446600 60.2689 159.282 55.7864 0.22325 0.165024
446800 60.2689 159.295 55.7864 0.22335 0.43335
447000 60.2689 159.308 55.7864 0.22345 0.652771
447200 60.2689 159.321 55.7864 0.22355 0.824323
447400 60.2689 159.334 55.7864 0.22365 0.887164
447600 60.2689 159.347 55.7864 0.22375 0.862897
447800 60.2689 159.36 55.7864 0.22385 0.724767
448000 60.2689 159.373 55.7864 0.22395 0.551112
448200 60.2689 159.386 55.7864 0.22405 0.271331
448400 60.2689 159.399 55.7864 0.22415 0.0309856
448600 60.2689 159.412 55.7864 0.22425 -0.238977
448800 60.2689 159.425 55.7864 0.22435 -0.486172
449000 60.2689 159.438 55.7864 0.22445 -0.649736
449200 60.2689 159.451 55.7864 0.22455 -0.764877
449400 60.2689 159.465 55.7864 0.22465 -0.784169
449600 60.2689 159.478 55.7864 0.22475 -0.776198
449800 60.2689 159.491 55.7864 0.22485 -0.680544
450000 60.2689 159.504 55.7864 0.22495 -0.534121
450200 60.2689 159.517 55.7864 0.22505 -0.314196
450400 60.2689 159.53 55.7864 0.22515 -0.0790469
450600 60.2689 159.543 55.7864 0.22525 0.212938
450800 60.2689 159.556 55.7864 0.22535 0.462845
451000 60.2689 159.569 55.7864 0.22545 0.648804
451200 60.2689 159.582 55.7864 0.22555 0.82237
451400 60.2689 159.595 55.7864 0.22565 0.845435
451600 60.2689 159.608 55.7864 0.22575 0.79824
451800 60.2689 159.621 55.7864 0.22585 0.715228
452000 60.2689 159.634 55.7864 0.22595 0.50876
452200 60.2689 159.647 55.7864 0.22605 0.263032
452400 60.2689 159.66 55.7864 0.22615 -0.00314426
452600 60.2689 159.673 55.7864 0.22625 -0.268727
452800 60.2689 159.686 55.7864 0.22635 -0.47731
453000 60.2689 159.699 55.7864 0.22645 -0.671165
453200 60.2689 159.712 55.7864 0.22655 -0.737122
453400 60.2689 159.725 55.7864 0.22665 -0.770165
453600 60.2689 159.738 55.7864 0.22675 -0.754508
453800 60.2689 159.751 55.7864 0.22685 -0.649463
454000 60.2689 159.764 55.7864 0.22695 -0.498905
454200 60.2689 159.777 55.7864 0.22705 -0.288331
454400 60.2689 159.79 55.7864 0.22715 -0.0362153
454600 60.2689 159.803 55.7864 0.22725 0.219432
454800 60.2689 159.816 55.7864 0.22735 0.454961
455000 60.2689 159.829 55.7864 0.22745 0.667399
455200 60.2689 159.842 55.7864 0.22755 0.809997
455400 60.2689 159.855 55.7864 0.22765 0.835051
455600 60.2689 159.868 55.7864 0.22775 0.793886
455800 60.2689 159.881 55.7864 0.22785 0.673537
456000 60.2689 159.894 55.7864 0.22795 0.465591
456200 60.2689 159.907 55.7864 0.22805 0.206958
456400 60.2689 159.92 55.7864 0.22815 -0.0530107
456600 60.2689 159.933 55.7864 0.22825 -0.262311
456800 60.2689 159.946 55.7864 0.22835 -0.474098
457000 60.2689 159.959 55.7864 0.22845 -0.644714
457200 60.2689 159.972 55.7864 0.22855 -0.744022
457400 60.2689 159.985 55.7864 0.22865 -0.771272
457600 60.2689 159.998 55.7864 0.22875 -0.771168
457800 60.2689 160.011 55.7864 0.22885 -0.606464
458000 60.2689 160.024 55.7864 0.22895 -0.439407
458200 60.2689 160.037 55.7864 0.22905 -0.242093
458400 60.2689 160.05 55.7864 0.22915 4.84561e-05
458600 60.2689 160.063 55.7864 0.22925 0.231971
458800 60.2689 160.077 55.7864 0.22935 0.477147
459000 60.2689 160.09 55.7864 0.22945 0.668865
459200 60.2689 160.103 55.7864 0.22955 0.807076
459400 60.2689 160.116 55.7864 0.22965 0.835185
459600 60.2689 160.129 55.7864 0.22975 0.778557
459800 60.2689 160.142 55.7864 0.22985 0.621062
460000 60.2689 160.155 55.7864 0.22995 0.418479
460200 60.2689 160.168 55.7864 0.23005 0.173725
460400 60.2689 160.181 55.7864 0.23015 -0.0606223
460600 60.2689 160.194 55.7864 0.23025 -0.303004
460800 60.2689 160.207 55.7864 0.23035 -0.497678
461000 60.2689 160.22 55.7864 0.23045 -0.628013
461200 60.2689 160.233 55.7864 0.23055 -0.764005
461400 60.2689 160.246 55.7864 0.23065 -0.760309
461600 60.2689 160.259 55.7864 0.23075 -0.719462
461800 60.2689 160.272 55.7864 0.23085 -0.600627
462000 60.2689 160.285 55.7864 0.23095 -0.447281
462200 60.2689 160.298 55.7864 0.23105 -0.192283
462400 60.2689 160.311 55.7864 0.23115 0.0279935
462600 60.2689 160.324 55.7864 0.23125 0.277405
462800 60.2689 160.337 55.7864 0.23135 0.481786
463000 60.2689 160.35 55.7864 0.23145 0.667953
463200 60.2689 160.363 55.7864 0.23155 0.797785
463400 60.2689 160.376 55.7864 0.23165 0.818989
463600 60.2689 160.389 55.7864 0.23175 0.74141
463800 60.2689 160.402 55.7864 0.23185 0.632806
464000 60.2689 160.415 55.7864 0.23195 0.376719
464200 60.2689 160.428 55.7864 0.23205 0.132734
464400 60.2689 160.441 55.7864 0.23215 -0.0712984
464600 60.2689 160.454 55.7864 0.23225 -0.333318
464800 60.2689 160.467 55.7864 0.23235 -0.502191
465000 60.2689 160.48 55.7864 0.23245 -0.640319
465200 60.2689 160.493 55.7864 0.23255 -0.750818
465400 60.2689 160.506 55.7864 0.23265 -0.733795
465600 60.2689 160.519 55.7864 0.23275 -0.71024
465800 60.2689 160.532 55.7864 0.23285 -0.553378
466000 60.2689 160.545 55.7864 0.23295 -0.396778
466200 60.2689 160.558 55.7864 0.23305 -0.164339
466400 60.2689 160.571 55.7864 0.23315 0.0553588
466600 60.2689 160.584 55.7864 0.23325 0.293299
466800 60.2689 160.597 55.7864 0.23335 0.515085
467000 60.2689 160.61 55.7864 0.23345 0.672449
467200 60.2689 160.623 55.7864 0.23355 0.76107
467400 60.2689 160.636 55.7864 0.23365 0.815045
467600 60.2689 160.649 55.7864 0.23375 0.728192
467800 60.2689 160.662 55.7864 0.23385 0.567171
468000 60.2689 160.675 55.7864 0.23395 0.350471
468200 60.2689 160.689 55.7864 0.23405 0.101168
468400 60.2689 160.702 55.7864 0.23415 -0.123491
468600 60.2689 160.715 55.7864 0.23425 -0.34115
468800 60.2689 160.728 55.7864 0.23435 -0.520626
469000 60.2689 160.741 55.7864 0.23445 -0.668896
469200 60.2689 160.754 55.7864 0.23455 -0.711917
469400 60.2689 160.767 55.7864 0.23465 -0.704479
469600 60.2689 160.78 55.7864 0.23475 -0.65088
469800 60.2689 160.793 55.7864 0.23485 -0.536778
470000 60.2689 160.806 55.7864 0.23495 -0.377954
470200 60.2689 160.819 55.7864 0.23505 -0.13828
470400 60.2689 160.832 55.7864 0.23515 0.0531614
470600 60.2689 160.845 55.7864 0.23525 0.353305
470800 60.2689 160.858 55.7864 0.23535 0.526469
471000 60.2689 160.871 55.7864 0.23545 0.689634
471200 60.2689 160.884 55.7864 0.23555 0.742945
471400 60.2689 160.897 55.7864 0.23565 0.762326
471600 60.2689 160.91 55.7864 0.23575 0.703588
471800 60.2689 160.923 55.7864 0.23585 0.521924
472000 60.2689 160.936 55.7864 0.23595 0.311705
472200 60.2689 160.949 55.7864 0.23605 0.0906058
472400 60.2689 160.962 55.7864 0.23615 -0.141181
472600 60.2689 160.975 55.7864 0.23625 -0.359777
472800 60.2689 160.988 55.7864 0.23635 -0.528538
473000 60.2689 161.001 55.7864 0.23645 -0.659227
473200 60.2689 161.014 55.7864 0.23655 -0.696443
473400 60.2689 161.027 55.7864 0.23665 -0.689995
473600 60.2689 161.04 55.7864 0.23675 -0.631888
473800 60.2689 161.053 55.7864 0.23685 -0.5221
474000 60.2689 161.066 55.7864 0.23695 -0.331944
474200 60.2689 161.079 55.7864 0.23705 -0.116427
474400 60.2689 161.092 55.7864 0.23715 0.10476
474600 60.2689 161.105 55.7864 0.23725 0.342673
474800 60.2689 161.118 55.7864 0.23735 0.520617
475000 60.2689 161.131 55.7864 0.23745 0.702508
475200 60.2689 161.144 55.7864 0.23755 0.742263
475400 60.2689 161.157 55.7864 0.23765 0.746437
475600 60.2689 161.17 55.7864 0.23775 0.648517
475800 60.2689 161.183 55.7864 0.23785 0.488495
476000 60.2689 161.196 55.7864 0.23795 0.291733
476200 60.2689 161.209 55.7864 0.23805 0.0628279
476400 60.2689 161.222 55.7864 0.23815 -0.17276
476600 60.2689 161.235 55.7864 0.23825 -0.369206
476800 60.2689 161.248 55.7864 0.23835 -0.525043
477000 60.2689 161.261 55.7864 0.23845 -0.651351
477200 60.2689 161.274 55.7864 0.23855 -0.703067
477400 60.2689 161.287 55.7864 0.23865 -0.688789
477600 60.2689 161.301 55.7864 0.23875 -0.608145
477800 60.2689 161.314 55.7864 0.23885 -0.476853
478000 60.2689 161.327 55.7864 0.23895 -0.293024
478200 60.2689 161.34 55.7864 0.23905 -0.0902997
478400 60.2689 161.353 55.7864 0.23915 0.145782
478600 60.2689 161.366 55.7864 0.23925 0.364562
478800 60.2689 161.379 55.7864 0.23935 0.573583
479000 60.2689 161.392 55.7864 0.23945 0.673881
479200 60.2689 161.405 55.7864 0.23955 0.725534
479400 60.2689 161.418 55.7864 0.23965 0.714752
479600 60.2689 161.431 55.7864 0.23975 0.636178
479800 60.2689 161.444 55.7864 0.23985 0.480075
480000 60.2689 161.457 55.7864 0.23995 0.247035
480200 60.2689 161.47 55.7864 0.24005 0.0155978
480400 60.2689 161.483 55.7864 0.24015 -0.200697
480600 60.2689 161.496 55.7864 0.24025 -0.402553
480800 60.2689 161.509 55.7864 0.24035 -0.547131
481000 60.2689 161.522 55.7864 0.24045 -0.641671
481200 60.2689 161.535 55.7864 0.24055 -0.667534
481400 60.2689 161.548 55.7864 0.24065 -0.686719
481600 60.2689 161.561 55.7864 0.24075 -0.5892
481800 60.2689 161.574 55.7864 0.24085 -0.468336
482000 60.2689 161.587 55.7864 0.24095 -0.277225
482200 60.2689 161.6 55.7864 0.24105 -0.0489894
482400 60.2689 161.613 55.7864 0.24115 0.162989
482600 60.2689 161.626 55.7864 0.24125 0.409611
482800 60.2689 161.639 55.7864 0.24135 0.554865
483000 60.2689 161.652 55.7864 0.24145 0.727071
483200 60.2689 161.665 55.7864 0.24155 0.707885
483400 60.2689 161.678 55.7864 0.24165 0.710643
483600 60.2689 161.691 55.7864 0.24175 0.592642
483800 60.2689 161.704 55.7864 0.24185 0.438565
484000 60.2689 161.717 55.7864 0.24195 0.232224
484200 60.2689 161.73 55.7864 0.24205 -0.00617208
484400 60.2689 161.743 55.7864 0.24215 -0.239018
484600 60.2689 161.756 55.7864 0.24225 -0.441678
484800 60.2689 161.769 55.7864 0.24235 -0.576172
485000 60.2689 161.782 55.7864 0.24245 -0.645058
485200 60.2689 161.795 55.7864 0.24255 -0.676762
485400 60.2689 161.808 55.7864 0.24265 -0.63995
485600 60.2689 161.821 55.7864 0.24275 -0.567409
485800 60.2689 161.834 55.7864 0.24285 -0.419988
486000 60.2689 161.847 55.7864 0.24295 -0.222114
486200 60.2689 161.86 55.7864 0.24305 -0.0382446
486400 60.2689 161.873 55.7864 0.24315 0.207648
486600 60.2689 161.886 55.7864 0.24325 0.453613
486800 60.2689 161.899 55.7864 0.24335 0.587777
487000 60.2689 161.913 55.7864 0.24345 0.686364
487200 60.2689 161.926 55.7864 0.24355 0.721634
487400 60.2689 161.939 55.7864 0.24365 0.685262
487600 60.2689 161.952 55.7864 0.24375 0.538865
487800 60.2689 161.965 55.7864 0.24385 0.374902
488000 60.2689 161.978 55.7864 0.24395 0.213848
488200 60.2689 161.991 55.7864 0.24405 -0.0471548
488400 60.2689 162.004 55.7864 0.24415 -0.262805
488600 60.2689 162.017 55.7864 0.24425 -0.445564
488800 60.2689 162.03 55.7864 0.24435 -0.589798
489000 60.2689 162.043 55.7864 0.24445 -0.637475
489200 60.2689 162.056 55.7864 0.24455 -0.664924
489400 60.2689 162.069 55.7864 0.24465 -0.614949
489600 60.2689 162.082 55.7864 0.24475 -0.532139
489800 60.2689 162.095 55.7864 0.24485 -0.374243
490000 60.2689 162.108 55.7864 0.24495 -0.20243
490200 60.2689 162.121 55.7864 0.24505 0.0129969
490400 60.2689 162.134 55.7864 0.24515 0.22494
490600 60.2689 162.147 55.7864 0.24525 0.427675
490800 60.2689 162.16 55.7864 0.24535 0.624935
491000 60.2689 162.173 55.7864 0.24545 0.697338
491200 60.2689 162.186 55.7864 0.24555 0.720615
491400 60.2689 162.199 55.7864 0.24565 0.643527
491600 60.2689 162.212 55.7864 0.24575 0.516521
491800 60.2689 162.225 55.7864 0.24585 0.366822
492000 60.2689 162.238 55.7864 0.24595 0.130724
492200 60.2689 162.251 55.7864 0.24605 -0.0857902
492400 60.2689 162.264 55.7864 0.24615 -0.296438
492600 60.2689 162.277 55.7864 0.24625 -0.427683
492800 60.2689 162.29 55.7864 0.24635 -0.57446
493000 60.2689 162.303 55.7864 0.24645 -0.654321
493200 60.2689 162.316 55.7864 0.24655 -0.656354
493400 60.2689 162.329 55.7864 0.24665 -0.618588
493600 60.2689 162.342 55.7864 0.24675 -0.499717
493800 60.2689 162.355 55.7864 0.24685 -0.355393
494000 60.2689 162.368 55.7864 0.24695 -0.154991
494200 60.2689 162.381 55.7864 0.24705 0.0430184
494400 60.2689 162.394 55.7864 0.24715 0.263378
494600 60.2689 162.407 55.7864 0.24725 0.454631
494800 60.2689 162.42 55.7864 0.24735 0.60644
495000 60.2689 162.433 55.7864 0.24745 0.671159
495200 60.2689 162.446 55.7864 0.24755 0.70498
495400 60.2689 162.459 55.7864 0.24765 0.636536
495600 60.2689 162.472 55.7864 0.24775 0.505239
495800 60.2689 162.485 55.7864 0.24785 0.302374
496000 60.2689 162.498 55.7864 0.24795 0.126
496200 60.2689 162.511 55.7864 0.24805 -0.0864275
496400 60.2689 162.525 55.7864 0.24815 -0.312386
496600 60.2689 162.538 55.7864 0.24825 -0.49857
496800 60.2689 162.551 55.7864 0.24835 -0.571437
497000 60.2689 162.564 55.7864 0.24845 -0.628598
497200 60.2689 162.577 55.7864 0.24855 -0.656682
497400 60.2689 162.59 55.7864 0.24865 -0.593312
497600 60.2689 162.603 55.7864 0.24875 -0.469623
497800 60.2689 162.616 55.7864 0.24885 -0.329923
498000 60.2689 162.629 55.7864 0.24895 -0.120534
498200 60.2689 162.642 55.7864 0.24905 0.0730891
498400 60.2689 162.655 55.7864 0.24915 0.304376
498600 60.2689 162.668 55.7864 0.24925 0.477469
498800 60.2689 162.681 55.7864 0.24935 0.619831
499000 60.2689 162.694 55.7864 0.24945 0.677065
499200 60.2689 162.707 55.7864 0.24955 0.67158
499400 60.2689 162.72 55.7864 0.24965 0.615005
499600 60.2689 162.733 55.7864 0.24975 0.47262
499800 60.2689 162.746 55.7864 0.24985 0.289689
500000 60.2689 162.759 55.7864 0.24995 0.0811426
500200 60.2689 162.772 55.7864 0.25005 -0.144483
500400 60.2689 162.785 55.7864 0.25015 -0.348272
500600 60.2689 162.798 55.7864 0.25025 -0.472499
500800 60.2689 162.811 55.7864 0.25035 -0.584296
501000 60.2689 162.824 55.7864 0.25045 -0.627305
501200 60.2689 162.837 55.7864 0.25055 -0.62503
501400 60.2689 162.85 55.7864 0.25065 -0.569082
501600 60.2689 162.863 55.7864 0.25075 -0.460548
501800 60.2689 162.876 55.7864 0.25085 -0.292642
502000 60.2689 162.889 55.7864 0.25095 -0.0915688
502200 60.2689 162.902 55.7864 0.25105 0.109048
502400 60.2689 162.915 55.7864 0.25115 0.320982
502600 60.2689 162.928 55.7864 0.25125 0.49346
502800 60.2689 162.941 55.7864 0.25135 0.621071
503000 60.2689 162.954 55.7864 0.25145 0.686684
503200 60.2689 162.967 55.7864 0.25155 0.640767
503400 60.2689 162.98 55.7864 0.25165 0.577985
503600 60.2689 162.993 55.7864 0.25175 0.424308
503800 60.2689 163.006 55.7864 0.25185 0.250993
504000 60.2689 163.019 55.7864 0.25195 0.0470429
504200 60.2689 163.032 55.7864 0.25205 -0.146112
504400 60.2689 163.045 55.7864 0.25215 -0.346281
504600 60.2689 163.058 55.7864 0.25225 -0.49507
504800 60.2689 163.071 55.7864 0.25235 -0.606436
505000 60.2689 163.084 55.7864 0.25245 -0.61473
505200 60.2689 163.097 55.7864 0.25255 -0.58836
505400 60.2689 163.11 55.7864 0.25265 -0.541939
505600 60.2689 163.123 55.7864 0.25275 -0.430502
505800 60.2689 163.136 55.7864 0.25285 -0.246997
506000 60.2689 163.15 55.7864 0.25295 -0.0658032
506200 60.2689 163.163 55.7864 0.25305 0.152725
506400 60.2689 163.176 55.7864 0.25315 0.305453
506600 60.2689 163.189 55.7864 0.25325 0.518537
506800 60.2689 163.202 55.7864 0.25335 0.620827
507000 60.2689 163.215 55.7864 0.25345 0.671886
507200 60.2689 163.228 55.7864 0.25355 0.646597
507400 60.2689 163.241 55.7864 0.25365 0.53916
507600 60.2689 163.254 55.7864 0.25375 0.389106
507800 60.2689 163.267 55.7864 0.25385 0.200805
508000 60.2689 163.28 55.7864 0.25395 0.00882366
508200 60.2689 163.293 55.7864 0.25405 -0.191789
508400 60.2689 163.306 55.7864 0.25415 -0.339437
508600 60.2689 163.319 55.7864 0.25425 -0.50385
508800 60.2689 163.332 55.7864 0.25435 -0.584017
509000 60.2689 163.345 55.7864 0.25445 -0.621071
509200 60.2689 163.358 55.7864 0.25455 -0.588147
509400 60.2689 163.371 55.7864 0.25465 -0.487247
509600 60.2689 163.384 55.7864 0.25475 -0.41141
509800 60.2689 163.397 55.7864 0.25485 -0.224459
510000 60.2689 163.41 55.7864 0.25495 -0.0113124
510200 60.2689 163.423 55.7864 0.25505 0.162433
510400 60.2689 163.436 55.7864 0.25515 0.377671
510600 60.2689 163.449 55.7864 0.25525 0.499425
510800 60.2689 163.462 55.7864 0.25535 0.619857
511000 60.2689 163.475 55.7864 0.25545 0.656985
511200 60.2689 163.488 55.7864 0.25555 0.597098
511400 60.2689 163.501 55.7864 0.25565 0.529469
511600 60.2689 163.514 55.7864 0.25575 0.341769
511800 60.2689 163.527 55.7864 0.25585 0.187626
512000 60.2689 163.54 55.7864 0.25595 -0.0320206
512200 60.2689 163.553 55.7864 0.25605 -0.189156
512400 60.2689 163.566 55.7864 0.25615 -0.372862
512600 60.2689 163.579 55.7864 0.25625 -0.520326
512800 60.2689 163.592 55.7864 0.25635 -0.592822
513000 60.2689 163.605 55.7864 0.25645 -0.589248
513200 60.2689 163.618 55.7864 0.25655 -0.575518
513400 60.2689 163.631 55.7864 0.25665 -0.462367
513600 60.2689 163.644 55.7864 0.25675 -0.369152
513800 60.2689 163.657 55.7864 0.25685 -0.187774
514000 60.2689 163.67 55.7864 0.25695 0.004429
514200 60.2689 163.683 55.7864 0.25705 0.196705
514400 60.2689 163.696 55.7864 0.25715 0.35381
514600 60.2689 163.709 55.7864 0.25725 0.534968
514800 60.2689 163.722 55.7864 0.25735 0.619669
515000 60.2689 163.735 55.7864 0.25745 0.639636
515200 60.2689 163.748 55.7864 0.25755 0.586363
515400 60.2689 163.762 55.7864 0.25765 0.477806
515600 60.2689 163.775 55.7864 0.25775 0.317157
515800 60.2689 163.788 55.7864 0.25785 0.143525
516000 60.2689 163.801 55.7864 0.25795 -0.0630788
516200 60.2689 163.814 55.7864 0.25805 -0.236522
516400 60.2689 163.827 55.7864 0.25815 -0.373558
516600 60.2689 163.84 55.7864 0.25825 -0.51024
516800 60.2689 163.853 55.7864 0.25835 -0.576373
517000 60.2689 163.866 55.7864 0.25845 -0.588348
517200 60.2689 163.879 55.7864 0.25855 -0.530437
517400 60.2689 163.892 55.7864 0.25865 -0.465978
517600 60.2689 163.905 55.7864 0.25875 -0.319386
517800 60.2689 163.918 55.7864 0.25885 -0.132344
518000 60.2689 163.931 55.7864 0.25895 0.0474276
518200 60.2689 163.944 55.7864 0.25905 0.208449
518400 60.2689 163.957 55.7864 0.25915 0.390382
518600 60.2689 163.97 55.7864 0.25925 0.519157
518800 60.2689 163.983 55.7864 0.25935 0.599528
519000 60.2689 163.996 55.7864 0.25945 0.605251
519200 60.2689 164.009 55.7864 0.25955 0.578405
519400 60.2689 164.022 55.7864 0.25965 0.434908
519600 60.2689 164.035 55.7864 0.25975 0.290227
519800 60.2689 164.048 55.7864 0.25985 0.105197
520000 60.2689 164.061 55.7864 0.25995 -0.0782026
520200 60.2689 164.074 55.7864 0.26005 -0.248374
520400 60.2689 164.087 55.7864 0.26015 -0.421994
520600 60.2689 164.1 55.7864 0.26025 -0.489024
520800 60.2689 164.113 55.7864 0.26035 -0.553019
521000 60.2689 164.126 55.7864 0.26045 -0.573692
521200 60.2689 164.139 55.7864 0.26055 -0.516314
521400 60.2689 164.152 55.7864 0.26065 -0.444352
521600 60.2689 164.165 55.7864 0.26075 -0.298344
521800 60.2689 164.178 55.7864 0.26085 -0.130583
522000 60.2689 164.191 55.7864 0.26095 0.0639346
522200 60.2689 164.204 55.7864 0.26105 0.268178
522400 60.2689 164.217 55.7864 0.26115 0.400176
522600 60.2689 164.23 55.7864 0.26125 0.519989
522800 60.2689 164.243 55.7864 0.26135 0.575128
523000 60.2689 164.256 55.7864 0.26145 0.587269
523200 60.2689 164.269 55.7864 0.26155 0.539151
523400 60.2689 164.282 55.7864 0.26165 0.442247
523600 60.2689 164.295 55.7864 0.26175 0.293665
523800 60.2689 164.308 55.7864 0.26185 0.0782445
524000 60.2689 164.321 55.7864 0.26195 -0.119046
524200 60.2689 164.334 55.7864 0.26205 -0.282495
524400 60.2689 164.347 55.7864 0.26215 -0.397828
524600 60.2689 164.36 55.7864 0.26225 -0.518299
524800 60.2689 164.374 55.7864 0.26235 -0.540672
525000 60.2689 164.387 55.7864 0.26245 -0.558256
525200 60.2689 164.4 55.7864 0.26255 -0.505551
525400 60.2689 164.413 55.7864 0.26265 -0.426121
525600 60.2689 164.426 55.7864 0.26275 -0.272571
525800 60.2689 164.439 55.7864 0.26285 -0.0953594
526000 60.2689 164.452 55.7864 0.26295 0.0903548
526200 60.2689 164.465 55.7864 0.26305 0.292265
526400 60.2689 164.478 55.7864 0.26315 0.420396
526600 60.2689 164.491 55.7864 0.26325 0.522408
526800 60.2689 164.504 55.7864 0.26335 0.614293
527000 60.2689 164.517 55.7864 0.26345 0.574084
527200 60.2689 164.53 55.7864 0.26355 0.510083
527400 60.2689 164.543 55.7864 0.26365 0.39244
527600 60.2689 164.556 55.7864 0.26375 0.240979
527800 60.2689 164.569 55.7864 0.26385 0.0461878
528000 60.2689 164.582 55.7864 0.26395 -0.123752
528200 60.2689 164.595 55.7864 0.26405 -0.308422
528400 60.2689 164.608 55.7864 0.26415 -0.449397
528600 60.2689 164.621 55.7864 0.26425 -0.497482
528800 60.2689 164.634 55.7864 0.26435 -0.546573
529000 60.2689 164.647 55.7864 0.26445 -0.552168
529200 60.2689 164.66 55.7864 0.26455 -0.485465
529400 60.2689 164.673 55.7864 0.26465 -0.370944
529600 60.2689 164.686 55.7864 0.26475 -0.225048
529800 60.2689 164.699 55.7864 0.26485 -0.0804103
530000 60.2689 164.712 55.7864 0.26495 0.131875
530200 60.2689 164.725 55.7864 0.26505 0.271303
530400 60.2689 164.738 55.7864 0.26515 0.441265
530600 60.2689 164.751 55.7864 0.26525 0.557809
530800 60.2689 164.764 55.7864 0.26535 0.568764
531000 60.2689 164.777 55.7864 0.26545 0.571951
531200 60.2689 164.79 55.7864 0.26555 0.49787
531400 60.2689 164.803 55.7864 0.26565 0.348688
531600 60.2689 164.816 55.7864 0.26575 0.217957
531800 60.2689 164.829 55.7864 0.26585 0.00357244
532000 60.2689 164.842 55.7864 0.26595 -0.162478
532200 60.2689 164.855 55.7864 0.26605 -0.313753
532400 60.2689 164.868 55.7864 0.26615 -0.442645
532600 60.2689 164.881 55.7864 0.26625 -0.488602
532800 60.2689 164.894 55.7864 0.26635 -0.574929
533000 60.2689 164.907 55.7864 0.26645 -0.504585
533200 60.2689 164.92 55.7864 0.26655 -0.469927
533400 60.2689 164.933 55.7864 0.26665 -0.344031
533600 60.2689 164.946 55.7864 0.26675 -0.192504
533800 60.2689 164.959 55.7864 0.26685 -0.0508714
534000 60.2689 164.972 55.7864 0.26695 0.173518
534200 60.2689 164.986 55.7864 0.26705 0.293662
534400 60.2689 164.999 55.7864 0.26715 0.475198
534600 60.2689 165.012 55.7864 0.26725 0.535929
534800 60.2689 165.025 55.7864 0.26735 0.588209
535000 60.2689 165.038 55.7864 0.26745 0.549363
535200 60.2689 165.051 55.7864 0.26755 0.443202
535400 60.2689 165.064 55.7864 0.26765 0.324156
535600 60.2689 165.077 55.7864 0.26775 0.169462
535800 60.2689 165.09 55.7864 0.26785 -0.0231528
536000 60.2689 165.103 55.7864 0.26795 -0.197023
536200 60.2689 165.116 55.7864 0.26805 -0.305214
536400 60.2689 165.129 55.7864 0.26815 -0.458321
536600 60.2689 165.142 55.7864 0.26825 -0.538519
536800 60.2689 165.155 55.7864 0.26835 -0.537249
537000 60.2689 165.168 55.7864 0.26845 -0.497705
537200 60.2689 165.181 55.7864 0.26855 -0.411184
537400 60.2689 165.194 55.7864 0.26865 -0.31486
537600 60.2689 165.207 55.7864 0.26875 -0.185531
537800 60.2689 165.22 55.7864 0.26885 0.0450922
538000 60.2689 165.233 55.7864 0.26895 0.145906
538200 60.2689 165.246 55.7864 0.26905 0.331454
538400 60.2689 165.259 55.7864 0.26915 0.464922
538600 60.2689 165.272 55.7864 0.26925 0.52783
538800 60.2689 165.285 55.7864 0.26935 0.575554
539000 60.2689 165.298 55.7864 0.26945 0.522917
539200 60.2689 165.311 55.7864 0.26955 0.423056
539400 60.2689 165.324 55.7864 0.26965 0.286957
539600 60.2689 165.337 55.7864 0.26975 0.140077
539800 60.2689 165.35 55.7864 0.26985 -0.0444733
540000 60.2689 165.363 55.7864 0.26995 -0.204386
540200 60.2689 165.376 55.7864 0.27005 -0.338236
540400 60.2689 165.389 55.7864 0.27015 -0.444962
540600 60.2689 165.402 55.7864 0.27025 -0.534611
540800 60.2689 165.415 55.7864 0.27035 -0.509558
541000 60.2689 165.428 55.7864 0.27045 -0.507393
541200 60.2689 165.441 55.7864 0.27055 -0.408592
541400 60.2689 165.454 55.7864 0.27065 -0.27487
541600 60.2689 165.467 55.7864 0.27075 -0.125784
541800 60.2689 165.48 55.7864 0.27085 0.0252329
542000 60.2689 165.493 55.7864 0.27095 0.176415
542200 60.2689 165.506 55.7864 0.27105 0.341813
542400 60.2689 165.519 55.7864 0.27115 0.468539
542600 60.2689 165.532 55.7864 0.27125 0.534246
542800 60.2689 165.545 55.7864 0.27135 0.561955
543000 60.2689 165.558 55.7864 0.27145 0.504731
543200 60.2689 165.571 55.7864 0.27155 0.399134
543400 60.2689 165.584 55.7864 0.27165 0.242955
543600 60.2689 165.598 55.7864 0.27175 0.111103
543800 60.2689 165.611 55.7864 0.27185 -0.046444
544000 60.2689 165.624 55.7864 0.27195 -0.218128
544200 60.2689 165.637 55.7864 0.27205 -0.340753
544400 60.2689 165.65 55.7864 0.27215 -0.450177
544600 60.2689 165.663 55.7864 0.27225 -0.513486
544800 60.2689 165.676 55.7864 0.27235 -0.527428
545000 60.2689 165.689 55.7864 0.27245 -0.47351
545200 60.2689 165.702 55.7864 0.27255 -0.377614
545400 60.2689 165.715 55.7864 0.27265 -0.27821
545600 60.2689 165.728 55.7864 0.27275 -0.10168
545800 60.2689 165.741 55.7864 0.27285 0.0658643
546000 60.2689 165.754 55.7864 0.27295 0.183981
546200 60.2689 165.767 55.7864 0.27305 0.372703
546400 60.2689 165.78 55.7864 0.27315 0.464908
546600 60.2689 165.793 55.7864 0.27325 0.544423
546800 60.2689 165.806 55.7864 0.27335 0.531795
547000 60.2689 165.819 55.7864 0.27345 0.493271
547200 60.2689 165.832 55.7864 0.27355 0.408814
547400 60.2689 165.845 55.7864 0.27365 0.22247
547600 60.2689 165.858 55.7864 0.27375 0.0616492
547800 60.2689 165.871 55.7864 0.27385 -0.0833438
548000 60.2689 165.884 55.7864 0.27395 -0.248888
548200 60.2689 165.897 55.7864 0.27405 -0.325959
548400 60.2689 165.91 55.7864 0.27415 -0.477007
548600 60.2689 165.923 55.7864 0.27425 -0.509564
548800 60.2689 165.936 55.7864 0.27435 -0.515887
549000 60.2689 165.949 55.7864 0.27445 -0.474182
549200 60.2689 165.962 55.7864 0.27455 -0.393674
549400 60.2689 165.975 55.7864 0.27465 -0.239347
549600 60.2689 165.988 55.7864 0.27475 -0.0640473
549800 60.2689 166.001 55.7864 0.27485 0.0992157
550000 60.2689 166.014 55.7864 0.27495 0.224506
550200 60.2689 166.027 55.7864 0.27505 0.373087
550400 60.2689 166.04 55.7864 0.27515 0.478974
550600 60.2689 166.053 55.7864 0.27525 0.52753
550800 60.2689 166.066 55.7864 0.27535 0.545027
551000 60.2689 166.079 55.7864 0.27545 0.476173
551200 60.2689 166.092 55.7864 0.27555 0.376078
551400 60.2689 166.105 55.7864 0.27565 0.211219
551600 60.2689 166.118 55.7864 0.27575 0.0500694
551800 60.2689 166.131 55.7864 0.27585 -0.126677
552000 60.2689 166.144 55.7864 0.27595 -0.274382
552200 60.2689 166.157 55.7864 0.27605 -0.390825
552400 60.2689 166.17 55.7864 0.27615 -0.467298
552600 60.2689 166.183 55.7864 0.27625 -0.491264
552800 60.2689 166.196 55.7864 0.27635 -0.486663
553000 60.2689 166.21 55.7864 0.27645 -0.456034
553200 60.2689 166.223 55.7864 0.27655 -0.3636
553400 60.2689 166.236 55.7864 0.27665 -0.224513
553600 60.2689 166.249 55.7864 0.27675 -0.0554681
553800 60.2689 166.262 55.7864 0.27685 0.109282
554000 60.2689 166.275 55.7864 0.27695 0.29183
554200 60.2689 166.288 55.7864 0.27705 0.426116
554400 60.2689 166.301 55.7864 0.27715 0.482399
554600 60.2689 166.314 55.7864 0.27725 0.519883
554800 60.2689 166.327 55.7864 0.27735 0.508353
555000 60.2689 166.34 55.7864 0.27745 0.44417
555200 60.2689 166.353 55.7864 0.27755 0.323574
555400 60.2689 166.366 55.7864 0.27765 0.194861
555600 60.2689 166.379 55.7864 0.27775 0.0196682
555800 60.2689 166.392 55.7864 0.27785 -0.145477
556000 60.2689 166.405 55.7864 0.27795 -0.313007
556200 60.2689 166.418 55.7864 0.27805 -0.408967
556400 60.2689 166.431 55.7864 0.27815 -0.472967
556600 60.2689 166.444 55.7864 0.27825 -0.500636
556800 60.2689 166.457 55.7864 0.27835 -0.454593
557000 60.2689 166.47 55.7864 0.27845 -0.392149
557200 60.2689 166.483 55.7864 0.27855 -0.327487
557400 60.2689 166.496 55.7864 0.27865 -0.162897
557600 60.2689 166.509 55.7864 0.27875 -0.0429085
557800 60.2689 166.522 55.7864 0.27885 0.138647
558000 60.2689 166.535 55.7864 0.27895 0.304111
558200 60.2689 166.548 55.7864 0.27905 0.428613
558400 60.2689 166.561 55.7864 0.27915 0.491133
558600 60.2689 166.574 55.7864 0.27925 0.518402
558800 60.2689 166.587 55.7864 0.27935 0.475562
559000 60.2689 166.6 55.7864 0.27945 0.416154
559200 60.2689 166.613 55.7864 0.27955 0.281759
559400 60.2689 166.626 55.7864 0.27965 0.144839
559600 60.2689 166.639 55.7864 0.27975 -0.0114735
559800 60.2689 166.652 55.7864 0.27985 -0.169312
560000 60.2689 166.665 55.7864 0.27995 -0.313554
560200 60.2689 166.678 55.7864 0.28005 -0.398828
560400 60.2689 166.691 55.7864 0.28015 -0.482315
560600 60.2689 166.704 55.7864 0.28025 -0.477393
560800 60.2689 166.717 55.7864 0.28035 -0.454067
561000 60.2689 166.73 55.7864 0.28045 -0.402419
561200 60.2689 166.743 55.7864 0.28055 -0.259786
561400 60.2689 166.756 55.7864 0.28065 -0.154406
561600 60.2689 166.769 55.7864 0.28075 -0.00916071
561800 60.2689 166.782 55.7864 0.28085 0.155482
562000 60.2689 166.795 55.7864 0.28095 0.30397
562200 60.2689 166.808 55.7864 0.28105 0.433011
562400 60.2689 166.822 55.7864 0.28115 0.470097
562600 60.2689 166.835 55.7864 0.28125 0.518321
562800 60.2689 166.848 55.7864 0.28135 0.487737
563000 60.2689 166.861 55.7864 0.28145 0.381846
563200 60.2689 166.874 55.7864 0.28155 0.268192
563400 60.2689 166.887 55.7864 0.28165 0.0950757
563600 60.2689 166.9 55.7864 0.28175 -0.0175947
563800 60.2689 166.913 55.7864 0.28185 -0.186926
564000 60.2689 166.926 55.7864 0.28195 -0.31636
564200 60.2689 166.939 55.7864 0.28205 -0.403733
564400 60.2689 166.952 55.7864 0.28215 -0.467661
564600 60.2689 166.965 55.7864 0.28225 -0.475929
564800 60.2689 166.978 55.7864 0.28235 -0.463198
565000 60.2689 166.991 55.7864 0.28245 -0.34349
565200 60.2689 167.004 55.7864 0.28255 -0.273361
565400 60.2689 167.017 55.7864 0.28265 -0.120534
565600 60.2689 167.03 55.7864 0.28275 0.0141469
565800 60.2689 167.043 55.7864 0.28285 0.167349
566000 60.2689 167.056 55.7864 0.28295 0.308338
566200 60.2689 167.069 55.7864 0.28305 0.43532
566400 60.2689 167.082 55.7864 0.28315 0.504492
566600 60.2689 167.095 55.7864 0.28325 0.512104
566800 60.2689 167.108 55.7864 0.28335 0.449498
567000 60.2689 167.121 55.7864 0.28345 0.350221
567200 60.2689 167.134 55.7864 0.28355 0.260272
567400 60.2689 167.147 55.7864 0.28365 0.0764687
567600 60.2689 167.16 55.7864 0.28375 -0.0445061
567800 60.2689 167.173 55.7864 0.28385 -0.188829
568000 60.2689 167.186 55.7864 0.28395 -0.338692
568200 60.2689 167.199 55.7864 0.28405 -0.412203
568400 60.2689 167.212 55.7864 0.28415 -0.4834
568600 60.2689 167.225 55.7864 0.28425 -0.480976
568800 60.2689 167.238 55.7864 0.28435 -0.416368
569000 60.2689 167.251 55.7864 0.28445 -0.341535
569200 60.2689 167.264 55.7864 0.28455 -0.249522
569400 60.2689 167.277 55.7864 0.28465 -0.0982307
569600 60.2689 167.29 55.7864 0.28475 0.0662466
569800 60.2689 167.303 55.7864 0.28485 0.18167
570000 60.2689 167.316 55.7864 0.28495 0.331764
570200 60.2689 167.329 55.7864 0.28505 0.432538
570400 60.2689 167.342 55.7864 0.28515 0.489043
570600 60.2689 167.355 55.7864 0.28525 0.515485
570800 60.2689 167.368 55.7864 0.28535 0.432704
571000 60.2689 167.381 55.7864 0.28545 0.364496
571200 60.2689 167.394 55.7864 0.28555 0.194982
571400 60.2689 167.407 55.7864 0.28565 0.0724869
571600 60.2689 167.42 55.7864 0.28575 -0.0674496
571800 60.2689 167.434 55.7864 0.28585 -0.220216
572000 60.2689 167.447 55.7864 0.28595 -0.344794
572200 60.2689 167.46 55.7864 0.28605 -0.457912
572400 60.2689 167.473 55.7864 0.28615 -0.442877
572600 60.2689 167.486 55.7864 0.28625 -0.460524
572800 60.2689 167.499 55.7864 0.28635 -0.436759
573000 60.2689 167.512 55.7864 0.28645 -0.346627
573200 60.2689 167.525 55.7864 0.28655 -0.208705
573400 60.2689 167.538 55.7864 0.28665 -0.0511976
573600 60.2689 167.551 55.7864 0.28675 0.0506786
573800 60.2689 167.564 55.7864 0.28685 0.250776
574000 60.2689 167.577 55.7864 0.28695 0.363161
574200 60.2689 167.59 55.7864 0.28705 0.423831
574400 60.2689 167.603 55.7864 0.28715 0.48632
574600 60.2689 167.616 55.7864 0.28725 0.493864
574800 60.2689 167.629 55.7864 0.28735 0.434245
575000 60.2689 167.642 55.7864 0.28745 0.327423
575200 60.2689 167.655 55.7864 0.28755 0.174542
575400 60.2689 167.668 55.7864 0.28765 0.0408502
575600 60.2689 167.681 55.7864 0.28775 -0.101701
575800 60.2689 167.694 55.7864 0.28785 -0.258251
576000 60.2689 167.707 55.7864 0.28795 -0.353904
576200 60.2689 167.72 55.7864 0.28805 -0.423872
576400 60.2689 167.733 55.7864 0.28815 -0.452807
576600 60.2689 167.746 55.7864 0.28825 -0.475125
576800 60.2689 167.759 55.7864 0.28835 -0.40319
577000 60.2689 167.772 55.7864 0.28845 -0.316975
577200 60.2689 167.785 55.7864 0.28855 -0.180201
577400 60.2689 167.798 55.7864 0.28865 -0.0473794
577600 60.2689 167.811 55.7864 0.28875 0.088881
577800 60.2689 167.824 55.7864 0.28885 0.275394
578000 60.2689 167.837 55.7864 0.28895 0.393611
578200 60.2689 167.85 55.7864 0.28905 0.449157
578400 60.2689 167.863 55.7864 0.28915 0.488288
578600 60.2689 167.876 55.7864 0.28925 0.459857
578800 60.2689 167.889 55.7864 0.28935 0.382215
579000 60.2689 167.902 55.7864 0.28945 0.297937
579200 60.2689 167.915 55.7864 0.28955 0.159397
579400 60.2689 167.928 55.7864 0.28965 0.0080919
579600 60.2689 167.941 55.7864 0.28975 -0.131587
579800 60.2689 167.954 55.7864 0.28985 -0.269626
580000 60.2689 167.967 55.7864 0.28995 -0.369422
580200 60.2689 167.98 55.7864 0.29005 -0.447625
580400 60.2689 167.993 55.7864 0.29015 -0.446297
580600 60.2689 168.006 55.7864 0.29025 -0.436332
580800 60.2689 168.019 55.7864 0.29035 -0.390001
581000 60.2689 168.032 55.7864 0.29045 -0.273432
581200 60.2689 168.046 55.7864 0.29055 -0.141423
581400 60.2689 168.059 55.7864 0.29065 -0.0311625
581600 60.2689 168.072 55.7864 0.29075 0.147183
581800 60.2689 168.085 55.7864 0.29085 0.261501
582000 60.2689 168.098 55.7864 0.29095 0.376627
582200 60.2689 168.111 55.7864 0.29105 0.458656
582400 60.2689 168.124 55.7864 0.29115 0.48016
582600 60.2689 168.137 55.7864 0.29125 0.439665
582800 60.2689 168.15 55.7864 0.29135 0.376256
583000 60.2689 168.163 55.7864 0.29145 0.266928
583200 60.2689 168.176 55.7864 0.29155 0.123904
583400 60.2689 168.189 55.7864 0.29165 -0.0237985
583600 60.2689 168.202 55.7864 0.29175 -0.157832
583800 60.2689 168.215 55.7864 0.29185 -0.274298
584000 60.2689 168.228 55.7864 0.29195 -0.371658
584200 60.2689 168.241 55.7864 0.29205 -0.441489
584400 60.2689 168.254 55.7864 0.29215 -0.429607
584600 60.2689 168.267 55.7864 0.29225 -0.42672
584800 60.2689 168.28 55.7864 0.29235 -0.370445
585000 60.2689 168.293 55.7864 0.29245 -0.269294
585200 60.2689 168.306 55.7864 0.29255 -0.106606
585400 60.2689 168.319 55.7864 0.29265 -0.00496692
585600 60.2689 168.332 55.7864 0.29275 0.145653
585800 60.2689 168.345 55.7864 0.29285 0.296812
586000 60.2689 168.358 55.7864 0.29295 0.376563
586200 60.2689 168.371 55.7864 0.29305 0.465356
586400 60.2689 168.384 55.7864 0.29315 0.458141
586600 60.2689 168.397 55.7864 0.29325 0.435054
586800 60.2689 168.41 55.7864 0.29335 0.33636
587000 60.2689 168.423 55.7864 0.29345 0.264833
587200 60.2689 168.436 55.7864 0.29355 0.118292
587400 60.2689 168.449 55.7864 0.29365 -0.0251487
587600 60.2689 168.462 55.7864 0.29375 -0.19769
587800 60.2689 168.475 55.7864 0.29385 -0.297406
588000 60.2689 168.488 55.7864 0.29395 -0.379397
588200 60.2689 168.501 55.7864 0.29405 -0.433449
588400 60.2689 168.514 55.7864 0.29415 -0.434642
588600 60.2689 168.527 55.7864 0.29425 -0.391312
588800 60.2689 168.54 55.7864 0.29435 -0.355637
589000 60.2689 168.553 55.7864 0.29445 -0.26013
589200 60.2689 168.566 55.7864 0.29455 -0.113405
589400 60.2689 168.579 55.7864 0.29465 0.032736
589600 60.2689 168.592 55.7864 0.29475 0.186589
589800 60.2689 168.605 55.7864 0.29485 0.320307
590000 60.2689 168.618 55.7864 0.29495 0.40798
590200 60.2689 168.631 55.7864 0.29505 0.455111
590400 60.2689 168.644 55.7864 0.29515 0.445471
590600 60.2689 168.658 55.7864 0.29525 0.404938
590800 60.2689 168.671 55.7864 0.29535 0.322711
591000 60.2689 168.684 55.7864 0.29545 0.254288
591200 60.2689 168.697 55.7864 0.29555 0.0857725
591400 60.2689 168.71 55.7864 0.29565 -0.0641105
591600 60.2689 168.723 55.7864 0.29575 -0.206974
591800 60.2689 168.736 55.7864 0.29585 -0.324138
592000 60.2689 168.749 55.7864 0.29595 -0.395972
592200 60.2689 168.762 55.7864 0.29605 -0.432488
592400 60.2689 168.775 55.7864 0.29615 -0.46185
592600 60.2689 168.788 55.7864 0.29625 -0.364317
592800 60.2689 168.801 55.7864 0.29635 -0.316526
593000 60.2689 168.814 55.7864 0.29645 -0.219047
593200 60.2689 168.827 55.7864 0.29655 -0.0785372
593400 60.2689 168.84 55.7864 0.29665 0.0560599
593600 60.2689 168.853 55.7864 0.29675 0.183137
593800 60.2689 168.866 55.7864 0.29685 0.323991
594000 60.2689 168.879 55.7864 0.29695 0.413391
594200 60.2689 168.892 55.7864 0.29705 0.457933
594400 60.2689 168.905 55.7864 0.29715 0.458781
594600 60.2689 168.918 55.7864 0.29725 0.409536
594800 60.2689 168.931 55.7864 0.29735 0.318898
595000 60.2689 168.944 55.7864 0.29745 0.181316
595200 60.2689 168.957 55.7864 0.29755 0.0606335
595400 60.2689 168.97 55.7864 0.29765 -0.110007
595600 60.2689 168.983 55.7864 0.29775 -0.203015
595800 60.2689 168.996 55.7864 0.29785 -0.322009
596000 60.2689 169.009 55.7864 0.29795 -0.393351
596200 60.2689 169.022 55.7864 0.29805 -0.425539
596400 60.2689 169.035 55.7864 0.29815 -0.434062
596600 60.2689 169.048 55.7864 0.29825 -0.397132
596800 60.2689 169.061 55.7864 0.29835 -0.311515
597000 60.2689 169.074 55.7864 0.29845 -0.178538
597200 60.2689 169.087 55.7864 0.29855 -0.0563363
597400 60.2689 169.1 55.7864 0.29865 0.0931478
597600 60.2689 169.113 55.7864 0.29875 0.230944
597800 60.2689 169.126 55.7864 0.29885 0.32618
598000 60.2689 169.139 55.7864 0.29895 0.407185
598200 60.2689 169.152 55.7864 0.29905 0.460017
598400 60.2689 169.165 55.7864 0.29915 0.44293
598600 60.2689 169.178 55.7864 0.29925 0.377211
598800 60.2689 169.191 55.7864 0.29935 0.290248
599000 60.2689 169.204 55.7864 0.29945 0.158314
599200 60.2689 169.217 55.7864 0.29955 0.0425722
599400 60.2689 169.23 55.7864 0.29965 -0.135517
599600 60.2689 169.243 55.7864 0.29975 -0.22244
599800 60.2689 169.256 55.7864 0.29985 -0.343738
600000 60.2689 169.269 55.7864 0.29995 -0.392386
600200 60.2689 169.283 55.7864 0.30005 -0.450013
600400 60.2689 169.296 55.7864 0.30015 -0.380645
600600 60.2689 169.309 55.7864 0.30025 -0.377765
600800 60.2689 169.322 55.7864 0.30035 -0.273782
601000 60.2689 169.335 55.7864 0.30045 -0.153533
601200 60.2689 169.348 55.7864 0.30055 -0.0229604
601400 60.2689 169.361 55.7864 0.30065 0.0979278
601600 60.2689 169.374 55.7864 0.30075 0.252607
601800 60.2689 169.387 55.7864 0.30085 0.343811
602000 60.2689 169.4 55.7864 0.30095 0.406073
602200 60.2689 169.413 55.7864 0.30105 0.447333
602400 60.2689 169.426 55.7864 0.30115 0.408576
602600 60.2689 169.439 55.7864 0.30125 0.35055
602800 60.2689 169.452 55.7864 0.30135 0.235741
603000 60.2689 169.465 55.7864 0.30145 0.134245
603200 60.2689 169.478 55.7864 0.30155 0.0177406
603400 60.2689 169.491 55.7864 0.30165 -0.12892
603600 60.2689 169.504 55.7864 0.30175 -0.244798
603800 60.2689 169.517 55.7864 0.30185 -0.34213
604000 60.2689 169.53 55.7864 0.30195 -0.398233
604200 60.2689 169.543 55.7864 0.30205 -0.416023
604400 60.2689 169.556 55.7864 0.30215 -0.393664
604600 60.2689 169.569 55.7864 0.30225 -0.317032
604800 60.2689 169.582 55.7864 0.30235 -0.226316
605000 60.2689 169.595 55.7864 0.30245 -0.134497
605200 60.2689 169.608 55.7864 0.30255 -0.00640305
605400 60.2689 169.621 55.7864 0.30265 0.12461
605600 60.2689 169.634 55.7864 0.30275 0.242813
605800 60.2689 169.647 55.7864 0.30285 0.346318
606000 60.2689 169.66 55.7864 0.30295 0.42767
606200 60.2689 169.673 55.7864 0.30305 0.41839
606400 60.2689 169.686 55.7864 0.30315 0.392892
606600 60.2689 169.699 55.7864 0.30325 0.314983
606800 60.2689 169.712 55.7864 0.30335 0.201736
607000 60.2689 169.725 55.7864 0.30345 0.121062
607200 60.2689 169.738 55.7864 0.30355 -0.0353905
607400 60.2689 169.751 55.7864 0.30365 -0.137179
607600 60.2689 169.764 55.7864 0.30375 -0.267265
607800 60.2689 169.777 55.7864 0.30385 -0.327122
608000 60.2689 169.79 55.7864 0.30395 -0.382842
608200 60.2689 169.803 55.7864 0.30405 -0.39502
608400 60.2689 169.816 55.7864 0.30415 -0.38739
608600 60.2689 169.829 55.7864 0.30425 -0.300038
608800 60.2689 169.842 55.7864 0.30435 -0.225264
609000 60.2689 169.855 55.7864 0.30445 -0.0933512
609200 60.2689 169.868 55.7864 0.30455 0.0555014
609400 60.2689 169.881 55.7864 0.30465 0.144864
609600 60.2689 169.895 55.7864 0.30475 0.224824
609800 60.2689 169.908 55.7864 0.30485 0.350168
610000 60.2689 169.921 55.7864 0.30495 0.390756
610200 60.2689 169.934 55.7864 0.30505 0.404659
610400 60.2689 169.947 55.7864 0.30515 0.388134
610600 60.2689 169.96 55.7864 0.30525 0.313674
610800 60.2689 169.973 55.7864 0.30535 0.218085
611000 60.2689 169.986 55.7864 0.30545 0.0759694
611200 60.2689 169.999 55.7864 0.30555 -0.0735723
611400 60.2689 170.012 55.7864 0.30565 -0.163545
611600 60.2689 170.025 55.7864 0.30575 -0.263728
611800 60.2689 170.038 55.7864 0.30585 -0.322007
612000 60.2689 170.051 55.7864 0.30595 -0.366483
612200 60.2689 170.064 55.7864 0.30605 -0.389479
612400 60.2689 170.077 55.7864 0.30615 -0.385771
612600 60.2689 170.09 55.7864 0.30625 -0.289705
612800 60.2689 170.103 55.7864 0.30635 -0.209437
613000 60.2689 170.116 55.7864 0.30645 -0.0890549
613200 60.2689 170.129 55.7864 0.30655 0.0766182
613400 60.2689 170.142 55.7864 0.30665 0.171491
613600 60.2689 170.155 55.7864 0.30675 0.295433
613800 60.2689 170.168 55.7864 0.30685 0.31698
614000 60.2689 170.181 55.7864 0.30695 0.412701
614200 60.2689 170.194 55.7864 0.30705 0.395256
614400 60.2689 170.207 55.7864 0.30715 0.369222
614600 60.2689 170.22 55.7864 0.30725 0.30027
614800 60.2689 170.233 55.7864 0.30735 0.179112
615000 60.2689 170.246 55.7864 0.30745 0.0476158
615200 60.2689 170.259 55.7864 0.30755 -0.0709465
615400 60.2689 170.272 55.7864 0.30765 -0.207595
615600 60.2689 170.285 55.7864 0.30775 -0.280842
615800 60.2689 170.298 55.7864 0.30785 -0.355032
616000 60.2689 170.311 55.7864 0.30795 -0.37045
616200 60.2689 170.324 55.7864 0.30805 -0.385483
616400 60.2689 170.337 55.7864 0.30815 -0.33507
616600 60.2689 170.35 55.7864 0.30825 -0.278055
616800 60.2689 170.363 55.7864 0.30835 -0.157169
617000 60.2689 170.376 55.7864 0.30845 -0.0532266
617200 60.2689 170.389 55.7864 0.30855 0.0613827
617400 60.2689 170.402 55.7864 0.30865 0.212143
617600 60.2689 170.415 55.7864 0.30875 0.271697
617800 60.2689 170.428 55.7864 0.30885 0.383356
618000 60.2689 170.441 55.7864 0.30895 0.400304
618200 60.2689 170.454 55.7864 0.30905 0.396378
618400 60.2689 170.467 55.7864 0.30915 0.346469
618600 60.2689 170.48 55.7864 0.30925 0.243444
618800 60.2689 170.493 55.7864 0.30935 0.135635
619000 60.2689 170.507 55.7864 0.30945 0.0455428
619200 60.2689 170.52 55.7864 0.30955 -0.101706
619400 60.2689 170.533 55.7864 0.30965 -0.217369
619600 60.2689 170.546 55.7864 0.30975 -0.290938
619800 60.2689 170.559 55.7864 0.30985 -0.335085
620000 60.2689 170.572 55.7864 0.30995 -0.403344
620200 60.2689 170.585 55.7864 0.31005 -0.391285
620400 60.2689 170.598 55.7864 0.31015 -0.297448
620600 60.2689 170.611 55.7864 0.31025 -0.234478
620800 60.2689 170.624 55.7864 0.31035 -0.137492
621000 60.2689 170.637 55.7864 0.31045 -0.0202389
621200 60.2689 170.65 55.7864 0.31055 0.0905675
621400 60.2689 170.663 55.7864 0.31065 0.21809
621600 60.2689 170.676 55.7864 0.31075 0.294088
621800 60.2689 170.689 55.7864 0.31085 0.34605
622000 60.2689 170.702 55.7864 0.31095 0.392163
622200 60.2689 170.715 55.7864 0.31105 0.393082
622400 60.2689 170.728 55.7864 0.31115 0.300054
622600 60.2689 170.741 55.7864 0.31125 0.233229
622800 60.2689 170.754 55.7864 0.31135 0.110432
623000 60.2689 170.767 55.7864 0.31145 -0.00493091
623200 60.2689 170.78 55.7864 0.31155 -0.116836
623400 60.2689 170.793 55.7864 0.31165 -0.209929
623600 60.2689 170.806 55.7864 0.31175 -0.32164
623800 60.2689 170.819 55.7864 0.31185 -0.348032
624000 60.2689 170.832 55.7864 0.31195 -0.348569
624200 60.2689 170.845 55.7864 0.31205 -0.327224
624400 60.2689 170.858 55.7864 0.31215 -0.302575
624600 60.2689 170.871 55.7864 0.31225 -0.224542
624800 60.2689 170.884 55.7864 0.31235 -0.104994
625000 60.2689 170.897 55.7864 0.31245 -0.00550789
625200 60.2689 170.91 55.7864 0.31255 0.119018
625400 60.2689 170.923 55.7864 0.31265 0.227619
625600 60.2689 170.936 55.7864 0.31275 0.302391
625800 60.2689 170.949 55.7864 0.31285 0.366978
626000 60.2689 170.962 55.7864 0.31295 0.380324
626200 60.2689 170.975 55.7864 0.31305 0.345798
626400 60.2689 170.988 55.7864 0.31315 0.286328
626600 60.2689 171.001 55.7864 0.31325 0.206237
626800 60.2689 171.014 55.7864 0.31335 0.0837179
627000 60.2689 171.027 55.7864 0.31345 0.0084419
627200 60.2689 171.04 55.7864 0.31355 -0.159346
627400 60.2689 171.053 55.7864 0.31365 -0.232162
627600 60.2689 171.066 55.7864 0.31375 -0.301273
627800 60.2689 171.079 55.7864 0.31385 -0.365478
628000 60.2689 171.092 55.7864 0.31395 -0.342051
628200 60.2689 171.105 55.7864 0.31405 -0.356718
628400 60.2689 171.119 55.7864 0.31415 -0.26576
628600 60.2689 171.132 55.7864 0.31425 -0.206266
628800 60.2689 171.145 55.7864 0.31435 -0.0887198
629000 60.2689 171.158 55.7864 0.31445 0.012945
629200 60.2689 171.171 55.7864 0.31455 0.149543
629400 60.2689 171.184 55.7864 0.31465 0.247654
629600 60.2689 171.197 55.7864 0.31475 0.326762
629800 60.2689 171.21 55.7864 0.31485 0.365428
630000 60.2689 171.223 55.7864 0.31495 0.369705
630200 60.2689 171.236 55.7864 0.31505 0.344095
630400 60.2689 171.249 55.7864 0.31515 0.282272
630600 60.2689 171.262 55.7864 0.31525 0.170836
630800 60.2689 171.275 55.7864 0.31535 0.0658434
631000 60.2689 171.288 55.7864 0.31545 -0.0497339
631200 60.2689 171.301 55.7864 0.31555 -0.147353
631400 60.2689 171.314 55.7864 0.31565 -0.256488
631600 60.2689 171.327 55.7864 0.31575 -0.325563
631800 60.2689 171.34 55.7864 0.31585 -0.345588
632000 60.2689 171.353 55.7864 0.31595 -0.352036
632200 60.2689 171.366 55.7864 0.31605 -0.3208
632400 60.2689 171.379 55.7864 0.31615 -0.275519
632600 60.2689 171.392 55.7864 0.31625 -0.170709
632800 60.2689 171.405 55.7864 0.31635 -0.0600782
633000 60.2689 171.418 55.7864 0.31645 0.0445759
633200 60.2689 171.431 55.7864 0.31655 0.160314
633400 60.2689 171.444 55.7864 0.31665 0.247054
633600 60.2689 171.457 55.7864 0.31675 0.363626
633800 60.2689 171.47 55.7864 0.31685 0.366061
634000 60.2689 171.483 55.7864 0.31695 0.357045
634200 60.2689 171.496 55.7864 0.31705 0.334006
634400 60.2689 171.509 55.7864 0.31715 0.263641
634600 60.2689 171.522 55.7864 0.31725 0.157153
634800 60.2689 171.535 55.7864 0.31735 0.0330198
635000 60.2689 171.548 55.7864 0.31745 -0.0753451
635200 60.2689 171.561 55.7864 0.31755 -0.183946
635400 60.2689 171.574 55.7864 0.31765 -0.26514
635600 60.2689 171.587 55.7864 0.31775 -0.318263
635800 60.2689 171.6 55.7864 0.31785 -0.35839
636000 60.2689 171.613 55.7864 0.31795 -0.355166
636200 60.2689 171.626 55.7864 0.31805 -0.300259
636400 60.2689 171.639 55.7864 0.31815 -0.250892
636600 60.2689 171.652 55.7864 0.31825 -0.150418
636800 60.2689 171.665 55.7864 0.31835 -0.0314748
637000 60.2689 171.678 55.7864 0.31845 0.0759926
637200 60.2689 171.691 55.7864 0.31855 0.168614
637400 60.2689 171.704 55.7864 0.31865 0.280587
637600 60.2689 171.717 55.7864 0.31875 0.334309
637800 60.2689 171.731 55.7864 0.31885 0.368145
638000 60.2689 171.744 55.7864 0.31895 0.352549
638200 60.2689 171.757 55.7864 0.31905 0.307888
638400 60.2689 171.77 55.7864 0.31915 0.247898
638600 60.2689 171.783 55.7864 0.31925 0.126723
638800 60.2689 171.796 55.7864 0.31935 -0.00592503
639000 60.2689 171.809 55.7864 0.31945 -0.0947492
639200 60.2689 171.822 55.7864 0.31955 -0.165783
639400 60.2689 171.835 55.7864 0.31965 -0.262799
639600 60.2689 171.848 55.7864 0.31975 -0.319909
639800 60.2689 171.861 55.7864 0.31985 -0.362894
640000 60.2689 171.874 55.7864 0.31995 -0.341201
640200 60.2689 171.887 55.7864 0.32005 -0.304492
640400 60.2689 171.9 55.7864 0.32015 -0.210636
640600 60.2689 171.913 55.7864 0.32025 -0.131587
640800 60.2689 171.926 55.7864 0.32035 -0.0226491
641000 60.2689 171.939 55.7864 0.32045 0.0951585
641200 60.2689 171.952 55.7864 0.32055 0.21152
641400 60.2689 171.965 55.7864 0.32065 0.264226
641600 60.2689 171.978 55.7864 0.32075 0.3184
641800 60.2689 171.991 55.7864 0.32085 0.365039
642000 60.2689 172.004 55.7864 0.32095 0.366745
642200 60.2689 172.017 55.7864 0.32105 0.288649
642400 60.2689 172.03 55.7864 0.32115 0.215775
642600 60.2689 172.043 55.7864 0.32125 0.100047
642800 60.2689 172.056 55.7864 0.32135 -0.00556418
643000 60.2689 172.069 55.7864 0.32145 -0.115892
643200 60.2689 172.082 55.7864 0.32155 -0.185378
643400 60.2689 172.095 55.7864 0.32165 -0.278141
643600 60.2689 172.108 55.7864 0.32175 -0.315971
643800 60.2689 172.121 55.7864 0.32185 -0.343385
644000 60.2689 172.134 55.7864 0.32195 -0.338983
644200 60.2689 172.147 55.7864 0.32205 -0.266402
644400 60.2689 172.16 55.7864 0.32215 -0.213082
644600 60.2689 172.173 55.7864 0.32225 -0.10485
644800 60.2689 172.186 55.7864 0.32235 0.01183
645000 60.2689 172.199 55.7864 0.32245 0.112899
645200 60.2689 172.212 55.7864 0.32255 0.220819
645400 60.2689 172.225 55.7864 0.32265 0.279098
645600 60.2689 172.238 55.7864 0.32275 0.337164
645800 60.2689 172.251 55.7864 0.32285 0.355702
646000 60.2689 172.264 55.7864 0.32295 0.316857
646200 60.2689 172.277 55.7864 0.32305 0.278171
646400 60.2689 172.29 55.7864 0.32315 0.189865
646600 60.2689 172.303 55.7864 0.32325 0.0925854
646800 60.2689 172.316 55.7864 0.32335 -0.0264756
647000 60.2689 172.329 55.7864 0.32345 -0.135052
647200 60.2689 172.343 55.7864 0.32355 -0.205951
647400 60.2689 172.356 55.7864 0.32365 -0.278377
647600 60.2689 172.369 55.7864 0.32375 -0.346465
647800 60.2689 172.382 55.7864 0.32385 -0.326946
648000 60.2689 172.395 55.7864 0.32395 -0.30388
648200 60.2689 172.408 55.7864 0.32405 -0.264861
648400 60.2689 172.421 55.7864 0.32415 -0.198084
648600 60.2689 172.434 55.7864 0.32425 -0.0574037
648800 60.2689 172.447 55.7864 0.32435 0.0110104
649000 60.2689 172.46 55.7864 0.32445 0.121697
649200 60.2689 172.473 55.7864 0.32455 0.225298
649400 60.2689 172.486 55.7864 0.32465 0.294823
649600 60.2689 172.499 55.7864 0.32475 0.344312
649800 60.2689 172.512 55.7864 0.32485 0.338542
650000 60.2689 172.525 55.7864 0.32495 0.333347
650200 60.2689 172.538 55.7864 0.32505 0.232224
650400 60.2689 172.551 55.7864 0.32515 0.165355
650600 60.2689 172.564 55.7864 0.32525 0.0689724
650800 60.2689 172.577 55.7864 0.32535 -0.0267802
651000 60.2689 172.59 55.7864 0.32545 -0.156216
651200 60.2689 172.603 55.7864 0.32555 -0.223208
651400 60.2689 172.616 55.7864 0.32565 -0.284907
651600 60.2689 172.629 55.7864 0.32575 -0.329767
651800 60.2689 172.642 55.7864 0.32585 -0.318189
652000 60.2689 172.655 55.7864 0.32595 -0.300111
652200 60.2689 172.668 55.7864 0.32605 -0.23726
652400 60.2689 172.681 55.7864 0.32615 -0.161582
652600 60.2689 172.694 55.7864 0.32625 -0.0666245
652800 60.2689 172.707 55.7864 0.32635 0.0221424
653000 60.2689 172.72 55.7864 0.32645 0.164597
653200 60.2689 172.733 55.7864 0.32655 0.230126
653400 60.2689 172.746 55.7864 0.32665 0.307785
653600 60.2689 172.759 55.7864 0.32675 0.314106
653800 60.2689 172.772 55.7864 0.32685 0.350927
654000 60.2689 172.785 55.7864 0.32695 0.302285
654200 60.2689 172.798 55.7864 0.32705 0.236605
654400 60.2689 172.811 55.7864 0.32715 0.149602
654600 60.2689 172.824 55.7864 0.32725 0.054655
654800 60.2689 172.837 55.7864 0.32735 -0.0757203
655000 60.2689 172.85 55.7864 0.32745 -0.156702
655200 60.2689 172.863 55.7864 0.32755 -0.241713
655400 60.2689 172.876 55.7864 0.32765 -0.296952
655600 60.2689 172.889 55.7864 0.32775 -0.320031
655800 60.2689 172.902 55.7864 0.32785 -0.317398
656000 60.2689 172.915 55.7864 0.32795 -0.292396
656200 60.2689 172.928 55.7864 0.32805 -0.238298
656400 60.2689 172.941 55.7864 0.32815 -0.117008
656600 60.2689 172.955 55.7864 0.32825 -0.0507715
656800 60.2689 172.968 55.7864 0.32835 0.0565001
657000 60.2689 172.981 55.7864 0.32845 0.16196
657200 60.2689 172.994 55.7864 0.32855 0.259093
657400 60.2689 173.007 55.7864 0.32865 0.287317
657600 60.2689 173.02 55.7864 0.32875 0.344225
657800 60.2689 173.033 55.7864 0.32885 0.342425
658000 60.2689 173.046 55.7864 0.32895 0.296169
658200 60.2689 173.059 55.7864 0.32905 0.196312
658400 60.2689 173.072 55.7864 0.32915 0.13848
658600 60.2689 173.085 55.7864 0.32925 0.0352345
658800 60.2689 173.098 55.7864 0.32935 -0.0809967
659000 60.2689 173.111 55.7864 0.32945 -0.170698
659200 60.2689 173.124 55.7864 0.32955 -0.263143
659400 60.2689 173.137 55.7864 0.32965 -0.299413
659600 60.2689 173.15 55.7864 0.32975 -0.318806
659800 60.2689 173.163 55.7864 0.32985 -0.313129
660000 60.2689 173.176 55.7864 0.32995 -0.272164
660200 60.2689 173.189 55.7864 0.33005 -0.209716
660400 60.2689 173.202 55.7864 0.33015 -0.139695
660600 60.2689 173.215 55.7864 0.33025 -0.00786395
660800 60.2689 173.228 55.7864 0.33035 0.0743501
661000 60.2689 173.241 55.7864 0.33045 0.168609
661200 60.2689 173.254 55.7864 0.33055 0.272058
661400 60.2689 173.267 55.7864 0.33065 0.305674
661600 60.2689 173.28 55.7864 0.33075 0.327456
661800 60.2689 173.293 55.7864 0.33085 0.329157
662000 60.2689 173.306 55.7864 0.33095 0.264585
662200 60.2689 173.319 55.7864 0.33105 0.218465
662400 60.2689 173.332 55.7864 0.33115 0.104495
662600 60.2689 173.345 55.7864 0.33125 0.00165713
662800 60.2689 173.358 55.7864 0.33135 -0.100767
663000 60.2689 173.371 55.7864 0.33145 -0.190461
663200 60.2689 173.384 55.7864 0.33155 -0.243224
663400 60.2689 173.397 55.7864 0.33165 -0.310693
663600 60.2689 173.41 55.7864 0.33175 -0.33539
663800 60.2689 173.423 55.7864 0.33185 -0.300126
664000 60.2689 173.436 55.7864 0.33195 -0.24354
664200 60.2689 173.449 55.7864 0.33205 -0.190534
664400 60.2689 173.462 55.7864 0.33215 -0.110993
664600 60.2689 173.475 55.7864 0.33225 0.00529476
664800 60.2689 173.488 55.7864 0.33235 0.0954191
665000 60.2689 173.501 55.7864 0.33245 0.189808
665200 60.2689 173.514 55.7864 0.33255 0.287691
665400 60.2689 173.527 55.7864 0.33265 0.302567
665600 60.2689 173.54 55.7864 0.33275 0.312235
665800 60.2689 173.553 55.7864 0.33285 0.327337
666000 60.2689 173.567 55.7864 0.33295 0.248034
666200 60.2689 173.58 55.7864 0.33305 0.170154
666400 60.2689 173.593 55.7864 0.33315 0.0838373
666600 60.2689 173.606 55.7864 0.33325 -0.0107446
666800 60.2689 173.619 55.7864 0.33335 -0.107333
667000 60.2689 173.632 55.7864 0.33345 -0.177075
667200 60.2689 173.645 55.7864 0.33355 -0.281239
667400 60.2689 173.658 55.7864 0.33365 -0.315542
667600 60.2689 173.671 55.7864 0.33375 -0.338126
667800 60.2689 173.684 55.7864 0.33385 -0.276805
668000 60.2689 173.697 55.7864 0.33395 -0.217452
668200 60.2689 173.71 55.7864 0.33405 -0.18992
668400 60.2689 173.723 55.7864 0.33415 -0.072186
668600 60.2689 173.736 55.7864 0.33425 0.0254045
668800 60.2689 173.749 55.7864 0.33435 0.102043
669000 60.2689 173.762 55.7864 0.33445 0.20103
669200 60.2689 173.775 55.7864 0.33455 0.269408
669400 60.2689 173.788 55.7864 0.33465 0.321474
669600 60.2689 173.801 55.7864 0.33475 0.33434
669800 60.2689 173.814 55.7864 0.33485 0.291464
670000 60.2689 173.827 55.7864 0.33495 0.232376
670200 60.2689 173.84 55.7864 0.33505 0.156707
670400 60.2689 173.853 55.7864 0.33515 0.0804643
670600 60.2689 173.866 55.7864 0.33525 -0.0376451
670800 60.2689 173.879 55.7864 0.33535 -0.142451
671000 60.2689 173.892 55.7864 0.33545 -0.201802
671200 60.2689 173.905 55.7864 0.33555 -0.248386
671400 60.2689 173.918 55.7864 0.33565 -0.321016
671600 60.2689 173.931 55.7864 0.33575 -0.311871
671800 60.2689 173.944 55.7864 0.33585 -0.287221
672000 60.2689 173.957 55.7864 0.33595 -0.228845
672200 60.2689 173.97 55.7864 0.33605 -0.134382
672400 60.2689 173.983 55.7864 0.33615 -0.0573515
672600 60.2689 173.996 55.7864 0.33625 0.0284642
672800 60.2689 174.009 55.7864 0.33635 0.137143
673000 60.2689 174.022 55.7864 0.33645 0.226359
673200 60.2689 174.035 55.7864 0.33655 0.285206
673400 60.2689 174.048 55.7864 0.33665 0.297186
673600 60.2689 174.061 55.7864 0.33675 0.313185
673800 60.2689 174.074 55.7864 0.33685 0.295076
674000 60.2689 174.087 55.7864 0.33695 0.223045
674200 60.2689 174.1 55.7864 0.33705 0.148888
674400 60.2689 174.113 55.7864 0.33715 0.0197783
674600 60.2689 174.126 55.7864 0.33725 -0.0724122
674800 60.2689 174.139 55.7864 0.33735 -0.130326
675000 60.2689 174.152 55.7864 0.33745 -0.219142
675200 60.2689 174.165 55.7864 0.33755 -0.278493
675400 60.2689 174.179 55.7864 0.33765 -0.304673
675600 60.2689 174.192 55.7864 0.33775 -0.301162
675800 60.2689 174.205 55.7864 0.33785 -0.277812
676000 60.2689 174.218 55.7864 0.33795 -0.207761
676200 60.2689 174.231 55.7864 0.33805 -0.123294
676400 60.2689 174.244 55.7864 0.33815 -0.0367837
676600 60.2689 174.257 55.7864 0.33825 0.0391168
676800 60.2689 174.27 55.7864 0.33835 0.164296
677000 60.2689 174.283 55.7864 0.33845 0.245652
677200 60.2689 174.296 55.7864 0.33855 0.277201
677400 60.2689 174.309 55.7864 0.33865 0.317575
677600 60.2689 174.322 55.7864 0.33875 0.314374
677800 60.2689 174.335 55.7864 0.33885 0.277428
678000 60.2689 174.348 55.7864 0.33895 0.178389
678200 60.2689 174.361 55.7864 0.33905 0.0902071
678400 60.2689 174.374 55.7864 0.33915 0.0411815
678600 60.2689 174.387 55.7864 0.33925 -0.0624451
678800 60.2689 174.4 55.7864 0.33935 -0.151748
679000 60.2689 174.413 55.7864 0.33945 -0.240563
679200 60.2689 174.426 55.7864 0.33955 -0.270261
679400 60.2689 174.439 55.7864 0.33965 -0.290766
679600 60.2689 174.452 55.7864 0.33975 -0.29286
679800 60.2689 174.465 55.7864 0.33985 -0.247699
680000 60.2689 174.478 55.7864 0.33995 -0.177269
680200 60.2689 174.491 55.7864 0.34005 -0.107617
680400 60.2689 174.504 55.7864 0.34015 -0.0255034
680600 60.2689 174.517 55.7864 0.34025 0.0457954
680800 60.2689 174.53 55.7864 0.34035 0.159112
681000 60.2689 174.543 55.7864 0.34045 0.240021
681200 60.2689 174.556 55.7864 0.34055 0.305038
681400 60.2689 174.569 55.7864 0.34065 0.299805
681600 60.2689 174.582 55.7864 0.34075 0.291831
681800 60.2689 174.595 55.7864 0.34085 0.237666
682000 60.2689 174.608 55.7864 0.34095 0.179796
682200 60.2689 174.621 55.7864 0.34105 0.0810772
682400 60.2689 174.634 55.7864 0.34115 0.0114976
682600 60.2689 174.647 55.7864 0.34125 -0.0831266
682800 60.2689 174.66 55.7864 0.34135 -0.146252
683000 60.2689 174.673 55.7864 0.34145 -0.228992
683200 60.2689 174.686 55.7864 0.34155 -0.299087
683400 60.2689 174.699 55.7864 0.34165 -0.286253
683600 60.2689 174.712 55.7864 0.34175 -0.279938
683800 60.2689 174.725 55.7864 0.34185 -0.25981
684000 60.2689 174.738 55.7864 0.34195 -0.153421
684200 60.2689 174.751 55.7864 0.34205 -0.0763666
684400 60.2689 174.764 55.7864 0.34215 0.0186585
684600 60.2689 174.777 55.7864 0.34225 0.0937607
684800 60.2689 174.79 55.7864 0.34235 0.167581
685000 60.2689 174.804 55.7864 0.34245 0.235344
685200 60.2689 174.817 55.7864 0.34255 0.281585
685400 60.2689 174.83 55.7864 0.34265 0.30566
685600 60.2689 174.843 55.7864 0.34275 0.289574
685800 60.2689 174.856 55.7864 0.34285 0.233061
686000 60.2689 174.869 55.7864 0.34295 0.148605
686200 60.2689 174.882 55.7864 0.34305 0.0605721
686400 60.2689 174.895 55.7864 0.34315 -0.0238789
686600 60.2689 174.908 55.7864 0.34325 -0.115502
686800 60.2689 174.921 55.7864 0.34335 -0.176901
687000 60.2689 174.934 55.7864 0.34345 -0.235723
687200 60.2689 174.947 55.7864 0.34355 -0.28515
687400 60.2689 174.96 55.7864 0.34365 -0.271791
687600 60.2689 174.973 55.7864 0.34375 -0.279646
687800 60.2689 174.986 55.7864 0.34385 -0.211306
688000 60.2689 174.999 55.7864 0.34395 -0.148457
688200 60.2689 175.012 55.7864 0.34405 -0.0547668
688400 60.2689 175.025 55.7864 0.34415 0.0468707
688600 60.2689 175.038 55.7864 0.34425 0.119856
688800 60.2689 175.051 55.7864 0.34435 0.198515
689000 60.2689 175.064 55.7864 0.34445 0.218984
689200 60.2689 175.077 55.7864 0.34455 0.283387
689400 60.2689 175.09 55.7864 0.34465 0.282066
689600 60.2689 175.103 55.7864 0.34475 0.251303
689800 60.2689 175.116 55.7864 0.34485 0.229712
690000 60.2689 175.129 55.7864 0.34495 0.13826
690200 60.2689 175.142 55.7864 0.34505 0.0448404
690400 60.2689 175.155 55.7864 0.34515 -0.0587388
690600 60.2689 175.168 55.7864 0.34525 -0.127475
690800 60.2689 175.181 55.7864 0.34535 -0.200191
691000 60.2689 175.194 55.7864 0.34545 -0.238069
691200 60.2689 175.207 55.7864 0.34555 -0.238771
691400 60.2689 175.22 55.7864 0.34565 -0.282244
691600 60.2689 175.233 55.7864 0.34575 -0.236436
691800 60.2689 175.246 55.7864 0.34585 -0.206967
692000 60.2689 175.259 55.7864 0.34595 -0.127806
692200 60.2689 175.272 55.7864 0.34605 -0.0617856
692400 60.2689 175.285 55.7864 0.34615 0.0519014
692600 60.2689 175.298 55.7864 0.34625 0.141941
692800 60.2689 175.311 55.7864 0.34635 0.209726
693000 60.2689 175.324 55.7864 0.34645 0.245132
693200 60.2689 175.337 55.7864 0.34655 0.273722
693400 60.2689 175.35 55.7864 0.34665 0.250333
693600 60.2689 175.363 55.7864 0.34675 0.244382
693800 60.2689 175.376 55.7864 0.34685 0.219069
694000 60.2689 175.389 55.7864 0.34695 0.110375
694200 60.2689 175.402 55.7864 0.34705 0.0323532
694400 60.2689 175.416 55.7864 0.34715 -0.0645062
694600 60.2689 175.429 55.7864 0.34725 -0.135611
694800 60.2689 175.442 55.7864 0.34735 -0.210527
695000 60.2689 175.455 55.7864 0.34745 -0.239635
695200 60.2689 175.468 55.7864 0.34755 -0.274407
695400 60.2689 175.481 55.7864 0.34765 -0.254206
695600 60.2689 175.494 55.7864 0.34775 -0.223983
695800 60.2689 175.507 55.7864 0.34785 -0.196193
696000 60.2689 175.52 55.7864 0.34795 -0.109544
696200 60.2689 175.533 55.7864 0.34805 -0.0314264
696400 60.2689 175.546 55.7864 0.34815 0.0835873
696600 60.2689 175.559 55.7864 0.34825 0.139621
696800 60.2689 175.572 55.7864 0.34835 0.213633
697000 60.2689 175.585 55.7864 0.34845 0.254029
697200 60.2689 175.598 55.7864 0.34855 0.272879
697400 60.2689 175.611 55.7864 0.34865 0.268964
697600 60.2689 175.624 55.7864 0.34875 0.221599
697800 60.2689 175.637 55.7864 0.34885 0.164294
698000 60.2689 175.65 55.7864 0.34895 0.11498
698200 60.2689 175.663 55.7864 0.34905 0.00664703
698400 60.2689 175.676 55.7864 0.34915 -0.0673399
698600 60.2689 175.689 55.7864 0.34925 -0.16104
698800 60.2689 175.702 55.7864 0.34935 -0.226925
699000 60.2689 175.715 55.7864 0.34945 -0.255812
699200 60.2689 175.728 55.7864 0.34955 -0.27596
699400 60.2689 175.741 55.7864 0.34965 -0.216087
699600 60.2689 175.754 55.7864 0.34975 -0.225486
699800 60.2689 175.767 55.7864 0.34985 -0.149524
700000 60.2689 175.78 55.7864 0.34995 -0.0843305
700200 60.2689 175.793 55.7864 0.35005 -0.00876559
700400 60.2689 175.806 55.7864 0.35015 0.0746853
700600 60.2689 175.819 55.7864 0.35025 0.171912
700800 60.2689 175.832 55.7864 0.35035 0.213734
701000 60.2689 175.845 55.7864 0.35045 0.26664
701200 60.2689 175.858 55.7864 0.35055 0.271908
701400 60.2689 175.871 55.7864 0.35065 0.253227
701600 60.2689 175.884 55.7864 0.35075 0.210579
701800 60.2689 175.897 55.7864 0.35085 0.140808
702000 60.2689 175.91 55.7864 0.35095 0.0777696
702200 60.2689 175.923 55.7864 0.35105 -0.0178683
702400 60.2689 175.936 55.7864 0.35115 -0.0982851
702600 60.2689 175.949 55.7864 0.35125 -0.186079
702800 60.2689 175.962 55.7864 0.35135 -0.219378
703000 60.2689 175.975 55.7864 0.35145 -0.240268
703200 60.2689 175.988 55.7864 0.35155 -0.271584
703400 60.2689 176.001 55.7864 0.35165 -0.241211
703600 60.2689 176.014 55.7864 0.35175 -0.195681
703800 60.2689 176.028 55.7864 0.35185 -0.133991
704000 60.2689 176.041 55.7864 0.35195 -0.0579167
704200 60.2689 176.054 55.7864 0.35205 0.0323978
704400 60.2689 176.067 55.7864 0.35215 0.0776228
704600 60.2689 176.08 55.7864 0.35225 0.192877
704800 60.2689 176.093 55.7864 0.35235 0.227605
705000 60.2689 176.106 55.7864 0.35245 0.264593
705200 60.2689 176.119 55.7864 0.35255 0.268063
705400 60.2689 176.132 55.7864 0.35265 0.254715
705600 60.2689 176.145 55.7864 0.35275 0.186605
705800 60.2689 176.158 55.7864 0.35285 0.1265
706000 60.2689 176.171 55.7864 0.35295 0.0552317
706200 60.2689 176.184 55.7864 0.35305 -0.0428638
706400 60.2689 176.197 55.7864 0.35315 -0.0948214
706600 60.2689 176.21 55.7864 0.35325 -0.187536
706800 60.2689 176.223 55.7864 0.35335 -0.216626
707000 60.2689 176.236 55.7864 0.35345 -0.282531
707200 60.2689 176.249 55.7864 0.35355 -0.269546
707400 60.2689 176.262 55.7864 0.35365 -0.223047
707600 60.2689 176.275 55.7864 0.35375 -0.187898
707800 60.2689 176.288 55.7864 0.35385 -0.112648
708000 60.2689 176.301 55.7864 0.35395 -0.046888
708200 60.2689 176.314 55.7864 0.35405 0.0247843
708400 60.2689 176.327 55.7864 0.35415 0.125114
708600 60.2689 176.34 55.7864 0.35425 0.190419
708800 60.2689 176.353 55.7864 0.35435 0.235397
709000 60.2689 176.366 55.7864 0.35445 0.267931
709200 60.2689 176.379 55.7864 0.35455 0.254948
709400 60.2689 176.392 55.7864 0.35465 0.248458
709600 60.2689 176.405 55.7864 0.35475 0.175725
709800 60.2689 176.418 55.7864 0.35485 0.108177
710000 60.2689 176.431 55.7864 0.35495 0.0400334
710200 60.2689 176.444 55.7864 0.35505 -0.0571827
710400 60.2689 176.457 55.7864 0.35515 -0.136482
710600 60.2689 176.47 55.7864 0.35525 -0.198219
710800 60.2689 176.483 55.7864 0.35535 -0.215091
711000 60.2689 176.496 55.7864 0.35545 -0.239773
711200 60.2689 176.509 55.7864 0.35555 -0.277902
711400 60.2689 176.522 55.7864 0.35565 -0.223314
711600 60.2689 176.535 55.7864 0.35575 -0.154839
711800 60.2689 176.548 55.7864 0.35585 -0.100192
712000 60.2689 176.561 55.7864 0.35595 -0.0356262
712200 60.2689 176.574 55.7864 0.35605 0.0388535
712400 60.2689 176.587 55.7864 0.35615 0.14504
712600 60.2689 176.6 55.7864 0.35625 0.202429
712800 60.2689 176.613 55.7864 0.35635 0.241296
713000 60.2689 176.626 55.7864 0.35645 0.279705
713200 60.2689 176.64 55.7864 0.35655 0.252479
713400 60.2689 176.653 55.7864 0.35665 0.209104
713600 60.2689 176.666 55.7864 0.35675 0.150531
713800 60.2689 176.679 55.7864 0.35685 0.116105
714000 60.2689 176.692 55.7864 0.35695 0.0225556
714200 60.2689 176.705 55.7864 0.35705 -0.0828073
714400 60.2689 176.718 55.7864 0.35715 -0.152475
714600 60.2689 176.731 55.7864 0.35725 -0.18949
714800 60.2689 176.744 55.7864 0.35735 -0.251897
715000 60.2689 176.757 55.7864 0.35745 -0.246786
715200 60.2689 176.77 55.7864 0.35755 -0.253384
715400 60.2689 176.783 55.7864 0.35765 -0.20289
715600 60.2689 176.796 55.7864 0.35775 -0.160199
715800 60.2689 176.809 55.7864 0.35785 -0.0807509
716000 60.2689 176.822 55.7864 0.35795 -0.0153798
716200 60.2689 176.835 55.7864 0.35805 0.0845483
716400 60.2689 176.848 55.7864 0.35815 0.125208
716600 60.2689 176.861 55.7864 0.35825 0.229204
716800 60.2689 176.874 55.7864 0.35835 0.240284
717000 60.2689 176.887 55.7864 0.35845 0.26716
717200 60.2689 176.9 55.7864 0.35855 0.243511
717400 60.2689 176.913 55.7864 0.35865 0.209806
717600 60.2689 176.926 55.7864 0.35875 0.172604
717800 60.2689 176.939 55.7864 0.35885 0.0504774
718000 60.2689 176.952 55.7864 0.35895 -0.0099136
718200 60.2689 176.965 55.7864 0.35905 -0.0947213
718400 60.2689 176.978 55.7864 0.35915 -0.154759
718600 60.2689 176.991 55.7864 0.35925 -0.166272
718800 60.2689 177.004 55.7864 0.35935 -0.256641
719000 60.2689 177.017 55.7864 0.35945 -0.255015
719200 60.2689 177.03 55.7864 0.35955 -0.238816
719400 60.2689 177.043 55.7864 0.35965 -0.187926
719600 60.2689 177.056 55.7864 0.35975 -0.133034
719800 60.2689 177.069 55.7864 0.35985 -0.0698428
720000 60.2689 177.082 55.7864 0.35995 0.0192557
720200 60.2689 177.095 55.7864 0.36005 0.0787295
720400 60.2689 177.108 55.7864 0.36015 0.163879
720600 60.2689 177.121 55.7864 0.36025 0.204151
720800 60.2689 177.134 55.7864 0.36035 0.236718
721000 60.2689 177.147 55.7864 0.36045 0.243079
721200 60.2689 177.16 55.7864 0.36055 0.219833
721400 60.2689 177.173 55.7864 0.36065 0.21458
721600 60.2689 177.186 55.7864 0.36075 0.138892
721800 60.2689 177.199 55.7864 0.36085 0.0611452
722000 60.2689 177.212 55.7864 0.36095 -0.0357907
722200 60.2689 177.225 55.7864 0.36105 -0.10058
722400 60.2689 177.238 55.7864 0.36115 -0.148821
722600 60.2689 177.252 55.7864 0.36125 -0.219198
722800 60.2689 177.265 55.7864 0.36135 -0.225826
723000 60.2689 177.278 55.7864 0.36145 -0.241932
723200 60.2689 177.291 55.7864 0.36155 -0.20145
723400 60.2689 177.304 55.7864 0.36165 -0.196733
723600 60.2689 177.317 55.7864 0.36175 -0.14362
723800 60.2689 177.33 55.7864 0.36185 -0.0466492
724000 60.2689 177.343 55.7864 0.36195 0.0162976
724200 60.2689 177.356 55.7864 0.36205 0.107174
724400 60.2689 177.369 55.7864 0.36215 0.187686
724600 60.2689 177.382 55.7864 0.36225 0.206613
724800 60.2689 177.395 55.7864 0.36235 0.241572
725000 60.2689 177.408 55.7864 0.36245 0.238564
725200 60.2689 177.421 55.7864 0.36255 0.235355
725400 60.2689 177.434 55.7864 0.36265 0.195251
725600 60.2689 177.447 55.7864 0.36275 0.109207
725800 60.2689 177.46 55.7864 0.36285 0.0293852
726000 60.2689 177.473 55.7864 0.36295 -0.0344218
726200 60.2689 177.486 55.7864 0.36305 -0.101997
726400 60.2689 177.499 55.7864 0.36315 -0.183984
726600 60.2689 177.512 55.7864 0.36325 -0.194772
726800 60.2689 177.525 55.7864 0.36335 -0.24372
727000 60.2689 177.538 55.7864 0.36345 -0.224429
727200 60.2689 177.551 55.7864 0.36355 -0.228151
727400 60.2689 177.564 55.7864 0.36365 -0.1576
727600 60.2689 177.577 55.7864 0.36375 -0.12185
727800 60.2689 177.59 55.7864 0.36385 -0.0303974
728000 60.2689 177.603 55.7864 0.36395 0.0113817
728200 60.2689 177.616 55.7864 0.36405 0.117319
728400 60.2689 177.629 55.7864 0.36415 0.191696
728600 60.2689 177.642 55.7864 0.36425 0.215591
728800 60.2689 177.655 55.7864 0.36435 0.247352
729000 60.2689 177.668 55.7864 0.36445 0.255397
729200 60.2689 177.681 55.7864 0.36455 0.186948
729400 60.2689 177.694 55.7864 0.36465 0.160679
729600 60.2689 177.707 55.7864 0.36475 0.0965213
729800 60.2689 177.72 55.7864 0.36485 0.0383463
730000 60.2689 177.733 55.7864 0.36495 -0.0374777
730200 60.2689 177.746 55.7864 0.36505 -0.110257
730400 60.2689 177.759 55.7864 0.36515 -0.17751
730600 60.2689 177.772 55.7864 0.36525 -0.215948
730800 60.2689 177.785 55.7864 0.36535 -0.224484
731000 60.2689 177.798 55.7864 0.36545 -0.260187
731200 60.2689 177.811 55.7864 0.36555 -0.188382
731400 60.2689 177.824 55.7864 0.36565 -0.15515
731600 60.2689 177.837 55.7864 0.36575 -0.0938329
731800 60.2689 177.85 55.7864 0.36585 -0.0087133
732000 60.2689 177.864 55.7864 0.36595 0.0488721
732200 60.2689 177.877 55.7864 0.36605 0.115953
732400 60.2689 177.89 55.7864 0.36615 0.158463
732600 60.2689 177.903 55.7864 0.36625 0.217709
732800 60.2689 177.916 55.7864 0.36635 0.262628
733000 60.2689 177.929 55.7864 0.36645 0.234846
733200 60.2689 177.942 55.7864 0.36655 0.201025
733400 60.2689 177.955 55.7864 0.36665 0.146595
733600 60.2689 177.968 55.7864 0.36675 0.0853934
733800 60.2689 177.981 55.7864 0.36685 0.00410607
734000 60.2689 177.994 55.7864 0.36695 -0.0516814
734200 60.2689 178.007 55.7864 0.36705 -0.1182
734400 60.2689 178.02 55.7864 0.36715 -0.185831
734600 60.2689 178.033 55.7864 0.36725 -0.219866
734800 60.2689 178.046 55.7864 0.36735 -0.231905
735000 60.2689 178.059 55.7864 0.36745 -0.229163
735200 60.2689 178.072 55.7864 0.36755 -0.193246
735400 60.2689 178.085 55.7864 0.36765 -0.11673
735600 60.2689 178.098 55.7864 0.36775 -0.100416
735800 60.2689 178.111 55.7864 0.36785 -0.00825332
736000 60.2689 178.124 55.7864 0.36795 0.0590442
736200 60.2689 178.137 55.7864 0.36805 0.143914
736400 60.2689 178.15 55.7864 0.36815 0.177353
736600 60.2689 178.163 55.7864 0.36825 0.230717
736800 60.2689 178.176 55.7864 0.36835 0.220795
737000 60.2689 178.189 55.7864 0.36845 0.229672
737200 60.2689 178.202 55.7864 0.36855 0.194987
737400 60.2689 178.215 55.7864 0.36865 0.14267
737600 60.2689 178.228 55.7864 0.36875 0.0606824
737800 60.2689 178.241 55.7864 0.36885 -0.0019687
738000 60.2689 178.254 55.7864 0.36895 -0.0839681
738200 60.2689 178.267 55.7864 0.36905 -0.142965
738400 60.2689 178.28 55.7864 0.36915 -0.17064
738600 60.2689 178.293 55.7864 0.36925 -0.218123
738800 60.2689 178.306 55.7864 0.36935 -0.209373
739000 60.2689 178.319 55.7864 0.36945 -0.209387
739200 60.2689 178.332 55.7864 0.36955 -0.178693
739400 60.2689 178.345 55.7864 0.36965 -0.139623
739600 60.2689 178.358 55.7864 0.36975 -0.0690206
739800 60.2689 178.371 55.7864 0.36985 0.0245911
740000 60.2689 178.384 55.7864 0.36995 0.0808923
740200 60.2689 178.397 55.7864 0.37005 0.155372
740400 60.2689 178.41 55.7864 0.37015 0.174273
740600 60.2689 178.423 55.7864 0.37025 0.226585
740800 60.2689 178.436 55.7864 0.37035 0.208558
741000 60.2689 178.449 55.7864 0.37045 0.213248
741200 60.2689 178.462 55.7864 0.37055 0.199228
741400 60.2689 178.476 55.7864 0.37065 0.10663
741600 60.2689 178.489 55.7864 0.37075 0.0528663
741800 60.2689 178.502 55.7864 0.37085 -0.0081717
742000 60.2689 178.515 55.7864 0.37095 -0.122448
742200 60.2689 178.528 55.7864 0.37105 -0.1417
742400 60.2689 178.541 55.7864 0.37115 -0.178154
742600 60.2689 178.554 55.7864 0.37125 -0.219656
742800 60.2689 178.567 55.7864 0.37135 -0.227051
743000 60.2689 178.58 55.7864 0.37145 -0.199959
743200 60.2689 178.593 55.7864 0.37155 -0.141463
743400 60.2689 178.606 55.7864 0.37165 -0.132477
743600 60.2689 178.619 55.7864 0.37175 -0.0435128
743800 60.2689 178.632 55.7864 0.37185 0.0450808
744000 60.2689 178.645 55.7864 0.37195 0.0866559
744200 60.2689 178.658 55.7864 0.37205 0.162106
744400 60.2689 178.671 55.7864 0.37215 0.196195
744600 60.2689 178.684 55.7864 0.37225 0.226496
744800 60.2689 178.697 55.7864 0.37235 0.220884
745000 60.2689 178.71 55.7864 0.37245 0.209948
745200 60.2689 178.723 55.7864 0.37255 0.147235
745400 60.2689 178.736 55.7864 0.37265 0.0899336
745600 60.2689 178.749 55.7864 0.37275 0.0403656
745800 60.2689 178.762 55.7864 0.37285 -0.0363018
746000 60.2689 178.775 55.7864 0.37295 -0.118304
746200 60.2689 178.788 55.7864 0.37305 -0.159628
746400 60.2689 178.801 55.7864 0.37315 -0.196133
746600 60.2689 178.814 55.7864 0.37325 -0.196091
746800 60.2689 178.827 55.7864 0.37335 -0.22351
747000 60.2689 178.84 55.7864 0.37345 -0.182912
747200 60.2689 178.853 55.7864 0.37355 -0.159397
747400 60.2689 178.866 55.7864 0.37365 -0.105357
747600 60.2689 178.879 55.7864 0.37375 0.00139371
747800 60.2689 178.892 55.7864 0.37385 0.0303537
748000 60.2689 178.905 55.7864 0.37395 0.111003
748200 60.2689 178.918 55.7864 0.37405 0.139628
748400 60.2689 178.931 55.7864 0.37415 0.208309
748600 60.2689 178.944 55.7864 0.37425 0.240412
748800 60.2689 178.957 55.7864 0.37435 0.207049
749000 60.2689 178.97 55.7864 0.37445 0.198048
749200 60.2689 178.983 55.7864 0.37455 0.121185
749400 60.2689 178.996 55.7864 0.37465 0.0989591
749600 60.2689 179.009 55.7864 0.37475 0.0198272
749800 60.2689 179.022 55.7864 0.37485 -0.0447551
750000 60.2689 179.035 55.7864 0.37495 -0.127648
750200 60.2689 179.048 55.7864 0.37505 -0.157376
750400 60.2689 179.061 55.7864 0.37515 -0.187734
750600 60.2689 179.074 55.7864 0.37525 -0.211996
750800 60.2689 179.088 55.7864 0.37535 -0.226385
751000 60.2689 179.101 55.7864 0.37545 -0.180316
751200 60.2689 179.114 55.7864 0.37555 -0.122681
751400 60.2689 179.127 55.7864 0.37565 -0.0751521
751600 60.2689 179.14 55.7864 0.37575 -0.0134811
751800 60.2689 179.153 55.7864 0.37585 0.0421659
752000 60.2689 179.166 55.7864 0.37595 0.12753
752200 60.2689 179.179 55.7864 0.37605 0.175736
752400 60.2689 179.192 55.7864 0.37615 0.197475
752600 60.2689 179.205 55.7864 0.37625 0.199578
752800 60.2689 179.218 55.7864 0.37635 0.250385
753000 60.2689 179.231 55.7864 0.37645 0.185033
753200 60.2689 179.244 55.7864 0.37655 0.117797
753400 60.2689 179.257 55.7864 0.37665 0.0590696
753600 60.2689 179.27 55.7864 0.37675 0.0171859
753800 60.2689 179.283 55.7864 0.37685 -0.0695455
754000 60.2689 179.296 55.7864 0.37695 -0.115794
754200 60.2689 179.309 55.7864 0.37705 -0.183636
754400 60.2689 179.322 55.7864 0.37715 -0.204262
754600 60.2689 179.335 55.7864 0.37725 -0.208665
754800 60.2689 179.348 55.7864 0.37735 -0.194441
755000 60.2689 179.361 55.7864 0.37745 -0.182832
755200 60.2689 179.374 55.7864 0.37755 -0.116418
755400 60.2689 179.387 55.7864 0.37765 -0.0609143
755600 60.2689 179.4 55.7864 0.37775 -0.0145251
755800 60.2689 179.413 55.7864 0.37785 0.0541991
756000 60.2689 179.426 55.7864 0.37795 0.134468
756200 60.2689 179.439 55.7864 0.37805 0.167432
756400 60.2689 179.452 55.7864 0.37815 0.215953
756600 60.2689 179.465 55.7864 0.37825 0.23954
756800 60.2689 179.478 55.7864 0.37835 0.194589
757000 60.2689 179.491 55.7864 0.37845 0.175401
757200 60.2689 179.504 55.7864 0.37855 0.11099
757400 60.2689 179.517 55.7864 0.37865 0.0593729
757600 60.2689 179.53 55.7864 0.37875 0.00196909
757800 60.2689 179.543 55.7864 0.37885 -0.096092
758000 60.2689 179.556 55.7864 0.37895 -0.120639
758200 60.2689 179.569 55.7864 0.37905 -0.178765
758400 60.2689 179.582 55.7864 0.37915 -0.193714
758600 60.2689 179.595 55.7864 0.37925 -0.208655
758800 60.2689 179.608 55.7864 0.37935 -0.204291
759000 60.2689 179.621 55.7864 0.37945 -0.162984
759200 60.2689 179.634 55.7864 0.37955 -0.101948
759400 60.2689 179.647 55.7864 0.37965 -0.0454311
759600 60.2689 179.66 55.7864 0.37975 0.00303337
759800 60.2689 179.673 55.7864 0.37985 0.0925596
760000 60.2689 179.686 55.7864 0.37995 0.134344
760200 60.2689 179.7 55.7864 0.38005 0.175299
760400 60.2689 179.713 55.7864 0.38015 0.195356
760600 60.2689 179.726 55.7864 0.38025 0.214216
760800 60.2689 179.739 55.7864 0.38035 0.197168
761000 60.2689 179.752 55.7864 0.38045 0.170517
761200 60.2689 179.765 55.7864 0.38055 0.111743
761400 60.2689 179.778 55.7864 0.38065 0.027129
761600 60.2689 179.791 55.7864 0.38075 -0.0256703
761800 60.2689 179.804 55.7864 0.38085 -0.0940148
762000 60.2689 179.817 55.7864 0.38095 -0.12888
762200 60.2689 179.83 55.7864 0.38105 -0.169245
762400 60.2689 179.843 55.7864 0.38115 -0.194637
762600 60.2689 179.856 55.7864 0.38125 -0.201703
762800 60.2689 179.869 55.7864 0.38135 -0.193824
763000 60.2689 179.882 55.7864 0.38145 -0.160854
763200 60.2689 179.895 55.7864 0.38155 -0.0938948
763400 60.2689 179.908 55.7864 0.38165 -0.0379155
763600 60.2689 179.921 55.7864 0.38175 0.0234149
763800 60.2689 179.934 55.7864 0.38185 0.083796
764000 60.2689 179.947 55.7864 0.38195 0.168954
764200 60.2689 179.96 55.7864 0.38205 0.164601
764400 60.2689 179.973 55.7864 0.38215 0.199944
764600 60.2689 179.986 55.7864 0.38225 0.211735
764800 60.2689 179.999 55.7864 0.38235 0.191288
765000 60.2689 180.012 55.7864 0.38245 0.145429
765200 60.2689 180.025 55.7864 0.38255 0.109917
765400 60.2689 180.038 55.7864 0.38265 0.0239804
765600 60.2689 180.051 55.7864 0.38275 -0.0270716
765800 60.2689 180.064 55.7864 0.38285 -0.0992823
766000 60.2689 180.077 55.7864 0.38295 -0.159382
766200 60.2689 180.09 55.7864 0.38305 -0.197769
766400 60.2689 180.103 55.7864 0.38315 -0.194596
766600 60.2689 180.116 55.7864 0.38325 -0.204067
766800 60.2689 180.129 55.7864 0.38335 -0.174901
767000 60.2689 180.142 55.7864 0.38345 -0.118748
767200 60.2689 180.155 55.7864 0.38355 -0.0858033
767400 60.2689 180.168 55.7864 0.38365 -0.025581
767600 60.2689 180.181 55.7864 0.38375 0.0160728
767800 60.2689 180.194 55.7864 0.38385 0.11731
768000 60.2689 180.207 55.7864 0.38395 0.157263
768200 60.2689 180.22 55.7864 0.38405 0.171199
768400 60.2689 180.233 55.7864 0.38415 0.210724
768600 60.2689 180.246 55.7864 0.38425 0.203476
768800 60.2689 180.259 55.7864 0.38435 0.161064
769000 60.2689 180.272 55.7864 0.38445 0.126733
769200 60.2689 180.285 55.7864 0.38455 0.0694645
769400 60.2689 180.298 55.7864 0.38465 0.0394718
769600 60.2689 180.312 55.7864 0.38475 -0.0336747
769800 60.2689 180.325 55.7864 0.38485 -0.108366
770000 60.2689 180.338 55.7864 0.38495 -0.130786
770200 60.2689 180.351 55.7864 0.38505 -0.176995
770400 60.2689 180.364 55.7864 0.38515 -0.213268
770600 60.2689 180.377 55.7864 0.38525 -0.194659
770800 60.2689 180.39 55.7864 0.38535 -0.16086
771000 60.2689 180.403 55.7864 0.38545 -0.124709
771200 60.2689 180.416 55.7864 0.38555 -0.0739591
771400 60.2689 180.429 55.7864 0.38565 -0.0216015
771600 60.2689 180.442 55.7864 0.38575 0.0526768
771800 60.2689 180.455 55.7864 0.38585 0.0836255
772000 60.2689 180.468 55.7864 0.38595 0.147089
772200 60.2689 180.481 55.7864 0.38605 0.207628
772400 60.2689 180.494 55.7864 0.38615 0.19101
772600 60.2689 180.507 55.7864 0.38625 0.199028
772800 60.2689 180.52 55.7864 0.38635 0.18052
773000 60.2689 180.533 55.7864 0.38645 0.118411
773200 60.2689 180.546 55.7864 0.38655 0.0595023
773400 60.2689 180.559 55.7864 0.38665 0.00279294
773600 60.2689 180.572 55.7864 0.38675 -0.0280698
773800 60.2689 180.585 55.7864 0.38685 -0.111227
774000 60.2689 180.598 55.7864 0.38695 -0.143414
774200 60.2689 180.611 55.7864 0.38705 -0.188297
774400 60.2689 180.624 55.7864 0.38715 -0.224086
774600 60.2689 180.637 55.7864 0.38725 -0.186754
774800 60.2689 180.65 55.7864 0.38735 -0.14874
775000 60.2689 180.663 55.7864 0.38745 -0.117155
775200 60.2689 180.676 55.7864 0.38755 -0.0741049
775400 60.2689 180.689 55.7864 0.38765 0.0136949
775600 60.2689 180.702 55.7864 0.38775 0.0489909
775800 60.2689 180.715 55.7864 0.38785 0.109071
776000 60.2689 180.728 55.7864 0.38795 0.147086
776200 60.2689 180.741 55.7864 0.38805 0.200192
776400 60.2689 180.754 55.7864 0.38815 0.206541
776600 60.2689 180.767 55.7864 0.38825 0.193601
776800 60.2689 180.78 55.7864 0.38835 0.143395
777000 60.2689 180.793 55.7864 0.38845 0.12359
777200 60.2689 180.806 55.7864 0.38855 0.0629032
777400 60.2689 180.819 55.7864 0.38865 -0.00902526
777600 60.2689 180.832 55.7864 0.38875 -0.0355609
777800 60.2689 180.845 55.7864 0.38885 -0.145924
778000 60.2689 180.858 55.7864 0.38895 -0.153317
778200 60.2689 180.871 55.7864 0.38905 -0.186351
778400 60.2689 180.884 55.7864 0.38915 -0.185669
778600 60.2689 180.897 55.7864 0.38925 -0.182892
778800 60.2689 180.91 55.7864 0.38935 -0.136341
779000 60.2689 180.923 55.7864 0.38945 -0.120034
779200 60.2689 180.937 55.7864 0.38955 -0.0564091
779400 60.2689 180.95 55.7864 0.38965 0.0105065
779600 60.2689 180.963 55.7864 0.38975 0.0683943
779800 60.2689 180.976 55.7864 0.38985 0.126137
780000 60.2689 180.989 55.7864 0.38995 0.177351
780200 60.2689 181.002 55.7864 0.39005 0.187942
780400 60.2689 181.015 55.7864 0.39015 0.183377
780600 60.2689 181.028 55.7864 0.39025 0.172007
780800 60.2689 181.041 55.7864 0.39035 0.129361
781000 60.2689 181.054 55.7864 0.39045 0.107972
781200 60.2689 181.067 55.7864 0.39055 0.0492606
781400 60.2689 181.08 55.7864 0.39065 -0.0187707
781600 60.2689 181.093 55.7864 0.39075 -0.0687138
781800 60.2689 181.106 55.7864 0.39085 -0.124855
782000 60.2689 181.119 55.7864 0.39095 -0.166908
782200 60.2689 181.132 55.7864 0.39105 -0.197105
782400 60.2689 181.145 55.7864 0.39115 -0.172815
782600 60.2689 181.158 55.7864 0.39125 -0.181307
782800 60.2689 181.171 55.7864 0.39135 -0.135816
783000 60.2689 181.184 55.7864 0.39145 -0.0857729
783200 60.2689 181.197 55.7864 0.39155 -0.0470518
783400 60.2689 181.21 55.7864 0.39165 0.0227606
783600 60.2689 181.223 55.7864 0.39175 0.081924
783800 60.2689 181.236 55.7864 0.39185 0.135994
784000 60.2689 181.249 55.7864 0.39195 0.194298
784200 60.2689 181.262 55.7864 0.39205 0.205292
784400 60.2689 181.275 55.7864 0.39215 0.175379
784600 60.2689 181.288 55.7864 0.39225 0.172115
784800 60.2689 181.301 55.7864 0.39235 0.127631
785000 60.2689 181.314 55.7864 0.39245 0.0715159
785200 60.2689 181.327 55.7864 0.39255 0.0217532
785400 60.2689 181.34 55.7864 0.39265 -0.019611
785600 60.2689 181.353 55.7864 0.39275 -0.0708679
785800 60.2689 181.366 55.7864 0.39285 -0.146605
786000 60.2689 181.379 55.7864 0.39295 -0.183752
786200 60.2689 181.392 55.7864 0.39305 -0.18482
786400 60.2689 181.405 55.7864 0.39315 -0.175479
786600 60.2689 181.418 55.7864 0.39325 -0.165078
786800 60.2689 181.431 55.7864 0.39335 -0.116991
787000 60.2689 181.444 55.7864 0.39345 -0.0775516
787200 60.2689 181.457 55.7864 0.39355 -0.0124342
787400 60.2689 181.47 55.7864 0.39365 0.0312647
787600 60.2689 181.483 55.7864 0.39375 0.0872206
787800 60.2689 181.496 55.7864 0.39385 0.14871
788000 60.2689 181.509 55.7864 0.39395 0.182443
788200 60.2689 181.522 55.7864 0.39405 0.177241
788400 60.2689 181.535 55.7864 0.39415 0.173805
788600 60.2689 181.549 55.7864 0.39425 0.154196
788800 60.2689 181.562 55.7864 0.39435 0.122243
789000 60.2689 181.575 55.7864 0.39445 0.0621742
789200 60.2689 181.588 55.7864 0.39455 0.0199026
789400 60.2689 181.601 55.7864 0.39465 -0.0498726
789600 60.2689 181.614 55.7864 0.39475 -0.0838191
789800 60.2689 181.627 55.7864 0.39485 -0.139749
790000 60.2689 181.64 55.7864 0.39495 -0.161653
790200 60.2689 181.653 55.7864 0.39505 -0.188155
790400 60.2689 181.666 55.7864 0.39515 -0.171993
790600 60.2689 181.679 55.7864 0.39525 -0.141003
790800 60.2689 181.692 55.7864 0.39535 -0.112655
791000 60.2689 181.705 55.7864 0.39545 -0.065913
791200 60.2689 181.718 55.7864 0.39555 0.00141711
791400 60.2689 181.731 55.7864 0.39565 0.0294355
791600 60.2689 181.744 55.7864 0.39575 0.110373
791800 60.2689 181.757 55.7864 0.39585 0.123686
792000 60.2689 181.77 55.7864 0.39595 0.180092
792200 60.2689 181.783 55.7864 0.39605 0.186777
792400 60.2689 181.796 55.7864 0.39615 0.188263
792600 60.2689 181.809 55.7864 0.39625 0.138877
792800 60.2689 181.822 55.7864 0.39635 0.11155
793000 60.2689 181.835 55.7864 0.39645 0.0385052
793200 60.2689 181.848 55.7864 0.39655 0.00774784
793400 60.2689 181.861 55.7864 0.39665 -0.0415106
793600 60.2689 181.874 55.7864 0.39675 -0.104555
793800 60.2689 181.887 55.7864 0.39685 -0.142854
794000 60.2689 181.9 55.7864 0.39695 -0.171297
794200 60.2689 181.913 55.7864 0.39705 -0.180673
794400 60.2689 181.926 55.7864 0.39715 -0.159333
794600 60.2689 181.939 55.7864 0.39725 -0.16089
794800 60.2689 181.952 55.7864 0.39735 -0.0965036
795000 60.2689 181.965 55.7864 0.39745 -0.0367836
795200 60.2689 181.978 55.7864 0.39755 -0.000329825
795400 60.2689 181.991 55.7864 0.39765 0.0413219
795600 60.2689 182.004 55.7864 0.39775 0.107335
795800 60.2689 182.017 55.7864 0.39785 0.154497
796000 60.2689 182.03 55.7864 0.39795 0.179594
796200 60.2689 182.043 55.7864 0.39805 0.179939
796400 60.2689 182.056 55.7864 0.39815 0.163335
796600 60.2689 182.069 55.7864 0.39825 0.158062
796800 60.2689 182.082 55.7864 0.39835 0.10308
797000 60.2689 182.095 55.7864 0.39845 0.0470203
797200 60.2689 182.108 55.7864 0.39855 -0.0319736
797400 60.2689 182.121 55.7864 0.39865 -0.0502821
797600 60.2689 182.134 55.7864 0.39875 -0.0936589
797800 60.2689 182.147 55.7864 0.39885 -0.157016
798000 60.2689 182.161 55.7864 0.39895 -0.180783
798200 60.2689 182.174 55.7864 0.39905 -0.171329
798400 60.2689 182.187 55.7864 0.39915 -0.155221
798600 60.2689 182.2 55.7864 0.39925 -0.152798
798800 60.2689 182.213 55.7864 0.39935 -0.0798368
799000 60.2689 182.226 55.7864 0.39945 -0.0652069
799200 60.2689 182.239 55.7864 0.39955 0.012605
799400 60.2689 182.252 55.7864 0.39965 0.0841758
799600 60.2689 182.265 55.7864 0.39975 0.115709
799800 60.2689 182.278 55.7864 0.39985 0.166456
800000 60.2689 182.291 55.7864 0.39995 0.164652
800200 60.2689 182.304 55.7864 0.40005 0.168017
800400 60.2689 182.317 55.7864 0.40015 0.178995
800600 60.2689 182.33 55.7864 0.40025 0.152527
800800 60.2689 182.343 55.7864 0.40035 0.0882054
801000 60.2689 182.356 55.7864 0.40045 0.0158317
801200 60.2689 182.369 55.7864 0.40055 -0.0286673
801400 60.2689 182.382 55.7864 0.40065 -0.0656258
801600 60.2689 182.395 55.7864 0.40075 -0.122431
801800 60.2689 182.408 55.7864 0.40085 -0.16664
802000 60.2689 182.421 55.7864 0.40095 -0.149686
802200 60.2689 182.434 55.7864 0.40105 -0.181995
802400 60.2689 182.447 55.7864 0.40115 -0.166229
802600 60.2689 182.46 55.7864 0.40125 -0.1259
802800 60.2689 182.473 55.7864 0.40135 -0.0914521
803000 60.2689 182.486 55.7864 0.40145 -0.0220347
803200 60.2689 182.499 55.7864 0.40155 0.0460176
803400 60.2689 182.512 55.7864 0.40165 0.0754932
803600 60.2689 182.525 55.7864 0.40175 0.121488
803800 60.2689 182.538 55.7864 0.40185 0.185062
804000 60.2689 182.551 55.7864 0.40195 0.172931
804200 60.2689 182.564 55.7864 0.40205 0.16817
804400 60.2689 182.577 55.7864 0.40215 0.160017
804600 60.2689 182.59 55.7864 0.40225 0.120035
804800 60.2689 182.603 55.7864 0.40235 0.075542
805000 60.2689 182.616 55.7864 0.40245 0.0249983
805200 60.2689 182.629 55.7864 0.40255 -0.034612
805400 60.2689 182.642 55.7864 0.40265 -0.100377
805600 60.2689 182.655 55.7864 0.40275 -0.132102
805800 60.2689 182.668 55.7864 0.40285 -0.173933
806000 60.2689 182.681 55.7864 0.40295 -0.170874
806200 60.2689 182.694 55.7864 0.40305 -0.16537
806400 60.2689 182.707 55.7864 0.40315 -0.140166
806600 60.2689 182.72 55.7864 0.40325 -0.105737
806800 60.2689 182.733 55.7864 0.40335 -0.0535338
807000 60.2689 182.746 55.7864 0.40345 -0.0300929
807200 60.2689 182.759 55.7864 0.40355 0.0327547
807400 60.2689 182.773 55.7864 0.40365 0.10397
807600 60.2689 182.786 55.7864 0.40375 0.158006
807800 60.2689 182.799 55.7864 0.40385 0.166013
808000 60.2689 182.812 55.7864 0.40395 0.172095
808200 60.2689 182.825 55.7864 0.40405 0.166982
808400 60.2689 182.838 55.7864 0.40415 0.111214
808600 60.2689 182.851 55.7864 0.40425 0.118765
808800 60.2689 182.864 55.7864 0.40435 0.0786929
809000 60.2689 182.877 55.7864 0.40445 -0.00167365
809200 60.2689 182.89 55.7864 0.40455 -0.0437896
809400 60.2689 182.903 55.7864 0.40465 -0.0946758
809600 60.2689 182.916 55.7864 0.40475 -0.151938
809800 60.2689 182.929 55.7864 0.40485 -0.151953
810000 60.2689 182.942 55.7864 0.40495 -0.175237
810200 60.2689 182.955 55.7864 0.40505 -0.157243
810400 60.2689 182.968 55.7864 0.40515 -0.130565
810600 60.2689 182.981 55.7864 0.40525 -0.0692551
810800 60.2689 182.994 55.7864 0.40535 -0.0462061
811000 60.2689 183.007 55.7864 0.40545 0.00430841
811200 60.2689 183.02 55.7864 0.40555 0.0348103
811400 60.2689 183.033 55.7864 0.40565 0.107804
811600 60.2689 183.046 55.7864 0.40575 0.140878
811800 60.2689 183.059 55.7864 0.40585 0.157778
812000 60.2689 183.072 55.7864 0.40595 0.150466
812200 60.2689 183.085 55.7864 0.40605 0.171527
812400 60.2689 183.098 55.7864 0.40615 0.113714
812600 60.2689 183.111 55.7864 0.40625 0.0804182
812800 60.2689 183.124 55.7864 0.40635 0.02854
813000 60.2689 183.137 55.7864 0.40645 -0.0111358
813200 60.2689 183.15 55.7864 0.40655 -0.0532327
813400 60.2689 183.163 55.7864 0.40665 -0.097154
813600 60.2689 183.176 55.7864 0.40675 -0.117133
813800 60.2689 183.189 55.7864 0.40685 -0.154546
814000 60.2689 183.202 55.7864 0.40695 -0.148761
814200 60.2689 183.215 55.7864 0.40705 -0.153446
814400 60.2689 183.228 55.7864 0.40715 -0.121015
814600 60.2689 183.241 55.7864 0.40725 -0.0653361
814800 60.2689 183.254 55.7864 0.40735 -0.0621925
815000 60.2689 183.267 55.7864 0.40745 0.0149584
815200 60.2689 183.28 55.7864 0.40755 0.0646782
815400 60.2689 183.293 55.7864 0.40765 0.0800999
815600 60.2689 183.306 55.7864 0.40775 0.156312
815800 60.2689 183.319 55.7864 0.40785 0.158671
816000 60.2689 183.332 55.7864 0.40795 0.167865
816200 60.2689 183.345 55.7864 0.40805 0.137802
816400 60.2689 183.358 55.7864 0.40815 0.127226
816600 60.2689 183.371 55.7864 0.40825 0.0533639
816800 60.2689 183.385 55.7864 0.40835 0.0561286
817000 60.2689 183.398 55.7864 0.40845 -0.0227349
817200 60.2689 183.411 55.7864 0.40855 -0.0541002
817400 60.2689 183.424 55.7864 0.40865 -0.076217
817600 60.2689 183.437 55.7864 0.40875 -0.165795
817800 60.2689 183.45 55.7864 0.40885 -0.159512
818000 60.2689 183.463 55.7864 0.40895 -0.148083
818200 60.2689 183.476 55.7864 0.40905 -0.149547
818400 60.2689 183.489 55.7864 0.40915 -0.104875
818600 60.2689 183.502 55.7864 0.40925 -0.0564008
818800 60.2689 183.515 55.7864 0.40935 -0.0425822
819000 60.2689 183.528 55.7864 0.40945 0.0161316
819200 60.2689 183.541 55.7864 0.40955 0.0736088
819400 60.2689 183.554 55.7864 0.40965 0.0836858
819600 60.2689 183.567 55.7864 0.40975 0.137659
819800 60.2689 183.58 55.7864 0.40985 0.180053
820000 60.2689 183.593 55.7864 0.40995 0.18652
820200 60.2689 183.606 55.7864 0.41005 0.134121
820400 60.2689 183.619 55.7864 0.41015 0.0975553
820600 60.2689 183.632 55.7864 0.41025 0.0730182
820800 60.2689 183.645 55.7864 0.41035 0.01548
821000 60.2689 183.658 55.7864 0.41045 -0.0321028
821200 60.2689 183.671 55.7864 0.41055 -0.0715548
821400 60.2689 183.684 55.7864 0.41065 -0.10332
821600 60.2689 183.697 55.7864 0.41075 -0.139914
821800 60.2689 183.71 55.7864 0.41085 -0.164491
822000 60.2689 183.723 55.7864 0.41095 -0.190295
822200 60.2689 183.736 55.7864 0.41105 -0.135855
822400 60.2689 183.749 55.7864 0.41115 -0.0698546
822600 60.2689 183.762 55.7864 0.41125 -0.0629251
822800 60.2689 183.775 55.7864 0.41135 -0.022901
823000 60.2689 183.788 55.7864 0.41145 0.0478731
823200 60.2689 183.801 55.7864 0.41155 0.0884562
823400 60.2689 183.814 55.7864 0.41165 0.12535
823600 60.2689 183.827 55.7864 0.41175 0.120631
823800 60.2689 183.84 55.7864 0.41185 0.160081
824000 60.2689 183.853 55.7864 0.41195 0.171358
824200 60.2689 183.866 55.7864 0.41205 0.137933
824400 60.2689 183.879 55.7864 0.41215 0.0997279
824600 60.2689 183.892 55.7864 0.41225 0.0663478
824800 60.2689 183.905 55.7864 0.41235 0.0079191
825000 60.2689 183.918 55.7864 0.41245 -0.0562157
825200 60.2689 183.931 55.7864 0.41255 -0.0880427
825400 60.2689 183.944 55.7864 0.41265 -0.123662
825600 60.2689 183.957 55.7864 0.41275 -0.129244
825800 60.2689 183.97 55.7864 0.41285 -0.152523
826000 60.2689 183.983 55.7864 0.41295 -0.153766
826200 60.2689 183.997 55.7864 0.41305 -0.135169
826400 60.2689 184.01 55.7864 0.41315 -0.102484
826600 60.2689 184.023 55.7864 0.41325 -0.0487828
826800 60.2689 184.036 55.7864 0.41335 0.000536951
827000 60.2689 184.049 55.7864 0.41345 0.0426561
827200 60.2689 184.062 55.7864 0.41355 0.107885
827400 60.2689 184.075 55.7864 0.41365 0.104047
827600 60.2689 184.088 55.7864 0.41375 0.163993
827800 60.2689 184.101 55.7864 0.41385 0.16345
828000 60.2689 184.114 55.7864 0.41395 0.13076
828200 60.2689 184.127 55.7864 0.41405 0.132326
828400 60.2689 184.14 55.7864 0.41415 0.100733
828600 60.2689 184.153 55.7864 0.41425 0.0444602
828800 60.2689 184.166 55.7864 0.41435 -0.00701627
829000 60.2689 184.179 55.7864 0.41445 -0.0437583
829200 60.2689 184.192 55.7864 0.41455 -0.0906822
829400 60.2689 184.205 55.7864 0.41465 -0.117348
829600 60.2689 184.218 55.7864 0.41475 -0.147054
829800 60.2689 184.231 55.7864 0.41485 -0.160789
830000 60.2689 184.244 55.7864 0.41495 -0.151481
830200 60.2689 184.257 55.7864 0.41505 -0.116883
830400 60.2689 184.27 55.7864 0.41515 -0.0878054
830600 60.2689 184.283 55.7864 0.41525 -0.0334559
830800 60.2689 184.296 55.7864 0.41535 0.00872231
831000 60.2689 184.309 55.7864 0.41545 0.0403016
831200 60.2689 184.322 55.7864 0.41555 0.106608
831400 60.2689 184.335 55.7864 0.41565 0.127643
831600 60.2689 184.348 55.7864 0.41575 0.152895
831800 60.2689 184.361 55.7864 0.41585 0.152517
832000 60.2689 184.374 55.7864 0.41595 0.142925
832200 60.2689 184.387 55.7864 0.41605 0.12463
832400 60.2689 184.4 55.7864 0.41615 0.0949461
832600 60.2689 184.413 55.7864 0.41625 0.0281178
832800 60.2689 184.426 55.7864 0.41635 -0.0103911
833000 60.2689 184.439 55.7864 0.41645 -0.0733939
833200 60.2689 184.452 55.7864 0.41655 -0.07425
833400 60.2689 184.465 55.7864 0.41665 -0.120633
833600 60.2689 184.478 55.7864 0.41675 -0.155016
833800 60.2689 184.491 55.7864 0.41685 -0.158955
834000 60.2689 184.504 55.7864 0.41695 -0.126774
834200 60.2689 184.517 55.7864 0.41705 -0.123322
834400 60.2689 184.53 55.7864 0.41715 -0.0871597
834600 60.2689 184.543 55.7864 0.41725 -0.0357022
834800 60.2689 184.556 55.7864 0.41735 0.00882021
835000 60.2689 184.569 55.7864 0.41745 0.0589366
835200 60.2689 184.582 55.7864 0.41755 0.117592
835400 60.2689 184.595 55.7864 0.41765 0.139096
835600 60.2689 184.609 55.7864 0.41775 0.135676
835800 60.2689 184.622 55.7864 0.41785 0.161309
836000 60.2689 184.635 55.7864 0.41795 0.131913
836200 60.2689 184.648 55.7864 0.41805 0.126758
836400 60.2689 184.661 55.7864 0.41815 0.0740193
836600 60.2689 184.674 55.7864 0.41825 0.0263815
836800 60.2689 184.687 55.7864 0.41835 0.0183935
837000 60.2689 184.7 55.7864 0.41845 -0.0841988
837200 60.2689 184.713 55.7864 0.41855 -0.0885278
837400 60.2689 184.726 55.7864 0.41865 -0.140167
837600 60.2689 184.739 55.7864 0.41875 -0.151402
837800 60.2689 184.752 55.7864 0.41885 -0.164791
838000 60.2689 184.765 55.7864 0.41895 -0.133764
838200 60.2689 184.778 55.7864 0.41905 -0.100568
838400 60.2689 184.791 55.7864 0.41915 -0.0720242
838600 60.2689 184.804 55.7864 0.41925 -0.0284493
838800 60.2689 184.817 55.7864 0.41935 0.0168948
839000 60.2689 184.83 55.7864 0.41945 0.063859
839200 60.2689 184.843 55.7864 0.41955 0.11581
839400 60.2689 184.856 55.7864 0.41965 0.140529
839600 60.2689 184.869 55.7864 0.41975 0.155475
839800 60.2689 184.882 55.7864 0.41985 0.139694
840000 60.2689 184.895 55.7864 0.41995 0.141666
840200 60.2689 184.908 55.7864 0.42005 0.111664
840400 60.2689 184.921 55.7864 0.42015 0.0697082
840600 60.2689 184.934 55.7864 0.42025 0.0183562
840800 60.2689 184.947 55.7864 0.42035 -0.0160827
841000 60.2689 184.96 55.7864 0.42045 -0.0576037
841200 60.2689 184.973 55.7864 0.42055 -0.129097
841400 60.2689 184.986 55.7864 0.42065 -0.133228
841600 60.2689 184.999 55.7864 0.42075 -0.149443
841800 60.2689 185.012 55.7864 0.42085 -0.158841
842000 60.2689 185.025 55.7864 0.42095 -0.1409
842200 60.2689 185.038 55.7864 0.42105 -0.0945695
842400 60.2689 185.051 55.7864 0.42115 -0.0633386
842600 60.2689 185.064 55.7864 0.42125 -0.0183296
842800 60.2689 185.077 55.7864 0.42135 0.0284149
843000 60.2689 185.09 55.7864 0.42145 0.0909312
843200 60.2689 185.103 55.7864 0.42155 0.114217
843400 60.2689 185.116 55.7864 0.42165 0.121487
843600 60.2689 185.129 55.7864 0.42175 0.155989
843800 60.2689 185.142 55.7864 0.42185 0.167239
844000 60.2689 185.155 55.7864 0.42195 0.132327
844200 60.2689 185.168 55.7864 0.42205 0.112645
844400 60.2689 185.181 55.7864 0.42215 0.0720565
844600 60.2689 185.194 55.7864 0.42225 0.0197536
844800 60.2689 185.207 55.7864 0.42235 -0.0446123
845000 60.2689 185.221 55.7864 0.42245 -0.0964206
845200 60.2689 185.234 55.7864 0.42255 -0.127353
845400 60.2689 185.247 55.7864 0.42265 -0.132302
845600 60.2689 185.26 55.7864 0.42275 -0.131063
845800 60.2689 185.273 55.7864 0.42285 -0.166984
846000 60.2689 185.286 55.7864 0.42295 -0.14048
846200 60.2689 185.299 55.7864 0.42305 -0.110122
846400 60.2689 185.312 55.7864 0.42315 -0.064705
846600 60.2689 185.325 55.7864 0.42325 0.010923
846800 60.2689 185.338 55.7864 0.42335 0.0478759
847000 60.2689 185.351 55.7864 0.42345 0.10992
847200 60.2689 185.364 55.7864 0.42355 0.135466
847400 60.2689 185.377 55.7864 0.42365 0.135801
847600 60.2689 185.39 55.7864 0.42375 0.158197
847800 60.2689 185.403 55.7864 0.42385 0.145779
848000 60.2689 185.416 55.7864 0.42395 0.137093
848200 60.2689 185.429 55.7864 0.42405 0.0714675
848400 60.2689 185.442 55.7864 0.42415 0.058627
848600 60.2689 185.455 55.7864 0.42425 0.00341531
848800 60.2689 185.468 55.7864 0.42435 -0.057628
849000 60.2689 185.481 55.7864 0.42445 -0.111348
849200 60.2689 185.494 55.7864 0.42455 -0.123375
849400 60.2689 185.507 55.7864 0.42465 -0.147777
849600 60.2689 185.52 55.7864 0.42475 -0.144604
849800 60.2689 185.533 55.7864 0.42485 -0.147699
850000 60.2689 185.546 55.7864 0.42495 -0.113385
850200 60.2689 185.559 55.7864 0.42505 -0.0939127
850400 60.2689 185.572 55.7864 0.42515 -0.0129977
850600 60.2689 185.585 55.7864 0.42525 0.00376379
850800 60.2689 185.598 55.7864 0.42535 0.0420719
851000 60.2689 185.611 55.7864 0.42545 0.0902866
851200 60.2689 185.624 55.7864 0.42555 0.155874
851400 60.2689 185.637 55.7864 0.42565 0.151012
851600 60.2689 185.65 55.7864 0.42575 0.170157
851800 60.2689 185.663 55.7864 0.42585 0.13878
852000 60.2689 185.676 55.7864 0.42595 0.0878817
852200 60.2689 185.689 55.7864 0.42605 0.0937814
852400 60.2689 185.702 55.7864 0.42615 0.0367663
852600 60.2689 185.715 55.7864 0.42625 -0.00142045
852800 60.2689 185.728 55.7864 0.42635 -0.0500048
853000 60.2689 185.741 55.7864 0.42645 -0.11167
853200 60.2689 185.754 55.7864 0.42655 -0.143224
853400 60.2689 185.767 55.7864 0.42665 -0.154256
853600 60.2689 185.78 55.7864 0.42675 -0.15955
853800 60.2689 185.793 55.7864 0.42685 -0.131933
854000 60.2689 185.806 55.7864 0.42695 -0.0949895
854200 60.2689 185.819 55.7864 0.42705 -0.0747566
854400 60.2689 185.833 55.7864 0.42715 -0.0477806
854600 60.2689 185.846 55.7864 0.42725 0.0241646
854800 60.2689 185.859 55.7864 0.42735 0.0657247
855000 60.2689 185.872 55.7864 0.42745 0.0954896
855200 60.2689 185.885 55.7864 0.42755 0.13177
855400 60.2689 185.898 55.7864 0.42765 0.179926
855600 60.2689 185.911 55.7864 0.42775 0.158632
855800 60.2689 185.924 55.7864 0.42785 0.121558
856000 60.2689 185.937 55.7864 0.42795 0.0971815
856200 60.2689 185.95 55.7864 0.42805 0.0779212
856400 60.2689 185.963 55.7864 0.42815 0.0415367
856600 60.2689 185.976 55.7864 0.42825 -0.0213972
856800 60.2689 185.989 55.7864 0.42835 -0.0665051
857000 60.2689 186.002 55.7864 0.42845 -0.104657
857200 60.2689 186.015 55.7864 0.42855 -0.137571
857400 60.2689 186.028 55.7864 0.42865 -0.153058
857600 60.2689 186.041 55.7864 0.42875 -0.149637
857800 60.2689 186.054 55.7864 0.42885 -0.135922
858000 60.2689 186.067 55.7864 0.42895 -0.0979332
858200 60.2689 186.08 55.7864 0.42905 -0.0732736
858400 60.2689 186.093 55.7864 0.42915 0.0027658
858600 60.2689 186.106 55.7864 0.42925 0.0151063
858800 60.2689 186.119 55.7864 0.42935 0.0701234
859000 60.2689 186.132 55.7864 0.42945 0.108731
859200 60.2689 186.145 55.7864 0.42955 0.133285
859400 60.2689 186.158 55.7864 0.42965 0.167062
859600 60.2689 186.171 55.7864 0.42975 0.129892
859800 60.2689 186.184 55.7864 0.42985 0.155361
860000 60.2689 186.197 55.7864 0.42995 0.0926673
860200 60.2689 186.21 55.7864 0.43005 0.0648874
860400 60.2689 186.223 55.7864 0.43015 0.0132328
860600 60.2689 186.236 55.7864 0.43025 -0.0492498
860800 60.2689 186.249 55.7864 0.43035 -0.0724795
861000 60.2689 186.262 55.7864 0.43045 -0.119855
861200 60.2689 186.275 55.7864 0.43055 -0.114995
861400 60.2689 186.288 55.7864 0.43065 -0.140387
861600 60.2689 186.301 55.7864 0.43075 -0.143119
861800 60.2689 186.314 55.7864 0.43085 -0.138682
862000 60.2689 186.327 55.7864 0.43095 -0.0770945
862200 60.2689 186.34 55.7864 0.43105 -0.0662436
862400 60.2689 186.353 55.7864 0.43115 -0.00865725
862600 60.2689 186.366 55.7864 0.43125 0.042761
862800 60.2689 186.379 55.7864 0.43135 0.0890945
863000 60.2689 186.392 55.7864 0.43145 0.101835
863200 60.2689 186.405 55.7864 0.43155 0.132381
863400 60.2689 186.418 55.7864 0.43165 0.146249
863600 60.2689 186.431 55.7864 0.43175 0.141327
863800 60.2689 186.444 55.7864 0.43185 0.135447
864000 60.2689 186.458 55.7864 0.43195 0.0751648
864200 60.2689 186.471 55.7864 0.43205 0.0618118
864400 60.2689 186.484 55.7864 0.43215 0.0264692
864600 60.2689 186.497 55.7864 0.43225 -0.064323
864800 60.2689 186.51 55.7864 0.43235 -0.0738788
865000 60.2689 186.523 55.7864 0.43245 -0.113475
865200 60.2689 186.536 55.7864 0.43255 -0.147363
865400 60.2689 186.549 55.7864 0.43265 -0.130256
865600 60.2689 186.562 55.7864 0.43275 -0.124419
865800 60.2689 186.575 55.7864 0.43285 -0.110814
866000 60.2689 186.588 55.7864 0.43295 -0.0848993
866200 60.2689 186.601 55.7864 0.43305 -0.0511435
866400 60.2689 186.614 55.7864 0.43315 0.0215131
866600 60.2689 186.627 55.7864 0.43325 0.0417362
866800 60.2689 186.64 55.7864 0.43335 0.0769557
867000 60.2689 186.653 55.7864 0.43345 0.105434
867200 60.2689 186.666 55.7864 0.43355 0.150411
867400 60.2689 186.679 55.7864 0.43365 0.149192
867600 60.2689 186.692 55.7864 0.43375 0.117595
867800 60.2689 186.705 55.7864 0.43385 0.0750275
868000 60.2689 186.718 55.7864 0.43395 0.0912353
868200 60.2689 186.731 55.7864 0.43405 0.0450461
868400 60.2689 186.744 55.7864 0.43415 -0.00479867
868600 60.2689 186.757 55.7864 0.43425 -0.0476279
868800 60.2689 186.77 55.7864 0.43435 -0.0703724
869000 60.2689 186.783 55.7864 0.43445 -0.126349
869200 60.2689 186.796 55.7864 0.43455 -0.142922
869400 60.2689 186.809 55.7864 0.43465 -0.153803
869600 60.2689 186.822 55.7864 0.43475 -0.115963
869800 60.2689 186.835 55.7864 0.43485 -0.0756518
870000 60.2689 186.848 55.7864 0.43495 -0.0772281
870200 60.2689 186.861 55.7864 0.43505 -0.0277693
870400 60.2689 186.874 55.7864 0.43515 0.014883
870600 60.2689 186.887 55.7864 0.43525 0.0502958
870800 60.2689 186.9 55.7864 0.43535 0.0860589
871000 60.2689 186.913 55.7864 0.43545 0.136329
871200 60.2689 186.926 55.7864 0.43555 0.138125
871400 60.2689 186.939 55.7864 0.43565 0.134956
871600 60.2689 186.952 55.7864 0.43575 0.114079
871800 60.2689 186.965 55.7864 0.43585 0.0923119
872000 60.2689 186.978 55.7864 0.43595 0.0721252
872200 60.2689 186.991 55.7864 0.43605 0.00285474
872400 60.2689 187.004 55.7864 0.43615 0.00874563
872600 60.2689 187.017 55.7864 0.43625 -0.0611061
872800 60.2689 187.03 55.7864 0.43635 -0.076962
873000 60.2689 187.043 55.7864 0.43645 -0.128054
873200 60.2689 187.056 55.7864 0.43655 -0.120541
873400 60.2689 187.07 55.7864 0.43665 -0.129401
873600 60.2689 187.083 55.7864 0.43675 -0.114706
873800 60.2689 187.096 55.7864 0.43685 -0.103361
874000 60.2689 187.109 55.7864 0.43695 -0.0554131
874200 60.2689 187.122 55.7864 0.43705 -0.0217738
874400 60.2689 187.135 55.7864 0.43715 0.0271114
874600 60.2689 187.148 55.7864 0.43725 0.0542022
874800 60.2689 187.161 55.7864 0.43735 0.0828012
875000 60.2689 187.174 55.7864 0.43745 0.114822
875200 60.2689 187.187 55.7864 0.43755 0.135279
875400 60.2689 187.2 55.7864 0.43765 0.143052
875600 60.2689 187.213 55.7864 0.43775 0.108749
875800 60.2689 187.226 55.7864 0.43785 0.0817162
876000 60.2689 187.239 55.7864 0.43795 0.059152
876200 60.2689 187.252 55.7864 0.43805 0.0212671
876400 60.2689 187.265 55.7864 0.43815 -0.025567
876600 60.2689 187.278 55.7864 0.43825 -0.0474096
876800 60.2689 187.291 55.7864 0.43835 -0.0887531
877000 60.2689 187.304 55.7864 0.43845 -0.108159
877200 60.2689 187.317 55.7864 0.43855 -0.145087
877400 60.2689 187.33 55.7864 0.43865 -0.1124
877600 60.2689 187.343 55.7864 0.43875 -0.114596
877800 60.2689 187.356 55.7864 0.43885 -0.0809328
878000 60.2689 187.369 55.7864 0.43895 -0.052577
878200 60.2689 187.382 55.7864 0.43905 -0.00685579
878400 60.2689 187.395 55.7864 0.43915 0.00979886
878600 60.2689 187.408 55.7864 0.43925 0.0628523
878800 60.2689 187.421 55.7864 0.43935 0.12101
879000 60.2689 187.434 55.7864 0.43945 0.10598
879200 60.2689 187.447 55.7864 0.43955 0.124727
879400 60.2689 187.46 55.7864 0.43965 0.135929
879600 60.2689 187.473 55.7864 0.43975 0.106605
879800 60.2689 187.486 55.7864 0.43985 0.0875967
880000 60.2689 187.499 55.7864 0.43995 0.0561304
880200 60.2689 187.512 55.7864 0.44005 -0.0124706
880400 60.2689 187.525 55.7864 0.44015 -0.0284816
880600 60.2689 187.538 55.7864 0.44025 -0.0370135
880800 60.2689 187.551 55.7864 0.44035 -0.106813
881000 60.2689 187.564 55.7864 0.44045 -0.11784
881200 60.2689 187.577 55.7864 0.44055 -0.13157
881400 60.2689 187.59 55.7864 0.44065 -0.126066
881600 60.2689 187.603 55.7864 0.44075 -0.105358
881800 60.2689 187.616 55.7864 0.44085 -0.0870867
882000 60.2689 187.629 55.7864 0.44095 -0.0413487
882200 60.2689 187.642 55.7864 0.44105 -0.00788497
882400 60.2689 187.655 55.7864 0.44115 0.0280369
882600 60.2689 187.668 55.7864 0.44125 0.0730208
882800 60.2689 187.682 55.7864 0.44135 0.103173
883000 60.2689 187.695 55.7864 0.44145 0.109192
883200 60.2689 187.708 55.7864 0.44155 0.123646
883400 60.2689 187.721 55.7864 0.44165 0.135102
883600 60.2689 187.734 55.7864 0.44175 0.129769
883800 60.2689 187.747 55.7864 0.44185 0.0814951
884000 60.2689 187.76 55.7864 0.44195 0.0399778
884200 60.2689 187.773 55.7864 0.44205 0.00623793
884400 60.2689 187.786 55.7864 0.44215 -0.0507007
884600 60.2689 187.799 55.7864 0.44225 -0.0720974
884800 60.2689 187.812 55.7864 0.44235 -0.0668384
885000 60.2689 187.825 55.7864 0.44245 -0.124758
885200 60.2689 187.838 55.7864 0.44255 -0.124203
885400 60.2689 187.851 55.7864 0.44265 -0.131843
885600 60.2689 187.864 55.7864 0.44275 -0.118601
885800 60.2689 187.877 55.7864 0.44285 -0.0913288
886000 60.2689 187.89 55.7864 0.44295 -0.0256463
886200 60.2689 187.903 55.7864 0.44305 0.0145605
886400 60.2689 187.916 55.7864 0.44315 0.0401107
886600 60.2689 187.929 55.7864 0.44325 0.0795207
886800 60.2689 187.942 55.7864 0.44335 0.0952998
887000 60.2689 187.955 55.7864 0.44345 0.128284
887200 60.2689 187.968 55.7864 0.44355 0.123776
887400 60.2689 187.981 55.7864 0.44365 0.138276
887600 60.2689 187.994 55.7864 0.44375 0.102692
887800 60.2689 188.007 55.7864 0.44385 0.0832779
888000 60.2689 188.02 55.7864 0.44395 0.0227467
888200 60.2689 188.033 55.7864 0.44405 -0.0037424
888400 60.2689 188.046 55.7864 0.44415 -0.0377756
888600 60.2689 188.059 55.7864 0.44425 -0.086645
888800 60.2689 188.072 55.7864 0.44435 -0.110806
889000 60.2689 188.085 55.7864 0.44445 -0.12869
889200 60.2689 188.098 55.7864 0.44455 -0.137264
889400 60.2689 188.111 55.7864 0.44465 -0.136274
889600 60.2689 188.124 55.7864 0.44475 -0.0826736
889800 60.2689 188.137 55.7864 0.44485 -0.0460043
890000 60.2689 188.15 55.7864 0.44495 -0.0270757
890200 60.2689 188.163 55.7864 0.44505 0.0196569
890400 60.2689 188.176 55.7864 0.44515 0.0392199
890600 60.2689 188.189 55.7864 0.44525 0.0767815
890800 60.2689 188.202 55.7864 0.44535 0.126092
891000 60.2689 188.215 55.7864 0.44545 0.138062
891200 60.2689 188.228 55.7864 0.44555 0.14519
891400 60.2689 188.241 55.7864 0.44565 0.139599
891600 60.2689 188.254 55.7864 0.44575 0.0726841
891800 60.2689 188.267 55.7864 0.44585 0.0356692
892000 60.2689 188.28 55.7864 0.44595 0.0153697
892200 60.2689 188.294 55.7864 0.44605 -0.0235749
892400 60.2689 188.307 55.7864 0.44615 -0.0504387
892600 60.2689 188.32 55.7864 0.44625 -0.0732149
892800 60.2689 188.333 55.7864 0.44635 -0.118946
893000 60.2689 188.346 55.7864 0.44645 -0.154969
893200 60.2689 188.359 55.7864 0.44655 -0.112505
893400 60.2689 188.372 55.7864 0.44665 -0.113883
893600 60.2689 188.385 55.7864 0.44675 -0.0918171
893800 60.2689 188.398 55.7864 0.44685 -0.0407926
894000 60.2689 188.411 55.7864 0.44695 0.034684
894200 60.2689 188.424 55.7864 0.44705 0.0268368
894400 60.2689 188.437 55.7864 0.44715 0.0312231
894600 60.2689 188.45 55.7864 0.44725 0.0987855
894800 60.2689 188.463 55.7864 0.44735 0.11333
895000 60.2689 188.476 55.7864 0.44745 0.129753
895200 60.2689 188.489 55.7864 0.44755 0.137525
895400 60.2689 188.502 55.7864 0.44765 0.102429
895600 60.2689 188.515 55.7864 0.44775 0.0819624
895800 60.2689 188.528 55.7864 0.44785 0.0319822
896000 60.2689 188.541 55.7864 0.44795 -0.0134119
896200 60.2689 188.554 55.7864 0.44805 -0.0313517
896400 60.2689 188.567 55.7864 0.44815 -0.0690664
896600 60.2689 188.58 55.7864 0.44825 -0.0810153
896800 60.2689 188.593 55.7864 0.44835 -0.0997226
897000 60.2689 188.606 55.7864 0.44845 -0.119726
897200 60.2689 188.619 55.7864 0.44855 -0.134148
897400 60.2689 188.632 55.7864 0.44865 -0.0880717
897600 60.2689 188.645 55.7864 0.44875 -0.0712622
897800 60.2689 188.658 55.7864 0.44885 -0.0403501
898000 60.2689 188.671 55.7864 0.44895 0.0038332
898200 60.2689 188.684 55.7864 0.44905 0.0597876
898400 60.2689 188.697 55.7864 0.44915 0.0639422
898600 60.2689 188.71 55.7864 0.44925 0.108403
898800 60.2689 188.723 55.7864 0.44935 0.0999884
899000 60.2689 188.736 55.7864 0.44945 0.112506
899200 60.2689 188.749 55.7864 0.44955 0.130077
899400 60.2689 188.762 55.7864 0.44965 0.101104
899600 60.2689 188.775 55.7864 0.44975 0.0543164
899800 60.2689 188.788 55.7864 0.44985 0.0349506
900000 60.2689 188.801 55.7864 0.44995 -0.00633699
900200 60.2689 188.814 55.7864 0.45005 -0.0639531
900400 60.2689 188.827 55.7864 0.45015 -0.0674491
900600 60.2689 188.84 55.7864 0.45025 -0.086711
900800 60.2689 188.853 55.7864 0.45035 -0.122058
901000 60.2689 188.866 55.7864 0.45045 -0.112859
901200 60.2689 188.879 55.7864 0.45055 -0.104695
901400 60.2689 188.892 55.7864 0.45065 -0.0898301
901600 60.2689 188.906 55.7864 0.45075 -0.0564715
901800 60.2689 188.919 55.7864 0.45085 -0.00496148
902000 60.2689 188.932 55.7864 0.45095 0.00233193
902200 60.2689 188.945 55.7864 0.45105 0.0590294
902400 60.2689 188.958 55.7864 0.45115 0.067527
902600 60.2689 188.971 55.7864 0.45125 0.100239
902800 60.2689 188.984 55.7864 0.45135 0.111018
903000 60.2689 188.997 55.7864 0.45145 0.124803
903200 60.2689 189.01 55.7864 0.45155 0.108408
903400 60.2689 189.023 55.7864 0.45165 0.0742601
903600 60.2689 189.036 55.7864 0.45175 0.0588661
903800 60.2689 189.049 55.7864 0.45185 0.0259862
904000 60.2689 189.062 55.7864 0.45195 -0.0283544
904200 60.2689 189.075 55.7864 0.45205 -0.0327413
904400 60.2689 189.088 55.7864 0.45215 -0.0808207
904600 60.2689 189.101 55.7864 0.45225 -0.114681
904800 60.2689 189.114 55.7864 0.45235 -0.097606
905000 60.2689 189.127 55.7864 0.45245 -0.103346
905200 60.2689 189.14 55.7864 0.45255 -0.104634
905400 60.2689 189.153 55.7864 0.45265 -0.0847805
905600 60.2689 189.166 55.7864 0.45275 -0.0664627
905800 60.2689 189.179 55.7864 0.45285 -0.0153906
906000 60.2689 189.192 55.7864 0.45295 0.0311726
906200 60.2689 189.205 55.7864 0.45305 0.053215
906400 60.2689 189.218 55.7864 0.45315 0.0849839
906600 60.2689 189.231 55.7864 0.45325 0.096639
906800 60.2689 189.244 55.7864 0.45335 0.113245
907000 60.2689 189.257 55.7864 0.45345 0.110157
907200 60.2689 189.27 55.7864 0.45355 0.121601
907400 60.2689 189.283 55.7864 0.45365 0.0763648
907600 60.2689 189.296 55.7864 0.45375 0.0558475
907800 60.2689 189.309 55.7864 0.45385 0.0145886
908000 60.2689 189.322 55.7864 0.45395 -0.0279143
908200 60.2689 189.335 55.7864 0.45405 -0.0707342
908400 60.2689 189.348 55.7864 0.45415 -0.0761356
908600 60.2689 189.361 55.7864 0.45425 -0.0824364
908800 60.2689 189.374 55.7864 0.45435 -0.126501
909000 60.2689 189.387 55.7864 0.45445 -0.109511
909200 60.2689 189.4 55.7864 0.45455 -0.0950125
909400 60.2689 189.413 55.7864 0.45465 -0.0806577
909600 60.2689 189.426 55.7864 0.45475 -0.0462058
909800 60.2689 189.439 55.7864 0.45485 -0.0154649
910000 60.2689 189.452 55.7864 0.45495 0.0205792
910200 60.2689 189.465 55.7864 0.45505 0.0623919
910400 60.2689 189.478 55.7864 0.45515 0.125846
910600 60.2689 189.491 55.7864 0.45525 0.111567
910800 60.2689 189.504 55.7864 0.45535 0.093425
911000 60.2689 189.518 55.7864 0.45545 0.112906
911200 60.2689 189.531 55.7864 0.45555 0.0901384
911400 60.2689 189.544 55.7864 0.45565 0.0908114
911600 60.2689 189.557 55.7864 0.45575 0.0468478
911800 60.2689 189.57 55.7864 0.45585 0.00786375
912000 60.2689 189.583 55.7864 0.45595 -0.0383387
912200 60.2689 189.596 55.7864 0.45605 -0.0748633
912400 60.2689 189.609 55.7864 0.45615 -0.105227
912600 60.2689 189.622 55.7864 0.45625 -0.109109
912800 60.2689 189.635 55.7864 0.45635 -0.0948102
913000 60.2689 189.648 55.7864 0.45645 -0.0950609
913200 60.2689 189.661 55.7864 0.45655 -0.0981156
913400 60.2689 189.674 55.7864 0.45665 -0.0640513
913600 60.2689 189.687 55.7864 0.45675 -0.0283827
913800 60.2689 189.7 55.7864 0.45685 -0.00982348
914000 60.2689 189.713 55.7864 0.45695 0.0329245
914200 60.2689 189.726 55.7864 0.45705 0.0859853
914400 60.2689 189.739 55.7864 0.45715 0.091557
914600 60.2689 189.752 55.7864 0.45725 0.104522
914800 60.2689 189.765 55.7864 0.45735 0.118222
915000 60.2689 189.778 55.7864 0.45745 0.103238
915200 60.2689 189.791 55.7864 0.45755 0.0682085
915400 60.2689 189.804 55.7864 0.45765 0.0553349
915600 60.2689 189.817 55.7864 0.45775 0.0320122
915800 60.2689 189.83 55.7864 0.45785 0.0265664
916000 60.2689 189.843 55.7864 0.45795 -0.0286762
916200 60.2689 189.856 55.7864 0.45805 -0.0755282
916400 60.2689 189.869 55.7864 0.45815 -0.11823
916600 60.2689 189.882 55.7864 0.45825 -0.102656
916800 60.2689 189.895 55.7864 0.45835 -0.0917036
917000 60.2689 189.908 55.7864 0.45845 -0.0983748
917200 60.2689 189.921 55.7864 0.45855 -0.0681089
917400 60.2689 189.934 55.7864 0.45865 -0.045979
917600 60.2689 189.947 55.7864 0.45875 -0.0438973
917800 60.2689 189.96 55.7864 0.45885 0.0179347
918000 60.2689 189.973 55.7864 0.45895 0.0277175
918200 60.2689 189.986 55.7864 0.45905 0.0500056
918400 60.2689 189.999 55.7864 0.45915 0.126465
918600 60.2689 190.012 55.7864 0.45925 0.0937494
918800 60.2689 190.025 55.7864 0.45935 0.124431
919000 60.2689 190.038 55.7864 0.45945 0.0883796
919200 60.2689 190.051 55.7864 0.45955 0.067162
919400 60.2689 190.064 55.7864 0.45965 0.0401226
919600 60.2689 190.077 55.7864 0.45975 0.0171495
919800 60.2689 190.09 55.7864 0.45985 0.0127822
920000 60.2689 190.103 55.7864 0.45995 -0.0397978
920200 60.2689 190.116 55.7864 0.46005 -0.0672909
920400 60.2689 190.13 55.7864 0.46015 -0.108819
920600 60.2689 190.143 55.7864 0.46025 -0.107789
920800 60.2689 190.156 55.7864 0.46035 -0.094068
921000 60.2689 190.169 55.7864 0.46045 -0.112
921200 60.2689 190.182 55.7864 0.46055 -0.054873
921400 60.2689 190.195 55.7864 0.46065 -0.0173389
921600 60.2689 190.208 55.7864 0.46075 -0.0113792
921800 60.2689 190.221 55.7864 0.46085 0.00144188
922000 60.2689 190.234 55.7864 0.46095 0.0393316
922200 60.2689 190.247 55.7864 0.46105 0.0783656
922400 60.2689 190.26 55.7864 0.46115 0.0781611
922600 60.2689 190.273 55.7864 0.46125 0.107285
922800 60.2689 190.286 55.7864 0.46135 0.116497
923000 60.2689 190.299 55.7864 0.46145 0.0881851
923200 60.2689 190.312 55.7864 0.46155 0.0858296
923400 60.2689 190.325 55.7864 0.46165 0.0354225
923600 60.2689 190.338 55.7864 0.46175 -0.00325422
923800 60.2689 190.351 55.7864 0.46185 -0.0287854
924000 60.2689 190.364 55.7864 0.46195 -0.0365847
924200 60.2689 190.377 55.7864 0.46205 -0.0602043
924400 60.2689 190.39 55.7864 0.46215 -0.0796068
924600 60.2689 190.403 55.7864 0.46225 -0.111749
924800 60.2689 190.416 55.7864 0.46235 -0.109905
925000 60.2689 190.429 55.7864 0.46245 -0.0877662
925200 60.2689 190.442 55.7864 0.46255 -0.0617179
925400 60.2689 190.455 55.7864 0.46265 -0.0135386
925600 60.2689 190.468 55.7864 0.46275 -0.00944198
925800 60.2689 190.481 55.7864 0.46285 0.0231696
926000 60.2689 190.494 55.7864 0.46295 0.051874
926200 60.2689 190.507 55.7864 0.46305 0.0624964
926400 60.2689 190.52 55.7864 0.46315 0.0864561
926600 60.2689 190.533 55.7864 0.46325 0.108099
926800 60.2689 190.546 55.7864 0.46335 0.114266
927000 60.2689 190.559 55.7864 0.46345 0.0830514
927200 60.2689 190.572 55.7864 0.46355 0.0630371
927400 60.2689 190.585 55.7864 0.46365 0.03175
927600 60.2689 190.598 55.7864 0.46375 0.00410112
927800 60.2689 190.611 55.7864 0.46385 -0.0313649
928000 60.2689 190.624 55.7864 0.46395 -0.0488425
928200 60.2689 190.637 55.7864 0.46405 -0.0613756
928400 60.2689 190.65 55.7864 0.46415 -0.0971593
928600 60.2689 190.663 55.7864 0.46425 -0.116497
928800 60.2689 190.676 55.7864 0.46435 -0.100768
929000 60.2689 190.689 55.7864 0.46445 -0.0842913
929200 60.2689 190.702 55.7864 0.46455 -0.0529042
929400 60.2689 190.715 55.7864 0.46465 -0.0206925
929600 60.2689 190.728 55.7864 0.46475 -0.0136222
929800 60.2689 190.742 55.7864 0.46485 0.0294906
930000 60.2689 190.755 55.7864 0.46495 0.0636005
930200 60.2689 190.768 55.7864 0.46505 0.0891094
930400 60.2689 190.781 55.7864 0.46515 0.0950236
930600 60.2689 190.794 55.7864 0.46525 0.119817
930800 60.2689 190.807 55.7864 0.46535 0.0955343
931000 60.2689 190.82 55.7864 0.46545 0.0724126
931200 60.2689 190.833 55.7864 0.46555 0.0441994
931400 60.2689 190.846 55.7864 0.46565 0.0442016
931600 60.2689 190.859 55.7864 0.46575 -0.00460579
931800 60.2689 190.872 55.7864 0.46585 -0.030638
932000 60.2689 190.885 55.7864 0.46595 -0.0636516
932200 60.2689 190.898 55.7864 0.46605 -0.0829202
932400 60.2689 190.911 55.7864 0.46615 -0.101698
932600 60.2689 190.924 55.7864 0.46625 -0.0856912
932800 60.2689 190.937 55.7864 0.46635 -0.0886949
933000 60.2689 190.95 55.7864 0.46645 -0.0671058
933200 60.2689 190.963 55.7864 0.46655 -0.0716279
933400 60.2689 190.976 55.7864 0.46665 -0.0254391
933600 60.2689 190.989 55.7864 0.46675 0.00899736
933800 60.2689 191.002 55.7864 0.46685 0.0533875
934000 60.2689 191.015 55.7864 0.46695 0.0768285
934200 60.2689 191.028 55.7864 0.46705 0.0826915
934400 60.2689 191.041 55.7864 0.46715 0.0639269
934600 60.2689 191.054 55.7864 0.46725 0.0927191
934800 60.2689 191.067 55.7864 0.46735 0.101736
935000 60.2689 191.08 55.7864 0.46745 0.0893068
935200 60.2689 191.093 55.7864 0.46755 0.0533957
935400 60.2689 191.106 55.7864 0.46765 0.0130048
935600 60.2689 191.119 55.7864 0.46775 -0.0153193
935800 60.2689 191.132 55.7864 0.46785 -0.0354648
936000 60.2689 191.145 55.7864 0.46795 -0.0780074
936200 60.2689 191.158 55.7864 0.46805 -0.0764302
936400 60.2689 191.171 55.7864 0.46815 -0.0729588
936600 60.2689 191.184 55.7864 0.46825 -0.0981321
936800 60.2689 191.197 55.7864 0.46835 -0.0774725
937000 60.2689 191.21 55.7864 0.46845 -0.0731415
937200 60.2689 191.223 55.7864 0.46855 -0.0489278
937400 60.2689 191.236 55.7864 0.46865 -0.0320869
937600 60.2689 191.249 55.7864 0.46875 0.0201346
937800 60.2689 191.262 55.7864 0.46885 0.05095
938000 60.2689 191.275 55.7864 0.46895 0.0769172
938200 60.2689 191.288 55.7864 0.46905 0.0768256
938400 60.2689 191.301 55.7864 0.46915 0.093773
938600 60.2689 191.314 55.7864 0.46925 0.0851694
938800 60.2689 191.327 55.7864 0.46935 0.0908821
939000 60.2689 191.34 55.7864 0.46945 0.074228
939200 60.2689 191.354 55.7864 0.46955 0.0467026
939400 60.2689 191.367 55.7864 0.46965 0.00658201
939600 60.2689 191.38 55.7864 0.46975 0.00528458
939800 60.2689 191.393 55.7864 0.46985 -0.055567
940000 60.2689 191.406 55.7864 0.46995 -0.0654403
940200 60.2689 191.419 55.7864 0.47005 -0.0907252
940400 60.2689 191.432 55.7864 0.47015 -0.0904712
940600 60.2689 191.445 55.7864 0.47025 -0.0702363
940800 60.2689 191.458 55.7864 0.47035 -0.0882906
941000 60.2689 191.471 55.7864 0.47045 -0.0684274
941200 60.2689 191.484 55.7864 0.47055 -0.0309788
941400 60.2689 191.497 55.7864 0.47065 -0.0127031
941600 60.2689 191.51 55.7864 0.47075 0.0190433
941800 60.2689 191.523 55.7864 0.47085 0.0405435
942000 60.2689 191.536 55.7864 0.47095 0.0765894
942200 60.2689 191.549 55.7864 0.47105 0.0881197
942400 60.2689 191.562 55.7864 0.47115 0.0947834
942600 60.2689 191.575 55.7864 0.47125 0.0798667
942800 60.2689 191.588 55.7864 0.47135 0.0816584
943000 60.2689 191.601 55.7864 0.47145 0.0587564
943200 60.2689 191.614 55.7864 0.47155 0.0544824
943400 60.2689 191.627 55.7864 0.47165 -0.0073064
943600 60.2689 191.64 55.7864 0.47175 -0.0138947
943800 60.2689 191.653 55.7864 0.47185 -0.0364571
944000 60.2689 191.666 55.7864 0.47195 -0.0749835
944200 60.2689 191.679 55.7864 0.47205 -0.108838
944400 60.2689 191.692 55.7864 0.47215 -0.0858037
944600 60.2689 191.705 55.7864 0.47225 -0.0832112
944800 60.2689 191.718 55.7864 0.47235 -0.0544113
945000 60.2689 191.731 55.7864 0.47245 -0.0582
945200 60.2689 191.744 55.7864 0.47255 -0.0283213
945400 60.2689 191.757 55.7864 0.47265 -0.010894
945600 60.2689 191.77 55.7864 0.47275 0.0127363
945800 60.2689 191.783 55.7864 0.47285 0.0525234
946000 60.2689 191.796 55.7864 0.47295 0.0798329
946200 60.2689 191.809 55.7864 0.47305 0.0906717
946400 60.2689 191.822 55.7864 0.47315 0.0803227
946600 60.2689 191.835 55.7864 0.47325 0.101581
946800 60.2689 191.848 55.7864 0.47335 0.0766131
947000 60.2689 191.861 55.7864 0.47345 0.0449045
947200 60.2689 191.874 55.7864 0.47355 0.022196
947400 60.2689 191.887 55.7864 0.47365 0.0295892
947600 60.2689 191.9 55.7864 0.47375 -0.0175637
947800 60.2689 191.913 55.7864 0.47385 -0.053854
948000 60.2689 191.926 55.7864 0.47395 -0.0824946
948200 60.2689 191.939 55.7864 0.47405 -0.0885598
948400 60.2689 191.952 55.7864 0.47415 -0.0739776
948600 60.2689 191.966 55.7864 0.47425 -0.09258
948800 60.2689 191.979 55.7864 0.47435 -0.0826868
949000 60.2689 191.992 55.7864 0.47445 -0.0546228
949200 60.2689 192.005 55.7864 0.47455 -0.0225232
949400 60.2689 192.018 55.7864 0.47465 -0.00569982
949600 60.2689 192.031 55.7864 0.47475 0.0235199
949800 60.2689 192.044 55.7864 0.47485 0.0661567
950000 60.2689 192.057 55.7864 0.47495 0.0772166
950200 60.2689 192.07 55.7864 0.47505 0.0766871
950400 60.2689 192.083 55.7864 0.47515 0.117741
950600 60.2689 192.096 55.7864 0.47525 0.0897609
950800 60.2689 192.109 55.7864 0.47535 0.0673158
951000 60.2689 192.122 55.7864 0.47545 0.0428727
951200 60.2689 192.135 55.7864 0.47555 0.028468
951400 60.2689 192.148 55.7864 0.47565 0.0056453
951600 60.2689 192.161 55.7864 0.47575 -0.0339217
951800 60.2689 192.174 55.7864 0.47585 -0.0333779
952000 60.2689 192.187 55.7864 0.47595 -0.0861363
952200 60.2689 192.2 55.7864 0.47605 -0.07696
952400 60.2689 192.213 55.7864 0.47615 -0.10068
952600 60.2689 192.226 55.7864 0.47625 -0.0952563
952800 60.2689 192.239 55.7864 0.47635 -0.0760121
953000 60.2689 192.252 55.7864 0.47645 -0.0429036
953200 60.2689 192.265 55.7864 0.47655 -0.0204617
953400 60.2689 192.278 55.7864 0.47665 0.0159667
953600 60.2689 192.291 55.7864 0.47675 0.0320799
953800 60.2689 192.304 55.7864 0.47685 0.051305
954000 60.2689 192.317 55.7864 0.47695 0.0638798
954200 60.2689 192.33 55.7864 0.47705 0.103657
954400 60.2689 192.343 55.7864 0.47715 0.0783605
954600 60.2689 192.356 55.7864 0.47725 0.113909
954800 60.2689 192.369 55.7864 0.47735 0.0825755
955000 60.2689 192.382 55.7864 0.47745 0.0382697
955200 60.2689 192.395 55.7864 0.47755 0.0255095
955400 60.2689 192.408 55.7864 0.47765 -0.0188776
955600 60.2689 192.421 55.7864 0.47775 -0.0489934
955800 60.2689 192.434 55.7864 0.47785 -0.052627
956000 60.2689 192.447 55.7864 0.47795 -0.0693258
956200 60.2689 192.46 55.7864 0.47805 -0.0727895
956400 60.2689 192.473 55.7864 0.47815 -0.0968414
956600 60.2689 192.486 55.7864 0.47825 -0.0835629
956800 60.2689 192.499 55.7864 0.47835 -0.0720738
957000 60.2689 192.512 55.7864 0.47845 -0.0514394
957200 60.2689 192.525 55.7864 0.47855 -0.00381167
957400 60.2689 192.538 55.7864 0.47865 0.0188449
957600 60.2689 192.551 55.7864 0.47875 0.0515296
957800 60.2689 192.564 55.7864 0.47885 0.0831796
958000 60.2689 192.577 55.7864 0.47895 0.046938
958200 60.2689 192.591 55.7864 0.47905 0.0894057
958400 60.2689 192.604 55.7864 0.47915 0.0860577
958600 60.2689 192.617 55.7864 0.47925 0.0814506
958800 60.2689 192.63 55.7864 0.47935 0.0628769
959000 60.2689 192.643 55.7864 0.47945 0.04544
959200 60.2689 192.656 55.7864 0.47955 0.0202137
959400 60.2689 192.669 55.7864 0.47965 -0.010175
959600 60.2689 192.682 55.7864 0.47975 -0.0571441
959800 60.2689 192.695 55.7864 0.47985 -0.0669618
960000 60.2689 192.708 55.7864 0.47995 -0.0660175
960200 60.2689 192.721 55.7864 0.48005 -0.0723112
960400 60.2689 192.734 55.7864 0.48015 -0.0664451
960600 60.2689 192.747 55.7864 0.48025 -0.0881839
960800 60.2689 192.76 55.7864 0.48035 -0.079031
961000 60.2689 192.773 55.7864 0.48045 -0.0280024
961200 60.2689 192.786 55.7864 0.48055 -0.0207942
961400 60.2689 192.799 55.7864 0.48065 0.0229937
961600 60.2689 192.812 55.7864 0.48075 0.0371802
961800 60.2689 192.825 55.7864 0.48085 0.0656988
962000 60.2689 192.838 55.7864 0.48095 0.0854888
962200 60.2689 192.851 55.7864 0.48105 0.088983
962400 60.2689 192.864 55.7864 0.48115 0.0694323
962600 60.2689 192.877 55.7864 0.48125 0.077037
962800 60.2689 192.89 55.7864 0.48135 0.0640086
963000 60.2689 192.903 55.7864 0.48145 0.0644313
963200 60.2689 192.916 55.7864 0.48155 0.0068105
963400 60.2689 192.929 55.7864 0.48165 -0.0226384
963600 60.2689 192.942 55.7864 0.48175 -0.0343904
963800 60.2689 192.955 55.7864 0.48185 -0.0672768
964000 60.2689 192.968 55.7864 0.48195 -0.0850117
964200 60.2689 192.981 55.7864 0.48205 -0.0772529
964400 60.2689 192.994 55.7864 0.48215 -0.0708276
964600 60.2689 193.007 55.7864 0.48225 -0.0861805
964800 60.2689 193.02 55.7864 0.48235 -0.0604846
965000 60.2689 193.033 55.7864 0.48245 -0.0290914
965200 60.2689 193.046 55.7864 0.48255 -0.00799608
965400 60.2689 193.059 55.7864 0.48265 0.00943213
965600 60.2689 193.072 55.7864 0.48275 0.0428339
965800 60.2689 193.085 55.7864 0.48285 0.0719484
966000 60.2689 193.098 55.7864 0.48295 0.103033
966200 60.2689 193.111 55.7864 0.48305 0.100361
966400 60.2689 193.124 55.7864 0.48315 0.0686866
966600 60.2689 193.137 55.7864 0.48325 0.0807578
966800 60.2689 193.15 55.7864 0.48335 0.0519461
967000 60.2689 193.163 55.7864 0.48345 0.0326394
967200 60.2689 193.176 55.7864 0.48355 0.00881466
967400 60.2689 193.189 55.7864 0.48365 -0.0172466
967600 60.2689 193.203 55.7864 0.48375 -0.056687
967800 60.2689 193.216 55.7864 0.48385 -0.0779003
968000 60.2689 193.229 55.7864 0.48395 -0.0842204
968200 60.2689 193.242 55.7864 0.48405 -0.0743617
968400 60.2689 193.255 55.7864 0.48415 -0.0728866
968600 60.2689 193.268 55.7864 0.48425 -0.0886171
968800 60.2689 193.281 55.7864 0.48435 -0.0653449
969000 60.2689 193.294 55.7864 0.48445 -0.0175714
969200 60.2689 193.307 55.7864 0.48455 0.00263963
969400 60.2689 193.32 55.7864 0.48465 0.0285117
969600 60.2689 193.333 55.7864 0.48475 0.0646219
969800 60.2689 193.346 55.7864 0.48485 0.07259
970000 60.2689 193.359 55.7864 0.48495 0.08009
970200 60.2689 193.372 55.7864 0.48505 0.0754694
970400 60.2689 193.385 55.7864 0.48515 0.0987079
970600 60.2689 193.398 55.7864 0.48525 0.0904213
970800 60.2689 193.411 55.7864 0.48535 0.0614061
971000 60.2689 193.424 55.7864 0.48545 0.00881243
971200 60.2689 193.437 55.7864 0.48555 -0.00291835
971400 60.2689 193.45 55.7864 0.48565 -0.016887
971600 60.2689 193.463 55.7864 0.48575 -0.0659478
971800 60.2689 193.476 55.7864 0.48585 -0.0617062
972000 60.2689 193.489 55.7864 0.48595 -0.075593
972200 60.2689 193.502 55.7864 0.48605 -0.0963584
972400 60.2689 193.515 55.7864 0.48615 -0.0800545
972600 60.2689 193.528 55.7864 0.48625 -0.0704553
972800 60.2689 193.541 55.7864 0.48635 -0.0572444
973000 60.2689 193.554 55.7864 0.48645 -0.0254653
973200 60.2689 193.567 55.7864 0.48655 -0.00964481
973400 60.2689 193.58 55.7864 0.48665 0.038184
973600 60.2689 193.593 55.7864 0.48675 0.0706583
973800 60.2689 193.606 55.7864 0.48685 0.069362
974000 60.2689 193.619 55.7864 0.48695 0.0895385
974200 60.2689 193.632 55.7864 0.48705 0.110782
974400 60.2689 193.645 55.7864 0.48715 0.0794096
974600 60.2689 193.658 55.7864 0.48725 0.0701616
974800 60.2689 193.671 55.7864 0.48735 0.0413532
975000 60.2689 193.684 55.7864 0.48745 0.0284399
975200 60.2689 193.697 55.7864 0.48755 0.00433399
975400 60.2689 193.71 55.7864 0.48765 -0.0381251
975600 60.2689 193.723 55.7864 0.48775 -0.0655155
975800 60.2689 193.736 55.7864 0.48785 -0.0653334
976000 60.2689 193.749 55.7864 0.48795 -0.0883683
976200 60.2689 193.762 55.7864 0.48805 -0.097577
976400 60.2689 193.775 55.7864 0.48815 -0.0751053
976600 60.2689 193.788 55.7864 0.48825 -0.0639449
976800 60.2689 193.801 55.7864 0.48835 -0.0464713
977000 60.2689 193.815 55.7864 0.48845 -0.0105706
977200 60.2689 193.828 55.7864 0.48855 0.014628
977400 60.2689 193.841 55.7864 0.48865 0.0233209
977600 60.2689 193.854 55.7864 0.48875 0.0507458
977800 60.2689 193.867 55.7864 0.48885 0.0909247
978000 60.2689 193.88 55.7864 0.48895 0.0915789
978200 60.2689 193.893 55.7864 0.48905 0.0851168
978400 60.2689 193.906 55.7864 0.48915 0.0864688
978600 60.2689 193.919 55.7864 0.48925 0.0607129
978800 60.2689 193.932 55.7864 0.48935 0.0620521
979000 60.2689 193.945 55.7864 0.48945 0.0186829
979200 60.2689 193.958 55.7864 0.48955 -0.00136648
979400 60.2689 193.971 55.7864 0.48965 -0.0480388
979600 60.2689 193.984 55.7864 0.48975 -0.0478979
979800 60.2689 193.997 55.7864 0.48985 -0.0830639
980000 60.2689 194.01 55.7864 0.48995 -0.0757442
980200 60.2689 194.023 55.7864 0.49005 -0.0922895
980400 60.2689 194.036 55.7864 0.49015 -0.0740295
980600 60.2689 194.049 55.7864 0.49025 -0.0863045
980800 60.2689 194.062 55.7864 0.49035 -0.0289655
981000 60.2689 194.075 55.7864 0.49045 -0.0295997
981200 60.2689 194.088 55.7864 0.49055 0.0225677
981400 60.2689 194.101 55.7864 0.49065 0.0422696
981600 60.2689 194.114 55.7864 0.49075 0.0475488
981800 60.2689 194.127 55.7864 0.49085 0.0603069
982000 60.2689 194.14 55.7864 0.49095 0.0903009
982200 60.2689 194.153 55.7864 0.49105 0.088691
982400 60.2689 194.166 55.7864 0.49115 0.108478
982600 60.2689 194.179 55.7864 0.49125 0.0815028
982800 60.2689 194.192 55.7864 0.49135 0.0270108
983000 60.2689 194.205 55.7864 0.49145 0.0246438
983200 60.2689 194.218 55.7864 0.49155 -0.0158265
983400 60.2689 194.231 55.7864 0.49165 -0.0129712
983600 60.2689 194.244 55.7864 0.49175 -0.0531604
983800 60.2689 194.257 55.7864 0.49185 -0.0935771
984000 60.2689 194.27 55.7864 0.49195 -0.0865914
984200 60.2689 194.283 55.7864 0.49205 -0.0971797
984400 60.2689 194.296 55.7864 0.49215 -0.0725035
984600 60.2689 194.309 55.7864 0.49225 -0.0737152
984800 60.2689 194.322 55.7864 0.49235 -0.0444086
985000 60.2689 194.335 55.7864 0.49245 -0.0191981
985200 60.2689 194.348 55.7864 0.49255 0.00676388
985400 60.2689 194.361 55.7864 0.49265 0.0518164
985600 60.2689 194.374 55.7864 0.49275 0.0623079
985800 60.2689 194.387 55.7864 0.49285 0.10001
986000 60.2689 194.4 55.7864 0.49295 0.081157
986200 60.2689 194.413 55.7864 0.49305 0.0918424
986400 60.2689 194.427 55.7864 0.49315 0.0925386
986600 60.2689 194.44 55.7864 0.49325 0.0553274
986800 60.2689 194.453 55.7864 0.49335 0.0394251
987000 60.2689 194.466 55.7864 0.49345 0.0188927
987200 60.2689 194.479 55.7864 0.49355 -0.0132407
987400 60.2689 194.492 55.7864 0.49365 -0.0403686
987600 60.2689 194.505 55.7864 0.49375 -0.0714823
987800 60.2689 194.518 55.7864 0.49385 -0.080274
988000 60.2689 194.531 55.7864 0.49395 -0.100815
988200 60.2689 194.544 55.7864 0.49405 -0.0631287
988400 60.2689 194.557 55.7864 0.49415 -0.089765
988600 60.2689 194.57 55.7864 0.49425 -0.0614997
988800 60.2689 194.583 55.7864 0.49435 -0.028734
989000 60.2689 194.596 55.7864 0.49445 -0.0187165
989200 60.2689 194.609 55.7864 0.49455 0.0245222
989400 60.2689 194.622 55.7864 0.49465 0.0616286
989600 60.2689 194.635 55.7864 0.49475 0.0682751
989800 60.2689 194.648 55.7864 0.49485 0.0901912
990000 60.2689 194.661 55.7864 0.49495 0.0912627
990200 60.2689 194.674 55.7864 0.49505 0.0973896
990400 60.2689 194.687 55.7864 0.49515 0.0740741
990600 60.2689 194.7 55.7864 0.49525 0.048106
990800 60.2689 194.713 55.7864 0.49535 0.0235693
991000 60.2689 194.726 55.7864 0.49545 0.0267937
991200 60.2689 194.739 55.7864 0.49555 -0.0142514
991400 60.2689 194.752 55.7864 0.49565 -0.0577414
991600 60.2689 194.765 55.7864 0.49575 -0.0846848
991800 60.2689 194.778 55.7864 0.49585 -0.105995
992000 60.2689 194.791 55.7864 0.49595 -0.0688474
992200 60.2689 194.804 55.7864 0.49605 -0.0867703
992400 60.2689 194.817 55.7864 0.49615 -0.0788284
992600 60.2689 194.83 55.7864 0.49625 -0.0321373
992800 60.2689 194.843 55.7864 0.49635 -0.0345239
993000 60.2689 194.856 55.7864 0.49645 -0.00597189
993200 60.2689 194.869 55.7864 0.49655 0.0350371
993400 60.2689 194.882 55.7864 0.49665 0.0486893
993600 60.2689 194.895 55.7864 0.49675 0.0807968
993800 60.2689 194.908 55.7864 0.49685 0.116106
994000 60.2689 194.921 55.7864 0.49695 0.0861898
994200 60.2689 194.934 55.7864 0.49705 0.0694833
994400 60.2689 194.947 55.7864 0.49715 0.0703383
994600 60.2689 194.96 55.7864 0.49725 0.0580998
994800 60.2689 194.973 55.7864 0.49735 0.0443902
995000 60.2689 194.986 55.7864 0.49745 -0.0148299
995200 60.2689 194.999 55.7864 0.49755 -0.016041
995400 60.2689 195.012 55.7864 0.49765 -0.0506756
995600 60.2689 195.025 55.7864 0.49775 -0.0916358
995800 60.2689 195.039 55.7864 0.49785 -0.0833872
996000 60.2689 195.052 55.7864 0.49795 -0.0997622
996200 60.2689 195.065 55.7864 0.49805 -0.0802384
996400 60.2689 195.078 55.7864 0.49815 -0.0834004
996600 60.2689 195.091 55.7864 0.49825 -0.0480864
996800 60.2689 195.104 55.7864 0.49835 -0.0186836
997000 60.2689 195.117 55.7864 0.49845 0.0051595
997200 60.2689 195.13 55.7864 0.49855 0.0268002
997400 60.2689 195.143 55.7864 0.49865 0.0678367
997600 60.2689 195.156 55.7864 0.49875 0.0856401
997800 60.2689 195.169 55.7864 0.49885 0.111372
998000 60.2689 195.182 55.7864 0.49895 0.0709252
998200 60.2689 195.195 55.7864 0.49905 0.104954
998400 60.2689 195.208 55.7864 0.49915 0.0652965
998600 60.2689 195.221 55.7864 0.49925 0.0470166
998800 60.2689 195.234 55.7864 0.49935 0.0459963
999000 60.2689 195.247 55.7864 0.49945 -0.00385197
999200 60.2689 195.26 55.7864 0.49955 -0.0421485
999400 60.2689 195.273 55.7864 0.49965 -0.0550274
999600 60.2689 195.286 55.7864 0.49975 -0.0986919
999800 60.2689 195.299 55.7864 0.49985 -0.0961591
1000000 60.2689 195.312 55.7864 0.49995 -0.107467
1000200 60.2689 195.325 55.7864 0.50005 -0.0663305
1000400 60.2689 195.338 55.7864 0.50015 -0.071061
1000600 60.2689 195.351 55.7864 0.50025 -0.0418631
1000800 60.2689 195.364 55.7864 0.50035 -0.0355255
1001000 60.2689 195.377 55.7864 0.50045 0.0241239
1001200 60.2689 195.39 55.7864 0.50055 0.0358622
1001400 60.2689 195.403 55.7864 0.50065 0.0574894
1001600 60.2689 195.416 55.7864 0.50075 0.0946565
1001800 60.2689 195.429 55.7864 0.50085 0.0913592
1002000 60.2689 195.442 55.7864 0.50095 0.128624
1002200 60.2689 195.455 55.7864 0.50105 0.0888859
1002400 60.2689 195.468 55.7864 0.50115 0.065013
1002600 60.2689 195.481 55.7864 0.50125 0.0416537
1002800 60.2689 195.494 55.7864 0.50135 0.0142996
1003000 60.2689 195.507 55.7864 0.50145 -0.00425695
1003200 60.2689 195.52 55.7864 0.50155 -0.0471355
1003400 60.2689 195.533 55.7864 0.50165 -0.0540658
1003600 60.2689 195.546 55.7864 0.50175 -0.0855036
1003800 60.2689 195.559 55.7864 0.50185 -0.107978
1004000 60.2689 195.572 55.7864 0.50195 -0.109902
1004200 60.2689 195.585 55.7864 0.50205 -0.0864623
1004400 60.2689 195.598 55.7864 0.50215 -0.05184
1004600 60.2689 195.611 55.7864 0.50225 -0.0571223
1004800 60.2689 195.624 55.7864 0.50235 -0.0109434
1005000 60.2689 195.637 55.7864 0.50245 0.0283007
1005200 60.2689 195.651 55.7864 0.50255 0.0420744
1005400 60.2689 195.664 55.7864 0.50265 0.0754674
1005600 60.2689 195.677 55.7864 0.50275 0.0870154
1005800 60.2689 195.69 55.7864 0.50285 0.104341
1006000 60.2689 195.703 55.7864 0.50295 0.10274
1006200 60.2689 195.716 55.7864 0.50305 0.0927041
1006400 60.2689 195.729 55.7864 0.50315 0.0615422
1006600 60.2689 195.742 55.7864 0.50325 0.0531092
1006800 60.2689 195.755 55.7864 0.50335 0.00898195
1007000 60.2689 195.768 55.7864 0.50345 -0.0151102
1007200 60.2689 195.781 55.7864 0.50355 -0.0568937
1007400 60.2689 195.794 55.7864 0.50365 -0.0817656
1007600 60.2689 195.807 55.7864 0.50375 -0.0776388
1007800 60.2689 195.82 55.7864 0.50385 -0.0825721
1008000 60.2689 195.833 55.7864 0.50395 -0.100281
1008200 60.2689 195.846 55.7864 0.50405 -0.0877165
1008400 60.2689 195.859 55.7864 0.50415 -0.0674853
1008600 60.2689 195.872 55.7864 0.50425 -0.0368268
1008800 60.2689 195.885 55.7864 0.50435 -0.00164757
1009000 60.2689 195.898 55.7864 0.50445 0.0157472
1009200 60.2689 195.911 55.7864 0.50455 0.0567887
1009400 60.2689 195.924 55.7864 0.50465 0.073381
1009600 60.2689 195.937 55.7864 0.50475 0.087643
1009800 60.2689 195.95 55.7864 0.50485 0.103556
1010000 60.2689 195.963 55.7864 0.50495 0.0836805
1010200 60.2689 195.976 55.7864 0.50505 0.0754466
1010400 60.2689 195.989 55.7864 0.50515 0.0694905
1010600 60.2689 196.002 55.7864 0.50525 0.0519266
1010800 60.2689 196.015 55.7864 0.50535 0.016957
1011000 60.2689 196.028 55.7864 0.50545 -0.0262586
1011200 60.2689 196.041 55.7864 0.50555 -0.0702654
1011400 60.2689 196.054 55.7864 0.50565 -0.0582185
1011600 60.2689 196.067 55.7864 0.50575 -0.0858698
1011800 60.2689 196.08 55.7864 0.50585 -0.0987481
1012000 60.2689 196.093 55.7864 0.50595 -0.0778336
1012200 60.2689 196.106 55.7864 0.50605 -0.0677745
1012400 60.2689 196.119 55.7864 0.50615 -0.0549021
1012600 60.2689 196.132 55.7864 0.50625 -0.0471251
1012800 60.2689 196.145 55.7864 0.50635 -0.00559224
1013000 60.2689 196.158 55.7864 0.50645 0.0294582
1013200 60.2689 196.171 55.7864 0.50655 0.0543853
1013400 60.2689 196.184 55.7864 0.50665 0.0708927
1013600 60.2689 196.197 55.7864 0.50675 0.0927089
1013800 60.2689 196.21 55.7864 0.50685 0.109546
1014000 60.2689 196.223 55.7864 0.50695 0.0753351
1014200 60.2689 196.236 55.7864 0.50705 0.0801243
1014400 60.2689 196.249 55.7864 0.50715 0.0445946
1014600 60.2689 196.263 55.7864 0.50725 0.047683
1014800 60.2689 196.276 55.7864 0.50735 -0.0137289
1015000 60.2689 196.289 55.7864 0.50745 -0.0262179
1015200 60.2689 196.302 55.7864 0.50755 -0.0505305
1015400 60.2689 196.315 55.7864 0.50765 -0.0637387
1015600 60.2689 196.328 55.7864 0.50775 -0.0844272
1015800 60.2689 196.341 55.7864 0.50785 -0.0956083
1016000 60.2689 196.354 55.7864 0.50795 -0.0921546
1016200 60.2689 196.367 55.7864 0.50805 -0.0847366
1016400 60.2689 196.38 55.7864 0.50815 -0.0406719
1016600 60.2689 196.393 55.7864 0.50825 -0.0209691
1016800 60.2689 196.406 55.7864 0.50835 0.00243314
1017000 60.2689 196.419 55.7864 0.50845 0.0394671
1017200 60.2689 196.432 55.7864 0.50855 0.0474402
1017400 60.2689 196.445 55.7864 0.50865 0.0750875
1017600 60.2689 196.458 55.7864 0.50875 0.0959771
1017800 60.2689 196.471 55.7864 0.50885 0.10604
1018000 60.2689 196.484 55.7864 0.50895 0.099509
1018200 60.2689 196.497 55.7864 0.50905 0.0848226
1018400 60.2689 196.51 55.7864 0.50915 0.0346414
1018600 60.2689 196.523 55.7864 0.50925 0.00479545
1018800 60.2689 196.536 55.7864 0.50935 -0.00406938
1019000 60.2689 196.549 55.7864 0.50945 -0.0213693
1019200 60.2689 196.562 55.7864 0.50955 -0.0469766
1019400 60.2689 196.575 55.7864 0.50965 -0.0663395
1019600 60.2689 196.588 55.7864 0.50975 -0.09375
1019800 60.2689 196.601 55.7864 0.50985 -0.0955578
1020000 60.2689 196.614 55.7864 0.50995 -0.10293
1020200 60.2689 196.627 55.7864 0.51005 -0.0680214
1020400 60.2689 196.64 55.7864 0.51015 -0.0425718
1020600 60.2689 196.653 55.7864 0.51025 -0.00739076
1020800 60.2689 196.666 55.7864 0.51035 0.0202021
1021000 60.2689 196.679 55.7864 0.51045 0.018201
1021200 60.2689 196.692 55.7864 0.51055 0.0365284
1021400 60.2689 196.705 55.7864 0.51065 0.0870137
1021600 60.2689 196.718 55.7864 0.51075 0.0891383
1021800 60.2689 196.731 55.7864 0.51085 0.0989181
1022000 60.2689 196.744 55.7864 0.51095 0.0864424
1022200 60.2689 196.757 55.7864 0.51105 0.0858373
1022400 60.2689 196.77 55.7864 0.51115 0.0538525
1022600 60.2689 196.783 55.7864 0.51125 0.0118098
1022800 60.2689 196.796 55.7864 0.51135 0.000211334
1023000 60.2689 196.809 55.7864 0.51145 -0.0547645
1023200 60.2689 196.822 55.7864 0.51155 -0.0572564
1023400 60.2689 196.835 55.7864 0.51165 -0.0670121
1023600 60.2689 196.848 55.7864 0.51175 -0.0880168
1023800 60.2689 196.861 55.7864 0.51185 -0.0698517
1024000 60.2689 196.875 55.7864 0.51195 -0.074052
1024200 60.2689 196.888 55.7864 0.51205 -0.0841514
1024400 60.2689 196.901 55.7864 0.51215 -0.0473628
1024600 60.2689 196.914 55.7864 0.51225 -0.0179662
1024800 60.2689 196.927 55.7864 0.51235 0.022023
1025000 60.2689 196.94 55.7864 0.51245 0.0347897
1025200 60.2689 196.953 55.7864 0.51255 0.0775787
1025400 60.2689 196.966 55.7864 0.51265 0.0993419
1025600 60.2689 196.979 55.7864 0.51275 0.0649896
1025800 60.2689 196.992 55.7864 0.51285 0.0828341
1026000 60.2689 197.005 55.7864 0.51295 0.0697931
1026200 60.2689 197.018 55.7864 0.51305 0.0834343
1026400 60.2689 197.031 55.7864 0.51315 0.0396598
1026600 60.2689 197.044 55.7864 0.51325 0.0130524
1026800 60.2689 197.057 55.7864 0.51335 -0.018841
1027000 60.2689 197.07 55.7864 0.51345 -0.0470809
1027200 60.2689 197.083 55.7864 0.51355 -0.0685067
1027400 60.2689 197.096 55.7864 0.51365 -0.0746583
1027600 60.2689 197.109 55.7864 0.51375 -0.0833207
1027800 60.2689 197.122 55.7864 0.51385 -0.0815962
1028000 60.2689 197.135 55.7864 0.51395 -0.0737276
1028200 60.2689 197.148 55.7864 0.51405 -0.0602695
1028400 60.2689 197.161 55.7864 0.51415 -0.0403585
1028600 60.2689 197.174 55.7864 0.51425 -0.00691382
1028800 60.2689 197.187 55.7864 0.51435 0.0206105
1029000 60.2689 197.2 55.7864 0.51445 0.0415676
1029200 60.2689 197.213 55.7864 0.51455 0.0803849
1029400 60.2689 197.226 55.7864 0.51465 0.086479
1029600 60.2689 197.239 55.7864 0.51475 0.0997018
1029800 60.2689 197.252 55.7864 0.51485 0.0844257
1030000 60.2689 197.265 55.7864 0.51495 0.0805052
1030200 60.2689 197.278 55.7864 0.51505 0.0633414
1030400 60.2689 197.291 55.7864 0.51515 0.039101
1030600 60.2689 197.304 55.7864 0.51525 0.0117243
1030800 60.2689 197.317 55.7864 0.51535 -0.0467625
1031000 60.2689 197.33 55.7864 0.51545 -0.0386386
1031200 60.2689 197.343 55.7864 0.51555 -0.0570599
1031400 60.2689 197.356 55.7864 0.51565 -0.102394
1031600 60.2689 197.369 55.7864 0.51575 -0.091926
1031800 60.2689 197.382 55.7864 0.51585 -0.0688418
1032000 60.2689 197.395 55.7864 0.51595 -0.0825055
1032200 60.2689 197.408 55.7864 0.51605 -0.0382478
1032400 60.2689 197.421 55.7864 0.51615 -0.0293291
1032600 60.2689 197.434 55.7864 0.51625 0.00616701
1032800 60.2689 197.447 55.7864 0.51635 0.0175041
1033000 60.2689 197.46 55.7864 0.51645 0.0499799
1033200 60.2689 197.473 55.7864 0.51655 0.0717084
1033400 60.2689 197.487 55.7864 0.51665 0.0990061
1033600 60.2689 197.5 55.7864 0.51675 0.0778018
1033800 60.2689 197.513 55.7864 0.51685 0.0971805
1034000 60.2689 197.526 55.7864 0.51695 0.0515925
1034200 60.2689 197.539 55.7864 0.51705 0.0553341
1034400 60.2689 197.552 55.7864 0.51715 0.0192831
1034600 60.2689 197.565 55.7864 0.51725 0.0108768
1034800 60.2689 197.578 55.7864 0.51735 -0.0518612
1035000 60.2689 197.591 55.7864 0.51745 -0.0317637
1035200 60.2689 197.604 55.7864 0.51755 -0.0505439
1035400 60.2689 197.617 55.7864 0.51765 -0.0501909
1035600 60.2689 197.63 55.7864 0.51775 -0.0996748
1035800 60.2689 197.643 55.7864 0.51785 -0.0903421
1036000 60.2689 197.656 55.7864 0.51795 -0.0712623
1036200 60.2689 197.669 55.7864 0.51805 -0.044834
1036400 60.2689 197.682 55.7864 0.51815 -0.0310501
1036600 60.2689 197.695 55.7864 0.51825 0.00222744
1036800 60.2689 197.708 55.7864 0.51835 0.0439421
1037000 60.2689 197.721 55.7864 0.51845 0.0461048
1037200 60.2689 197.734 55.7864 0.51855 0.0636448
1037400 60.2689 197.747 55.7864 0.51865 0.0864017
1037600 60.2689 197.76 55.7864 0.51875 0.0757238
1037800 60.2689 197.773 55.7864 0.51885 0.0934025
1038000 60.2689 197.786 55.7864 0.51895 0.0730073
1038200 60.2689 197.799 55.7864 0.51905 0.0500888
1038400 60.2689 197.812 55.7864 0.51915 0.0273583
1038600 60.2689 197.825 55.7864 0.51925 -0.00992036
1038800 60.2689 197.838 55.7864 0.51935 -0.0325982
1039000 60.2689 197.851 55.7864 0.51945 -0.0592706
1039200 60.2689 197.864 55.7864 0.51955 -0.0645894
1039400 60.2689 197.877 55.7864 0.51965 -0.0494817
1039600 60.2689 197.89 55.7864 0.51975 -0.0821137
1039800 60.2689 197.903 55.7864 0.51985 -0.0830851
1040000 60.2689 197.916 55.7864 0.51995 -0.0689412
1040200 60.2689 197.929 55.7864 0.52005 -0.0385649
1040400 60.2689 197.942 55.7864 0.52015 -0.0376638
1040600 60.2689 197.955 55.7864 0.52025 0.0153585
1040800 60.2689 197.968 55.7864 0.52035 0.0232309
1041000 60.2689 197.981 55.7864 0.52045 0.0619012
1041200 60.2689 197.994 55.7864 0.52055 0.0813002
1041400 60.2689 198.007 55.7864 0.52065 0.0785957
1041600 60.2689 198.02 55.7864 0.52075 0.0801901
1041800 60.2689 198.033 55.7864 0.52085 0.0787915
1042000 60.2689 198.046 55.7864 0.52095 0.0611537
1042200 60.2689 198.059 55.7864 0.52105 0.0449291
1042400 60.2689 198.072 55.7864 0.52115 0.0170164
1042600 60.2689 198.085 55.7864 0.52125 0.0199177
1042800 60.2689 198.098 55.7864 0.52135 -0.0337714
1043000 60.2689 198.112 55.7864 0.52145 -0.0794637
1043200 60.2689 198.125 55.7864 0.52155 -0.0653384
1043400 60.2689 198.138 55.7864 0.52165 -0.0757427
1043600 60.2689 198.151 55.7864 0.52175 -0.0957252
1043800 60.2689 198.164 55.7864 0.52185 -0.0401338
1044000 60.2689 198.177 55.7864 0.52195 -0.0461248
1044200 60.2689 198.19 55.7864 0.52205 -0.0473096
1044400 60.2689 198.203 55.7864 0.52215 -0.0345084
1044600 60.2689 198.216 55.7864 0.52225 0.020826
1044800 60.2689 198.229 55.7864 0.52235 0.0329358
1045000 60.2689 198.242 55.7864 0.52245 0.0425219
1045200 60.2689 198.255 55.7864 0.52255 0.0932745
1045400 60.2689 198.268 55.7864 0.52265 0.084939
1045600 60.2689 198.281 55.7864 0.52275 0.069376
1045800 60.2689 198.294 55.7864 0.52285 0.0683845
1046000 60.2689 198.307 55.7864 0.52295 0.0616415
1046200 60.2689 198.32 55.7864 0.52305 0.0434526
1046400 60.2689 198.333 55.7864 0.52315 0.00823767
1046600 60.2689 198.346 55.7864 0.52325 0.0038527
1046800 60.2689 198.359 55.7864 0.52335 -0.0267959
1047000 60.2689 198.372 55.7864 0.52345 -0.0453751
1047200 60.2689 198.385 55.7864 0.52355 -0.0681378
1047400 60.2689 198.398 55.7864 0.52365 -0.104329
1047600 60.2689 198.411 55.7864 0.52375 -0.0798147
1047800 60.2689 198.424 55.7864 0.52385 -0.048223
1048000 60.2689 198.437 55.7864 0.52395 -0.0559061
1048200 60.2689 198.45 55.7864 0.52405 -0.0212635
1048400 60.2689 198.463 55.7864 0.52415 -0.0099054
1048600 60.2689 198.476 55.7864 0.52425 -0.0114081
1048800 60.2689 198.489 55.7864 0.52435 0.0407292
1049000 60.2689 198.502 55.7864 0.52445 0.0601081
1049200 60.2689 198.515 55.7864 0.52455 0.076644
1049400 60.2689 198.528 55.7864 0.52465 0.0940977
1049600 60.2689 198.541 55.7864 0.52475 0.0824059
1049800 60.2689 198.554 55.7864 0.52485 0.0676756
1050000 60.2689 198.567 55.7864 0.52495 0.0239866
1050200 60.2689 198.58 55.7864 0.52505 0.0362717
1050400 60.2689 198.593 55.7864 0.52515 0.0100124
1050600 60.2689 198.606 55.7864 0.52525 -0.00108852
1050800 60.2689 198.619 55.7864 0.52535 -0.0366103
1051000 60.2689 198.632 55.7864 0.52545 -0.055476
1051200 60.2689 198.645 55.7864 0.52555 -0.0848526
1051400 60.2689 198.658 55.7864 0.52565 -0.0769769
1051600 60.2689 198.671 55.7864 0.52575 -0.0629558
1051800 60.2689 198.684 55.7864 0.52585 -0.0615146
1052000 60.2689 198.697 55.7864 0.52595 -0.0561155
1052200 60.2689 198.71 55.7864 0.52605 -0.00916828
1052400 60.2689 198.724 55.7864 0.52615 0.00843853
1052600 60.2689 198.737 55.7864 0.52625 0.015095
1052800 60.2689 198.75 55.7864 0.52635 0.0392068
1053000 60.2689 198.763 55.7864 0.52645 0.0532875
1053200 60.2689 198.776 55.7864 0.52655 0.0720022
1053400 60.2689 198.789 55.7864 0.52665 0.0909521
1053600 60.2689 198.802 55.7864 0.52675 0.0728945
1053800 60.2689 198.815 55.7864 0.52685 0.0811109
1054000 60.2689 198.828 55.7864 0.52695 0.0379384
1054200 60.2689 198.841 55.7864 0.52705 0.00548154
1054400 60.2689 198.854 55.7864 0.52715 -0.00560432
1054600 60.2689 198.867 55.7864 0.52725 -0.032635
1054800 60.2689 198.88 55.7864 0.52735 -0.0343894
1055000 60.2689 198.893 55.7864 0.52745 -0.039609
1055200 60.2689 198.906 55.7864 0.52755 -0.0715099
1055400 60.2689 198.919 55.7864 0.52765 -0.0776814
1055600 60.2689 198.932 55.7864 0.52775 -0.0738177
1055800 60.2689 198.945 55.7864 0.52785 -0.0604188
1056000 60.2689 198.958 55.7864 0.52795 -0.0357177
1056200 60.2689 198.971 55.7864 0.52805 0.00676549
1056400 60.2689 198.984 55.7864 0.52815 0.015514
1056600 60.2689 198.997 55.7864 0.52825 0.00620271
1056800 60.2689 199.01 55.7864 0.52835 0.049234
1057000 60.2689 199.023 55.7864 0.52845 0.0512457
1057200 60.2689 199.036 55.7864 0.52855 0.0787617
1057400 60.2689 199.049 55.7864 0.52865 0.0774016
1057600 60.2689 199.062 55.7864 0.52875 0.071366
1057800 60.2689 199.075 55.7864 0.52885 0.0569317
1058000 60.2689 199.088 55.7864 0.52895 0.0362889
1058200 60.2689 199.101 55.7864 0.52905 0.0146027
1058400 60.2689 199.114 55.7864 0.52915 -0.00778194
1058600 60.2689 199.127 55.7864 0.52925 -0.00868296
1058800 60.2689 199.14 55.7864 0.52935 -0.0378246
1059000 60.2689 199.153 55.7864 0.52945 -0.0482077
1059200 60.2689 199.166 55.7864 0.52955 -0.084398
1059400 60.2689 199.179 55.7864 0.52965 -0.071558
1059600 60.2689 199.192 55.7864 0.52975 -0.0538109
1059800 60.2689 199.205 55.7864 0.52985 -0.0696082
1060000 60.2689 199.218 55.7864 0.52995 -0.0425421
1060200 60.2689 199.231 55.7864 0.53005 -0.00276016
1060400 60.2689 199.244 55.7864 0.53015 0.00570191
1060600 60.2689 199.257 55.7864 0.53025 0.0254262
1060800 60.2689 199.27 55.7864 0.53035 0.0477853
1061000 60.2689 199.283 55.7864 0.53045 0.0602693
1061200 60.2689 199.296 55.7864 0.53055 0.0635332
1061400 60.2689 199.309 55.7864 0.53065 0.0766978
1061600 60.2689 199.322 55.7864 0.53075 0.0805055
1061800 60.2689 199.336 55.7864 0.53085 0.0477166
1062000 60.2689 199.349 55.7864 0.53095 0.0440453
1062200 60.2689 199.362 55.7864 0.53105 0.0183568
1062400 60.2689 199.375 55.7864 0.53115 -0.0115464
1062600 60.2689 199.388 55.7864 0.53125 -0.0225639
1062800 60.2689 199.401 55.7864 0.53135 -0.0488388
1063000 60.2689 199.414 55.7864 0.53145 -0.0633579
1063200 60.2689 199.427 55.7864 0.53155 -0.0541791
1063400 60.2689 199.44 55.7864 0.53165 -0.0758817
1063600 60.2689 199.453 55.7864 0.53175 -0.055027
1063800 60.2689 199.466 55.7864 0.53185 -0.0600402
1064000 60.2689 199.479 55.7864 0.53195 -0.0346863
1064200 60.2689 199.492 55.7864 0.53205 -0.0175992
1064400 60.2689 199.505 55.7864 0.53215 0.0119113
1064600 60.2689 199.518 55.7864 0.53225 0.0327703
1064800 60.2689 199.531 55.7864 0.53235 0.0520186
1065000 60.2689 199.544 55.7864 0.53245 0.0685734
1065200 60.2689 199.557 55.7864 0.53255 0.0640319
1065400 60.2689 199.57 55.7864 0.53265 0.0780035
1065600 60.2689 199.583 55.7864 0.53275 0.0623044
1065800 60.2689 199.596 55.7864 0.53285 0.0507615
1066000 60.2689 199.609 55.7864 0.53295 0.054545
1066200 60.2689 199.622 55.7864 0.53305 0.0151347
1066400 60.2689 199.635 55.7864 0.53315 -0.01979
1066600 60.2689 199.648 55.7864 0.53325 -0.0182678
1066800 60.2689 199.661 55.7864 0.53335 -0.0493368
1067000 60.2689 199.674 55.7864 0.53345 -0.0799876
1067200 60.2689 199.687 55.7864 0.53355 -0.0752116
1067400 60.2689 199.7 55.7864 0.53365 -0.0577842
1067600 60.2689 199.713 55.7864 0.53375 -0.0604313
1067800 60.2689 199.726 55.7864 0.53385 -0.0407472
1068000 60.2689 199.739 55.7864 0.53395 -0.0202802
1068200 60.2689 199.752 55.7864 0.53405 -0.0406718
1068400 60.2689 199.765 55.7864 0.53415 0.00608482
1068600 60.2689 199.778 55.7864 0.53425 0.0329778
1068800 60.2689 199.791 55.7864 0.53435 0.0651215
1069000 60.2689 199.804 55.7864 0.53445 0.076508
1069200 60.2689 199.817 55.7864 0.53455 0.0897944
1069400 60.2689 199.83 55.7864 0.53465 0.0670291
1069600 60.2689 199.843 55.7864 0.53475 0.0689308
1069800 60.2689 199.856 55.7864 0.53485 0.0606683
1070000 60.2689 199.869 55.7864 0.53495 0.0134409
1070200 60.2689 199.882 55.7864 0.53505 0.0163611
1070400 60.2689 199.895 55.7864 0.53515 0.00653695
1070600 60.2689 199.908 55.7864 0.53525 -0.0418899
1070800 60.2689 199.921 55.7864 0.53535 -0.0533752
1071000 60.2689 199.934 55.7864 0.53545 -0.0961497
1071200 60.2689 199.948 55.7864 0.53555 -0.0784223
1071400 60.2689 199.961 55.7864 0.53565 -0.0818451
1071600 60.2689 199.974 55.7864 0.53575 -0.0408645
1071800 60.2689 199.987 55.7864 0.53585 -0.0363332
1072000 60.2689 200 55.7864 0.53595 -0.0165741
1072200 60.2689 200.013 55.7864 0.53605 -0.0136089
1072400 60.2689 200.026 55.7864 0.53615 0.0113867
1072600 60.2689 200.039 55.7864 0.53625 0.0337706
1072800 60.2689 200.052 55.7864 0.53635 0.0626462
1073000 60.2689 200.065 55.7864 0.53645 0.0955523
1073200 60.2689 200.078 55.7864 0.53655 0.073913
1073400 60.2689 200.091 55.7864 0.53665 0.0855775
1073600 60.2689 200.104 55.7864 0.53675 0.0610818
1073800 60.2689 200.117 55.7864 0.53685 0.0315851
1074000 60.2689 200.13 55.7864 0.53695 0.0425294
1074200 60.2689 200.143 55.7864 0.53705 -0.00284035
1074400 60.2689 200.156 55.7864 0.53715 -0.01908
1074600 60.2689 200.169 55.7864 0.53725 -0.0415118
1074800 60.2689 200.182 55.7864 0.53735 -0.0575515
1075000 60.2689 200.195 55.7864 0.53745 -0.0803823
1075200 60.2689 200.208 55.7864 0.53755 -0.08102
1075400 60.2689 200.221 55.7864 0.53765 -0.0739807
1075600 60.2689 200.234 55.7864 0.53775 -0.0619274
1075800 60.2689 200.247 55.7864 0.53785 -0.049815
1076000 60.2689 200.26 55.7864 0.53795 -0.0206524
1076200 60.2689 200.273 55.7864 0.53805 0.0171906
1076400 60.2689 200.286 55.7864 0.53815 0.0259709
1076600 60.2689 200.299 55.7864 0.53825 0.034854
1076800 60.2689 200.312 55.7864 0.53835 0.0831211
1077000 60.2689 200.325 55.7864 0.53845 0.0612526
1077200 60.2689 200.338 55.7864 0.53855 0.0964834
1077400 60.2689 200.351 55.7864 0.53865 0.0751402
1077600 60.2689 200.364 55.7864 0.53875 0.0754006
1077800 60.2689 200.377 55.7864 0.53885 0.0481748
1078000 60.2689 200.39 55.7864 0.53895 0.0248702
1078200 60.2689 200.403 55.7864 0.53905 -0.0140761
1078400 60.2689 200.416 55.7864 0.53915 -0.0297584
1078600 60.2689 200.429 55.7864 0.53925 -0.0501763
1078800 60.2689 200.442 55.7864 0.53935 -0.0741332
1079000 60.2689 200.455 55.7864 0.53945 -0.0504551
1079200 60.2689 200.468 55.7864 0.53955 -0.0883168
1079400 60.2689 200.481 55.7864 0.53965 -0.0833175
1079600 60.2689 200.494 55.7864 0.53975 -0.0688636
1079800 60.2689 200.507 55.7864 0.53985 -0.0253433
1080000 60.2689 200.52 55.7864 0.53995 -0.0280343
1080200 60.2689 200.533 55.7864 0.54005 0.00598186
1080400 60.2689 200.546 55.7864 0.54015 0.0404319
1080600 60.2689 200.56 55.7864 0.54025 0.0794204
1080800 60.2689 200.573 55.7864 0.54035 0.0591035
1081000 60.2689 200.586 55.7864 0.54045 0.0808249
1081200 60.2689 200.599 55.7864 0.54055 0.079916
1081400 60.2689 200.612 55.7864 0.54065 0.0788755
1081600 60.2689 200.625 55.7864 0.54075 0.0623764
1081800 60.2689 200.638 55.7864 0.54085 0.0302424
1082000 60.2689 200.651 55.7864 0.54095 0.020035
1082200 60.2689 200.664 55.7864 0.54105 -0.0108501
1082400 60.2689 200.677 55.7864 0.54115 -0.0398294
1082600 60.2689 200.69 55.7864 0.54125 -0.0531475
1082800 60.2689 200.703 55.7864 0.54135 -0.0776031
1083000 60.2689 200.716 55.7864 0.54145 -0.0695089
1083200 60.2689 200.729 55.7864 0.54155 -0.0831572
1083400 60.2689 200.742 55.7864 0.54165 -0.0606821
1083600 60.2689 200.755 55.7864 0.54175 -0.0584434
1083800 60.2689 200.768 55.7864 0.54185 -0.0242328
1084000 60.2689 200.781 55.7864 0.54195 -0.0114556
1084200 60.2689 200.794 55.7864 0.54205 0.00807885
1084400 60.2689 200.807 55.7864 0.54215 0.049405
1084600 60.2689 200.82 55.7864 0.54225 0.0425646
1084800 60.2689 200.833 55.7864 0.54235 0.0721453
1085000 60.2689 200.846 55.7864 0.54245 0.102157
1085200 60.2689 200.859 55.7864 0.54255 0.0864114
1085400 60.2689 200.872 55.7864 0.54265 0.0711283
1085600 60.2689 200.885 55.7864 0.54275 0.0506759
1085800 60.2689 200.898 55.7864 0.54285 0.0445071
1086000 60.2689 200.911 55.7864 0.54295 0.0155763
1086200 60.2689 200.924 55.7864 0.54305 -0.0179254
1086400 60.2689 200.937 55.7864 0.54315 -0.0546445
1086600 60.2689 200.95 55.7864 0.54325 -0.0673458
1086800 60.2689 200.963 55.7864 0.54335 -0.063437
1087000 60.2689 200.976 55.7864 0.54345 -0.0727968
1087200 60.2689 200.989 55.7864 0.54355 -0.073244
1087400 60.2689 201.002 55.7864 0.54365 -0.0738615
1087600 60.2689 201.015 55.7864 0.54375 -0.0733897
1087800 60.2689 201.028 55.7864 0.54385 -0.0291612
1088000 60.2689 201.041 55.7864 0.54395 -0.000893155
1088200 60.2689 201.054 55.7864 0.54405 0.0149821
1088400 60.2689 201.067 55.7864 0.54415 0.0612264
1088600 60.2689 201.08 55.7864 0.54425 0.063389
1088800 60.2689 201.093 55.7864 0.54435 0.0811588
1089000 60.2689 201.106 55.7864 0.54445 0.0869584
1089200 60.2689 201.119 55.7864 0.54455 0.0832407
1089400 60.2689 201.132 55.7864 0.54465 0.0780961
1089600 60.2689 201.145 55.7864 0.54475 0.0681013
1089800 60.2689 201.158 55.7864 0.54485 0.0213865
1090000 60.2689 201.172 55.7864 0.54495 0.00990326
1090200 60.2689 201.185 55.7864 0.54505 -0.0348855
1090400 60.2689 201.198 55.7864 0.54515 -0.0350252
1090600 60.2689 201.211 55.7864 0.54525 -0.0732522
1090800 60.2689 201.224 55.7864 0.54535 -0.0865631
1091000 60.2689 201.237 55.7864 0.54545 -0.0775973
1091200 60.2689 201.25 55.7864 0.54555 -0.0765508
1091400 60.2689 201.263 55.7864 0.54565 -0.076692
1091600 60.2689 201.276 55.7864 0.54575 -0.0661523
1091800 60.2689 201.289 55.7864 0.54585 -0.0189223
1092000 60.2689 201.302 55.7864 0.54595 0.0102415
1092200 60.2689 201.315 55.7864 0.54605 0.0247165
1092400 60.2689 201.328 55.7864 0.54615 0.0688621
1092600 60.2689 201.341 55.7864 0.54625 0.0690191
1092800 60.2689 201.354 55.7864 0.54635 0.0863227
1093000 60.2689 201.367 55.7864 0.54645 0.0866923
1093200 60.2689 201.38 55.7864 0.54655 0.07438
1093400 60.2689 201.393 55.7864 0.54665 0.0599846
1093600 60.2689 201.406 55.7864 0.54675 0.0597975
1093800 60.2689 201.419 55.7864 0.54685 0.0337954
1094000 60.2689 201.432 55.7864 0.54695 0.0211233
1094200 60.2689 201.445 55.7864 0.54705 -0.0511569
1094400 60.2689 201.458 55.7864 0.54715 -0.0748787
1094600 60.2689 201.471 55.7864 0.54725 -0.0711433
1094800 60.2689 201.484 55.7864 0.54735 -0.0691832
1095000 60.2689 201.497 55.7864 0.54745 -0.0887369
1095200 60.2689 201.51 55.7864 0.54755 -0.0814506
1095400 60.2689 201.523 55.7864 0.54765 -0.0499994
1095600 60.2689 201.536 55.7864 0.54775 -0.0384116
1095800 60.2689 201.549 55.7864 0.54785 -0.0316459
1096000 60.2689 201.562 55.7864 0.54795 0.0145204
1096200 60.2689 201.575 55.7864 0.54805 0.0337775
1096400 60.2689 201.588 55.7864 0.54815 0.0628489
1096600 60.2689 201.601 55.7864 0.54825 0.0746988
1096800 60.2689 201.614 55.7864 0.54835 0.0955361
1097000 60.2689 201.627 55.7864 0.54845 0.087811
1097200 60.2689 201.64 55.7864 0.54855 0.0869069
1097400 60.2689 201.653 55.7864 0.54865 0.0584227
1097600 60.2689 201.666 55.7864 0.54875 0.0377412
1097800 60.2689 201.679 55.7864 0.54885 0.0118946
1098000 60.2689 201.692 55.7864 0.54895 0.00353835
1098200 60.2689 201.705 55.7864 0.54905 -0.0352496
1098400 60.2689 201.718 55.7864 0.54915 -0.0613515
1098600 60.2689 201.731 55.7864 0.54925 -0.0686177
1098800 60.2689 201.744 55.7864 0.54935 -0.0908895
1099000 60.2689 201.757 55.7864 0.54945 -0.0795892
1099200 60.2689 201.77 55.7864 0.54955 -0.0818265
1099400 60.2689 201.784 55.7864 0.54965 -0.0571076
1099600 60.2689 201.797 55.7864 0.54975 -0.0351152
1099800 60.2689 201.81 55.7864 0.54985 -0.008048
1100000 60.2689 201.823 55.7864 0.54995 0.00974523
1100200 60.2689 201.836 55.7864 0.55005 0.0408032
1100400 60.2689 201.849 55.7864 0.55015 0.051776
1100600 60.2689 201.862 55.7864 0.55025 0.0916817
1100800 60.2689 201.875 55.7864 0.55035 0.0853355
1101000 60.2689 201.888 55.7864 0.55045 0.108355
1101200 60.2689 201.901 55.7864 0.55055 0.0613532
1101400 60.2689 201.914 55.7864 0.55065 0.0608401
1101600 60.2689 201.927 55.7864 0.55075 0.0462415
1101800 60.2689 201.94 55.7864 0.55085 0.00118329
1102000 60.2689 201.953 55.7864 0.55095 -0.014258
1102200 60.2689 201.966 55.7864 0.55105 -0.0286278
1102400 60.2689 201.979 55.7864 0.55115 -0.0699551
1102600 60.2689 201.992 55.7864 0.55125 -0.0717738
1102800 60.2689 202.005 55.7864 0.55135 -0.101774
1103000 60.2689 202.018 55.7864 0.55145 -0.0895639
1103200 60.2689 202.031 55.7864 0.55155 -0.0668316
1103400 60.2689 202.044 55.7864 0.55165 -0.0507922
1103600 60.2689 202.057 55.7864 0.55175 -0.0224749
1103800 60.2689 202.07 55.7864 0.55185 -0.00387831
1104000 60.2689 202.083 55.7864 0.55195 0.0135734
1104200 60.2689 202.096 55.7864 0.55205 0.0657747
1104400 60.2689 202.109 55.7864 0.55215 0.06321
1104600 60.2689 202.122 55.7864 0.55225 0.0742361
1104800 60.2689 202.135 55.7864 0.55235 0.0853466
1105000 60.2689 202.148 55.7864 0.55245 0.0924399
1105200 60.2689 202.161 55.7864 0.55255 0.081477
1105400 60.2689 202.174 55.7864 0.55265 0.0578919
1105600 60.2689 202.187 55.7864 0.55275 0.0337277
1105800 60.2689 202.2 55.7864 0.55285 -0.00227581
1106000 60.2689 202.213 55.7864 0.55295 -0.0312263
1106200 60.2689 202.226 55.7864 0.55305 -0.0501033
1106400 60.2689 202.239 55.7864 0.55315 -0.0619618
1106600 60.2689 202.252 55.7864 0.55325 -0.0710019
1106800 60.2689 202.265 55.7864 0.55335 -0.0850837
1107000 60.2689 202.278 55.7864 0.55345 -0.0921129
1107200 60.2689 202.291 55.7864 0.55355 -0.0767772
1107400 60.2689 202.304 55.7864 0.55365 -0.0489284
1107600 60.2689 202.317 55.7864 0.55375 -0.0279678
1107800 60.2689 202.33 55.7864 0.55385 0.01698
1108000 60.2689 202.343 55.7864 0.55395 0.0411016
1108200 60.2689 202.356 55.7864 0.55405 0.0650878
1108400 60.2689 202.369 55.7864 0.55415 0.0712494
1108600 60.2689 202.382 55.7864 0.55425 0.0747914
1108800 60.2689 202.396 55.7864 0.55435 0.0770252
1109000 60.2689 202.409 55.7864 0.55445 0.091458
1109200 60.2689 202.422 55.7864 0.55455 0.080472
1109400 60.2689 202.435 55.7864 0.55465 0.0486805
1109600 60.2689 202.448 55.7864 0.55475 0.0281525
1109800 60.2689 202.461 55.7864 0.55485 -0.0207511
1110000 60.2689 202.474 55.7864 0.55495 -0.0378841
1110200 60.2689 202.487 55.7864 0.55505 -0.0705064
1110400 60.2689 202.5 55.7864 0.55515 -0.0617124
1110600 60.2689 202.513 55.7864 0.55525 -0.0635626
1110800 60.2689 202.526 55.7864 0.55535 -0.0867343
1111000 60.2689 202.539 55.7864 0.55545 -0.0730347
1111200 60.2689 202.552 55.7864 0.55555 -0.0677904
1111400 60.2689 202.565 55.7864 0.55565 -0.0429155
1111600 60.2689 202.578 55.7864 0.55575 -0.0157955
1111800 60.2689 202.591 55.7864 0.55585 0.0247452
1112000 60.2689 202.604 55.7864 0.55595 0.0488467
1112200 60.2689 202.617 55.7864 0.55605 0.0561592
1112400 60.2689 202.63 55.7864 0.55615 0.0724929
1112600 60.2689 202.643 55.7864 0.55625 0.073962
1112800 60.2689 202.656 55.7864 0.55635 0.0755163
1113000 60.2689 202.669 55.7864 0.55645 0.071336
1113200 60.2689 202.682 55.7864 0.55655 0.0768796
1113400 60.2689 202.695 55.7864 0.55665 0.0425606
1113600 60.2689 202.708 55.7864 0.55675 0.0261321
1113800 60.2689 202.721 55.7864 0.55685 -0.0012854
1114000 60.2689 202.734 55.7864 0.55695 -0.0391529
1114200 60.2689 202.747 55.7864 0.55705 -0.0619287
1114400 60.2689 202.76 55.7864 0.55715 -0.0757632
1114600 60.2689 202.773 55.7864 0.55725 -0.089279
1114800 60.2689 202.786 55.7864 0.55735 -0.0666388
1115000 60.2689 202.799 55.7864 0.55745 -0.0751634
1115200 60.2689 202.812 55.7864 0.55755 -0.0551607
1115400 60.2689 202.825 55.7864 0.55765 -0.0558467
1115600 60.2689 202.838 55.7864 0.55775 -0.0194319
1115800 60.2689 202.851 55.7864 0.55785 0.00892251
1116000 60.2689 202.864 55.7864 0.55795 0.0497279
1116200 60.2689 202.877 55.7864 0.55805 0.0722249
1116400 60.2689 202.89 55.7864 0.55815 0.0963089
1116600 60.2689 202.903 55.7864 0.55825 0.0755515
1116800 60.2689 202.916 55.7864 0.55835 0.0910614
1117000 60.2689 202.929 55.7864 0.55845 0.0829187
1117200 60.2689 202.942 55.7864 0.55855 0.0686124
1117400 60.2689 202.955 55.7864 0.55865 0.025798
1117600 60.2689 202.968 55.7864 0.55875 0.0293101
1117800 60.2689 202.981 55.7864 0.55885 -0.0213776
1118000 60.2689 202.994 55.7864 0.55895 -0.0200828
1118200 60.2689 203.008 55.7864 0.55905 -0.0885629
1118400 60.2689 203.021 55.7864 0.55915 -0.0863316
1118600 60.2689 203.034 55.7864 0.55925 -0.0832737
1118800 60.2689 203.047 55.7864 0.55935 -0.0713727
1119000 60.2689 203.06 55.7864 0.55945 -0.07151
1119200 60.2689 203.073 55.7864 0.55955 -0.065034
1119400 60.2689 203.086 55.7864 0.55965 -0.047417
1119600 60.2689 203.099 55.7864 0.55975 -0.00190061
1119800 60.2689 203.112 55.7864 0.55985 0.0260089
1120000 60.2689 203.125 55.7864 0.55995 0.049648
1120200 60.2689 203.138 55.7864 0.56005 0.0644862
1120400 60.2689 203.151 55.7864 0.56015 0.102324
1120600 60.2689 203.164 55.7864 0.56025 0.0833272
1120800 60.2689 203.177 55.7864 0.56035 0.0767416
1121000 60.2689 203.19 55.7864 0.56045 0.0813672
1121200 60.2689 203.203 55.7864 0.56055 0.0610799
1121400 60.2689 203.216 55.7864 0.56065 0.0419767
1121600 60.2689 203.229 55.7864 0.56075 -0.00300308
1121800 60.2689 203.242 55.7864 0.56085 -0.00275939
1122000 60.2689 203.255 55.7864 0.56095 -0.0395855
1122200 60.2689 203.268 55.7864 0.56105 -0.0864825
1122400 60.2689 203.281 55.7864 0.56115 -0.0707237
1122600 60.2689 203.294 55.7864 0.56125 -0.0915463
1122800 60.2689 203.307 55.7864 0.56135 -0.0847526
1123000 60.2689 203.32 55.7864 0.56145 -0.0697749
1123200 60.2689 203.333 55.7864 0.56155 -0.0699479
1123400 60.2689 203.346 55.7864 0.56165 -0.0178488
1123600 60.2689 203.359 55.7864 0.56175 0.0103846
1123800 60.2689 203.372 55.7864 0.56185 0.0114457
1124000 60.2689 203.385 55.7864 0.56195 0.0443601
1124200 60.2689 203.398 55.7864 0.56205 0.0835417
1124400 60.2689 203.411 55.7864 0.56215 0.0937658
1124600 60.2689 203.424 55.7864 0.56225 0.0992643
1124800 60.2689 203.437 55.7864 0.56235 0.0744167
1125000 60.2689 203.45 55.7864 0.56245 0.0684126
1125200 60.2689 203.463 55.7864 0.56255 0.0646411
1125400 60.2689 203.476 55.7864 0.56265 0.0353712
1125600 60.2689 203.489 55.7864 0.56275 0.00829513
1125800 60.2689 203.502 55.7864 0.56285 -0.0248417
1126000 60.2689 203.515 55.7864 0.56295 -0.050974
1126200 60.2689 203.528 55.7864 0.56305 -0.063221
1126400 60.2689 203.541 55.7864 0.56315 -0.0941088
1126600 60.2689 203.554 55.7864 0.56325 -0.0943499
1126800 60.2689 203.567 55.7864 0.56335 -0.0872859
1127000 60.2689 203.58 55.7864 0.56345 -0.0840759
1127200 60.2689 203.593 55.7864 0.56355 -0.0358298
1127400 60.2689 203.606 55.7864 0.56365 -0.0232393
1127600 60.2689 203.62 55.7864 0.56375 -0.00272416
1127800 60.2689 203.633 55.7864 0.56385 0.0252288
1128000 60.2689 203.646 55.7864 0.56395 0.0666741
1128200 60.2689 203.659 55.7864 0.56405 0.0785026
1128400 60.2689 203.672 55.7864 0.56415 0.127508
1128600 60.2689 203.685 55.7864 0.56425 0.0832803
1128800 60.2689 203.698 55.7864 0.56435 0.096038
1129000 60.2689 203.711 55.7864 0.56445 0.0601947
1129200 60.2689 203.724 55.7864 0.56455 0.0444756
1129400 60.2689 203.737 55.7864 0.56465 0.0147341
1129600 60.2689 203.75 55.7864 0.56475 -0.00312018
1129800 60.2689 203.763 55.7864 0.56485 -0.0143012
1130000 60.2689 203.776 55.7864 0.56495 -0.0544315
1130200 60.2689 203.789 55.7864 0.56505 -0.0925098
1130400 60.2689 203.802 55.7864 0.56515 -0.0966388
1130600 60.2689 203.815 55.7864 0.56525 -0.0934779
1130800 60.2689 203.828 55.7864 0.56535 -0.081905
1131000 60.2689 203.841 55.7864 0.56545 -0.0590014
1131200 60.2689 203.854 55.7864 0.56555 -0.0404171
1131400 60.2689 203.867 55.7864 0.56565 -0.00934085
1131600 60.2689 203.88 55.7864 0.56575 0.00985757
1131800 60.2689 203.893 55.7864 0.56585 0.01659
1132000 60.2689 203.906 55.7864 0.56595 0.0761066
1132200 60.2689 203.919 55.7864 0.56605 0.0930472
1132400 60.2689 203.932 55.7864 0.56615 0.0986866
1132600 60.2689 203.945 55.7864 0.56625 0.0978283
1132800 60.2689 203.958 55.7864 0.56635 0.100791
1133000 60.2689 203.971 55.7864 0.56645 0.0650891
1133200 60.2689 203.984 55.7864 0.56655 0.0150734
1133400 60.2689 203.997 55.7864 0.56665 0.0152372
1133600 60.2689 204.01 55.7864 0.56675 -0.00929408
1133800 60.2689 204.023 55.7864 0.56685 -0.0267273
1134000 60.2689 204.036 55.7864 0.56695 -0.0574324
1134200 60.2689 204.049 55.7864 0.56705 -0.0756003
1134400 60.2689 204.062 55.7864 0.56715 -0.0907125
1134600 60.2689 204.075 55.7864 0.56725 -0.0869236
1134800 60.2689 204.088 55.7864 0.56735 -0.0814851
1135000 60.2689 204.101 55.7864 0.56745 -0.0677557
1135200 60.2689 204.114 55.7864 0.56755 -0.04122
1135400 60.2689 204.127 55.7864 0.56765 -0.00927115
1135600 60.2689 204.14 55.7864 0.56775 0.0211852
1135800 60.2689 204.153 55.7864 0.56785 0.0390576
1136000 60.2689 204.166 55.7864 0.56795 0.0534513
1136200 60.2689 204.179 55.7864 0.56805 0.0871518
1136400 60.2689 204.192 55.7864 0.56815 0.0951086
1136600 60.2689 204.205 55.7864 0.56825 0.0981016
1136800 60.2689 204.218 55.7864 0.56835 0.0862947
1137000 60.2689 204.231 55.7864 0.56845 0.0742432
1137200 60.2689 204.245 55.7864 0.56855 0.0370448
1137400 60.2689 204.258 55.7864 0.56865 0.00598705
1137600 60.2689 204.271 55.7864 0.56875 -0.0221039
1137800 60.2689 204.284 55.7864 0.56885 -0.0333958
1138000 60.2689 204.297 55.7864 0.56895 -0.0551757
1138200 60.2689 204.31 55.7864 0.56905 -0.0802538
1138400 60.2689 204.323 55.7864 0.56915 -0.0789779
1138600 60.2689 204.336 55.7864 0.56925 -0.0844865
1138800 60.2689 204.349 55.7864 0.56935 -0.0858134
1139000 60.2689 204.362 55.7864 0.56945 -0.0776371
1139200 60.2689 204.375 55.7864 0.56955 -0.0338591
1139400 60.2689 204.388 55.7864 0.56965 0.00237484
1139600 60.2689 204.401 55.7864 0.56975 0.02258
1139800 60.2689 204.414 55.7864 0.56985 0.0371804
1140000 60.2689 204.427 55.7864 0.56995 0.0865599
1140200 60.2689 204.44 55.7864 0.57005 0.0691049
1140400 60.2689 204.453 55.7864 0.57015 0.0789931
1140600 60.2689 204.466 55.7864 0.57025 0.117127
1140800 60.2689 204.479 55.7864 0.57035 0.0828476
1141000 60.2689 204.492 55.7864 0.57045 0.0628423
1141200 60.2689 204.505 55.7864 0.57055 0.0276444
1141400 60.2689 204.518 55.7864 0.57065 0.0194552
1141600 60.2689 204.531 55.7864 0.57075 -0.0281946
1141800 60.2689 204.544 55.7864 0.57085 -0.0479698
1142000 60.2689 204.557 55.7864 0.57095 -0.0755755
1142200 60.2689 204.57 55.7864 0.57105 -0.0701112
1142400 60.2689 204.583 55.7864 0.57115 -0.0720749
1142600 60.2689 204.596 55.7864 0.57125 -0.0865407
1142800 60.2689 204.609 55.7864 0.57135 -0.0869664
1143000 60.2689 204.622 55.7864 0.57145 -0.0572323
1143200 60.2689 204.635 55.7864 0.57155 -0.0308017
1143400 60.2689 204.648 55.7864 0.57165 0.00539586
1143600 60.2689 204.661 55.7864 0.57175 0.0173026
1143800 60.2689 204.674 55.7864 0.57185 0.0550543
1144000 60.2689 204.687 55.7864 0.57195 0.0844363
1144200 60.2689 204.7 55.7864 0.57205 0.0884954
1144400 60.2689 204.713 55.7864 0.57215 0.0907652
1144600 60.2689 204.726 55.7864 0.57225 0.0703912
1144800 60.2689 204.739 55.7864 0.57235 0.0719328
1145000 60.2689 204.752 55.7864 0.57245 0.0673235
1145200 60.2689 204.765 55.7864 0.57255 0.0309393
1145400 60.2689 204.778 55.7864 0.57265 -0.000610705
1145600 60.2689 204.791 55.7864 0.57275 -0.0312901
1145800 60.2689 204.804 55.7864 0.57285 -0.036137
1146000 60.2689 204.817 55.7864 0.57295 -0.0680804
1146200 60.2689 204.83 55.7864 0.57305 -0.0888526
1146400 60.2689 204.843 55.7864 0.57315 -0.0853345
1146600 60.2689 204.857 55.7864 0.57325 -0.0768201
1146800 60.2689 204.87 55.7864 0.57335 -0.0700597
1147000 60.2689 204.883 55.7864 0.57345 -0.0338003
1147200 60.2689 204.896 55.7864 0.57355 -0.0302795
1147400 60.2689 204.909 55.7864 0.57365 0.0102161
1147600 60.2689 204.922 55.7864 0.57375 0.0177512
1147800 60.2689 204.935 55.7864 0.57385 0.0652891
1148000 60.2689 204.948 55.7864 0.57395 0.0621657
1148200 60.2689 204.961 55.7864 0.57405 0.0899799
1148400 60.2689 204.974 55.7864 0.57415 0.0842944
1148600 60.2689 204.987 55.7864 0.57425 0.0920923
1148800 60.2689 205 55.7864 0.57435 0.0649896
1149000 60.2689 205.013 55.7864 0.57445 0.0315113
1149200 60.2689 205.026 55.7864 0.57455 0.024204
1149400 60.2689 205.039 55.7864 0.57465 0.00474977
1149600 60.2689 205.052 55.7864 0.57475 -0.0276173
1149800 60.2689 205.065 55.7864 0.57485 -0.0424952
1150000 60.2689 205.078 55.7864 0.57495 -0.0556248
1150200 60.2689 205.091 55.7864 0.57505 -0.0885091
1150400 60.2689 205.104 55.7864 0.57515 -0.0772232
1150600 60.2689 205.117 55.7864 0.57525 -0.0746034
1150800 60.2689 205.13 55.7864 0.57535 -0.0589983
1151000 60.2689 205.143 55.7864 0.57545 -0.0397514
1151200 60.2689 205.156 55.7864 0.57555 -0.0285093
1151400 60.2689 205.169 55.7864 0.57565 0.0177611
1151600 60.2689 205.182 55.7864 0.57575 0.0290475
1151800 60.2689 205.195 55.7864 0.57585 0.0444227
1152000 60.2689 205.208 55.7864 0.57595 0.070072
1152200 60.2689 205.221 55.7864 0.57605 0.0851177
1152400 60.2689 205.234 55.7864 0.57615 0.0947432
1152600 60.2689 205.247 55.7864 0.57625 0.0544001
1152800 60.2689 205.26 55.7864 0.57635 0.072669
1153000 60.2689 205.273 55.7864 0.57645 0.0434122
1153200 60.2689 205.286 55.7864 0.57655 0.0195297
1153400 60.2689 205.299 55.7864 0.57665 -0.0018844
1153600 60.2689 205.312 55.7864 0.57675 -0.0328269
1153800 60.2689 205.325 55.7864 0.57685 -0.0514584
1154000 60.2689 205.338 55.7864 0.57695 -0.0712701
1154200 60.2689 205.351 55.7864 0.57705 -0.0672699
1154400 60.2689 205.364 55.7864 0.57715 -0.0761201
1154600 60.2689 205.377 55.7864 0.57725 -0.0649672
1154800 60.2689 205.39 55.7864 0.57735 -0.0655145
1155000 60.2689 205.403 55.7864 0.57745 -0.0302013
1155200 60.2689 205.416 55.7864 0.57755 -0.0200073
1155400 60.2689 205.429 55.7864 0.57765 0.0147209
1155600 60.2689 205.442 55.7864 0.57775 0.0518109
1155800 60.2689 205.455 55.7864 0.57785 0.0575696
1156000 60.2689 205.469 55.7864 0.57795 0.0813728
1156200 60.2689 205.482 55.7864 0.57805 0.0713917
1156400 60.2689 205.495 55.7864 0.57815 0.0608567
1156600 60.2689 205.508 55.7864 0.57825 0.0564054
1156800 60.2689 205.521 55.7864 0.57835 0.0560968
1157000 60.2689 205.534 55.7864 0.57845 0.0549527
1157200 60.2689 205.547 55.7864 0.57855 0.00346209
1157400 60.2689 205.56 55.7864 0.57865 -0.00864874
1157600 60.2689 205.573 55.7864 0.57875 -0.0238013
1157800 60.2689 205.586 55.7864 0.57885 -0.0586265
1158000 60.2689 205.599 55.7864 0.57895 -0.0670948
1158200 60.2689 205.612 55.7864 0.57905 -0.062047
1158400 60.2689 205.625 55.7864 0.57915 -0.0743874
1158600 60.2689 205.638 55.7864 0.57925 -0.0405423
1158800 60.2689 205.651 55.7864 0.57935 -0.0552636
1159000 60.2689 205.664 55.7864 0.57945 -0.0286477
1159200 60.2689 205.677 55.7864 0.57955 -0.0169226
1159400 60.2689 205.69 55.7864 0.57965 0.00907902
1159600 60.2689 205.703 55.7864 0.57975 0.0264918
1159800 60.2689 205.716 55.7864 0.57985 0.0765478
1160000 60.2689 205.729 55.7864 0.57995 0.0685327
1160200 60.2689 205.742 55.7864 0.58005 0.0725607
1160400 60.2689 205.755 55.7864 0.58015 0.0746186
1160600 60.2689 205.768 55.7864 0.58025 0.0519604
1160800 60.2689 205.781 55.7864 0.58035 0.0550857
1161000 60.2689 205.794 55.7864 0.58045 0.026964
1161200 60.2689 205.807 55.7864 0.58055 -0.00917855
1161400 60.2689 205.82 55.7864 0.58065 0.0199563
1161600 60.2689 205.833 55.7864 0.58075 -0.0268239
1161800 60.2689 205.846 55.7864 0.58085 -0.0503209
1162000 60.2689 205.859 55.7864 0.58095 -0.0713046
1162200 60.2689 205.872 55.7864 0.58105 -0.0864597
1162400 60.2689 205.885 55.7864 0.58115 -0.0561554
1162600 60.2689 205.898 55.7864 0.58125 -0.0638991
1162800 60.2689 205.911 55.7864 0.58135 -0.0350578
1163000 60.2689 205.924 55.7864 0.58145 -0.0166207
1163200 60.2689 205.937 55.7864 0.58155 -0.00513649
1163400 60.2689 205.95 55.7864 0.58165 0.00626386
1163600 60.2689 205.963 55.7864 0.58175 0.032343
1163800 60.2689 205.976 55.7864 0.58185 0.0398567
1164000 60.2689 205.989 55.7864 0.58195 0.0716432
1164200 60.2689 206.002 55.7864 0.58205 0.0865414
1164400 60.2689 206.015 55.7864 0.58215 0.0964737
1164600 60.2689 206.028 55.7864 0.58225 0.0583693
1164800 60.2689 206.041 55.7864 0.58235 0.0305572
1165000 60.2689 206.054 55.7864 0.58245 0.0262684
1165200 60.2689 206.067 55.7864 0.58255 0.00255567
1165400 60.2689 206.081 55.7864 0.58265 -0.0122359
1165600 60.2689 206.094 55.7864 0.58275 -0.0271064
1165800 60.2689 206.107 55.7864 0.58285 -0.0360893
1166000 60.2689 206.12 55.7864 0.58295 -0.0460138
1166200 60.2689 206.133 55.7864 0.58305 -0.0895343
1166400 60.2689 206.146 55.7864 0.58315 -0.092806
1166600 60.2689 206.159 55.7864 0.58325 -0.0439947
1166800 60.2689 206.172 55.7864 0.58335 -0.0533409
1167000 60.2689 206.185 55.7864 0.58345 -0.0163513
1167200 60.2689 206.198 55.7864 0.58355 0.0012965
1167400 60.2689 206.211 55.7864 0.58365 0.0306094
1167600 60.2689 206.224 55.7864 0.58375 0.019915
1167800 60.2689 206.237 55.7864 0.58385 0.044458
1168000 60.2689 206.25 55.7864 0.58395 0.0837587
1168200 60.2689 206.263 55.7864 0.58405 0.0800127
1168400 60.2689 206.276 55.7864 0.58415 0.0981117
1168600 60.2689 206.289 55.7864 0.58425 0.0634373
1168800 60.2689 206.302 55.7864 0.58435 0.0430902
1169000 60.2689 206.315 55.7864 0.58445 0.018601
1169200 60.2689 206.328 55.7864 0.58455 -0.0153881
1169400 60.2689 206.341 55.7864 0.58465 -0.0112287
1169600 60.2689 206.354 55.7864 0.58475 -0.0209631
1169800 60.2689 206.367 55.7864 0.58485 -0.0499111
1170000 60.2689 206.38 55.7864 0.58495 -0.0723021
1170200 60.2689 206.393 55.7864 0.58505 -0.0759679
1170400 60.2689 206.406 55.7864 0.58515 -0.085285
1170600 60.2689 206.419 55.7864 0.58525 -0.063043
1170800 60.2689 206.432 55.7864 0.58535 -0.0399142
1171000 60.2689 206.445 55.7864 0.58545 -0.024656
1171200 60.2689 206.458 55.7864 0.58555 0.02016
1171400 60.2689 206.471 55.7864 0.58565 0.0215742
1171600 60.2689 206.484 55.7864 0.58575 0.0571585
1171800 60.2689 206.497 55.7864 0.58585 0.0477499
1172000 60.2689 206.51 55.7864 0.58595 0.0661182
1172200 60.2689 206.523 55.7864 0.58605 0.0873076
1172400 60.2689 206.536 55.7864 0.58615 0.0922043
1172600 60.2689 206.549 55.7864 0.58625 0.0758387
1172800 60.2689 206.562 55.7864 0.58635 0.0447874
1173000 60.2689 206.575 55.7864 0.58645 0.0110975
1173200 60.2689 206.588 55.7864 0.58655 -0.0098555
1173400 60.2689 206.601 55.7864 0.58665 -0.0282636
1173600 60.2689 206.614 55.7864 0.58675 -0.0521497
1173800 60.2689 206.627 55.7864 0.58685 -0.0668426
1174000 60.2689 206.64 55.7864 0.58695 -0.050428
1174200 60.2689 206.653 55.7864 0.58705 -0.0745679
1174400 60.2689 206.666 55.7864 0.58715 -0.0681916
1174600 60.2689 206.679 55.7864 0.58725 -0.0815039
1174800 60.2689 206.693 55.7864 0.58735 -0.0465307
1175000 60.2689 206.706 55.7864 0.58745 -0.00818174
1175200 60.2689 206.719 55.7864 0.58755 0.021516
1175400 60.2689 206.732 55.7864 0.58765 0.0428524
1175600 60.2689 206.745 55.7864 0.58775 0.040777
1175800 60.2689 206.758 55.7864 0.58785 0.0728883
1176000 60.2689 206.771 55.7864 0.58795 0.0785657
1176200 60.2689 206.784 55.7864 0.58805 0.067751
1176400 60.2689 206.797 55.7864 0.58815 0.0734523
1176600 60.2689 206.81 55.7864 0.58825 0.0798604
1176800 60.2689 206.823 55.7864 0.58835 0.0378699
1177000 60.2689 206.836 55.7864 0.58845 0.018741
1177200 60.2689 206.849 55.7864 0.58855 -0.00482884
1177400 60.2689 206.862 55.7864 0.58865 -0.0420832
1177600 60.2689 206.875 55.7864 0.58875 -0.0640008
1177800 60.2689 206.888 55.7864 0.58885 -0.0456135
1178000 60.2689 206.901 55.7864 0.58895 -0.0748668
1178200 60.2689 206.914 55.7864 0.58905 -0.0526536
1178400 60.2689 206.927 55.7864 0.58915 -0.0569141
1178600 60.2689 206.94 55.7864 0.58925 -0.0770277
1178800 60.2689 206.953 55.7864 0.58935 -0.0522219
1179000 60.2689 206.966 55.7864 0.58945 -0.0120021
1179200 60.2689 206.979 55.7864 0.58955 0.0194634
1179400 60.2689 206.992 55.7864 0.58965 0.0439062
1179600 60.2689 207.005 55.7864 0.58975 0.0820665
1179800 60.2689 207.018 55.7864 0.58985 0.052242
1180000 60.2689 207.031 55.7864 0.58995 0.0775535
1180200 60.2689 207.044 55.7864 0.59005 0.0595008
1180400 60.2689 207.057 55.7864 0.59015 0.0794171
1180600 60.2689 207.07 55.7864 0.59025 0.0505126
1180800 60.2689 207.083 55.7864 0.59035 0.0338647
1181000 60.2689 207.096 55.7864 0.59045 0.0444218
1181200 60.2689 207.109 55.7864 0.59055 -0.0132962
1181400 60.2689 207.122 55.7864 0.59065 -0.0386904
1181600 60.2689 207.135 55.7864 0.59075 -0.0746747
1181800 60.2689 207.148 55.7864 0.59085 -0.0730079
1182000 60.2689 207.161 55.7864 0.59095 -0.0525787
1182200 60.2689 207.174 55.7864 0.59105 -0.0775833
1182400 60.2689 207.187 55.7864 0.59115 -0.0467117
1182600 60.2689 207.2 55.7864 0.59125 -0.0636197
1182800 60.2689 207.213 55.7864 0.59135 -0.0323381
1183000 60.2689 207.226 55.7864 0.59145 -0.00663321
1183200 60.2689 207.239 55.7864 0.59155 0.00639717
1183400 60.2689 207.252 55.7864 0.59165 0.0519635
1183600 60.2689 207.265 55.7864 0.59175 0.0651499
1183800 60.2689 207.278 55.7864 0.59185 0.0680377
1184000 60.2689 207.291 55.7864 0.59195 0.0769818
1184200 60.2689 207.305 55.7864 0.59205 0.0740525
1184400 60.2689 207.318 55.7864 0.59215 0.0758067
1184600 60.2689 207.331 55.7864 0.59225 0.0482247
1184800 60.2689 207.344 55.7864 0.59235 0.0335941
1185000 60.2689 207.357 55.7864 0.59245 0.0113741
1185200 60.2689 207.37 55.7864 0.59255 -0.0102965
1185400 60.2689 207.383 55.7864 0.59265 -0.0402415
1185600 60.2689 207.396 55.7864 0.59275 -0.0632771
1185800 60.2689 207.409 55.7864 0.59285 -0.081864
1186000 60.2689 207.422 55.7864 0.59295 -0.0512052
1186200 60.2689 207.435 55.7864 0.59305 -0.0700581
1186400 60.2689 207.448 55.7864 0.59315 -0.0570161
1186600 60.2689 207.461 55.7864 0.59325 -0.0422042
1186800 60.2689 207.474 55.7864 0.59335 -0.0382238
1187000 60.2689 207.487 55.7864 0.59345 0.00627749
1187200 60.2689 207.5 55.7864 0.59355 0.0332223
1187400 60.2689 207.513 55.7864 0.59365 0.0398507
1187600 60.2689 207.526 55.7864 0.59375 0.066782
1187800 60.2689 207.539 55.7864 0.59385 0.0625428
1188000 60.2689 207.552 55.7864 0.59395 0.0676894
1188200 60.2689 207.565 55.7864 0.59405 0.0639166
1188400 60.2689 207.578 55.7864 0.59415 0.0735751
1188600 60.2689 207.591 55.7864 0.59425 0.032648
1188800 60.2689 207.604 55.7864 0.59435 0.0353236
1189000 60.2689 207.617 55.7864 0.59445 0.0114425
1189200 60.2689 207.63 55.7864 0.59455 -0.0194439
1189400 60.2689 207.643 55.7864 0.59465 -0.042314
1189600 60.2689 207.656 55.7864 0.59475 -0.0634349
1189800 60.2689 207.669 55.7864 0.59485 -0.0594339
1190000 60.2689 207.682 55.7864 0.59495 -0.0692215
1190200 60.2689 207.695 55.7864 0.59505 -0.0503781
1190400 60.2689 207.708 55.7864 0.59515 -0.0387371
1190600 60.2689 207.721 55.7864 0.59525 -0.0450563
1190800 60.2689 207.734 55.7864 0.59535 -0.020342
1191000 60.2689 207.747 55.7864 0.59545 -0.00722584
1191200 60.2689 207.76 55.7864 0.59555 -0.00174137
1191400 60.2689 207.773 55.7864 0.59565 0.0520434
1191600 60.2689 207.786 55.7864 0.59575 0.0946558
1191800 60.2689 207.799 55.7864 0.59585 0.0494026
1192000 60.2689 207.812 55.7864 0.59595 0.0755194
1192200 60.2689 207.825 55.7864 0.59605 0.0629822
1192400 60.2689 207.838 55.7864 0.59615 0.0535607
1192600 60.2689 207.851 55.7864 0.59625 0.0401671
1192800 60.2689 207.864 55.7864 0.59635 0.0384663
1193000 60.2689 207.877 55.7864 0.59645 -0.00631251
1193200 60.2689 207.89 55.7864 0.59655 -0.014652
1193400 60.2689 207.903 55.7864 0.59665 -0.0477896
1193600 60.2689 207.917 55.7864 0.59675 -0.0584597
1193800 60.2689 207.93 55.7864 0.59685 -0.0675923
1194000 60.2689 207.943 55.7864 0.59695 -0.0589398
1194200 60.2689 207.956 55.7864 0.59705 -0.0582353
1194400 60.2689 207.969 55.7864 0.59715 -0.0574241
1194600 60.2689 207.982 55.7864 0.59725 -0.0287129
1194800 60.2689 207.995 55.7864 0.59735 -0.0274667
1195000 60.2689 208.008 55.7864 0.59745 0.0103569
1195200 60.2689 208.021 55.7864 0.59755 0.0378632
1195400 60.2689 208.034 55.7864 0.59765 0.0603589
1195600 60.2689 208.047 55.7864 0.59775 0.0451195
1195800 60.2689 208.06 55.7864 0.59785 0.0585332
1196000 60.2689 208.073 55.7864 0.59795 0.0692681
1196200 60.2689 208.086 55.7864 0.59805 0.0801308
1196400 60.2689 208.099 55.7864 0.59815 0.0579149
1196600 60.2689 208.112 55.7864 0.59825 0.0285009
1196800 60.2689 208.125 55.7864 0.59835 0.0185161
1197000 60.2689 208.138 55.7864 0.59845 -0.0130225
1197200 60.2689 208.151 55.7864 0.59855 -0.0352695
1197400 60.2689 208.164 55.7864 0.59865 -0.0397395
1197600 60.2689 208.177 55.7864 0.59875 -0.0401432
1197800 60.2689 208.19 55.7864 0.59885 -0.0578538
1198000 60.2689 208.203 55.7864 0.59895 -0.0613493
1198200 60.2689 208.216 55.7864 0.59905 -0.0632182
1198400 60.2689 208.229 55.7864 0.59915 -0.0524311
1198600 60.2689 208.242 55.7864 0.59925 -0.0330893
1198800 60.2689 208.255 55.7864 0.59935 0.0104008
1199000 60.2689 208.268 55.7864 0.59945 -0.00229877
1199200 60.2689 208.281 55.7864 0.59955 0.0458726
1199400 60.2689 208.294 55.7864 0.59965 0.0246176
1199600 60.2689 208.307 55.7864 0.59975 0.0763914
1199800 60.2689 208.32 55.7864 0.59985 0.0530616
1200000 60.2689 208.333 55.7864 0.59995 0.0685033
1200200 60.2689 208.346 55.7864 0.60005 0.0875695
1200400 60.2689 208.359 55.7864 0.60015 0.0419628
1200600 60.2689 208.372 55.7864 0.60025 0.0405793
1200800 60.2689 208.385 55.7864 0.60035 -0.00463655
1201000 60.2689 208.398 55.7864 0.60045 0.0026668
1201200 60.2689 208.411 55.7864 0.60055 -0.0348677
1201400 60.2689 208.424 55.7864 0.60065 -0.0359487
1201600 60.2689 208.437 55.7864 0.60075 -0.0641495
1201800 60.2689 208.45 55.7864 0.60085 -0.0659799
1202000 60.2689 208.463 55.7864 0.60095 -0.0662099
1202200 60.2689 208.476 55.7864 0.60105 -0.045089
1202400 60.2689 208.489 55.7864 0.60115 -0.0368015
1202600 60.2689 208.502 55.7864 0.60125 -0.0203456
1202800 60.2689 208.515 55.7864 0.60135 -0.00521332
1203000 60.2689 208.529 55.7864 0.60145 0.00596895
1203200 60.2689 208.542 55.7864 0.60155 0.0357068
1203400 60.2689 208.555 55.7864 0.60165 0.0466699
1203600 60.2689 208.568 55.7864 0.60175 0.0865111
1203800 60.2689 208.581 55.7864 0.60185 0.0631732
1204000 60.2689 208.594 55.7864 0.60195 0.0551803
1204200 60.2689 208.607 55.7864 0.60205 0.0573588
1204400 60.2689 208.62 55.7864 0.60215 0.0348388
1204600 60.2689 208.633 55.7864 0.60225 0.0207002
1204800 60.2689 208.646 55.7864 0.60235 0.00437657
1205000 60.2689 208.659 55.7864 0.60245 -0.00915585
1205200 60.2689 208.672 55.7864 0.60255 -0.0309262
1205400 60.2689 208.685 55.7864 0.60265 -0.0346795
1205600 60.2689 208.698 55.7864 0.60275 -0.0795828
1205800 60.2689 208.711 55.7864 0.60285 -0.0482716
1206000 60.2689 208.724 55.7864 0.60295 -0.0631279
1206200 60.2689 208.737 55.7864 0.60305 -0.0334348
1206400 60.2689 208.75 55.7864 0.60315 -0.0253431
1206600 60.2689 208.763 55.7864 0.60325 -0.0323627
1206800 60.2689 208.776 55.7864 0.60335 0.0142189
1207000 60.2689 208.789 55.7864 0.60345 0.0248338
1207200 60.2689 208.802 55.7864 0.60355 0.0324039
1207400 60.2689 208.815 55.7864 0.60365 0.0462813
1207600 60.2689 208.828 55.7864 0.60375 0.0674293
1207800 60.2689 208.841 55.7864 0.60385 0.0650765
1208000 60.2689 208.854 55.7864 0.60395 0.0608421
1208200 60.2689 208.867 55.7864 0.60405 0.0412766
1208400 60.2689 208.88 55.7864 0.60415 0.027866
1208600 60.2689 208.893 55.7864 0.60425 0.0229053
1208800 60.2689 208.906 55.7864 0.60435 -0.00943373
1209000 60.2689 208.919 55.7864 0.60445 -0.0134089
1209200 60.2689 208.932 55.7864 0.60455 -0.024764
1209400 60.2689 208.945 55.7864 0.60465 -0.0478615
1209600 60.2689 208.958 55.7864 0.60475 -0.0620735
1209800 60.2689 208.971 55.7864 0.60485 -0.0569085
1210000 60.2689 208.984 55.7864 0.60495 -0.0534583
1210200 60.2689 208.997 55.7864 0.60505 -0.0565419
1210400 60.2689 209.01 55.7864 0.60515 -0.000859379
1210600 60.2689 209.023 55.7864 0.60525 -0.00642742
1210800 60.2689 209.036 55.7864 0.60535 0.00381051
1211000 60.2689 209.049 55.7864 0.60545 0.0416631
1211200 60.2689 209.062 55.7864 0.60555 0.0408775
1211400 60.2689 209.075 55.7864 0.60565 0.0240889
1211600 60.2689 209.088 55.7864 0.60575 0.0658007
1211800 60.2689 209.101 55.7864 0.60585 0.071589
1212000 60.2689 209.114 55.7864 0.60595 0.0462574
1212200 60.2689 209.127 55.7864 0.60605 0.0422148
1212400 60.2689 209.141 55.7864 0.60615 0.0389778
1212600 60.2689 209.154 55.7864 0.60625 0.0127622
1212800 60.2689 209.167 55.7864 0.60635 -0.0174623
1213000 60.2689 209.18 55.7864 0.60645 -0.0276029
1213200 60.2689 209.193 55.7864 0.60655 -0.0205103
1213400 60.2689 209.206 55.7864 0.60665 -0.0531715
1213600 60.2689 209.219 55.7864 0.60675 -0.0540636
1213800 60.2689 209.232 55.7864 0.60685 -0.0490392
1214000 60.2689 209.245 55.7864 0.60695 -0.0465051
1214200 60.2689 209.258 55.7864 0.60705 -0.0549989
1214400 60.2689 209.271 55.7864 0.60715 -0.0109273
1214600 60.2689 209.284 55.7864 0.60725 -0.00381398
1214800 60.2689 209.297 55.7864 0.60735 0.0175206
1215000 60.2689 209.31 55.7864 0.60745 0.0266859
1215200 60.2689 209.323 55.7864 0.60755 0.0514156
1215400 60.2689 209.336 55.7864 0.60765 0.0537081
1215600 60.2689 209.349 55.7864 0.60775 0.0565258
1215800 60.2689 209.362 55.7864 0.60785 0.0455783
1216000 60.2689 209.375 55.7864 0.60795 0.0562042
1216200 60.2689 209.388 55.7864 0.60805 0.0466905
1216400 60.2689 209.401 55.7864 0.60815 0.0189351
1216600 60.2689 209.414 55.7864 0.60825 0.00778491
1216800 60.2689 209.427 55.7864 0.60835 -0.0183238
1217000 60.2689 209.44 55.7864 0.60845 -0.0307375
1217200 60.2689 209.453 55.7864 0.60855 -0.0452863
1217400 60.2689 209.466 55.7864 0.60865 -0.035449
1217600 60.2689 209.479 55.7864 0.60875 -0.0336491
1217800 60.2689 209.492 55.7864 0.60885 -0.0655511
1218000 60.2689 209.505 55.7864 0.60895 -0.0400167
1218200 60.2689 209.518 55.7864 0.60905 -0.022018
1218400 60.2689 209.531 55.7864 0.60915 -0.0242707
1218600 60.2689 209.544 55.7864 0.60925 0.0181477
1218800 60.2689 209.557 55.7864 0.60935 0.0198871
1219000 60.2689 209.57 55.7864 0.60945 0.0378154
1219200 60.2689 209.583 55.7864 0.60955 0.0365164
1219400 60.2689 209.596 55.7864 0.60965 0.0455057
1219600 60.2689 209.609 55.7864 0.60975 0.0526937
1219800 60.2689 209.622 55.7864 0.60985 0.0451248
1220000 60.2689 209.635 55.7864 0.60995 0.0410229
1220200 60.2689 209.648 55.7864 0.61005 0.0397957
1220400 60.2689 209.661 55.7864 0.61015 0.023647
1220600 60.2689 209.674 55.7864 0.61025 -0.00860377
1220800 60.2689 209.687 55.7864 0.61035 -0.0241441
1221000 60.2689 209.7 55.7864 0.61045 -0.0181808
1221200 60.2689 209.713 55.7864 0.61055 -0.0545774
1221400 60.2689 209.726 55.7864 0.61065 -0.0411341
1221600 60.2689 209.739 55.7864 0.61075 -0.0432794
1221800 60.2689 209.752 55.7864 0.61085 -0.0298928
1222000 60.2689 209.766 55.7864 0.61095 -0.0312277
1222200 60.2689 209.779 55.7864 0.61105 -0.0339116
1222400 60.2689 209.792 55.7864 0.61115 -0.0108503
1222600 60.2689 209.805 55.7864 0.61125 -0.0011376
1222800 60.2689 209.818 55.7864 0.61135 0.0356914
1223000 60.2689 209.831 55.7864 0.61145 0.0217038
1223200 60.2689 209.844 55.7864 0.61155 0.0692473
1223400 60.2689 209.857 55.7864 0.61165 0.0399053
1223600 60.2689 209.87 55.7864 0.61175 0.036476
1223800 60.2689 209.883 55.7864 0.61185 0.0500871
1224000 60.2689 209.896 55.7864 0.61195 0.0382712
1224200 60.2689 209.909 55.7864 0.61205 0.026131
1224400 60.2689 209.922 55.7864 0.61215 0.0261623
1224600 60.2689 209.935 55.7864 0.61225 -0.00573093
1224800 60.2689 209.948 55.7864 0.61235 0.00810485
1225000 60.2689 209.961 55.7864 0.61245 -0.0379401
1225200 60.2689 209.974 55.7864 0.61255 -0.0553953
1225400 60.2689 209.987 55.7864 0.61265 -0.0455953
1225600 60.2689 210 55.7864 0.61275 -0.0382673
1225800 60.2689 210.013 55.7864 0.61285 -0.0405454
1226000 60.2689 210.026 55.7864 0.61295 -0.0322386
1226200 60.2689 210.039 55.7864 0.61305 -0.0114218
1226400 60.2689 210.052 55.7864 0.61315 -0.0105857
1226600 60.2689 210.065 55.7864 0.61325 -0.00180783
1226800 60.2689 210.078 55.7864 0.61335 0.0243796
1227000 60.2689 210.091 55.7864 0.61345 0.0326341
1227200 60.2689 210.104 55.7864 0.61355 0.0529398
1227400 60.2689 210.117 55.7864 0.61365 0.0343535
1227600 60.2689 210.13 55.7864 0.61375 0.0459001
1227800 60.2689 210.143 55.7864 0.61385 0.0436452
1228000 60.2689 210.156 55.7864 0.61395 0.0395386
1228200 60.2689 210.169 55.7864 0.61405 0.0200348
1228400 60.2689 210.182 55.7864 0.61415 -0.00301136
1228600 60.2689 210.195 55.7864 0.61425 0.0143536
1228800 60.2689 210.208 55.7864 0.61435 -0.0261338
1229000 60.2689 210.221 55.7864 0.61445 -0.0172351
1229200 60.2689 210.234 55.7864 0.61455 -0.0236723
1229400 60.2689 210.247 55.7864 0.61465 -0.0504378
1229600 60.2689 210.26 55.7864 0.61475 -0.0288641
1229800 60.2689 210.273 55.7864 0.61485 -0.0476915
1230000 60.2689 210.286 55.7864 0.61495 -0.0344891
1230200 60.2689 210.299 55.7864 0.61505 -0.016935
1230400 60.2689 210.312 55.7864 0.61515 -0.0029243
1230600 60.2689 210.325 55.7864 0.61525 0.0160086
1230800 60.2689 210.338 55.7864 0.61535 0.0156039
1231000 60.2689 210.351 55.7864 0.61545 0.0339269
1231200 60.2689 210.364 55.7864 0.61555 0.0233301
1231400 60.2689 210.378 55.7864 0.61565 0.0550469
1231600 60.2689 210.391 55.7864 0.61575 0.0579876
1231800 60.2689 210.404 55.7864 0.61585 0.0384066
1232000 60.2689 210.417 55.7864 0.61595 0.0323686
1232200 60.2689 210.43 55.7864 0.61605 0.0357245
1232400 60.2689 210.443 55.7864 0.61615 0.0281538
1232600 60.2689 210.456 55.7864 0.61625 -0.00760647
1232800 60.2689 210.469 55.7864 0.61635 -0.0353897
1233000 60.2689 210.482 55.7864 0.61645 -0.0251428
1233200 60.2689 210.495 55.7864 0.61655 -0.0372353
1233400 60.2689 210.508 55.7864 0.61665 -0.039288
1233600 60.2689 210.521 55.7864 0.61675 -0.0496251
1233800 60.2689 210.534 55.7864 0.61685 -0.0499913
1234000 60.2689 210.547 55.7864 0.61695 -0.0324779
1234200 60.2689 210.56 55.7864 0.61705 -0.0234557
1234400 60.2689 210.573 55.7864 0.61715 -0.00430568
1234600 60.2689 210.586 55.7864 0.61725 0.0303518
1234800 60.2689 210.599 55.7864 0.61735 0.0314267
1235000 60.2689 210.612 55.7864 0.61745 0.0222417
1235200 60.2689 210.625 55.7864 0.61755 0.0527789
1235400 60.2689 210.638 55.7864 0.61765 0.0520819
1235600 60.2689 210.651 55.7864 0.61775 0.0609732
1235800 60.2689 210.664 55.7864 0.61785 0.0492116
1236000 60.2689 210.677 55.7864 0.61795 0.0198316
1236200 60.2689 210.69 55.7864 0.61805 0.0191521
1236400 60.2689 210.703 55.7864 0.61815 -0.00262787
1236600 60.2689 210.716 55.7864 0.61825 -0.000609053
1236800 60.2689 210.729 55.7864 0.61835 -0.0377329
1237000 60.2689 210.742 55.7864 0.61845 -0.0202527
1237200 60.2689 210.755 55.7864 0.61855 -0.0619319
1237400 60.2689 210.768 55.7864 0.61865 -0.0559167
1237600 60.2689 210.781 55.7864 0.61875 -0.0283321
1237800 60.2689 210.794 55.7864 0.61885 -0.0294296
1238000 60.2689 210.807 55.7864 0.61895 -0.0374686
1238200 60.2689 210.82 55.7864 0.61905 -0.0194799
1238400 60.2689 210.833 55.7864 0.61915 0.0192124
1238600 60.2689 210.846 55.7864 0.61925 0.034578
1238800 60.2689 210.859 55.7864 0.61935 0.0431843
1239000 60.2689 210.872 55.7864 0.61945 0.0342539
1239200 60.2689 210.885 55.7864 0.61955 0.0568214
1239400 60.2689 210.898 55.7864 0.61965 0.0697142
1239600 60.2689 210.911 55.7864 0.61975 0.0502082
1239800 60.2689 210.924 55.7864 0.61985 0.0339457
1240000 60.2689 210.937 55.7864 0.61995 0.024287
1240200 60.2689 210.95 55.7864 0.62005 -0.000745413
1240400 60.2689 210.963 55.7864 0.62015 -0.00340844
1240600 60.2689 210.976 55.7864 0.62025 -0.0358847
1240800 60.2689 210.99 55.7864 0.62035 -0.0157367
1241000 60.2689 211.003 55.7864 0.62045 -0.068201
1241200 60.2689 211.016 55.7864 0.62055 -0.0402722
1241400 60.2689 211.029 55.7864 0.62065 -0.0500298
1241600 60.2689 211.042 55.7864 0.62075 -0.0535462
1241800 60.2689 211.055 55.7864 0.62085 -0.0353227
1242000 60.2689 211.068 55.7864 0.62095 -0.0176187
1242200 60.2689 211.081 55.7864 0.62105 0.00543861
1242400 60.2689 211.094 55.7864 0.62115 0.0269169
1242600 60.2689 211.107 55.7864 0.62125 0.0407525
1242800 60.2689 211.12 55.7864 0.62135 0.043102
1243000 60.2689 211.133 55.7864 0.62145 0.0593262
1243200 60.2689 211.146 55.7864 0.62155 0.0395677
1243400 60.2689 211.159 55.7864 0.62165 0.0589498
1243600 60.2689 211.172 55.7864 0.62175 0.0503907
1243800 60.2689 211.185 55.7864 0.62185 0.0488924
1244000 60.2689 211.198 55.7864 0.62195 0.00538001
1244200 60.2689 211.211 55.7864 0.62205 0.0247407
1244400 60.2689 211.224 55.7864 0.62215 -0.0242141
1244600 60.2689 211.237 55.7864 0.62225 -0.0365134
1244800 60.2689 211.25 55.7864 0.62235 -0.0485898
1245000 60.2689 211.263 55.7864 0.62245 -0.0447044
1245200 60.2689 211.276 55.7864 0.62255 -0.0563033
1245400 60.2689 211.289 55.7864 0.62265 -0.0379877
1245600 60.2689 211.302 55.7864 0.62275 -0.0501072
1245800 60.2689 211.315 55.7864 0.62285 -0.0326711
1246000 60.2689 211.328 55.7864 0.62295 0.00108482
1246200 60.2689 211.341 55.7864 0.62305 -0.00454659
1246400 60.2689 211.354 55.7864 0.62315 0.00380203
1246600 60.2689 211.367 55.7864 0.62325 0.0523589
1246800 60.2689 211.38 55.7864 0.62335 0.0629034
1247000 60.2689 211.393 55.7864 0.62345 0.0580445
1247200 60.2689 211.406 55.7864 0.62355 0.0613904
1247400 60.2689 211.419 55.7864 0.62365 0.0415444
1247600 60.2689 211.432 55.7864 0.62375 0.0485092
1247800 60.2689 211.445 55.7864 0.62385 0.0339743
1248000 60.2689 211.458 55.7864 0.62395 0.0135939
1248200 60.2689 211.471 55.7864 0.62405 -0.00572303
1248400 60.2689 211.484 55.7864 0.62415 -0.0233763
1248600 60.2689 211.497 55.7864 0.62425 -0.0207498
1248800 60.2689 211.51 55.7864 0.62435 -0.0616239
1249000 60.2689 211.523 55.7864 0.62445 -0.050352
1249200 60.2689 211.536 55.7864 0.62455 -0.0524871
1249400 60.2689 211.549 55.7864 0.62465 -0.043685
1249600 60.2689 211.562 55.7864 0.62475 -0.0356394
1249800 60.2689 211.575 55.7864 0.62485 -0.0239473
1250000 60.2689 211.588 55.7864 0.62495 -0.00146366
1250200 60.2689 211.602 55.7864 0.62505 0.00913682
1250400 60.2689 211.615 55.7864 0.62515 0.0229175
1250600 60.2689 211.628 55.7864 0.62525 0.0379313
1250800 60.2689 211.641 55.7864 0.62535 0.0678932
1251000 60.2689 211.654 55.7864 0.62545 0.0635568
1251200 60.2689 211.667 55.7864 0.62555 0.0581733
1251400 60.2689 211.68 55.7864 0.62565 0.051186
1251600 60.2689 211.693 55.7864 0.62575 0.0347719
1251800 60.2689 211.706 55.7864 0.62585 0.0266071
1252000 60.2689 211.719 55.7864 0.62595 -0.011721
1252200 60.2689 211.732 55.7864 0.62605 0.00363811
1252400 60.2689 211.745 55.7864 0.62615 -0.0193006
1252600 60.2689 211.758 55.7864 0.62625 -0.0473936
1252800 60.2689 211.771 55.7864 0.62635 -0.0405143
1253000 60.2689 211.784 55.7864 0.62645 -0.053273
1253200 60.2689 211.797 55.7864 0.62655 -0.0656004
1253400 60.2689 211.81 55.7864 0.62665 -0.0315807
1253600 60.2689 211.823 55.7864 0.62675 -0.0389986
1253800 60.2689 211.836 55.7864 0.62685 -0.0228462
1254000 60.2689 211.849 55.7864 0.62695 0.0120334
1254200 60.2689 211.862 55.7864 0.62705 0.0156094
1254400 60.2689 211.875 55.7864 0.62715 0.034436
1254600 60.2689 211.888 55.7864 0.62725 0.0251518
1254800 60.2689 211.901 55.7864 0.62735 0.0634949
1255000 60.2689 211.914 55.7864 0.62745 0.0591561
1255200 60.2689 211.927 55.7864 0.62755 0.0600189
1255400 60.2689 211.94 55.7864 0.62765 0.0568812
1255600 60.2689 211.953 55.7864 0.62775 0.0423342
1255800 60.2689 211.966 55.7864 0.62785 0.0292205
1256000 60.2689 211.979 55.7864 0.62795 0.0032069
1256200 60.2689 211.992 55.7864 0.62805 -0.00984535
1256400 60.2689 212.005 55.7864 0.62815 -0.0463832
1256600 60.2689 212.018 55.7864 0.62825 -0.0296208
1256800 60.2689 212.031 55.7864 0.62835 -0.0391613
1257000 60.2689 212.044 55.7864 0.62845 -0.0347413
1257200 60.2689 212.057 55.7864 0.62855 -0.0714011
1257400 60.2689 212.07 55.7864 0.62865 -0.0487338
1257600 60.2689 212.083 55.7864 0.62875 -0.0293933
1257800 60.2689 212.096 55.7864 0.62885 -0.0216176
1258000 60.2689 212.109 55.7864 0.62895 -0.000796879
1258200 60.2689 212.122 55.7864 0.62905 0.0092623
1258400 60.2689 212.135 55.7864 0.62915 0.0437217
1258600 60.2689 212.148 55.7864 0.62925 0.039581
1258800 60.2689 212.161 55.7864 0.62935 0.0462929
1259000 60.2689 212.174 55.7864 0.62945 0.0601562
1259200 60.2689 212.187 55.7864 0.62955 0.061418
1259400 60.2689 212.2 55.7864 0.62965 0.0678183
1259600 60.2689 212.214 55.7864 0.62975 0.0364832
1259800 60.2689 212.227 55.7864 0.62985 0.022743
1260000 60.2689 212.24 55.7864 0.62995 0.0138387
1260200 60.2689 212.253 55.7864 0.63005 -0.0211917
1260400 60.2689 212.266 55.7864 0.63015 -0.0409809
1260600 60.2689 212.279 55.7864 0.63025 -0.0299652
1260800 60.2689 212.292 55.7864 0.63035 -0.0564633
1261000 60.2689 212.305 55.7864 0.63045 -0.0491667
1261200 60.2689 212.318 55.7864 0.63055 -0.0479183
1261400 60.2689 212.331 55.7864 0.63065 -0.0560671
1261600 60.2689 212.344 55.7864 0.63075 -0.0338185
1261800 60.2689 212.357 55.7864 0.63085 -0.0180834
1262000 60.2689 212.37 55.7864 0.63095 0.000568281
1262200 60.2689 212.383 55.7864 0.63105 0.0266126
1262400 60.2689 212.396 55.7864 0.63115 0.0293925
1262600 60.2689 212.409 55.7864 0.63125 0.0429106
1262800 60.2689 212.422 55.7864 0.63135 0.057577
1263000 60.2689 212.435 55.7864 0.63145 0.0631896
1263200 60.2689 212.448 55.7864 0.63155 0.0625643
1263400 60.2689 212.461 55.7864 0.63165 0.0592515
1263600 60.2689 212.474 55.7864 0.63175 0.0524987
1263800 60.2689 212.487 55.7864 0.63185 0.0384744
1264000 60.2689 212.5 55.7864 0.63195 -0.0123549
1264200 60.2689 212.513 55.7864 0.63205 -0.0227836
1264400 60.2689 212.526 55.7864 0.63215 -0.0344473
1264600 60.2689 212.539 55.7864 0.63225 -0.0531326
1264800 60.2689 212.552 55.7864 0.63235 -0.0461875
1265000 60.2689 212.565 55.7864 0.63245 -0.0562244
1265200 60.2689 212.578 55.7864 0.63255 -0.0571182
1265400 60.2689 212.591 55.7864 0.63265 -0.0623199
1265600 60.2689 212.604 55.7864 0.63275 -0.0272162
1265800 60.2689 212.617 55.7864 0.63285 -0.00218174
1266000 60.2689 212.63 55.7864 0.63295 0.00854752
1266200 60.2689 212.643 55.7864 0.63305 0.0239175
1266400 60.2689 212.656 55.7864 0.63315 0.0419753
1266600 60.2689 212.669 55.7864 0.63325 0.0577538
1266800 60.2689 212.682 55.7864 0.63335 0.0556531
1267000 60.2689 212.695 55.7864 0.63345 0.0609787
1267200 60.2689 212.708 55.7864 0.63355 0.0574672
1267400 60.2689 212.721 55.7864 0.63365 0.0615661
1267600 60.2689 212.734 55.7864 0.63375 0.0335665
1267800 60.2689 212.747 55.7864 0.63385 0.0175688
1268000 60.2689 212.76 55.7864 0.63395 -0.00997628
1268200 60.2689 212.773 55.7864 0.63405 -0.0324762
1268400 60.2689 212.786 55.7864 0.63415 -0.0406857
1268600 60.2689 212.799 55.7864 0.63425 -0.0418399
1268800 60.2689 212.812 55.7864 0.63435 -0.0525971
1269000 60.2689 212.826 55.7864 0.63445 -0.0467723
1269200 60.2689 212.839 55.7864 0.63455 -0.0488766
1269400 60.2689 212.852 55.7864 0.63465 -0.0371896
1269600 60.2689 212.865 55.7864 0.63475 -0.0323182
1269800 60.2689 212.878 55.7864 0.63485 -0.0150232
1270000 60.2689 212.891 55.7864 0.63495 0.0239212
1270200 60.2689 212.904 55.7864 0.63505 0.0135011
1270400 60.2689 212.917 55.7864 0.63515 0.0569288
1270600 60.2689 212.93 55.7864 0.63525 0.0660288
1270800 60.2689 212.943 55.7864 0.63535 0.0471014
1271000 60.2689 212.956 55.7864 0.63545 0.0366721
1271200 60.2689 212.969 55.7864 0.63555 0.0617768
1271400 60.2689 212.982 55.7864 0.63565 0.0566324
1271600 60.2689 212.995 55.7864 0.63575 0.0215932
1271800 60.2689 213.008 55.7864 0.63585 0.0217825
1272000 60.2689 213.021 55.7864 0.63595 -0.00886054
1272200 60.2689 213.034 55.7864 0.63605 -0.0133564
1272400 60.2689 213.047 55.7864 0.63615 -0.0389109
1272600 60.2689 213.06 55.7864 0.63625 -0.0397718
1272800 60.2689 213.073 55.7864 0.63635 -0.0609176
1273000 60.2689 213.086 55.7864 0.63645 -0.0491055
1273200 60.2689 213.099 55.7864 0.63655 -0.0466941
1273400 60.2689 213.112 55.7864 0.63665 -0.0435899
1273600 60.2689 213.125 55.7864 0.63675 -0.0199905
1273800 60.2689 213.138 55.7864 0.63685 -0.0109708
1274000 60.2689 213.151 55.7864 0.63695 0.0160556
1274200 60.2689 213.164 55.7864 0.63705 0.0239932
1274400 60.2689 213.177 55.7864 0.63715 0.037455
1274600 60.2689 213.19 55.7864 0.63725 0.0389757
1274800 60.2689 213.203 55.7864 0.63735 0.0632341
1275000 60.2689 213.216 55.7864 0.63745 0.0681887
1275200 60.2689 213.229 55.7864 0.63755 0.0504345
1275400 60.2689 213.242 55.7864 0.63765 0.0533226
1275600 60.2689 213.255 55.7864 0.63775 0.0148649
1275800 60.2689 213.268 55.7864 0.63785 0.0204881
1276000 60.2689 213.281 55.7864 0.63795 -0.0163314
1276200 60.2689 213.294 55.7864 0.63805 -0.008745
1276400 60.2689 213.307 55.7864 0.63815 -0.0303652
1276600 60.2689 213.32 55.7864 0.63825 -0.0524326
1276800 60.2689 213.333 55.7864 0.63835 -0.050589
1277000 60.2689 213.346 55.7864 0.63845 -0.0471165
1277200 60.2689 213.359 55.7864 0.63855 -0.03654
1277400 60.2689 213.372 55.7864 0.63865 -0.0354707
1277600 60.2689 213.385 55.7864 0.63875 -0.0386203
1277800 60.2689 213.398 55.7864 0.63885 -0.00132232
1278000 60.2689 213.411 55.7864 0.63895 0.0149201
1278200 60.2689 213.424 55.7864 0.63905 0.039774
1278400 60.2689 213.438 55.7864 0.63915 0.0354883
1278600 60.2689 213.451 55.7864 0.63925 0.0368175
1278800 60.2689 213.464 55.7864 0.63935 0.0623332
1279000 60.2689 213.477 55.7864 0.63945 0.0571421
1279200 60.2689 213.49 55.7864 0.63955 0.0489883
1279400 60.2689 213.503 55.7864 0.63965 0.0319188
1279600 60.2689 213.516 55.7864 0.63975 0.0278114
1279800 60.2689 213.529 55.7864 0.63985 0.0257492
1280000 60.2689 213.542 55.7864 0.63995 -0.00453141
1280200 60.2689 213.555 55.7864 0.64005 -0.0165274
1280400 60.2689 213.568 55.7864 0.64015 -0.0484135
1280600 60.2689 213.581 55.7864 0.64025 -0.0402838
1280800 60.2689 213.594 55.7864 0.64035 -0.0470954
1281000 60.2689 213.607 55.7864 0.64045 -0.0516516
1281200 60.2689 213.62 55.7864 0.64055 -0.0445749
1281400 60.2689 213.633 55.7864 0.64065 -0.0320972
1281600 60.2689 213.646 55.7864 0.64075 -0.0353212
1281800 60.2689 213.659 55.7864 0.64085 -0.00964087
1282000 60.2689 213.672 55.7864 0.64095 0.0244012
1282200 60.2689 213.685 55.7864 0.64105 0.0136379
1282400 60.2689 213.698 55.7864 0.64115 0.0524506
1282600 60.2689 213.711 55.7864 0.64125 0.0576683
1282800 60.2689 213.724 55.7864 0.64135 0.070812
1283000 60.2689 213.737 55.7864 0.64145 0.0288426
1283200 60.2689 213.75 55.7864 0.64155 0.0520477
1283400 60.2689 213.763 55.7864 0.64165 0.0412527
1283600 60.2689 213.776 55.7864 0.64175 0.0416479
1283800 60.2689 213.789 55.7864 0.64185 0.0190391
1284000 60.2689 213.802 55.7864 0.64195 -0.00822745
1284200 60.2689 213.815 55.7864 0.64205 -0.0269811
1284400 60.2689 213.828 55.7864 0.64215 -0.0356735
1284600 60.2689 213.841 55.7864 0.64225 -0.0497537
1284800 60.2689 213.854 55.7864 0.64235 -0.0560198
1285000 60.2689 213.867 55.7864 0.64245 -0.0176256
1285200 60.2689 213.88 55.7864 0.64255 -0.0680208
1285400 60.2689 213.893 55.7864 0.64265 -0.0317104
1285600 60.2689 213.906 55.7864 0.64275 -0.0195238
1285800 60.2689 213.919 55.7864 0.64285 -0.00906751
1286000 60.2689 213.932 55.7864 0.64295 0.00928787
1286200 60.2689 213.945 55.7864 0.64305 0.0364403
1286400 60.2689 213.958 55.7864 0.64315 0.036564
1286600 60.2689 213.971 55.7864 0.64325 0.0545613
1286800 60.2689 213.984 55.7864 0.64335 0.0551124
1287000 60.2689 213.997 55.7864 0.64345 0.0531589
1287200 60.2689 214.01 55.7864 0.64355 0.0487434
1287400 60.2689 214.023 55.7864 0.64365 0.0326172
1287600 60.2689 214.036 55.7864 0.64375 0.0312768
1287800 60.2689 214.05 55.7864 0.64385 -0.00195345
1288000 60.2689 214.063 55.7864 0.64395 -0.0106556
1288200 60.2689 214.076 55.7864 0.64405 -0.0119407
1288400 60.2689 214.089 55.7864 0.64415 -0.0323034
1288600 60.2689 214.102 55.7864 0.64425 -0.04792
1288800 60.2689 214.115 55.7864 0.64435 -0.0444077
1289000 60.2689 214.128 55.7864 0.64445 -0.0594361
1289200 60.2689 214.141 55.7864 0.64455 -0.0276129
1289400 60.2689 214.154 55.7864 0.64465 -0.0194405
1289600 60.2689 214.167 55.7864 0.64475 -0.0225949
1289800 60.2689 214.18 55.7864 0.64485 -0.00474772
1290000 60.2689 214.193 55.7864 0.64495 0.0132671
1290200 60.2689 214.206 55.7864 0.64505 0.0273569
1290400 60.2689 214.219 55.7864 0.64515 0.0438256
1290600 60.2689 214.232 55.7864 0.64525 0.0553183
1290800 60.2689 214.245 55.7864 0.64535 0.0470632
1291000 60.2689 214.258 55.7864 0.64545 0.0492137
1291200 60.2689 214.271 55.7864 0.64555 0.0427976
1291400 60.2689 214.284 55.7864 0.64565 0.0316501
1291600 60.2689 214.297 55.7864 0.64575 0.0199716
1291800 60.2689 214.31 55.7864 0.64585 0.00777343
1292000 60.2689 214.323 55.7864 0.64595 -0.00741887
1292200 60.2689 214.336 55.7864 0.64605 -0.00857929
1292400 60.2689 214.349 55.7864 0.64615 -0.0458255
1292600 60.2689 214.362 55.7864 0.64625 -0.0360851
1292800 60.2689 214.375 55.7864 0.64635 -0.043396
1293000 60.2689 214.388 55.7864 0.64645 -0.0464883
1293200 60.2689 214.401 55.7864 0.64655 -0.0444412
1293400 60.2689 214.414 55.7864 0.64665 -0.0145284
1293600 60.2689 214.427 55.7864 0.64675 -0.0118651
1293800 60.2689 214.44 55.7864 0.64685 0.0111592
1294000 60.2689 214.453 55.7864 0.64695 0.00795713
1294200 60.2689 214.466 55.7864 0.64705 0.012435
1294400 60.2689 214.479 55.7864 0.64715 0.0567869
1294600 60.2689 214.492 55.7864 0.64725 0.0449304
1294800 60.2689 214.505 55.7864 0.64735 0.0407284
1295000 60.2689 214.518 55.7864 0.64745 0.0456215
1295200 60.2689 214.531 55.7864 0.64755 0.0446618
1295400 60.2689 214.544 55.7864 0.64765 0.0195979
1295600 60.2689 214.557 55.7864 0.64775 0.028641
1295800 60.2689 214.57 55.7864 0.64785 -0.000585754
1296000 60.2689 214.583 55.7864 0.64795 -4.5833e-05
1296200 60.2689 214.596 55.7864 0.64805 -0.0159675
1296400 60.2689 214.609 55.7864 0.64815 -0.0490021
1296600 60.2689 214.622 55.7864 0.64825 -0.0347026
1296800 60.2689 214.635 55.7864 0.64835 -0.0498465
1297000 60.2689 214.648 55.7864 0.64845 -0.0429494
1297200 60.2689 214.662 55.7864 0.64855 -0.0261832
1297400 60.2689 214.675 55.7864 0.64865 -0.0273415
1297600 60.2689 214.688 55.7864 0.64875 0.0124603
1297800 60.2689 214.701 55.7864 0.64885 -0.00325372
1298000 60.2689 214.714 55.7864 0.64895 0.00816456
1298200 60.2689 214.727 55.7864 0.64905 0.0290274
1298400 60.2689 214.74 55.7864 0.64915 0.0360164
1298600 60.2689 214.753 55.7864 0.64925 0.0569029
1298800 60.2689 214.766 55.7864 0.64935 0.0526921
1299000 60.2689 214.779 55.7864 0.64945 0.0434405
1299200 60.2689 214.792 55.7864 0.64955 0.0327703
1299400 60.2689 214.805 55.7864 0.64965 0.0235389
1299600 60.2689 214.818 55.7864 0.64975 -0.000191905
1299800 60.2689 214.831 55.7864 0.64985 0.00176507
1300000 60.2689 214.844 55.7864 0.64995 -0.0104635
1300200 60.2689 214.857 55.7864 0.65005 -0.0152418
1300400 60.2689 214.87 55.7864 0.65015 -0.0352684
1300600 60.2689 214.883 55.7864 0.65025 -0.0330231
1300800 60.2689 214.896 55.7864 0.65035 -0.0405076
1301000 60.2689 214.909 55.7864 0.65045 -0.05503
1301200 60.2689 214.922 55.7864 0.65055 -0.0269506
1301400 60.2689 214.935 55.7864 0.65065 -0.0114611
1301600 60.2689 214.948 55.7864 0.65075 -0.000179724
1301800 60.2689 214.961 55.7864 0.65085 0.0102534
1302000 60.2689 214.974 55.7864 0.65095 0.0253377
1302200 60.2689 214.987 55.7864 0.65105 0.0268667
1302400 60.2689 215 55.7864 0.65115 0.0405685
1302600 60.2689 215.013 55.7864 0.65125 0.0330871
1302800 60.2689 215.026 55.7864 0.65135 0.0501422
1303000 60.2689 215.039 55.7864 0.65145 0.0504994
1303200 60.2689 215.052 55.7864 0.65155 0.0391788
1303400 60.2689 215.065 55.7864 0.65165 0.0175756
1303600 60.2689 215.078 55.7864 0.65175 -0.00153329
1303800 60.2689 215.091 55.7864 0.65185 0.000693231
1304000 60.2689 215.104 55.7864 0.65195 -0.0136609
1304200 60.2689 215.117 55.7864 0.65205 -0.0382513
1304400 60.2689 215.13 55.7864 0.65215 -0.027489
1304600 60.2689 215.143 55.7864 0.65225 -0.0354049
1304800 60.2689 215.156 55.7864 0.65235 -0.0353783
1305000 60.2689 215.169 55.7864 0.65245 -0.0444669
1305200 60.2689 215.182 55.7864 0.65255 -0.0178601
1305400 60.2689 215.195 55.7864 0.65265 -0.0131562
1305600 60.2689 215.208 55.7864 0.65275 0.00320527
1305800 60.2689 215.221 55.7864 0.65285 0.0161422
1306000 60.2689 215.234 55.7864 0.65295 0.0311568
1306200 60.2689 215.247 55.7864 0.65305 0.039959
1306400 60.2689 215.26 55.7864 0.65315 0.0205472
1306600 60.2689 215.274 55.7864 0.65325 0.0504229
1306800 60.2689 215.287 55.7864 0.65335 0.0264764
1307000 60.2689 215.3 55.7864 0.65345 0.0429755
1307200 60.2689 215.313 55.7864 0.65355 0.054546
1307400 60.2689 215.326 55.7864 0.65365 0.00517308
1307600 60.2689 215.339 55.7864 0.65375 -0.00693263
1307800 60.2689 215.352 55.7864 0.65385 -0.0198776
1308000 60.2689 215.365 55.7864 0.65395 -0.0270443
1308200 60.2689 215.378 55.7864 0.65405 -0.0165407
1308400 60.2689 215.391 55.7864 0.65415 -0.0283213
1308600 60.2689 215.404 55.7864 0.65425 -0.0452192
1308800 60.2689 215.417 55.7864 0.65435 -0.0142331
1309000 60.2689 215.43 55.7864 0.65445 -0.0323002
1309200 60.2689 215.443 55.7864 0.65455 -0.0212505
1309400 60.2689 215.456 55.7864 0.65465 -0.0116966
1309600 60.2689 215.469 55.7864 0.65475 0.00722718
1309800 60.2689 215.482 55.7864 0.65485 0.0142742
1310000 60.2689 215.495 55.7864 0.65495 0.0186166
1310200 60.2689 215.508 55.7864 0.65505 0.0513051
1310400 60.2689 215.521 55.7864 0.65515 0.0335932
1310600 60.2689 215.534 55.7864 0.65525 0.035687
1310800 60.2689 215.547 55.7864 0.65535 0.0413294
1311000 60.2689 215.56 55.7864 0.65545 0.0222019
1311200 60.2689 215.573 55.7864 0.65555 0.0182848
1311400 60.2689 215.586 55.7864 0.65565 0.0107046
1311600 60.2689 215.599 55.7864 0.65575 0.00964283
1311800 60.2689 215.612 55.7864 0.65585 0.0137234
1312000 60.2689 215.625 55.7864 0.65595 -0.011772
1312200 60.2689 215.638 55.7864 0.65605 -0.0445105
1312400 60.2689 215.651 55.7864 0.65615 -0.037294
1312600 60.2689 215.664 55.7864 0.65625 -0.046558
1312800 60.2689 215.677 55.7864 0.65635 -0.0222523
1313000 60.2689 215.69 55.7864 0.65645 -0.0113522
1313200 60.2689 215.703 55.7864 0.65655 -0.0161077
1313400 60.2689 215.716 55.7864 0.65665 -0.00624935
1313600 60.2689 215.729 55.7864 0.65675 -0.00047498
1313800 60.2689 215.742 55.7864 0.65685 0.0177162
1314000 60.2689 215.755 55.7864 0.65695 0.0142544
1314200 60.2689 215.768 55.7864 0.65705 0.0257583
1314400 60.2689 215.781 55.7864 0.65715 0.047897
1314600 60.2689 215.794 55.7864 0.65725 0.032737
1314800 60.2689 215.807 55.7864 0.65735 0.0426857
1315000 60.2689 215.82 55.7864 0.65745 0.0426799
1315200 60.2689 215.833 55.7864 0.65755 0.0125402
1315400 60.2689 215.846 55.7864 0.65765 -0.0118549
1315600 60.2689 215.859 55.7864 0.65775 0.0121693
1315800 60.2689 215.872 55.7864 0.65785 0.00505809
1316000 60.2689 215.885 55.7864 0.65795 0.00181382
1316200 60.2689 215.899 55.7864 0.65805 -0.0203813
1316400 60.2689 215.912 55.7864 0.65815 -0.051375
1316600 60.2689 215.925 55.7864 0.65825 -0.0336062
1316800 60.2689 215.938 55.7864 0.65835 -0.0246188
1317000 60.2689 215.951 55.7864 0.65845 -0.0534387
1317200 60.2689 215.964 55.7864 0.65855 -0.003149
1317400 60.2689 215.977 55.7864 0.65865 0.0237202
1317600 60.2689 215.99 55.7864 0.65875 0.0138616
1317800 60.2689 216.003 55.7864 0.65885 0.0199136
1318000 60.2689 216.016 55.7864 0.65895 0.00250388
1318200 60.2689 216.029 55.7864 0.65905 -0.0051609
1318400 60.2689 216.042 55.7864 0.65915 0.0462034
1318600 60.2689 216.055 55.7864 0.65925 0.0503628
1318800 60.2689 216.068 55.7864 0.65935 0.0467537
1319000 60.2689 216.081 55.7864 0.65945 0.0381847
1319200 60.2689 216.094 55.7864 0.65955 0.014911
1319400 60.2689 216.107 55.7864 0.65965 -0.0144968
1319600 60.2689 216.12 55.7864 0.65975 0.00431452
1319800 60.2689 216.133 55.7864 0.65985 -0.0212809
1320000 60.2689 216.146 55.7864 0.65995 -0.00112005
1320200 60.2689 216.159 55.7864 0.66005 -0.00548146
1320400 60.2689 216.172 55.7864 0.66015 -0.0135372
1320600 60.2689 216.185 55.7864 0.66025 -0.0400225
1320800 60.2689 216.198 55.7864 0.66035 -0.0409499
1321000 60.2689 216.211 55.7864 0.66045 -0.0518644
1321200 60.2689 216.224 55.7864 0.66055 -5.50143e-06
1321400 60.2689 216.237 55.7864 0.66065 0.01465
1321600 60.2689 216.25 55.7864 0.66075 0.00332546
1321800 60.2689 216.263 55.7864 0.66085 0.0154473
1322000 60.2689 216.276 55.7864 0.66095 0.0366343
1322200 60.2689 216.289 55.7864 0.66105 0.0136024
1322400 60.2689 216.302 55.7864 0.66115 0.0288098
1322600 60.2689 216.315 55.7864 0.66125 0.021302
1322800 60.2689 216.328 55.7864 0.66135 0.0486635
1323000 60.2689 216.341 55.7864 0.66145 0.0392929
1323200 60.2689 216.354 55.7864 0.66155 0.0181751
1323400 60.2689 216.367 55.7864 0.66165 0.0148115
1323600 60.2689 216.38 55.7864 0.66175 -0.00622893
1323800 60.2689 216.393 55.7864 0.66185 -0.0140041
1324000 60.2689 216.406 55.7864 0.66195 -0.0152326
1324200 60.2689 216.419 55.7864 0.66205 -0.0204144
1324400 60.2689 216.432 55.7864 0.66215 -0.0207433
1324600 60.2689 216.445 55.7864 0.66225 -0.0348416
1324800 60.2689 216.458 55.7864 0.66235 -0.0180499
1325000 60.2689 216.471 55.7864 0.66245 -0.0173795
1325200 60.2689 216.484 55.7864 0.66255 -0.0395706
1325400 60.2689 216.497 55.7864 0.66265 0.00137772
1325600 60.2689 216.511 55.7864 0.66275 0.0166543
1325800 60.2689 216.524 55.7864 0.66285 0.0106099
1326000 60.2689 216.537 55.7864 0.66295 0.0505375
1326200 60.2689 216.55 55.7864 0.66305 0.0311102
1326400 60.2689 216.563 55.7864 0.66315 0.0147769
1326600 60.2689 216.576 55.7864 0.66325 0.0385528
1326800 60.2689 216.589 55.7864 0.66335 0.0254007
1327000 60.2689 216.602 55.7864 0.66345 0.0317557
1327200 60.2689 216.615 55.7864 0.66355 0.0319179
1327400 60.2689 216.628 55.7864 0.66365 -0.000845234
1327600 60.2689 216.641 55.7864 0.66375 -0.00697971
1327800 60.2689 216.654 55.7864 0.66385 -0.00628248
1328000 60.2689 216.667 55.7864 0.66395 -0.0513784
1328200 60.2689 216.68 55.7864 0.66405 -0.0310846
1328400 60.2689 216.693 55.7864 0.66415 -0.0159782
1328600 60.2689 216.706 55.7864 0.66425 -0.0200713
1328800 60.2689 216.719 55.7864 0.66435 -0.0107948
1329000 60.2689 216.732 55.7864 0.66445 -0.0147836
1329200 60.2689 216.745 55.7864 0.66455 -0.0154889
1329400 60.2689 216.758 55.7864 0.66465 -0.00346989
1329600 60.2689 216.771 55.7864 0.66475 0.0176874
1329800 60.2689 216.784 55.7864 0.66485 0.0119751
1330000 60.2689 216.797 55.7864 0.66495 0.0343933
1330200 60.2689 216.81 55.7864 0.66505 0.0436843
1330400 60.2689 216.823 55.7864 0.66515 0.0284154
1330600 60.2689 216.836 55.7864 0.66525 0.0341457
1330800 60.2689 216.849 55.7864 0.66535 0.0129117
1331000 60.2689 216.862 55.7864 0.66545 0.0193917
1331200 60.2689 216.875 55.7864 0.66555 0.016542
1331400 60.2689 216.888 55.7864 0.66565 0.013206
1331600 60.2689 216.901 55.7864 0.66575 -0.0107236
1331800 60.2689 216.914 55.7864 0.66585 0.00121387
1332000 60.2689 216.927 55.7864 0.66595 -0.033277
1332200 60.2689 216.94 55.7864 0.66605 -0.0113911
1332400 60.2689 216.953 55.7864 0.66615 -0.0382008
1332600 60.2689 216.966 55.7864 0.66625 -0.0313805
1332800 60.2689 216.979 55.7864 0.66635 -0.0106606
1333000 60.2689 216.992 55.7864 0.66645 -0.0109241
1333200 60.2689 217.005 55.7864 0.66655 0.00375337
1333400 60.2689 217.018 55.7864 0.66665 -0.0038898
1333600 60.2689 217.031 55.7864 0.66675 -0.000880406
1333800 60.2689 217.044 55.7864 0.66685 0.0242921
1334000 60.2689 217.057 55.7864 0.66695 0.0240772
1334200 60.2689 217.07 55.7864 0.66705 0.0325143
1334400 60.2689 217.083 55.7864 0.66715 0.0431152
1334600 60.2689 217.096 55.7864 0.66725 0.0143389
1334800 60.2689 217.109 55.7864 0.66735 0.0414127
1335000 60.2689 217.123 55.7864 0.66745 0.0191871
1335200 60.2689 217.136 55.7864 0.66755 -0.0047765
1335400 60.2689 217.149 55.7864 0.66765 -0.00275031
1335600 60.2689 217.162 55.7864 0.66775 0.0115239
1335800 60.2689 217.175 55.7864 0.66785 -0.00717628
1336000 60.2689 217.188 55.7864 0.66795 -0.0329851
1336200 60.2689 217.201 55.7864 0.66805 -0.0260261
1336400 60.2689 217.214 55.7864 0.66815 -0.0189645
1336600 60.2689 217.227 55.7864 0.66825 -0.0358355
1336800 60.2689 217.24 55.7864 0.66835 -0.000307714
1337000 60.2689 217.253 55.7864 0.66845 -0.0264924
1337200 60.2689 217.266 55.7864 0.66855 0.0206211
1337400 60.2689 217.279 55.7864 0.66865 0.00759254
1337600 60.2689 217.292 55.7864 0.66875 0.0150414
1337800 60.2689 217.305 55.7864 0.66885 0.0193132
1338000 60.2689 217.318 55.7864 0.66895 0.0205802
1338200 60.2689 217.331 55.7864 0.66905 0.0271122
1338400 60.2689 217.344 55.7864 0.66915 0.0250542
1338600 60.2689 217.357 55.7864 0.66925 0.0442318
1338800 60.2689 217.37 55.7864 0.66935 0.0161007
1339000 60.2689 217.383 55.7864 0.66945 0.0012237
1339200 60.2689 217.396 55.7864 0.66955 0.0102971
1339400 60.2689 217.409 55.7864 0.66965 0.0223036
1339600 60.2689 217.422 55.7864 0.66975 -0.0354031
1339800 60.2689 217.435 55.7864 0.66985 -0.00842587
1340000 60.2689 217.448 55.7864 0.66995 -0.00790124
1340200 60.2689 217.461 55.7864 0.67005 -0.0238437
1340400 60.2689 217.474 55.7864 0.67015 -0.0328565
1340600 60.2689 217.487 55.7864 0.67025 -0.0234234
1340800 60.2689 217.5 55.7864 0.67035 -0.0115764
1341000 60.2689 217.513 55.7864 0.67045 -0.00377571
1341200 60.2689 217.526 55.7864 0.67055 -0.00152381
1341400 60.2689 217.539 55.7864 0.67065 -0.00670482
1341600 60.2689 217.552 55.7864 0.67075 0.0358624
1341800 60.2689 217.565 55.7864 0.67085 0.0370857
1342000 60.2689 217.578 55.7864 0.67095 0.0224048
1342200 60.2689 217.591 55.7864 0.67105 0.0230209
1342400 60.2689 217.604 55.7864 0.67115 0.0226837
1342600 60.2689 217.617 55.7864 0.67125 0.0238709
1342800 60.2689 217.63 55.7864 0.67135 0.0242453
1343000 60.2689 217.643 55.7864 0.67145 0.0342152
1343200 60.2689 217.656 55.7864 0.67155 -0.0139485
1343400 60.2689 217.669 55.7864 0.67165 0.00450393
1343600 60.2689 217.682 55.7864 0.67175 -0.0293962
1343800 60.2689 217.695 55.7864 0.67185 -0.00880552
1344000 60.2689 217.708 55.7864 0.67195 -0.0123604
1344200 60.2689 217.721 55.7864 0.67205 -0.025764
1344400 60.2689 217.735 55.7864 0.67215 -0.0289149
1344600 60.2689 217.748 55.7864 0.67225 -0.0196305
1344800 60.2689 217.761 55.7864 0.67235 0.00688516
1345000 60.2689 217.774 55.7864 0.67245 -0.0188158
1345200 60.2689 217.787 55.7864 0.67255 0.00459927
1345400 60.2689 217.8 55.7864 0.67265 0.0147359
1345600 60.2689 217.813 55.7864 0.67275 0.00994226
1345800 60.2689 217.826 55.7864 0.67285 0.0160396
1346000 60.2689 217.839 55.7864 0.67295 0.0570963
1346200 60.2689 217.852 55.7864 0.67305 0.0295647
1346400 60.2689 217.865 55.7864 0.67315 -0.00489163
1346600 60.2689 217.878 55.7864 0.67325 0.0363575
1346800 60.2689 217.891 55.7864 0.67335 0.0120718
1347000 60.2689 217.904 55.7864 0.67345 0.0230407
1347200 60.2689 217.917 55.7864 0.67355 -0.00954051
1347400 60.2689 217.93 55.7864 0.67365 -0.0154896
1347600 60.2689 217.943 55.7864 0.67375 0.00169409
1347800 60.2689 217.956 55.7864 0.67385 -0.00642815
1348000 60.2689 217.969 55.7864 0.67395 -0.0126263
1348200 60.2689 217.982 55.7864 0.67405 -0.0309224
1348400 60.2689 217.995 55.7864 0.67415 -0.0178746
1348600 60.2689 218.008 55.7864 0.67425 -0.00480868
1348800 60.2689 218.021 55.7864 0.67435 -0.00716278
1349000 60.2689 218.034 55.7864 0.67445 -0.00473
1349200 60.2689 218.047 55.7864 0.67455 0.00411707
1349400 60.2689 218.06 55.7864 0.67465 0.0308662
1349600 60.2689 218.073 55.7864 0.67475 0.0357002
1349800 60.2689 218.086 55.7864 0.67485 -0.013059
1350000 60.2689 218.099 55.7864 0.67495 0.0203616
1350200 60.2689 218.112 55.7864 0.67505 0.00434662
1350400 60.2689 218.125 55.7864 0.67515 0.0384388
1350600 60.2689 218.138 55.7864 0.67525 0.0259079
1350800 60.2689 218.151 55.7864 0.67535 0.00888929
1351000 60.2689 218.164 55.7864 0.67545 0.0072585
1351200 60.2689 218.177 55.7864 0.67555 -0.00389398
1351400 60.2689 218.19 55.7864 0.67565 -0.0126143
1351600 60.2689 218.203 55.7864 0.67575 -0.0164739
1351800 60.2689 218.216 55.7864 0.67585 -0.0032538
1352000 60.2689 218.229 55.7864 0.67595 -0.00116125
1352200 60.2689 218.242 55.7864 0.67605 -0.00932985
1352400 60.2689 218.255 55.7864 0.67615 -0.0166714
1352600 60.2689 218.268 55.7864 0.67625 0.00493686
1352800 60.2689 218.281 55.7864 0.67635 -0.0189209
1353000 60.2689 218.294 55.7864 0.67645 -0.00367124
1353200 60.2689 218.307 55.7864 0.67655 0.000759839
1353400 60.2689 218.32 55.7864 0.67665 0.0250852
1353600 60.2689 218.333 55.7864 0.67675 0.0164823
1353800 60.2689 218.347 55.7864 0.67685 0.0121032
1354000 60.2689 218.36 55.7864 0.67695 -0.00316466
1354200 60.2689 218.373 55.7864 0.67705 0.0215472
1354400 60.2689 218.386 55.7864 0.67715 0.0196846
1354600 60.2689 218.399 55.7864 0.67725 0.0213715
1354800 60.2689 218.412 55.7864 0.67735 0.0111137
1355000 60.2689 218.425 55.7864 0.67745 0.0172203
1355200 60.2689 218.438 55.7864 0.67755 0.0110211
1355400 60.2689 218.451 55.7864 0.67765 -0.00120219
1355600 60.2689 218.464 55.7864 0.67775 -0.0226296
1355800 60.2689 218.477 55.7864 0.67785 -0.0124786
1356000 60.2689 218.49 55.7864 0.67795 -0.00169891
1356200 60.2689 218.503 55.7864 0.67805 -0.00597448
1356400 60.2689 218.516 55.7864 0.67815 -0.000652376
1356600 60.2689 218.529 55.7864 0.67825 -0.0164911
1356800 60.2689 218.542 55.7864 0.67835 -0.00776263
1357000 60.2689 218.555 55.7864 0.67845 -0.00279248
1357200 60.2689 218.568 55.7864 0.67855 -0.00751932
1357400 60.2689 218.581 55.7864 0.67865 0.0058044
1357600 60.2689 218.594 55.7864 0.67875 0.017085
1357800 60.2689 218.607 55.7864 0.67885 0.0295949
1358000 60.2689 218.62 55.7864 0.67895 0.0157754
1358200 60.2689 218.633 55.7864 0.67905 0.0157918
1358400 60.2689 218.646 55.7864 0.67915 0.0202738
1358600 60.2689 218.659 55.7864 0.67925 0.00561294
1358800 60.2689 218.672 55.7864 0.67935 0.0126226
1359000 60.2689 218.685 55.7864 0.67945 0.00852739
1359200 60.2689 218.698 55.7864 0.67955 0.0110348
1359400 60.2689 218.711 55.7864 0.67965 0.0119222
1359600 60.2689 218.724 55.7864 0.67975 -0.0169957
1359800 60.2689 218.737 55.7864 0.67985 -0.00343655
1360000 60.2689 218.75 55.7864 0.67995 -0.0224859
1360200 60.2689 218.763 55.7864 0.68005 -0.01781
1360400 60.2689 218.776 55.7864 0.68015 -0.00572978
1360600 60.2689 218.789 55.7864 0.68025 -0.0123098
1360800 60.2689 218.802 55.7864 0.68035 -0.00287689
1361000 60.2689 218.815 55.7864 0.68045 0.00208395
1361200 60.2689 218.828 55.7864 0.68055 0.008961
1361400 60.2689 218.841 55.7864 0.68065 0.00728655
1361600 60.2689 218.854 55.7864 0.68075 0.0117434
1361800 60.2689 218.867 55.7864 0.68085 0.0112261
1362000 60.2689 218.88 55.7864 0.68095 0.0167581
1362200 60.2689 218.893 55.7864 0.68105 0.0316381
1362400 60.2689 218.906 55.7864 0.68115 0.0225004
1362600 60.2689 218.919 55.7864 0.68125 0.0185361
1362800 60.2689 218.932 55.7864 0.68135 0.0172702
1363000 60.2689 218.945 55.7864 0.68145 0.00335447
1363200 60.2689 218.959 55.7864 0.68155 -0.0106787
1363400 60.2689 218.972 55.7864 0.68165 -0.005501
1363600 60.2689 218.985 55.7864 0.68175 -0.00696656
1363800 60.2689 218.998 55.7864 0.68185 0.000134098
1364000 60.2689 219.011 55.7864 0.68195 -0.0159928
1364200 60.2689 219.024 55.7864 0.68205 -0.0259007
1364400 60.2689 219.037 55.7864 0.68215 -0.00752333
1364600 60.2689 219.05 55.7864 0.68225 -0.00276125
1364800 60.2689 219.063 55.7864 0.68235 -0.000342485
1365000 60.2689 219.076 55.7864 0.68245 0.013794
1365200 60.2689 219.089 55.7864 0.68255 -0.00274289
1365400 60.2689 219.102 55.7864 0.68265 0.00830774
1365600 60.2689 219.115 55.7864 0.68275 0.0254179
1365800 60.2689 219.128 55.7864 0.68285 0.0221859
1366000 60.2689 219.141 55.7864 0.68295 0.0233348
1366200 60.2689 219.154 55.7864 0.68305 -0.000118246
1366400 60.2689 219.167 55.7864 0.68315 0.0164363
1366600 60.2689 219.18 55.7864 0.68325 0.0179642
1366800 60.2689 219.193 55.7864 0.68335 0.0115903
1367000 60.2689 219.206 55.7864 0.68345 0.00121617
1367200 60.2689 219.219 55.7864 0.68355 -0.00440548
1367400 60.2689 219.232 55.7864 0.68365 -0.0155637
1367600 60.2689 219.245 55.7864 0.68375 -0.0132633
1367800 60.2689 219.258 55.7864 0.68385 -0.0093923
1368000 60.2689 219.271 55.7864 0.68395 -0.00339135
1368200 60.2689 219.284 55.7864 0.68405 0.000440773
1368400 60.2689 219.297 55.7864 0.68415 -0.016859
1368600 60.2689 219.31 55.7864 0.68425 0.00173942
1368800 60.2689 219.323 55.7864 0.68435 0.00795809
1369000 60.2689 219.336 55.7864 0.68445 -0.0159526
1369200 60.2689 219.349 55.7864 0.68455 0.0116583
1369400 60.2689 219.362 55.7864 0.68465 0.0281545
1369600 60.2689 219.375 55.7864 0.68475 0.0235746
1369800 60.2689 219.388 55.7864 0.68485 0.0175018
1370000 60.2689 219.401 55.7864 0.68495 0.0143638
1370200 60.2689 219.414 55.7864 0.68505 0.00936283
1370400 60.2689 219.427 55.7864 0.68515 0.0156385
1370600 60.2689 219.44 55.7864 0.68525 0.00228708
1370800 60.2689 219.453 55.7864 0.68535 0.0173577
1371000 60.2689 219.466 55.7864 0.68545 0.00119187
1371200 60.2689 219.479 55.7864 0.68555 -0.0207126
1371400 60.2689 219.492 55.7864 0.68565 0.00685573
1371600 60.2689 219.505 55.7864 0.68575 -0.0145576
1371800 60.2689 219.518 55.7864 0.68585 -0.0168652
1372000 60.2689 219.531 55.7864 0.68595 -0.00185642
1372200 60.2689 219.544 55.7864 0.68605 -0.0284412
1372400 60.2689 219.557 55.7864 0.68615 0.00386466
1372600 60.2689 219.571 55.7864 0.68625 -0.00146136
1372800 60.2689 219.584 55.7864 0.68635 0.0233909
1373000 60.2689 219.597 55.7864 0.68645 0.00125284
1373200 60.2689 219.61 55.7864 0.68655 0.00752792
1373400 60.2689 219.623 55.7864 0.68665 0.0248145
1373600 60.2689 219.636 55.7864 0.68675 0.0108416
1373800 60.2689 219.649 55.7864 0.68685 0.0202567
1374000 60.2689 219.662 55.7864 0.68695 0.0303002
1374200 60.2689 219.675 55.7864 0.68705 0.0124523
1374400 60.2689 219.688 55.7864 0.68715 0.0157677
1374600 60.2689 219.701 55.7864 0.68725 -0.00236559
1374800 60.2689 219.714 55.7864 0.68735 -0.0135185
1375000 60.2689 219.727 55.7864 0.68745 -0.0154092
1375200 60.2689 219.74 55.7864 0.68755 -0.000964161
1375400 60.2689 219.753 55.7864 0.68765 -0.000930771
1375600 60.2689 219.766 55.7864 0.68775 -0.0108326
1375800 60.2689 219.779 55.7864 0.68785 -0.00336472
1376000 60.2689 219.792 55.7864 0.68795 -0.0219823
1376200 60.2689 219.805 55.7864 0.68805 -0.00827496
1376400 60.2689 219.818 55.7864 0.68815 -0.0041348
1376600 60.2689 219.831 55.7864 0.68825 0.0270936
1376800 60.2689 219.844 55.7864 0.68835 0.0187935
1377000 60.2689 219.857 55.7864 0.68845 -0.00481065
1377200 60.2689 219.87 55.7864 0.68855 0.0315038
1377400 60.2689 219.883 55.7864 0.68865 0.00173084
1377600 60.2689 219.896 55.7864 0.68875 0.0312664
1377800 60.2689 219.909 55.7864 0.68885 0.0144602
1378000 60.2689 219.922 55.7864 0.68895 0.00826792
1378200 60.2689 219.935 55.7864 0.68905 -0.00684163
1378400 60.2689 219.948 55.7864 0.68915 0.0130791
1378600 60.2689 219.961 55.7864 0.68925 0.00531686
1378800 60.2689 219.974 55.7864 0.68935 0.00203408
1379000 60.2689 219.987 55.7864 0.68945 -0.0173138
1379200 60.2689 220 55.7864 0.68955 -0.00849381
1379400 60.2689 220.013 55.7864 0.68965 -0.00752691
1379600 60.2689 220.026 55.7864 0.68975 -0.011902
1379800 60.2689 220.039 55.7864 0.68985 -0.0138804
1380000 60.2689 220.052 55.7864 0.68995 -0.0187387
1380200 60.2689 220.065 55.7864 0.69005 0.0182505
1380400 60.2689 220.078 55.7864 0.69015 0.0162577
1380600 60.2689 220.091 55.7864 0.69025 -0.00880279
1380800 60.2689 220.104 55.7864 0.69035 0.0131049
1381000 60.2689 220.117 55.7864 0.69045 0.0182637
1381200 60.2689 220.13 55.7864 0.69055 0.0145531
1381400 60.2689 220.143 55.7864 0.69065 0.0194503
1381600 60.2689 220.156 55.7864 0.69075 0.0305009
1381800 60.2689 220.169 55.7864 0.69085 0.00751882
1382000 60.2689 220.183 55.7864 0.69095 0.00615768
1382200 60.2689 220.196 55.7864 0.69105 0.00286436
1382400 60.2689 220.209 55.7864 0.69115 -0.0054526
1382600 60.2689 220.222 55.7864 0.69125 0.00172482
1382800 60.2689 220.235 55.7864 0.69135 -0.00547765
1383000 60.2689 220.248 55.7864 0.69145 0.00830461
1383200 60.2689 220.261 55.7864 0.69155 -0.00595627
1383400 60.2689 220.274 55.7864 0.69165 -0.029632
1383600 60.2689 220.287 55.7864 0.69175 -0.00111398
1383800 60.2689 220.3 55.7864 0.69185 -0.00432422
1384000 60.2689 220.313 55.7864 0.69195 0.00497518
1384200 60.2689 220.326 55.7864 0.69205 -0.00485594
1384400 60.2689 220.339 55.7864 0.69215 0.0179955
1384600 60.2689 220.352 55.7864 0.69225 0.00186691
1384800 60.2689 220.365 55.7864 0.69235 0.0124572
1385000 60.2689 220.378 55.7864 0.69245 0.0104552
1385200 60.2689 220.391 55.7864 0.69255 0.0194948
1385400 60.2689 220.404 55.7864 0.69265 0.0170355
1385600 60.2689 220.417 55.7864 0.69275 0.0114634
1385800 60.2689 220.43 55.7864 0.69285 -0.0063346
1386000 60.2689 220.443 55.7864 0.69295 0.0205526
1386200 60.2689 220.456 55.7864 0.69305 -0.00337442
1386400 60.2689 220.469 55.7864 0.69315 -0.00159469
1386600 60.2689 220.482 55.7864 0.69325 -0.00034978
1386800 60.2689 220.495 55.7864 0.69335 0.0110883
1387000 60.2689 220.508 55.7864 0.69345 -0.0172945
1387200 60.2689 220.521 55.7864 0.69355 -0.00448239
1387400 60.2689 220.534 55.7864 0.69365 -0.0134578
1387600 60.2689 220.547 55.7864 0.69375 -0.00361515
1387800 60.2689 220.56 55.7864 0.69385 0.00238981
1388000 60.2689 220.573 55.7864 0.69395 0.00438492
1388200 60.2689 220.586 55.7864 0.69405 0.00487243
1388400 60.2689 220.599 55.7864 0.69415 0.0110519
1388600 60.2689 220.612 55.7864 0.69425 0.00395166
1388800 60.2689 220.625 55.7864 0.69435 0.0170693
1389000 60.2689 220.638 55.7864 0.69445 0.0114445
1389200 60.2689 220.651 55.7864 0.69455 0.00280134
1389400 60.2689 220.664 55.7864 0.69465 0.0116478
1389600 60.2689 220.677 55.7864 0.69475 0.0244659
1389800 60.2689 220.69 55.7864 0.69485 0.00326949
1390000 60.2689 220.703 55.7864 0.69495 2.26296e-05
1390200 60.2689 220.716 55.7864 0.69505 0.00541875
1390400 60.2689 220.729 55.7864 0.69515 -0.0108092
1390600 60.2689 220.742 55.7864 0.69525 0.00968732
1390800 60.2689 220.755 55.7864 0.69535 0.00207123
1391000 60.2689 220.768 55.7864 0.69545 -0.0135003
1391200 60.2689 220.781 55.7864 0.69555 -0.00908497
1391400 60.2689 220.795 55.7864 0.69565 0.00193106
1391600 60.2689 220.808 55.7864 0.69575 0.0073207
1391800 60.2689 220.821 55.7864 0.69585 -0.000709479
1392000 60.2689 220.834 55.7864 0.69595 -0.0202916
1392200 60.2689 220.847 55.7864 0.69605 0.00438997
1392400 60.2689 220.86 55.7864 0.69615 0.021304
1392600 60.2689 220.873 55.7864 0.69625 0.0147277
1392800 60.2689 220.886 55.7864 0.69635 0.00229321
1393000 60.2689 220.899 55.7864 0.69645 0.00543313
1393200 60.2689 220.912 55.7864 0.69655 0.0113791
1393400 60.2689 220.925 55.7864 0.69665 0.0165195
1393600 60.2689 220.938 55.7864 0.69675 0.00734252
1393800 60.2689 220.951 55.7864 0.69685 -0.00680678
1394000 60.2689 220.964 55.7864 0.69695 0.0143384
1394200 60.2689 220.977 55.7864 0.69705 0.00391835
1394400 60.2689 220.99 55.7864 0.69715 0.0169672
1394600 60.2689 221.003 55.7864 0.69725 -0.00264374
1394800 60.2689 221.016 55.7864 0.69735 -0.00249059
1395000 60.2689 221.029 55.7864 0.69745 0.00642
1395200 60.2689 221.042 55.7864 0.69755 -0.00181669
1395400 60.2689 221.055 55.7864 0.69765 -0.00458203
1395600 60.2689 221.068 55.7864 0.69775 -0.0110416
1395800 60.2689 221.081 55.7864 0.69785 0.00134881
1396000 60.2689 221.094 55.7864 0.69795 -0.00957648
1396200 60.2689 221.107 55.7864 0.69805 -0.00909215
1396400 60.2689 221.12 55.7864 0.69815 0.00844779
1396600 60.2689 221.133 55.7864 0.69825 -0.00326921
1396800 60.2689 221.146 55.7864 0.69835 0.00937418
1397000 60.2689 221.159 55.7864 0.69845 0.0146658
1397200 60.2689 221.172 55.7864 0.69855 0.0190676
1397400 60.2689 221.185 55.7864 0.69865 0.0103755
1397600 60.2689 221.198 55.7864 0.69875 0.00269048
1397800 60.2689 221.211 55.7864 0.69885 0.0254851
1398000 60.2689 221.224 55.7864 0.69895 0.0182903
1398200 60.2689 221.237 55.7864 0.69905 -0.00581445
1398400 60.2689 221.25 55.7864 0.69915 -0.0031703
1398600 60.2689 221.263 55.7864 0.69925 0.0218356
1398800 60.2689 221.276 55.7864 0.69935 -0.0184116
1399000 60.2689 221.289 55.7864 0.69945 0.000492262
1399200 60.2689 221.302 55.7864 0.69955 -0.00236268
1399400 60.2689 221.315 55.7864 0.69965 0.00284547
1399600 60.2689 221.328 55.7864 0.69975 -0.00681846
1399800 60.2689 221.341 55.7864 0.69985 -0.00690326
1400000 60.2689 221.354 55.7864 0.69995 -0.00266829
1400200 60.2689 221.367 55.7864 0.70005 -0.0213314
1400400 60.2689 221.38 55.7864 0.70015 0.0198597
1400600 60.2689 221.393 55.7864 0.70025 0.0117246
1400800 60.2689 221.406 55.7864 0.70035 -0.0105623
1401000 60.2689 221.42 55.7864 0.70045 -6.73508e-05
1401200 60.2689 221.433 55.7864 0.70055 0.0153977
1401400 60.2689 221.446 55.7864 0.70065 0.015685
1401600 60.2689 221.459 55.7864 0.70075 0.0228933
1401800 60.2689 221.472 55.7864 0.70085 0.00565535
1402000 60.2689 221.485 55.7864 0.70095 0.00697604
1402200 60.2689 221.498 55.7864 0.70105 0.00845591
1402400 60.2689 221.511 55.7864 0.70115 0.0107855
1402600 60.2689 221.524 55.7864 0.70125 0.00974508
1402800 60.2689 221.537 55.7864 0.70135 0.00485227
1403000 60.2689 221.55 55.7864 0.70145 0.00557208
1403200 60.2689 221.563 55.7864 0.70155 -0.0116327
1403400 60.2689 221.576 55.7864 0.70165 -0.00110259
1403600 60.2689 221.589 55.7864 0.70175 -0.0117885
1403800 60.2689 221.602 55.7864 0.70185 -0.00383218
1404000 60.2689 221.615 55.7864 0.70195 0.000750241
1404200 60.2689 221.628 55.7864 0.70205 0.0115192
1404400 60.2689 221.641 55.7864 0.70215 -0.0128038
1404600 60.2689 221.654 55.7864 0.70225 -0.00140134
1404800 60.2689 221.667 55.7864 0.70235 -0.00244462
1405000 60.2689 221.68 55.7864 0.70245 -0.000429309
1405200 60.2689 221.693 55.7864 0.70255 0.013028
1405400 60.2689 221.706 55.7864 0.70265 0.0239651
1405600 60.2689 221.719 55.7864 0.70275 -4.77764e-05
1405800 60.2689 221.732 55.7864 0.70285 0.0283466
1406000 60.2689 221.745 55.7864 0.70295 0.00253973
1406200 60.2689 221.758 55.7864 0.70305 0.00988107
1406400 60.2689 221.771 55.7864 0.70315 -0.000925445
1406600 60.2689 221.784 55.7864 0.70325 0.00852643
1406800 60.2689 221.797 55.7864 0.70335 0.0249287
1407000 60.2689 221.81 55.7864 0.70345 0.00717163
1407200 60.2689 221.823 55.7864 0.70355 -0.01601
1407400 60.2689 221.836 55.7864 0.70365 -0.00558185
1407600 60.2689 221.849 55.7864 0.70375 -0.0111218
1407800 60.2689 221.862 55.7864 0.70385 -0.0208077
1408000 60.2689 221.875 55.7864 0.70395 -0.00914557
1408200 60.2689 221.888 55.7864 0.70405 0.0136072
1408400 60.2689 221.901 55.7864 0.70415 -0.00188828
1408600 60.2689 221.914 55.7864 0.70425 -0.000720476
1408800 60.2689 221.927 55.7864 0.70435 0.00974379
1409000 60.2689 221.94 55.7864 0.70445 0.00871247
1409200 60.2689 221.953 55.7864 0.70455 0.0105831
1409400 60.2689 221.966 55.7864 0.70465 0.0156484
1409600 60.2689 221.979 55.7864 0.70475 -0.00477788
1409800 60.2689 221.992 55.7864 0.70485 0.0247965
1410000 60.2689 222.005 55.7864 0.70495 0.028801
1410200 60.2689 222.018 55.7864 0.70505 0.0035438
1410400 60.2689 222.032 55.7864 0.70515 0.0100925
1410600 60.2689 222.045 55.7864 0.70525 0.00533471
1410800 60.2689 222.058 55.7864 0.70535 -0.0038139
1411000 60.2689 222.071 55.7864 0.70545 -0.00314182
1411200 60.2689 222.084 55.7864 0.70555 -0.000170317
1411400 60.2689 222.097 55.7864 0.70565 -0.00392503
1411600 60.2689 222.11 55.7864 0.70575 -0.0208688
1411800 60.2689 222.123 55.7864 0.70585 -0.00937552
1412000 60.2689 222.136 55.7864 0.70595 -0.00350227
1412200 60.2689 222.149 55.7864 0.70605 -0.00258826
1412400 60.2689 222.162 55.7864 0.70615 -0.0083256
1412600 60.2689 222.175 55.7864 0.70625 0.0208308
1412800 60.2689 222.188 55.7864 0.70635 0.0160009
1413000 60.2689 222.201 55.7864 0.70645 -0.0221504
1413200 60.2689 222.214 55.7864 0.70655 0.0291828
1413400 60.2689 222.227 55.7864 0.70665 0.00657042
1413600 60.2689 222.24 55.7864 0.70675 0.0361656
1413800 60.2689 222.253 55.7864 0.70685 0.0191487
1414000 60.2689 222.266 55.7864 0.70695 0.00642067
1414200 60.2689 222.279 55.7864 0.70705 0.0205801
1414400 60.2689 222.292 55.7864 0.70715 -0.00104239
1414600 60.2689 222.305 55.7864 0.70725 -0.0085741
1414800 60.2689 222.318 55.7864 0.70735 0.00198027
1415000 60.2689 222.331 55.7864 0.70745 -0.00103189
1415200 60.2689 222.344 55.7864 0.70755 -0.0172126
1415400 60.2689 222.357 55.7864 0.70765 0.000494429
1415600 60.2689 222.37 55.7864 0.70775 0.00497321
1415800 60.2689 222.383 55.7864 0.70785 -0.0214972
1416000 60.2689 222.396 55.7864 0.70795 -0.0283782
1416200 60.2689 222.409 55.7864 0.70805 -0.0157296
1416400 60.2689 222.422 55.7864 0.70815 0.018768
1416600 60.2689 222.435 55.7864 0.70825 0.0160687
1416800 60.2689 222.448 55.7864 0.70835 -0.000669942
1417000 60.2689 222.461 55.7864 0.70845 0.0292956
1417200 60.2689 222.474 55.7864 0.70855 0.0276131
1417400 60.2689 222.487 55.7864 0.70865 0.00801864
1417600 60.2689 222.5 55.7864 0.70875 0.0152382
1417800 60.2689 222.513 55.7864 0.70885 0.00381851
1418000 60.2689 222.526 55.7864 0.70895 0.0216233
1418200 60.2689 222.539 55.7864 0.70905 0.0131013
1418400 60.2689 222.552 55.7864 0.70915 0.00417286
1418600 60.2689 222.565 55.7864 0.70925 -0.00539906
1418800 60.2689 222.578 55.7864 0.70935 -0.0201227
1419000 60.2689 222.591 55.7864 0.70945 0.00047514
1419200 60.2689 222.604 55.7864 0.70955 0.00840185
1419400 60.2689 222.617 55.7864 0.70965 -0.0136781
1419600 60.2689 222.63 55.7864 0.70975 -0.00855949
1419800 60.2689 222.644 55.7864 0.70985 -0.00438933
1420000 60.2689 222.657 55.7864 0.70995 0.00221821
1420200 60.2689 222.67 55.7864 0.71005 0.00211657
1420400 60.2689 222.683 55.7864 0.71015 -0.000422092
1420600 60.2689 222.696 55.7864 0.71025 0.00113736
1420800 60.2689 222.709 55.7864 0.71035 0.00765223
1421000 60.2689 222.722 55.7864 0.71045 0.0167028
1421200 60.2689 222.735 55.7864 0.71055 0.00750092
1421400 60.2689 222.748 55.7864 0.71065 0.0114035
1421600 60.2689 222.761 55.7864 0.71075 0.0204631
1421800 60.2689 222.774 55.7864 0.71085 0.00136451
1422000 60.2689 222.787 55.7864 0.71095 0.0118959
1422200 60.2689 222.8 55.7864 0.71105 0.0107192
1422400 60.2689 222.813 55.7864 0.71115 0.00771742
1422600 60.2689 222.826 55.7864 0.71125 -0.00435664
1422800 60.2689 222.839 55.7864 0.71135 -0.000916931
1423000 60.2689 222.852 55.7864 0.71145 0.0093147
1423200 60.2689 222.865 55.7864 0.71155 -0.00937214
1423400 60.2689 222.878 55.7864 0.71165 -0.0106339
1423600 60.2689 222.891 55.7864 0.71175 -0.000924807
1423800 60.2689 222.904 55.7864 0.71185 0.0108242
1424000 60.2689 222.917 55.7864 0.71195 -0.00681916
1424200 60.2689 222.93 55.7864 0.71205 -0.00827812
1424400 60.2689 222.943 55.7864 0.71215 0.00273784
1424600 60.2689 222.956 55.7864 0.71225 -0.00147456
1424800 60.2689 222.969 55.7864 0.71235 0.0190863
1425000 60.2689 222.982 55.7864 0.71245 0.0113754
1425200 60.2689 222.995 55.7864 0.71255 0.0142316
1425400 60.2689 223.008 55.7864 0.71265 0.00175833
1425600 60.2689 223.021 55.7864 0.71275 0.00670107
1425800 60.2689 223.034 55.7864 0.71285 0.0189275
1426000 60.2689 223.047 55.7864 0.71295 0.0183198
1426200 60.2689 223.06 55.7864 0.71305 -0.0129068
1426400 60.2689 223.073 55.7864 0.71315 0.0128302
1426600 60.2689 223.086 55.7864 0.71325 0.00949459
1426800 60.2689 223.099 55.7864 0.71335 -0.0180915
1427000 60.2689 223.112 55.7864 0.71345 0.00372064
1427200 60.2689 223.125 55.7864 0.71355 -0.00305363
1427400 60.2689 223.138 55.7864 0.71365 -0.00716704
1427600 60.2689 223.151 55.7864 0.71375 0.0142758
1427800 60.2689 223.164 55.7864 0.71385 -0.0137267
1428000 60.2689 223.177 55.7864 0.71395 -0.0110918
1428200 60.2689 223.19 55.7864 0.71405 0.0121246
1428400 60.2689 223.203 55.7864 0.71415 -0.0191105
1428600 60.2689 223.216 55.7864 0.71425 -0.001212
1428800 60.2689 223.229 55.7864 0.71435 0.0225928
1429000 60.2689 223.242 55.7864 0.71445 0.0147837
1429200 60.2689 223.256 55.7864 0.71455 0.0252548
1429400 60.2689 223.269 55.7864 0.71465 0.00741569
1429600 60.2689 223.282 55.7864 0.71475 -0.00186385
1429800 60.2689 223.295 55.7864 0.71485 0.0177502
1430000 60.2689 223.308 55.7864 0.71495 0.0287505
1430200 60.2689 223.321 55.7864 0.71505 0.0103645
1430400 60.2689 223.334 55.7864 0.71515 -0.00907486
1430600 60.2689 223.347 55.7864 0.71525 -0.0021249
1430800 60.2689 223.36 55.7864 0.71535 0.000307485
1431000 60.2689 223.373 55.7864 0.71545 0.00336134
1431200 60.2689 223.386 55.7864 0.71555 0.00144793
1431400 60.2689 223.399 55.7864 0.71565 -6.31294e-05
1431600 60.2689 223.412 55.7864 0.71575 -0.0204477
1431800 60.2689 223.425 55.7864 0.71585 0.00350561
1432000 60.2689 223.438 55.7864 0.71595 -0.00109186
1432200 60.2689 223.451 55.7864 0.71605 -0.0234893
1432400 60.2689 223.464 55.7864 0.71615 0.00171902
1432600 60.2689 223.477 55.7864 0.71625 0.0129652
1432800 60.2689 223.49 55.7864 0.71635 0.0134539
1433000 60.2689 223.503 55.7864 0.71645 0.00614556
1433200 60.2689 223.516 55.7864 0.71655 0.00673758
1433400 60.2689 223.529 55.7864 0.71665 0.0107068
1433600 60.2689 223.542 55.7864 0.71675 0.0144928
1433800 60.2689 223.555 55.7864 0.71685 0.0149383
1434000 60.2689 223.568 55.7864 0.71695 0.0105325
1434200 60.2689 223.581 55.7864 0.71705 0.0152611
1434400 60.2689 223.594 55.7864 0.71715 0.00838807
1434600 60.2689 223.607 55.7864 0.71725 0.00111981
1434800 60.2689 223.62 55.7864 0.71735 0.000474377
1435000 60.2689 223.633 55.7864 0.71745 -0.0140737
1435200 60.2689 223.646 55.7864 0.71755 0.000572547
1435400 60.2689 223.659 55.7864 0.71765 -0.00736406
1435600 60.2689 223.672 55.7864 0.71775 -0.00599171
1435800 60.2689 223.685 55.7864 0.71785 -0.0102686
1436000 60.2689 223.698 55.7864 0.71795 0.0104401
1436200 60.2689 223.711 55.7864 0.71805 -0.00423309
1436400 60.2689 223.724 55.7864 0.71815 0.00358775
1436600 60.2689 223.737 55.7864 0.71825 5.13007e-05
1436800 60.2689 223.75 55.7864 0.71835 0.00430554
1437000 60.2689 223.763 55.7864 0.71845 0.0265645
1437200 60.2689 223.776 55.7864 0.71855 0.00722801
1437400 60.2689 223.789 55.7864 0.71865 0.017929
1437600 60.2689 223.802 55.7864 0.71875 0.0108097
1437800 60.2689 223.815 55.7864 0.71885 -0.00274744
1438000 60.2689 223.828 55.7864 0.71895 0.0113678
1438200 60.2689 223.841 55.7864 0.71905 0.0213765
1438400 60.2689 223.854 55.7864 0.71915 -0.00941056
1438600 60.2689 223.868 55.7864 0.71925 -0.00485827
1438800 60.2689 223.881 55.7864 0.71935 0.0159546
1439000 60.2689 223.894 55.7864 0.71945 -0.0035208
1439200 60.2689 223.907 55.7864 0.71955 0.0085759
1439400 60.2689 223.92 55.7864 0.71965 -0.00387074
1439600 60.2689 223.933 55.7864 0.71975 -0.0129391
1439800 60.2689 223.946 55.7864 0.71985 -0.0123793
1440000 60.2689 223.959 55.7864 0.71995 -0.0077766
1440200 60.2689 223.972 55.7864 0.72005 0.00916626
1440400 60.2689 223.985 55.7864 0.72015 -0.00194991
1440600 60.2689 223.998 55.7864 0.72025 0.0128171
1440800 60.2689 224.011 55.7864 0.72035 0.00638061
1441000 60.2689 224.024 55.7864 0.72045 -0.00420561
1441200 60.2689 224.037 55.7864 0.72055 0.0114231
1441400 60.2689 224.05 55.7864 0.72065 0.00648242
1441600 60.2689 224.063 55.7864 0.72075 0.015595
1441800 60.2689 224.076 55.7864 0.72085 0.0106822
1442000 60.2689 224.089 55.7864 0.72095 0.0159573
1442200 60.2689 224.102 55.7864 0.72105 0.0179714
1442400 60.2689 224.115 55.7864 0.72115 0.00158397
1442600 60.2689 224.128 55.7864 0.72125 0.00198934
1442800 60.2689 224.141 55.7864 0.72135 0.000388625
1443000 60.2689 224.154 55.7864 0.72145 -0.00899975
1443200 60.2689 224.167 55.7864 0.72155 -0.00580985
1443400 60.2689 224.18 55.7864 0.72165 0.0181545
1443600 60.2689 224.193 55.7864 0.72175 0.00788436
1443800 60.2689 224.206 55.7864 0.72185 -0.0134475
1444000 60.2689 224.219 55.7864 0.72195 -0.0122136
1444200 60.2689 224.232 55.7864 0.72205 -0.00365207
1444400 60.2689 224.245 55.7864 0.72215 0.00253982
1444600 60.2689 224.258 55.7864 0.72225 0.0133639
1444800 60.2689 224.271 55.7864 0.72235 0.00720156
1445000 60.2689 224.284 55.7864 0.72245 0.00367479
1445200 60.2689 224.297 55.7864 0.72255 0.00527693
1445400 60.2689 224.31 55.7864 0.72265 0.00860008
1445600 60.2689 224.323 55.7864 0.72275 0.0075255
1445800 60.2689 224.336 55.7864 0.72285 0.00834013
1446000 60.2689 224.349 55.7864 0.72295 0.0155376
1446200 60.2689 224.362 55.7864 0.72305 0.0275832
1446400 60.2689 224.375 55.7864 0.72315 -0.00939481
1446600 60.2689 224.388 55.7864 0.72325 -0.00115591
1446800 60.2689 224.401 55.7864 0.72335 -0.0201023
1447000 60.2689 224.414 55.7864 0.72345 0.0033633
1447200 60.2689 224.427 55.7864 0.72355 0.0108586
1447400 60.2689 224.44 55.7864 0.72365 0.00397221
1447600 60.2689 224.453 55.7864 0.72375 0.00965686
1447800 60.2689 224.466 55.7864 0.72385 -0.000464803
1448000 60.2689 224.48 55.7864 0.72395 -0.0123579
1448200 60.2689 224.493 55.7864 0.72405 -0.00257832
1448400 60.2689 224.506 55.7864 0.72415 -0.00223914
1448600 60.2689 224.519 55.7864 0.72425 0.00458214
1448800 60.2689 224.532 55.7864 0.72435 0.00819976
1449000 60.2689 224.545 55.7864 0.72445 0.02127
1449200 60.2689 224.558 55.7864 0.72455 0.00378623
1449400 60.2689 224.571 55.7864 0.72465 -0.000775073
1449600 60.2689 224.584 55.7864 0.72475 0.00273087
1449800 60.2689 224.597 55.7864 0.72485 0.0129631
1450000 60.2689 224.61 55.7864 0.72495 0.0143348
1450200 60.2689 224.623 55.7864 0.72505 0.00410295
1450400 60.2689 224.636 55.7864 0.72515 0.011318
1450600 60.2689 224.649 55.7864 0.72525 0.0209366
1450800 60.2689 224.662 55.7864 0.72535 -0.00107506
1451000 60.2689 224.675 55.7864 0.72545 -9.19776e-05
1451200 60.2689 224.688 55.7864 0.72555 -0.0124717
1451400 60.2689 224.701 55.7864 0.72565 -0.00844156
1451600 60.2689 224.714 55.7864 0.72575 0.0109986
1451800 60.2689 224.727 55.7864 0.72585 -0.000459047
1452000 60.2689 224.74 55.7864 0.72595 -0.00109249
1452200 60.2689 224.753 55.7864 0.72605 -0.00871738
1452400 60.2689 224.766 55.7864 0.72615 -0.00890348
1452600 60.2689 224.779 55.7864 0.72625 -0.000835669
1452800 60.2689 224.792 55.7864 0.72635 0.00112127
1453000 60.2689 224.805 55.7864 0.72645 0.0152754
1453200 60.2689 224.818 55.7864 0.72655 0.0250656
1453400 60.2689 224.831 55.7864 0.72665 0.0017739
1453600 60.2689 224.844 55.7864 0.72675 0.00831202
1453800 60.2689 224.857 55.7864 0.72685 0.0148549
1454000 60.2689 224.87 55.7864 0.72695 0.00372839
1454200 60.2689 224.883 55.7864 0.72705 0.0211637
1454400 60.2689 224.896 55.7864 0.72715 0.00875475
1454600 60.2689 224.909 55.7864 0.72725 0.00369503
1454800 60.2689 224.922 55.7864 0.72735 -0.00282705
1455000 60.2689 224.935 55.7864 0.72745 -0.0134373
1455200 60.2689 224.948 55.7864 0.72755 -0.0105867
1455400 60.2689 224.961 55.7864 0.72765 0.00274875
1455600 60.2689 224.974 55.7864 0.72775 0.0148817
1455800 60.2689 224.987 55.7864 0.72785 0.000108637
1456000 60.2689 225 55.7864 0.72795 -0.0114197
1456200 60.2689 225.013 55.7864 0.72805 -0.00153275
1456400 60.2689 225.026 55.7864 0.72815 0.00919551
1456600 60.2689 225.039 55.7864 0.72825 -0.00720096
1456800 60.2689 225.052 55.7864 0.72835 -0.0056441
1457000 60.2689 225.065 55.7864 0.72845 0.0166887
1457200 60.2689 225.078 55.7864 0.72855 0.0264886
1457400 60.2689 225.092 55.7864 0.72865 0.00798304
1457600 60.2689 225.105 55.7864 0.72875 -0.00191063
1457800 60.2689 225.118 55.7864 0.72885 0.0125326
1458000 60.2689 225.131 55.7864 0.72895 0.00910859
1458200 60.2689 225.144 55.7864 0.72905 0.00787246
1458400 60.2689 225.157 55.7864 0.72915 0.0086084
1458600 60.2689 225.17 55.7864 0.72925 0.0206599
1458800 60.2689 225.183 55.7864 0.72935 -0.000602532
1459000 60.2689 225.196 55.7864 0.72945 -0.0161833
1459200 60.2689 225.209 55.7864 0.72955 0.00612844
1459400 60.2689 225.222 55.7864 0.72965 0.00355203
1459600 60.2689 225.235 55.7864 0.72975 -0.019407
1459800 60.2689 225.248 55.7864 0.72985 0.0220334
1460000 60.2689 225.261 55.7864 0.72995 -0.00961684
1460200 60.2689 225.274 55.7864 0.73005 -0.0112695
1460400 60.2689 225.287 55.7864 0.73015 0.00668813
1460600 60.2689 225.3 55.7864 0.73025 -0.00978922
1460800 60.2689 225.313 55.7864 0.73035 -0.00665205
1461000 60.2689 225.326 55.7864 0.73045 0.00422248
1461200 60.2689 225.339 55.7864 0.73055 0.0212623
1461400 60.2689 225.352 55.7864 0.73065 0.0193117
1461600 60.2689 225.365 55.7864 0.73075 -0.000597366
1461800 60.2689 225.378 55.7864 0.73085 0.0216255
1462000 60.2689 225.391 55.7864 0.73095 0.00459667
1462200 60.2689 225.404 55.7864 0.73105 0.00944431
1462400 60.2689 225.417 55.7864 0.73115 0.0102629
1462600 60.2689 225.43 55.7864 0.73125 0.0121103
1462800 60.2689 225.443 55.7864 0.73135 0.00340836
1463000 60.2689 225.456 55.7864 0.73145 0.00986817
1463200 60.2689 225.469 55.7864 0.73155 -0.00346277
1463400 60.2689 225.482 55.7864 0.73165 -0.0227512
1463600 60.2689 225.495 55.7864 0.73175 -0.00345749
1463800 60.2689 225.508 55.7864 0.73185 0.0183622
1464000 60.2689 225.521 55.7864 0.73195 -0.0131199
1464200 60.2689 225.534 55.7864 0.73205 0.0097158
1464400 60.2689 225.547 55.7864 0.73215 -0.0034021
1464600 60.2689 225.56 55.7864 0.73225 -0.0116763
1464800 60.2689 225.573 55.7864 0.73235 -0.0133659
1465000 60.2689 225.586 55.7864 0.73245 0.0149707
1465200 60.2689 225.599 55.7864 0.73255 0.0203
1465400 60.2689 225.612 55.7864 0.73265 0.00313335
1465600 60.2689 225.625 55.7864 0.73275 0.0165875
1465800 60.2689 225.638 55.7864 0.73285 0.0126783
1466000 60.2689 225.651 55.7864 0.73295 0.0122834
1466200 60.2689 225.664 55.7864 0.73305 0.00688086
1466400 60.2689 225.677 55.7864 0.73315 -2.46136e-05
1466600 60.2689 225.69 55.7864 0.73325 0.0180543
1466800 60.2689 225.704 55.7864 0.73335 0.00908968
1467000 60.2689 225.717 55.7864 0.73345 0.0108408
1467200 60.2689 225.73 55.7864 0.73355 -0.0137062
1467400 60.2689 225.743 55.7864 0.73365 -0.00326973
1467600 60.2689 225.756 55.7864 0.73375 -0.0209847
1467800 60.2689 225.769 55.7864 0.73385 0.00132804
1468000 60.2689 225.782 55.7864 0.73395 -0.00389443
1468200 60.2689 225.795 55.7864 0.73405 0.0110141
1468400 60.2689 225.808 55.7864 0.73415 -0.00727191
1468600 60.2689 225.821 55.7864 0.73425 0.0035857
1468800 60.2689 225.834 55.7864 0.73435 -0.00134727
1469000 60.2689 225.847 55.7864 0.73445 0.0107286
1469200 60.2689 225.86 55.7864 0.73455 0.00861198
1469400 60.2689 225.873 55.7864 0.73465 0.025999
1469600 60.2689 225.886 55.7864 0.73475 0.00651013
1469800 60.2689 225.899 55.7864 0.73485 0.0270374
1470000 60.2689 225.912 55.7864 0.73495 0.00351805
1470200 60.2689 225.925 55.7864 0.73505 0.0203486
1470400 60.2689 225.938 55.7864 0.73515 0.00309097
1470600 60.2689 225.951 55.7864 0.73525 0.00278563
1470800 60.2689 225.964 55.7864 0.73535 0.00172885
1471000 60.2689 225.977 55.7864 0.73545 0.000188093
1471200 60.2689 225.99 55.7864 0.73555 -0.0173666
1471400 60.2689 226.003 55.7864 0.73565 -0.0197355
1471600 60.2689 226.016 55.7864 0.73575 -0.00588111
1471800 60.2689 226.029 55.7864 0.73585 3.1254e-05
1472000 60.2689 226.042 55.7864 0.73595 -0.0105381
1472200 60.2689 226.055 55.7864 0.73605 -0.00353073
1472400 60.2689 226.068 55.7864 0.73615 0.0175205
1472600 60.2689 226.081 55.7864 0.73625 0.00844033
1472800 60.2689 226.094 55.7864 0.73635 -0.00443708
1473000 60.2689 226.107 55.7864 0.73645 0.0132434
1473200 60.2689 226.12 55.7864 0.73655 0.0193169
1473400 60.2689 226.133 55.7864 0.73665 -0.00552203
1473600 60.2689 226.146 55.7864 0.73675 0.03216
1473800 60.2689 226.159 55.7864 0.73685 0.0216976
1474000 60.2689 226.172 55.7864 0.73695 0.0118143
1474200 60.2689 226.185 55.7864 0.73705 -0.000172135
1474400 60.2689 226.198 55.7864 0.73715 0.00404622
1474600 60.2689 226.211 55.7864 0.73725 0.0178769
1474800 60.2689 226.224 55.7864 0.73735 -0.00971143
1475000 60.2689 226.237 55.7864 0.73745 -0.0202392
1475200 60.2689 226.25 55.7864 0.73755 0.00777156
1475400 60.2689 226.263 55.7864 0.73765 -0.00416543
1475600 60.2689 226.276 55.7864 0.73775 -0.00942248
1475800 60.2689 226.289 55.7864 0.73785 -0.0114671
1476000 60.2689 226.302 55.7864 0.73795 -0.0108832
1476200 60.2689 226.316 55.7864 0.73805 0.00906315
1476400 60.2689 226.329 55.7864 0.73815 0.0110753
1476600 60.2689 226.342 55.7864 0.73825 0.00299173
1476800 60.2689 226.355 55.7864 0.73835 0.00886748
1477000 60.2689 226.368 55.7864 0.73845 0.0169313
1477200 60.2689 226.381 55.7864 0.73855 0.00366749
1477400 60.2689 226.394 55.7864 0.73865 0.0142883
1477600 60.2689 226.407 55.7864 0.73875 0.0243084
1477800 60.2689 226.42 55.7864 0.73885 0.0111544
1478000 60.2689 226.433 55.7864 0.73895 0.00189074
1478200 60.2689 226.446 55.7864 0.73905 0.00322549
1478400 60.2689 226.459 55.7864 0.73915 0.0149356
1478600 60.2689 226.472 55.7864 0.73925 0.00608036
1478800 60.2689 226.485 55.7864 0.73935 -0.025484
1479000 60.2689 226.498 55.7864 0.73945 0.0111707
1479200 60.2689 226.511 55.7864 0.73955 -0.00177187
1479400 60.2689 226.524 55.7864 0.73965 -0.0131868
1479600 60.2689 226.537 55.7864 0.73975 -0.0178278
1479800 60.2689 226.55 55.7864 0.73985 0.00761728
1480000 60.2689 226.563 55.7864 0.73995 -0.0098023
1480200 60.2689 226.576 55.7864 0.74005 0.00645866
1480400 60.2689 226.589 55.7864 0.74015 0.0148342
1480600 60.2689 226.602 55.7864 0.74025 0.00279571
1480800 60.2689 226.615 55.7864 0.74035 0.00424123
1481000 60.2689 226.628 55.7864 0.74045 0.00327615
1481200 60.2689 226.641 55.7864 0.74055 0.0214058
1481400 60.2689 226.654 55.7864 0.74065 0.00646437
1481600 60.2689 226.667 55.7864 0.74075 0.00260462
1481800 60.2689 226.68 55.7864 0.74085 0.0343657
1482000 60.2689 226.693 55.7864 0.74095 0.0153616
1482200 60.2689 226.706 55.7864 0.74105 0.00184446
1482400 60.2689 226.719 55.7864 0.74115 0.0128122
1482600 60.2689 226.732 55.7864 0.74125 -0.00235411
1482800 60.2689 226.745 55.7864 0.74135 -0.0143088
1483000 60.2689 226.758 55.7864 0.74145 -0.0120223
1483200 60.2689 226.771 55.7864 0.74155 0.0109806
1483400 60.2689 226.784 55.7864 0.74165 -0.0106047
1483600 60.2689 226.797 55.7864 0.74175 0.00362398
1483800 60.2689 226.81 55.7864 0.74185 -0.00828277
1484000 60.2689 226.823 55.7864 0.74195 -0.00108219
1484200 60.2689 226.836 55.7864 0.74205 -0.020121
1484400 60.2689 226.849 55.7864 0.74215 0.00451796
1484600 60.2689 226.862 55.7864 0.74225 0.000871024
1484800 60.2689 226.875 55.7864 0.74235 0.0173849
1485000 60.2689 226.888 55.7864 0.74245 0.0290896
1485200 60.2689 226.901 55.7864 0.74255 0.0143227
1485400 60.2689 226.914 55.7864 0.74265 0.00664953
1485600 60.2689 226.928 55.7864 0.74275 0.0212923
1485800 60.2689 226.941 55.7864 0.74285 0.0049799
1486000 60.2689 226.954 55.7864 0.74295 0.0297199
1486200 60.2689 226.967 55.7864 0.74305 -0.00381088
1486400 60.2689 226.98 55.7864 0.74315 0.0247399
1486600 60.2689 226.993 55.7864 0.74325 -0.0100636
1486800 60.2689 227.006 55.7864 0.74335 -0.0343822
1487000 60.2689 227.019 55.7864 0.74345 -0.00762968
1487200 60.2689 227.032 55.7864 0.74355 -0.0110129
1487400 60.2689 227.045 55.7864 0.74365 0.000723059
1487600 60.2689 227.058 55.7864 0.74375 -0.0104692
1487800 60.2689 227.071 55.7864 0.74385 0.00137792
1488000 60.2689 227.084 55.7864 0.74395 -0.0116221
1488200 60.2689 227.097 55.7864 0.74405 -0.00428394
1488400 60.2689 227.11 55.7864 0.74415 0.0121854
1488600 60.2689 227.123 55.7864 0.74425 -0.00314612
1488800 60.2689 227.136 55.7864 0.74435 0.0275658
1489000 60.2689 227.149 55.7864 0.74445 0.0337385
1489200 60.2689 227.162 55.7864 0.74455 0.0266042
1489400 60.2689 227.175 55.7864 0.74465 0.0121029
1489600 60.2689 227.188 55.7864 0.74475 0.00590473
1489800 60.2689 227.201 55.7864 0.74485 0.0116834
1490000 60.2689 227.214 55.7864 0.74495 0.0176154
1490200 60.2689 227.227 55.7864 0.74505 0.0134891
1490400 60.2689 227.24 55.7864 0.74515 0.00304254
1490600 60.2689 227.253 55.7864 0.74525 -0.00313614
1490800 60.2689 227.266 55.7864 0.74535 -0.00690899
1491000 60.2689 227.279 55.7864 0.74545 -0.0378849
1491200 60.2689 227.292 55.7864 0.74555 -0.0226178
1491400 60.2689 227.305 55.7864 0.74565 -0.0181126
1491600 60.2689 227.318 55.7864 0.74575 0.0035393
1491800 60.2689 227.331 55.7864 0.74585 0.00666579
1492000 60.2689 227.344 55.7864 0.74595 0.012802
1492200 60.2689 227.357 55.7864 0.74605 -0.00923512
1492400 60.2689 227.37 55.7864 0.74615 -0.00325818
1492600 60.2689 227.383 55.7864 0.74625 0.0135972
1492800 60.2689 227.396 55.7864 0.74635 0.0129925
1493000 60.2689 227.409 55.7864 0.74645 0.0354909
1493200 60.2689 227.422 55.7864 0.74655 0.0417231
1493400 60.2689 227.435 55.7864 0.74665 0.0197916
1493600 60.2689 227.448 55.7864 0.74675 0.0105497
1493800 60.2689 227.461 55.7864 0.74685 0.000755468
1494000 60.2689 227.474 55.7864 0.74695 0.00339877
1494200 60.2689 227.487 55.7864 0.74705 -0.000911029
1494400 60.2689 227.5 55.7864 0.74715 -0.00131464
1494600 60.2689 227.513 55.7864 0.74725 0.00598443
1494800 60.2689 227.526 55.7864 0.74735 0.00682127
1495000 60.2689 227.539 55.7864 0.74745 -0.0356989
1495200 60.2689 227.553 55.7864 0.74755 -0.0368844
1495400 60.2689 227.566 55.7864 0.74765 -0.0200821
1495600 60.2689 227.579 55.7864 0.74775 -0.00408625
1495800 60.2689 227.592 55.7864 0.74785 0.00233944
1496000 60.2689 227.605 55.7864 0.74795 0.0111081
1496200 60.2689 227.618 55.7864 0.74805 0.0214169
1496400 60.2689 227.631 55.7864 0.74815 0.00955999
1496600 60.2689 227.644 55.7864 0.74825 0.00651322
1496800 60.2689 227.657 55.7864 0.74835 0.0130358
1497000 60.2689 227.67 55.7864 0.74845 0.0211359
1497200 60.2689 227.683 55.7864 0.74855 0.0253231
1497400 60.2689 227.696 55.7864 0.74865 0.0473189
1497600 60.2689 227.709 55.7864 0.74875 0.00811259
1497800 60.2689 227.722 55.7864 0.74885 0.00445281
1498000 60.2689 227.735 55.7864 0.74895 -0.029247
1498200 60.2689 227.748 55.7864 0.74905 0.0147801
1498400 60.2689 227.761 55.7864 0.74915 -0.000720951
1498600 60.2689 227.774 55.7864 0.74925 -0.0126736
1498800 60.2689 227.787 55.7864 0.74935 -0.00810394
1499000 60.2689 227.8 55.7864 0.74945 -0.00787646
1499200 60.2689 227.813 55.7864 0.74955 -0.0152243
1499400 60.2689 227.826 55.7864 0.74965 -0.0180762
1499600 60.2689 227.839 55.7864 0.74975 -0.0091015
1499800 60.2689 227.852 55.7864 0.74985 -0.00574433
1500000 60.2689 227.865 55.7864 0.74995 0.0250466
1500200 60.2689 227.878 55.7864 0.75005 0.0207905
1500400 60.2689 227.891 55.7864 0.75015 -0.00215629
1500600 60.2689 227.904 55.7864 0.75025 0.011019
1500800 60.2689 227.917 55.7864 0.75035 0.0251223
1501000 60.2689 227.93 55.7864 0.75045 0.0027371
1501200 60.2689 227.943 55.7864 0.75055 0.0161574
1501400 60.2689 227.956 55.7864 0.75065 0.0227125
1501600 60.2689 227.969 55.7864 0.75075 0.0242235
1501800 60.2689 227.982 55.7864 0.75085 0.00350058
1502000 60.2689 227.995 55.7864 0.75095 0.00635167
1502200 60.2689 228.008 55.7864 0.75105 -0.0137039
1502400 60.2689 228.021 55.7864 0.75115 -0.00144069
1502600 60.2689 228.034 55.7864 0.75125 -0.000658006
1502800 60.2689 228.047 55.7864 0.75135 -0.000998288
1503000 60.2689 228.06 55.7864 0.75145 -0.0143851
1503200 60.2689 228.073 55.7864 0.75155 -0.0183253
1503400 60.2689 228.086 55.7864 0.75165 -0.00293321
1503600 60.2689 228.099 55.7864 0.75175 -0.0213773
1503800 60.2689 228.112 55.7864 0.75185 -0.0154626
1504000 60.2689 228.125 55.7864 0.75195 0.0235288
1504200 60.2689 228.138 55.7864 0.75205 0.0233988
1504400 60.2689 228.151 55.7864 0.75215 0.00766595
1504600 60.2689 228.165 55.7864 0.75225 0.00977904
1504800 60.2689 228.178 55.7864 0.75235 0.00260355
1505000 60.2689 228.191 55.7864 0.75245 0.0135879
1505200 60.2689 228.204 55.7864 0.75255 0.0300745
1505400 60.2689 228.217 55.7864 0.75265 0.0224964
1505600 60.2689 228.23 55.7864 0.75275 0.0346501
1505800 60.2689 228.243 55.7864 0.75285 0.0156677
1506000 60.2689 228.256 55.7864 0.75295 0.00109315
1506200 60.2689 228.269 55.7864 0.75305 -0.0182975
1506400 60.2689 228.282 55.7864 0.75315 -0.0183686
1506600 60.2689 228.295 55.7864 0.75325 -0.0059575
1506800 60.2689 228.308 55.7864 0.75335 0.00618872
1507000 60.2689 228.321 55.7864 0.75345 0.01114
1507200 60.2689 228.334 55.7864 0.75355 -0.0116574
1507400 60.2689 228.347 55.7864 0.75365 -0.0466029
1507600 60.2689 228.36 55.7864 0.75375 -0.0320282
1507800 60.2689 228.373 55.7864 0.75385 0.00470921
1508000 60.2689 228.386 55.7864 0.75395 0.0156144
1508200 60.2689 228.399 55.7864 0.75405 -0.00777882
1508400 60.2689 228.412 55.7864 0.75415 0.025991
1508600 60.2689 228.425 55.7864 0.75425 0.0260238
1508800 60.2689 228.438 55.7864 0.75435 0.00952071
1509000 60.2689 228.451 55.7864 0.75445 0.00626582
1509200 60.2689 228.464 55.7864 0.75455 0.0121911
1509400 60.2689 228.477 55.7864 0.75465 0.0311227
1509600 60.2689 228.49 55.7864 0.75475 0.0372135
1509800 60.2689 228.503 55.7864 0.75485 0.0250854
1510000 60.2689 228.516 55.7864 0.75495 -0.00313923
1510200 60.2689 228.529 55.7864 0.75505 0.0174078
1510400 60.2689 228.542 55.7864 0.75515 -0.0129944
1510600 60.2689 228.555 55.7864 0.75525 -0.0193562
1510800 60.2689 228.568 55.7864 0.75535 -0.028837
1511000 60.2689 228.581 55.7864 0.75545 0.000371569
1511200 60.2689 228.594 55.7864 0.75555 -0.0178
1511400 60.2689 228.607 55.7864 0.75565 -0.0141598
1511600 60.2689 228.62 55.7864 0.75575 -0.00325837
1511800 60.2689 228.633 55.7864 0.75585 -0.0149416
1512000 60.2689 228.646 55.7864 0.75595 -0.009149
1512200 60.2689 228.659 55.7864 0.75605 0.0174061
1512400 60.2689 228.672 55.7864 0.75615 0.00938353
1512600 60.2689 228.685 55.7864 0.75625 0.0276221
1512800 60.2689 228.698 55.7864 0.75635 0.0224319
1513000 60.2689 228.711 55.7864 0.75645 0.0165336
1513200 60.2689 228.724 55.7864 0.75655 0.0236239
1513400 60.2689 228.737 55.7864 0.75665 0.00349707
1513600 60.2689 228.75 55.7864 0.75675 0.0059716
1513800 60.2689 228.763 55.7864 0.75685 0.0271742
1514000 60.2689 228.777 55.7864 0.75695 0.00749054
1514200 60.2689 228.79 55.7864 0.75705 0.00261401
1514400 60.2689 228.803 55.7864 0.75715 -0.00295919
1514600 60.2689 228.816 55.7864 0.75725 -0.0264796
1514800 60.2689 228.829 55.7864 0.75735 -0.00164568
1515000 60.2689 228.842 55.7864 0.75745 -0.0218051
1515200 60.2689 228.855 55.7864 0.75755 -0.00261426
1515400 60.2689 228.868 55.7864 0.75765 -0.00129409
1515600 60.2689 228.881 55.7864 0.75775 -0.00776593
1515800 60.2689 228.894 55.7864 0.75785 -0.00873749
1516000 60.2689 228.907 55.7864 0.75795 -0.00476704
1516200 60.2689 228.92 55.7864 0.75805 0.00016081
1516400 60.2689 228.933 55.7864 0.75815 0.0233568
1516600 60.2689 228.946 55.7864 0.75825 0.0195264
1516800 60.2689 228.959 55.7864 0.75835 0.0221981
1517000 60.2689 228.972 55.7864 0.75845 0.0196535
1517200 60.2689 228.985 55.7864 0.75855 0.0232167
1517400 60.2689 228.998 55.7864 0.75865 0.019057
1517600 60.2689 229.011 55.7864 0.75875 -0.00833719
1517800 60.2689 229.024 55.7864 0.75885 0.0111588
1518000 60.2689 229.037 55.7864 0.75895 0.00135985
1518200 60.2689 229.05 55.7864 0.75905 0.00891009
1518400 60.2689 229.063 55.7864 0.75915 -0.0014591
1518600 60.2689 229.076 55.7864 0.75925 -0.010449
1518800 60.2689 229.089 55.7864 0.75935 -0.0254607
1519000 60.2689 229.102 55.7864 0.75945 -0.00712069
1519200 60.2689 229.115 55.7864 0.75955 -0.00606684
1519400 60.2689 229.128 55.7864 0.75965 -0.010223
1519600 60.2689 229.141 55.7864 0.75975 0.00118672
1519800 60.2689 229.154 55.7864 0.75985 -0.0149209
1520000 60.2689 229.167 55.7864 0.75995 0.0135831
1520200 60.2689 229.18 55.7864 0.76005 0.0153539
1520400 60.2689 229.193 55.7864 0.76015 0.00650141
1520600 60.2689 229.206 55.7864 0.76025 0.0256762
1520800 60.2689 229.219 55.7864 0.76035 0.010846
1521000 60.2689 229.232 55.7864 0.76045 0.00920285
1521200 60.2689 229.245 55.7864 0.76055 0.0158521
1521400 60.2689 229.258 55.7864 0.76065 0.0151075
1521600 60.2689 229.271 55.7864 0.76075 0.00876452
1521800 60.2689 229.284 55.7864 0.76085 0.00889845
1522000 60.2689 229.297 55.7864 0.76095 0.0107358
1522200 60.2689 229.31 55.7864 0.76105 0.00877866
1522400 60.2689 229.323 55.7864 0.76115 -0.00521031
1522600 60.2689 229.336 55.7864 0.76125 -0.0171437
1522800 60.2689 229.349 55.7864 0.76135 -0.00934308
1523000 60.2689 229.362 55.7864 0.76145 -0.00413343
1523200 60.2689 229.375 55.7864 0.76155 -0.0136908
1523400 60.2689 229.389 55.7864 0.76165 0.000257807
1523600 60.2689 229.402 55.7864 0.76175 -0.0018947
1523800 60.2689 229.415 55.7864 0.76185 -0.00215967
1524000 60.2689 229.428 55.7864 0.76195 -0.00748063
1524200 60.2689 229.441 55.7864 0.76205 0.0149984
1524400 60.2689 229.454 55.7864 0.76215 0.00855267
1524600 60.2689 229.467 55.7864 0.76225 0.0119287
1524800 60.2689 229.48 55.7864 0.76235 0.0226136
1525000 60.2689 229.493 55.7864 0.76245 0.00121844
1525200 60.2689 229.506 55.7864 0.76255 0.00325999
1525400 60.2689 229.519 55.7864 0.76265 0.0232863
1525600 60.2689 229.532 55.7864 0.76275 0.0205317
1525800 60.2689 229.545 55.7864 0.76285 0.00727919
1526000 60.2689 229.558 55.7864 0.76295 -0.00361636
1526200 60.2689 229.571 55.7864 0.76305 0.000532432
1526400 60.2689 229.584 55.7864 0.76315 -0.0028896
1526600 60.2689 229.597 55.7864 0.76325 0.0107653
1526800 60.2689 229.61 55.7864 0.76335 -0.00526656
1527000 60.2689 229.623 55.7864 0.76345 -0.00793824
1527200 60.2689 229.636 55.7864 0.76355 -0.00867326
1527400 60.2689 229.649 55.7864 0.76365 -0.00425921
1527600 60.2689 229.662 55.7864 0.76375 -0.00588431
1527800 60.2689 229.675 55.7864 0.76385 -0.0199871
1528000 60.2689 229.688 55.7864 0.76395 0.000249061
1528200 60.2689 229.701 55.7864 0.76405 0.0109665
1528400 60.2689 229.714 55.7864 0.76415 0.000488848
1528600 60.2689 229.727 55.7864 0.76425 0.00548112
1528800 60.2689 229.74 55.7864 0.76435 0.0197431
1529000 60.2689 229.753 55.7864 0.76445 0.0231516
1529200 60.2689 229.766 55.7864 0.76455 0.0167782
1529400 60.2689 229.779 55.7864 0.76465 0.00724971
1529600 60.2689 229.792 55.7864 0.76475 0.0174471
1529800 60.2689 229.805 55.7864 0.76485 0.0138988
1530000 60.2689 229.818 55.7864 0.76495 0.00114062
1530200 60.2689 229.831 55.7864 0.76505 0.0308011
1530400 60.2689 229.844 55.7864 0.76515 -0.00882428
1530600 60.2689 229.857 55.7864 0.76525 -0.0204841
1530800 60.2689 229.87 55.7864 0.76535 -0.0113917
1531000 60.2689 229.883 55.7864 0.76545 -0.00220764
1531200 60.2689 229.896 55.7864 0.76555 -0.0094726
1531400 60.2689 229.909 55.7864 0.76565 -0.00892826
1531600 60.2689 229.922 55.7864 0.76575 -0.00489651
1531800 60.2689 229.935 55.7864 0.76585 -0.022306
1532000 60.2689 229.948 55.7864 0.76595 0.00797313
1532200 60.2689 229.961 55.7864 0.76605 0.0115658
1532400 60.2689 229.974 55.7864 0.76615 0.00195909
1532600 60.2689 229.987 55.7864 0.76625 0.014816
1532800 60.2689 230.001 55.7864 0.76635 0.0241102
1533000 60.2689 230.014 55.7864 0.76645 0.0111378
1533200 60.2689 230.027 55.7864 0.76655 0.0193716
1533400 60.2689 230.04 55.7864 0.76665 0.0146892
1533600 60.2689 230.053 55.7864 0.76675 0.00351073
1533800 60.2689 230.066 55.7864 0.76685 0.0200617
1534000 60.2689 230.079 55.7864 0.76695 0.015834
1534200 60.2689 230.092 55.7864 0.76705 0.00811373
1534400 60.2689 230.105 55.7864 0.76715 -0.0148593
1534600 60.2689 230.118 55.7864 0.76725 -0.00974381
1534800 60.2689 230.131 55.7864 0.76735 -0.00792566
1535000 60.2689 230.144 55.7864 0.76745 -0.025433
1535200 60.2689 230.157 55.7864 0.76755 -0.012679
1535400 60.2689 230.17 55.7864 0.76765 0.00707544
1535600 60.2689 230.183 55.7864 0.76775 0.0156173
1535800 60.2689 230.196 55.7864 0.76785 0.000179573
1536000 60.2689 230.209 55.7864 0.76795 -0.0159103
1536200 60.2689 230.222 55.7864 0.76805 0.000915615
1536400 60.2689 230.235 55.7864 0.76815 0.00148785
1536600 60.2689 230.248 55.7864 0.76825 0.00911229
1536800 60.2689 230.261 55.7864 0.76835 0.0313546
1537000 60.2689 230.274 55.7864 0.76845 0.0247736
1537200 60.2689 230.287 55.7864 0.76855 0.013895
1537400 60.2689 230.3 55.7864 0.76865 -0.00327173
1537600 60.2689 230.313 55.7864 0.76875 0.00667464
1537800 60.2689 230.326 55.7864 0.76885 -0.000849022
1538000 60.2689 230.339 55.7864 0.76895 0.0223659
1538200 60.2689 230.352 55.7864 0.76905 0.0183987
1538400 60.2689 230.365 55.7864 0.76915 -0.00284072
1538600 60.2689 230.378 55.7864 0.76925 -0.0102083
1538800 60.2689 230.391 55.7864 0.76935 -0.0256697
1539000 60.2689 230.404 55.7864 0.76945 -0.00863951
1539200 60.2689 230.417 55.7864 0.76955 0.00221369
1539400 60.2689 230.43 55.7864 0.76965 -0.00954434
1539600 60.2689 230.443 55.7864 0.76975 0.000943967
1539800 60.2689 230.456 55.7864 0.76985 -0.00330492
1540000 60.2689 230.469 55.7864 0.76995 0.00741257
1540200 60.2689 230.482 55.7864 0.77005 0.00238359
1540400 60.2689 230.495 55.7864 0.77015 0.00682548
1540600 60.2689 230.508 55.7864 0.77025 0.0149415
1540800 60.2689 230.521 55.7864 0.77035 0.00555025
1541000 60.2689 230.534 55.7864 0.77045 0.0161672
1541200 60.2689 230.547 55.7864 0.77055 0.0355133
1541400 60.2689 230.56 55.7864 0.77065 0.00919912
1541600 60.2689 230.573 55.7864 0.77075 0.00546977
1541800 60.2689 230.586 55.7864 0.77085 -0.00486586
1542000 60.2689 230.599 55.7864 0.77095 0.00437449
1542200 60.2689 230.613 55.7864 0.77105 0.0105579
1542400 60.2689 230.626 55.7864 0.77115 -0.00669327
1542600 60.2689 230.639 55.7864 0.77125 -0.00607187
1542800 60.2689 230.652 55.7864 0.77135 -0.000343582
1543000 60.2689 230.665 55.7864 0.77145 -0.00740154
1543200 60.2689 230.678 55.7864 0.77155 -0.0195044
1543400 60.2689 230.691 55.7864 0.77165 -0.0153293
1543600 60.2689 230.704 55.7864 0.77175 0.0115394
1543800 60.2689 230.717 55.7864 0.77185 -0.00101096
1544000 60.2689 230.73 55.7864 0.77195 0.0170064
1544200 60.2689 230.743 55.7864 0.77205 0.00780989
1544400 60.2689 230.756 55.7864 0.77215 0.00551059
1544600 60.2689 230.769 55.7864 0.77225 0.000651748
1544800 60.2689 230.782 55.7864 0.77235 -0.00360075
1545000 60.2689 230.795 55.7864 0.77245 0.0303985
1545200 60.2689 230.808 55.7864 0.77255 0.0365495
1545400 60.2689 230.821 55.7864 0.77265 -0.00911633
1545600 60.2689 230.834 55.7864 0.77275 0.023145
1545800 60.2689 230.847 55.7864 0.77285 -0.000740138
1546000 60.2689 230.86 55.7864 0.77295 -0.00856027
1546200 60.2689 230.873 55.7864 0.77305 0.0118398
1546400 60.2689 230.886 55.7864 0.77315 -1.08568e-07
1546600 60.2689 230.899 55.7864 0.77325 -0.0127505
1546800 60.2689 230.912 55.7864 0.77335 0.00936559
1547000 60.2689 230.925 55.7864 0.77345 -0.0192613
1547200 60.2689 230.938 55.7864 0.77355 -0.0169262
1547400 60.2689 230.951 55.7864 0.77365 -0.00911027
1547600 60.2689 230.964 55.7864 0.77375 -0.00144226
1547800 60.2689 230.977 55.7864 0.77385 0.00769832
1548000 60.2689 230.99 55.7864 0.77395 -0.00789876
1548200 60.2689 231.003 55.7864 0.77405 0.0221028
1548400 60.2689 231.016 55.7864 0.77415 0.00599304
1548600 60.2689 231.029 55.7864 0.77425 0.0115212
1548800 60.2689 231.042 55.7864 0.77435 0.0243387
1549000 60.2689 231.055 55.7864 0.77445 0.0222184
1549200 60.2689 231.068 55.7864 0.77455 0.0058986
1549400 60.2689 231.081 55.7864 0.77465 -0.00140411
1549600 60.2689 231.094 55.7864 0.77475 0.0269905
1549800 60.2689 231.107 55.7864 0.77485 0.00656908
1550000 60.2689 231.12 55.7864 0.77495 0.00117889
1550200 60.2689 231.133 55.7864 0.77505 -0.00129967
1550400 60.2689 231.146 55.7864 0.77515 -0.00700227
1550600 60.2689 231.159 55.7864 0.77525 -0.0121443
1550800 60.2689 231.172 55.7864 0.77535 0.00772838
1551000 60.2689 231.185 55.7864 0.77545 0.00321348
1551200 60.2689 231.198 55.7864 0.77555 -0.0200843
1551400 60.2689 231.211 55.7864 0.77565 -0.00273534
1551600 60.2689 231.225 55.7864 0.77575 -0.00927149
1551800 60.2689 231.238 55.7864 0.77585 -0.00459634
1552000 60.2689 231.251 55.7864 0.77595 -0.00876607
1552200 60.2689 231.264 55.7864 0.77605 0.0200357
1552400 60.2689 231.277 55.7864 0.77615 0.00563528
1552600 60.2689 231.29 55.7864 0.77625 0.0204119
1552800 60.2689 231.303 55.7864 0.77635 0.00525153
1553000 60.2689 231.316 55.7864 0.77645 0.0136166
1553200 60.2689 231.329 55.7864 0.77655 0.0108915
1553400 60.2689 231.342 55.7864 0.77665 0.00879515
1553600 60.2689 231.355 55.7864 0.77675 0.0117161
1553800 60.2689 231.368 55.7864 0.77685 0.0209619
1554000 60.2689 231.381 55.7864 0.77695 0.00221636
1554200 60.2689 231.394 55.7864 0.77705 0.0149223
1554400 60.2689 231.407 55.7864 0.77715 -0.0181601
1554600 60.2689 231.42 55.7864 0.77725 -0.0100379
1554800 60.2689 231.433 55.7864 0.77735 -0.00769618
1555000 60.2689 231.446 55.7864 0.77745 0.00205396
1555200 60.2689 231.459 55.7864 0.77755 -0.00251854
1555400 60.2689 231.472 55.7864 0.77765 0.00307766
1555600 60.2689 231.485 55.7864 0.77775 0.0107412
1555800 60.2689 231.498 55.7864 0.77785 -0.00291286
1556000 60.2689 231.511 55.7864 0.77795 -0.0141198
1556200 60.2689 231.524 55.7864 0.77805 -0.0127808
1556400 60.2689 231.537 55.7864 0.77815 0.0100577
1556600 60.2689 231.55 55.7864 0.77825 0.0165387
1556800 60.2689 231.563 55.7864 0.77835 0.00695986
1557000 60.2689 231.576 55.7864 0.77845 0.0336171
1557200 60.2689 231.589 55.7864 0.77855 0.00725773
1557400 60.2689 231.602 55.7864 0.77865 -0.00840305
1557600 60.2689 231.615 55.7864 0.77875 0.00747655
1557800 60.2689 231.628 55.7864 0.77885 0.0111594
1558000 60.2689 231.641 55.7864 0.77895 0.0150337
1558200 60.2689 231.654 55.7864 0.77905 0.0185385
1558400 60.2689 231.667 55.7864 0.77915 0.00258888
1558600 60.2689 231.68 55.7864 0.77925 -0.0101839
1558800 60.2689 231.693 55.7864 0.77935 -0.0151418
1559000 60.2689 231.706 55.7864 0.77945 -0.010963
1559200 60.2689 231.719 55.7864 0.77955 -0.00209219
1559400 60.2689 231.732 55.7864 0.77965 0.000380085
1559600 60.2689 231.745 55.7864 0.77975 0.0102798
1559800 60.2689 231.758 55.7864 0.77985 0.0056777
1560000 60.2689 231.771 55.7864 0.77995 -0.0146273
1560200 60.2689 231.784 55.7864 0.78005 -0.00580508
1560400 60.2689 231.797 55.7864 0.78015 0.00625344
1560600 60.2689 231.81 55.7864 0.78025 0.0112193
1560800 60.2689 231.823 55.7864 0.78035 0.00921717
1561000 60.2689 231.837 55.7864 0.78045 0.0235456
1561200 60.2689 231.85 55.7864 0.78055 0.0200775
1561400 60.2689 231.863 55.7864 0.78065 0.0053308
1561600 60.2689 231.876 55.7864 0.78075 -0.00352991
1561800 60.2689 231.889 55.7864 0.78085 -0.00119717
1562000 60.2689 231.902 55.7864 0.78095 0.0143703
1562200 60.2689 231.915 55.7864 0.78105 0.0193767
1562400 60.2689 231.928 55.7864 0.78115 0.0186758
1562600 60.2689 231.941 55.7864 0.78125 -0.0145534
1562800 60.2689 231.954 55.7864 0.78135 -0.0111389
1563000 60.2689 231.967 55.7864 0.78145 -0.0112595
1563200 60.2689 231.98 55.7864 0.78155 -0.0141819
1563400 60.2689 231.993 55.7864 0.78165 -0.00399804
1563600 60.2689 232.006 55.7864 0.78175 0.0117876
1563800 60.2689 232.019 55.7864 0.78185 0.00434865
1564000 60.2689 232.032 55.7864 0.78195 -0.00723946
1564200 60.2689 232.045 55.7864 0.78205 0.00698161
1564400 60.2689 232.058 55.7864 0.78215 -0.0126601
1564600 60.2689 232.071 55.7864 0.78225 0.0114265
1564800 60.2689 232.084 55.7864 0.78235 -0.00665734
1565000 60.2689 232.097 55.7864 0.78245 0.0471347
1565200 60.2689 232.11 55.7864 0.78255 0.0114706
1565400 60.2689 232.123 55.7864 0.78265 -0.00291593
1565600 60.2689 232.136 55.7864 0.78275 0.0147399
1565800 60.2689 232.149 55.7864 0.78285 0.00559802
1566000 60.2689 232.162 55.7864 0.78295 0.00295948
1566200 60.2689 232.175 55.7864 0.78305 0.0200889
1566400 60.2689 232.188 55.7864 0.78315 0.00720421
1566600 60.2689 232.201 55.7864 0.78325 0.00853612
1566800 60.2689 232.214 55.7864 0.78335 -0.00152643
1567000 60.2689 232.227 55.7864 0.78345 -0.0150392
1567200 60.2689 232.24 55.7864 0.78355 -0.00865744
1567400 60.2689 232.253 55.7864 0.78365 -0.00143567
1567600 60.2689 232.266 55.7864 0.78375 -0.00180059
1567800 60.2689 232.279 55.7864 0.78385 0.00179646
1568000 60.2689 232.292 55.7864 0.78395 -0.0217878
1568200 60.2689 232.305 55.7864 0.78405 0.00253546
1568400 60.2689 232.318 55.7864 0.78415 -0.00539574
1568600 60.2689 232.331 55.7864 0.78425 -4.43774e-05
1568800 60.2689 232.344 55.7864 0.78435 0.0116001
1569000 60.2689 232.357 55.7864 0.78445 0.00203754
1569200 60.2689 232.37 55.7864 0.78455 0.031212
1569400 60.2689 232.383 55.7864 0.78465 0.0225848
1569600 60.2689 232.396 55.7864 0.78475 0.00660272
1569800 60.2689 232.409 55.7864 0.78485 0.0151296
1570000 60.2689 232.422 55.7864 0.78495 0.0238231
1570200 60.2689 232.435 55.7864 0.78505 0.0138793
1570400 60.2689 232.449 55.7864 0.78515 0.0112727
1570600 60.2689 232.462 55.7864 0.78525 0.00197221
1570800 60.2689 232.475 55.7864 0.78535 -0.0156176
1571000 60.2689 232.488 55.7864 0.78545 -0.0151851
1571200 60.2689 232.501 55.7864 0.78555 0.00960876
1571400 60.2689 232.514 55.7864 0.78565 -0.0263187
1571600 60.2689 232.527 55.7864 0.78575 -0.0158889
1571800 60.2689 232.54 55.7864 0.78585 0.00389963
1572000 60.2689 232.553 55.7864 0.78595 -0.0123118
1572200 60.2689 232.566 55.7864 0.78605 -0.0149239
1572400 60.2689 232.579 55.7864 0.78615 0.025026
1572600 60.2689 232.592 55.7864 0.78625 0.00819653
1572800 60.2689 232.605 55.7864 0.78635 0.00630198
1573000 60.2689 232.618 55.7864 0.78645 0.0169497
1573200 60.2689 232.631 55.7864 0.78655 0.0134824
1573400 60.2689 232.644 55.7864 0.78665 0.0229542
1573600 60.2689 232.657 55.7864 0.78675 0.0174867
1573800 60.2689 232.67 55.7864 0.78685 0.0167493
1574000 60.2689 232.683 55.7864 0.78695 0.0260445
1574200 60.2689 232.696 55.7864 0.78705 -0.00261187
1574400 60.2689 232.709 55.7864 0.78715 0.00483918
1574600 60.2689 232.722 55.7864 0.78725 -0.0131711
1574800 60.2689 232.735 55.7864 0.78735 -0.0148878
1575000 60.2689 232.748 55.7864 0.78745 -0.0147355
1575200 60.2689 232.761 55.7864 0.78755 0.00830843
1575400 60.2689 232.774 55.7864 0.78765 -0.0133692
1575600 60.2689 232.787 55.7864 0.78775 -0.00492715
1575800 60.2689 232.8 55.7864 0.78785 -0.0139277
1576000 60.2689 232.813 55.7864 0.78795 -0.011106
1576200 60.2689 232.826 55.7864 0.78805 -0.00153486
1576400 60.2689 232.839 55.7864 0.78815 0.0104435
1576600 60.2689 232.852 55.7864 0.78825 0.0144353
1576800 60.2689 232.865 55.7864 0.78835 0.0251354
1577000 60.2689 232.878 55.7864 0.78845 0.0271035
1577200 60.2689 232.891 55.7864 0.78855 0.00351074
1577400 60.2689 232.904 55.7864 0.78865 0.0216679
1577600 60.2689 232.917 55.7864 0.78875 0.00406937
1577800 60.2689 232.93 55.7864 0.78885 0.0280251
1578000 60.2689 232.943 55.7864 0.78895 0.00502247
1578200 60.2689 232.956 55.7864 0.78905 -0.00568429
1578400 60.2689 232.969 55.7864 0.78915 0.0265018
1578600 60.2689 232.982 55.7864 0.78925 -0.00773639
1578800 60.2689 232.995 55.7864 0.78935 -0.0278969
1579000 60.2689 233.008 55.7864 0.78945 -0.000126504
1579200 60.2689 233.021 55.7864 0.78955 -0.0210752
1579400 60.2689 233.034 55.7864 0.78965 -0.0128142
1579600 60.2689 233.047 55.7864 0.78975 -0.00964518
1579800 60.2689 233.06 55.7864 0.78985 -0.00817402
1580000 60.2689 233.074 55.7864 0.78995 0.011029
1580200 60.2689 233.087 55.7864 0.79005 -0.00450189
1580400 60.2689 233.1 55.7864 0.79015 -0.00214827
1580600 60.2689 233.113 55.7864 0.79025 0.0255687
1580800 60.2689 233.126 55.7864 0.79035 0.0158376
1581000 60.2689 233.139 55.7864 0.79045 0.0286776
1581200 60.2689 233.152 55.7864 0.79055 0.0148994
1581400 60.2689 233.165 55.7864 0.79065 0.0109058
1581600 60.2689 233.178 55.7864 0.79075 0.01862
1581800 60.2689 233.191 55.7864 0.79085 0.0147471
1582000 60.2689 233.204 55.7864 0.79095 0.0100345
1582200 60.2689 233.217 55.7864 0.79105 0.024215
1582400 60.2689 233.23 55.7864 0.79115 -0.00137226
1582600 60.2689 233.243 55.7864 0.79125 -0.0194503
1582800 60.2689 233.256 55.7864 0.79135 -0.0189977
1583000 60.2689 233.269 55.7864 0.79145 -0.011352
1583200 60.2689 233.282 55.7864 0.79155 -0.0126842
1583400 60.2689 233.295 55.7864 0.79165 -0.0166666
1583600 60.2689 233.308 55.7864 0.79175 0.00117358
1583800 60.2689 233.321 55.7864 0.79185 0.00221767
1584000 60.2689 233.334 55.7864 0.79195 0.00260646
1584200 60.2689 233.347 55.7864 0.79205 -0.00714715
1584400 60.2689 233.36 55.7864 0.79215 -0.0100114
1584600 60.2689 233.373 55.7864 0.79225 0.017795
1584800 60.2689 233.386 55.7864 0.79235 0.0231163
1585000 60.2689 233.399 55.7864 0.79245 0.0252612
1585200 60.2689 233.412 55.7864 0.79255 0.0111319
1585400 60.2689 233.425 55.7864 0.79265 0.0407442
1585600 60.2689 233.438 55.7864 0.79275 0.00564287
1585800 60.2689 233.451 55.7864 0.79285 0.0151861
1586000 60.2689 233.464 55.7864 0.79295 0.00705408
1586200 60.2689 233.477 55.7864 0.79305 0.00278672
1586400 60.2689 233.49 55.7864 0.79315 0.0251527
1586600 60.2689 233.503 55.7864 0.79325 -0.0114302
1586800 60.2689 233.516 55.7864 0.79335 -0.0113107
1587000 60.2689 233.529 55.7864 0.79345 -0.0184013
1587200 60.2689 233.542 55.7864 0.79355 -0.00512228
1587400 60.2689 233.555 55.7864 0.79365 -0.0349453
1587600 60.2689 233.568 55.7864 0.79375 -0.00989188
1587800 60.2689 233.581 55.7864 0.79385 -0.0101742
1588000 60.2689 233.594 55.7864 0.79395 -0.0179088
1588200 60.2689 233.607 55.7864 0.79405 0.00667035
1588400 60.2689 233.62 55.7864 0.79415 0.0051471
1588600 60.2689 233.633 55.7864 0.79425 0.0201798
1588800 60.2689 233.646 55.7864 0.79435 0.0175503
1589000 60.2689 233.659 55.7864 0.79445 0.0196686
1589200 60.2689 233.672 55.7864 0.79455 0.0279688
1589400 60.2689 233.686 55.7864 0.79465 0.0410792
1589600 60.2689 233.699 55.7864 0.79475 0.0223804
1589800 60.2689 233.712 55.7864 0.79485 0.0244222
1590000 60.2689 233.725 55.7864 0.79495 0.0129033
1590200 60.2689 233.738 55.7864 0.79505 -0.00367323
1590400 60.2689 233.751 55.7864 0.79515 -0.00113777
1590600 60.2689 233.764 55.7864 0.79525 -0.00656377
1590800 60.2689 233.777 55.7864 0.79535 -0.00924751
1591000 60.2689 233.79 55.7864 0.79545 -0.0246277
1591200 60.2689 233.803 55.7864 0.79555 -0.0283262
1591400 60.2689 233.816 55.7864 0.79565 -0.0344575
1591600 60.2689 233.829 55.7864 0.79575 -0.00815822
1591800 60.2689 233.842 55.7864 0.79585 -0.0100271
1592000 60.2689 233.855 55.7864 0.79595 -0.00101826
1592200 60.2689 233.868 55.7864 0.79605 0.00336276
1592400 60.2689 233.881 55.7864 0.79615 0.0148216
1592600 60.2689 233.894 55.7864 0.79625 0.0248477
1592800 60.2689 233.907 55.7864 0.79635 0.0210206
1593000 60.2689 233.92 55.7864 0.79645 0.0343309
1593200 60.2689 233.933 55.7864 0.79655 0.0258738
1593400 60.2689 233.946 55.7864 0.79665 0.0262596
1593600 60.2689 233.959 55.7864 0.79675 0.0492778
1593800 60.2689 233.972 55.7864 0.79685 0.00387897
1594000 60.2689 233.985 55.7864 0.79695 0.0131746
1594200 60.2689 233.998 55.7864 0.79705 0.00125287
1594400 60.2689 234.011 55.7864 0.79715 -0.0178881
1594600 60.2689 234.024 55.7864 0.79725 -0.0196067
1594800 60.2689 234.037 55.7864 0.79735 -0.025673
1595000 60.2689 234.05 55.7864 0.79745 -0.0176502
1595200 60.2689 234.063 55.7864 0.79755 -0.0200081
1595400 60.2689 234.076 55.7864 0.79765 -0.017123
1595600 60.2689 234.089 55.7864 0.79775 -0.0129793
1595800 60.2689 234.102 55.7864 0.79785 -0.0198509
1596000 60.2689 234.115 55.7864 0.79795 -0.012028
1596200 60.2689 234.128 55.7864 0.79805 0.0255014
1596400 60.2689 234.141 55.7864 0.79815 0.0100618
1596600 60.2689 234.154 55.7864 0.79825 0.0258714
1596800 60.2689 234.167 55.7864 0.79835 0.0420777
1597000 60.2689 234.18 55.7864 0.79845 0.0323904
1597200 60.2689 234.193 55.7864 0.79855 0.0374904
1597400 60.2689 234.206 55.7864 0.79865 0.0157293
1597600 60.2689 234.219 55.7864 0.79875 0.0234606
1597800 60.2689 234.232 55.7864 0.79885 0.012081
1598000 60.2689 234.245 55.7864 0.79895 0.00986245
1598200 60.2689 234.258 55.7864 0.79905 -0.0165898
1598400 60.2689 234.271 55.7864 0.79915 0.00118412
1598600 60.2689 234.284 55.7864 0.79925 -0.0271643
1598800 60.2689 234.298 55.7864 0.79935 -0.0223099
1599000 60.2689 234.311 55.7864 0.79945 -0.031648
1599200 60.2689 234.324 55.7864 0.79955 -0.0239457
1599400 60.2689 234.337 55.7864 0.79965 -0.0192211
1599600 60.2689 234.35 55.7864 0.79975 -0.0140099
1599800 60.2689 234.363 55.7864 0.79985 0.00162971
1600000 60.2689 234.376 55.7864 0.79995 0.0175489
1600200 60.2689 234.389 55.7864 0.80005 0.0168289
1600400 60.2689 234.402 55.7864 0.80015 0.0124032
1600600 60.2689 234.415 55.7864 0.80025 0.0263891
1600800 60.2689 234.428 55.7864 0.80035 0.0419615
1601000 60.2689 234.441 55.7864 0.80045 0.0241541
1601200 60.2689 234.454 55.7864 0.80055 0.04395
1601400 60.2689 234.467 55.7864 0.80065 0.0200274
1601600 60.2689 234.48 55.7864 0.80075 0.0130321
1601800 60.2689 234.493 55.7864 0.80085 -0.00367611
1602000 60.2689 234.506 55.7864 0.80095 -0.00508392
1602200 60.2689 234.519 55.7864 0.80105 -0.0160507
1602400 60.2689 234.532 55.7864 0.80115 -0.0073439
1602600 60.2689 234.545 55.7864 0.80125 -0.00956502
1602800 60.2689 234.558 55.7864 0.80135 -0.0134996
1603000 60.2689 234.571 55.7864 0.80145 -0.0306671
1603200 60.2689 234.584 55.7864 0.80155 -0.0298868
1603400 60.2689 234.597 55.7864 0.80165 -0.0275272
1603600 60.2689 234.61 55.7864 0.80175 -0.00502514
1603800 60.2689 234.623 55.7864 0.80185 0.0225592
1604000 60.2689 234.636 55.7864 0.80195 0.0125772
1604200 60.2689 234.649 55.7864 0.80205 0.0163882
1604400 60.2689 234.662 55.7864 0.80215 0.0290465
1604600 60.2689 234.675 55.7864 0.80225 0.0121865
1604800 60.2689 234.688 55.7864 0.80235 0.0136835
1605000 60.2689 234.701 55.7864 0.80245 0.0348366
1605200 60.2689 234.714 55.7864 0.80255 0.0345715
1605400 60.2689 234.727 55.7864 0.80265 0.0236407
1605600 60.2689 234.74 55.7864 0.80275 0.0214956
1605800 60.2689 234.753 55.7864 0.80285 0.0103779
1606000 60.2689 234.766 55.7864 0.80295 -0.0134
1606200 60.2689 234.779 55.7864 0.80305 -0.0106289
1606400 60.2689 234.792 55.7864 0.80315 -0.0214834
1606600 60.2689 234.805 55.7864 0.80325 -0.00906802
1606800 60.2689 234.818 55.7864 0.80335 -0.0170147
1607000 60.2689 234.831 55.7864 0.80345 -0.00172847
1607200 60.2689 234.844 55.7864 0.80355 -0.0260987
1607400 60.2689 234.857 55.7864 0.80365 -0.0297057
1607600 60.2689 234.87 55.7864 0.80375 -0.0103533
1607800 60.2689 234.883 55.7864 0.80385 -0.00267607
1608000 60.2689 234.896 55.7864 0.80395 0.0117465
1608200 60.2689 234.91 55.7864 0.80405 0.0107247
1608400 60.2689 234.923 55.7864 0.80415 0.0307477
1608600 60.2689 234.936 55.7864 0.80425 0.0296797
1608800 60.2689 234.949 55.7864 0.80435 0.0171736
1609000 60.2689 234.962 55.7864 0.80445 0.0144587
1609200 60.2689 234.975 55.7864 0.80455 0.0349828
1609400 60.2689 234.988 55.7864 0.80465 0.0280037
1609600 60.2689 235.001 55.7864 0.80475 0.0214876
1609800 60.2689 235.014 55.7864 0.80485 0.0118882
1610000 60.2689 235.027 55.7864 0.80495 -0.00123541
1610200 60.2689 235.04 55.7864 0.80505 -0.0116048
1610400 60.2689 235.053 55.7864 0.80515 -0.00783496
1610600 60.2689 235.066 55.7864 0.80525 -0.015743
1610800 60.2689 235.079 55.7864 0.80535 -0.0269241
1611000 60.2689 235.092 55.7864 0.80545 -0.0152759
1611200 60.2689 235.105 55.7864 0.80555 -0.0137867
1611400 60.2689 235.118 55.7864 0.80565 -0.00923668
1611600 60.2689 235.131 55.7864 0.80575 -0.00963733
1611800 60.2689 235.144 55.7864 0.80585 -0.0341361
1612000 60.2689 235.157 55.7864 0.80595 0.00198603
1612200 60.2689 235.17 55.7864 0.80605 0.029959
1612400 60.2689 235.183 55.7864 0.80615 0.0256653
1612600 60.2689 235.196 55.7864 0.80625 0.020093
1612800 60.2689 235.209 55.7864 0.80635 0.0327325
1613000 60.2689 235.222 55.7864 0.80645 0.0148724
1613200 60.2689 235.235 55.7864 0.80655 0.0287773
1613400 60.2689 235.248 55.7864 0.80665 0.0269937
1613600 60.2689 235.261 55.7864 0.80675 0.0213703
1613800 60.2689 235.274 55.7864 0.80685 0.0161111
1614000 60.2689 235.287 55.7864 0.80695 0.00611786
1614200 60.2689 235.3 55.7864 0.80705 0.00430052
1614400 60.2689 235.313 55.7864 0.80715 -0.00918319
1614600 60.2689 235.326 55.7864 0.80725 -0.0356514
1614800 60.2689 235.339 55.7864 0.80735 -0.0422795
1615000 60.2689 235.352 55.7864 0.80745 -0.0134971
1615200 60.2689 235.365 55.7864 0.80755 -0.00124454
1615400 60.2689 235.378 55.7864 0.80765 -0.0156434
1615600 60.2689 235.391 55.7864 0.80775 -0.0173304
1615800 60.2689 235.404 55.7864 0.80785 0.0129036
1616000 60.2689 235.417 55.7864 0.80795 -0.0183747
1616200 60.2689 235.43 55.7864 0.80805 0.0194011
1616400 60.2689 235.443 55.7864 0.80815 0.0158967
1616600 60.2689 235.456 55.7864 0.80825 0.0256679
1616800 60.2689 235.469 55.7864 0.80835 0.0460578
1617000 60.2689 235.482 55.7864 0.80845 0.0369763
1617200 60.2689 235.495 55.7864 0.80855 0.0138712
1617400 60.2689 235.508 55.7864 0.80865 0.0147755
1617600 60.2689 235.522 55.7864 0.80875 0.00877628
1617800 60.2689 235.535 55.7864 0.80885 -0.00588122
1618000 60.2689 235.548 55.7864 0.80895 0.00745742
1618200 60.2689 235.561 55.7864 0.80905 0.00680977
1618400 60.2689 235.574 55.7864 0.80915 0.00146728
1618600 60.2689 235.587 55.7864 0.80925 -0.0298641
1618800 60.2689 235.6 55.7864 0.80935 -0.0104629
1619000 60.2689 235.613 55.7864 0.80945 -0.0327537
1619200 60.2689 235.626 55.7864 0.80955 -0.0192848
1619400 60.2689 235.639 55.7864 0.80965 -0.0210002
1619600 60.2689 235.652 55.7864 0.80975 0.0196607
1619800 60.2689 235.665 55.7864 0.80985 0.00406522
1620000 60.2689 235.678 55.7864 0.80995 0.00672643
1620200 60.2689 235.691 55.7864 0.81005 0.00769538
1620400 60.2689 235.704 55.7864 0.81015 0.00556257
1620600 60.2689 235.717 55.7864 0.81025 0.0175906
1620800 60.2689 235.73 55.7864 0.81035 0.0181627
1621000 60.2689 235.743 55.7864 0.81045 0.0366773
1621200 60.2689 235.756 55.7864 0.81055 0.0382471
1621400 60.2689 235.769 55.7864 0.81065 0.0180104
1621600 60.2689 235.782 55.7864 0.81075 -0.00250422
1621800 60.2689 235.795 55.7864 0.81085 0.000469994
1622000 60.2689 235.808 55.7864 0.81095 -0.0128371
1622200 60.2689 235.821 55.7864 0.81105 0.00279652
1622400 60.2689 235.834 55.7864 0.81115 0.000416799
1622600 60.2689 235.847 55.7864 0.81125 -0.00352633
1622800 60.2689 235.86 55.7864 0.81135 -0.0157246
1623000 60.2689 235.873 55.7864 0.81145 -0.0221181
1623200 60.2689 235.886 55.7864 0.81155 -0.0247739
1623400 60.2689 235.899 55.7864 0.81165 -0.00487061
1623600 60.2689 235.912 55.7864 0.81175 0.00308134
1623800 60.2689 235.925 55.7864 0.81185 -0.00146487
1624000 60.2689 235.938 55.7864 0.81195 0.0175
1624200 60.2689 235.951 55.7864 0.81205 0.0159382
1624400 60.2689 235.964 55.7864 0.81215 0.0094512
1624600 60.2689 235.977 55.7864 0.81225 0.0132523
1624800 60.2689 235.99 55.7864 0.81235 0.0164493
1625000 60.2689 236.003 55.7864 0.81245 0.0158038
1625200 60.2689 236.016 55.7864 0.81255 0.0353974
1625400 60.2689 236.029 55.7864 0.81265 0.0148105
1625600 60.2689 236.042 55.7864 0.81275 0.0261206
1625800 60.2689 236.055 55.7864 0.81285 0.00824231
1626000 60.2689 236.068 55.7864 0.81295 -0.0111485
1626200 60.2689 236.081 55.7864 0.81305 -0.0088985
1626400 60.2689 236.094 55.7864 0.81315 -0.0146084
1626600 60.2689 236.107 55.7864 0.81325 -0.0168566
1626800 60.2689 236.12 55.7864 0.81335 -0.00200286
1627000 60.2689 236.134 55.7864 0.81345 -0.00115429
1627200 60.2689 236.147 55.7864 0.81355 -0.0222998
1627400 60.2689 236.16 55.7864 0.81365 -0.0331325
1627600 60.2689 236.173 55.7864 0.81375 -0.0133735
1627800 60.2689 236.186 55.7864 0.81385 0.00276902
1628000 60.2689 236.199 55.7864 0.81395 0.0115613
1628200 60.2689 236.212 55.7864 0.81405 0.0164493
1628400 60.2689 236.225 55.7864 0.81415 0.0346943
1628600 60.2689 236.238 55.7864 0.81425 0.0222873
1628800 60.2689 236.251 55.7864 0.81435 0.0104961
1629000 60.2689 236.264 55.7864 0.81445 0.020174
1629200 60.2689 236.277 55.7864 0.81455 0.0152408
1629400 60.2689 236.29 55.7864 0.81465 0.027314
1629600 60.2689 236.303 55.7864 0.81475 0.0302869
1629800 60.2689 236.316 55.7864 0.81485 0.0167307
1630000 60.2689 236.329 55.7864 0.81495 -0.01161
1630200 60.2689 236.342 55.7864 0.81505 0.00130307
1630400 60.2689 236.355 55.7864 0.81515 -0.0278512
1630600 60.2689 236.368 55.7864 0.81525 -0.0323313
1630800 60.2689 236.381 55.7864 0.81535 -0.0167564
1631000 60.2689 236.394 55.7864 0.81545 -0.00896063
1631200 60.2689 236.407 55.7864 0.81555 -0.00425963
1631400 60.2689 236.42 55.7864 0.81565 -0.0127539
1631600 60.2689 236.433 55.7864 0.81575 -0.00930077
1631800 60.2689 236.446 55.7864 0.81585 0.00147542
1632000 60.2689 236.459 55.7864 0.81595 0.00690778
1632200 60.2689 236.472 55.7864 0.81605 0.00545779
1632400 60.2689 236.485 55.7864 0.81615 0.0273164
1632600 60.2689 236.498 55.7864 0.81625 0.0429942
1632800 60.2689 236.511 55.7864 0.81635 0.0326859
1633000 60.2689 236.524 55.7864 0.81645 0.00847138
1633200 60.2689 236.537 55.7864 0.81655 0.0213427
1633400 60.2689 236.55 55.7864 0.81665 0.0112646
1633600 60.2689 236.563 55.7864 0.81675 0.00519743
1633800 60.2689 236.576 55.7864 0.81685 0.00666993
1634000 60.2689 236.589 55.7864 0.81695 0.0059215
1634200 60.2689 236.602 55.7864 0.81705 -0.00690452
1634400 60.2689 236.615 55.7864 0.81715 -0.0266438
1634600 60.2689 236.628 55.7864 0.81725 -0.0137969
1634800 60.2689 236.641 55.7864 0.81735 -0.0348653
1635000 60.2689 236.654 55.7864 0.81745 -0.0114346
1635200 60.2689 236.667 55.7864 0.81755 -0.0106492
1635400 60.2689 236.68 55.7864 0.81765 -0.00559196
1635600 60.2689 236.693 55.7864 0.81775 0.00776214
1635800 60.2689 236.706 55.7864 0.81785 0.00772089
1636000 60.2689 236.719 55.7864 0.81795 0.000181765
1636200 60.2689 236.732 55.7864 0.81805 0.0135067
1636400 60.2689 236.746 55.7864 0.81815 0.0270695
1636600 60.2689 236.759 55.7864 0.81825 0.0222878
1636800 60.2689 236.772 55.7864 0.81835 0.0356045
1637000 60.2689 236.785 55.7864 0.81845 0.0303953
1637200 60.2689 236.798 55.7864 0.81855 0.0211601
1637400 60.2689 236.811 55.7864 0.81865 -0.00659582
1637600 60.2689 236.824 55.7864 0.81875 0.002493
1637800 60.2689 236.837 55.7864 0.81885 -0.0110214
1638000 60.2689 236.85 55.7864 0.81895 0.00608566
1638200 60.2689 236.863 55.7864 0.81905 -0.011656
1638400 60.2689 236.876 55.7864 0.81915 -0.0156136
1638600 60.2689 236.889 55.7864 0.81925 -0.0113085
1638800 60.2689 236.902 55.7864 0.81935 -0.022398
1639000 60.2689 236.915 55.7864 0.81945 -0.0037842
1639200 60.2689 236.928 55.7864 0.81955 -0.0180937
1639400 60.2689 236.941 55.7864 0.81965 0.00531873
1639600 60.2689 236.954 55.7864 0.81975 0.00958574
1639800 60.2689 236.967 55.7864 0.81985 0.000545453
1640000 60.2689 236.98 55.7864 0.81995 0.0136258
1640200 60.2689 236.993 55.7864 0.82005 0.00645561
1640400 60.2689 237.006 55.7864 0.82015 0.0389635
1640600 60.2689 237.019 55.7864 0.82025 0.0155498
1640800 60.2689 237.032 55.7864 0.82035 0.0191805
1641000 60.2689 237.045 55.7864 0.82045 0.0270716
1641200 60.2689 237.058 55.7864 0.82055 0.017736
1641400 60.2689 237.071 55.7864 0.82065 0.0042968
1641600 60.2689 237.084 55.7864 0.82075 -0.0121433
1641800 60.2689 237.097 55.7864 0.82085 0.00330347
1642000 60.2689 237.11 55.7864 0.82095 -0.0070242
1642200 60.2689 237.123 55.7864 0.82105 -0.00428809
1642400 60.2689 237.136 55.7864 0.82115 -0.02265
1642600 60.2689 237.149 55.7864 0.82125 -0.0173249
1642800 60.2689 237.162 55.7864 0.82135 -0.0187988
1643000 60.2689 237.175 55.7864 0.82145 -0.0122646
1643200 60.2689 237.188 55.7864 0.82155 -0.00509081
1643400 60.2689 237.201 55.7864 0.82165 0.0168763
1643600 60.2689 237.214 55.7864 0.82175 -0.000116467
1643800 60.2689 237.227 55.7864 0.82185 0.0103087
1644000 60.2689 237.24 55.7864 0.82195 0.0189975
1644200 60.2689 237.253 55.7864 0.82205 0.0254335
1644400 60.2689 237.266 55.7864 0.82215 0.0261442
1644600 60.2689 237.279 55.7864 0.82225 0.0156537
1644800 60.2689 237.292 55.7864 0.82235 0.0244339
1645000 60.2689 237.305 55.7864 0.82245 0.015338
1645200 60.2689 237.318 55.7864 0.82255 0.00462599
1645400 60.2689 237.331 55.7864 0.82265 0.00522527
1645600 60.2689 237.344 55.7864 0.82275 -0.00455283
1645800 60.2689 237.358 55.7864 0.82285 -0.0114133
1646000 60.2689 237.371 55.7864 0.82295 -0.0157082
1646200 60.2689 237.384 55.7864 0.82305 -0.00853339
1646400 60.2689 237.397 55.7864 0.82315 -0.0130685
1646600 60.2689 237.41 55.7864 0.82325 -0.0142112
1646800 60.2689 237.423 55.7864 0.82335 -0.0126301
1647000 60.2689 237.436 55.7864 0.82345 0.00497887
1647200 60.2689 237.449 55.7864 0.82355 -0.0106032
1647400 60.2689 237.462 55.7864 0.82365 -0.0131616
1647600 60.2689 237.475 55.7864 0.82375 0.0215816
1647800 60.2689 237.488 55.7864 0.82385 -0.00117574
1648000 60.2689 237.501 55.7864 0.82395 0.0190487
1648200 60.2689 237.514 55.7864 0.82405 0.0322701
1648400 60.2689 237.527 55.7864 0.82415 0.0195844
1648600 60.2689 237.54 55.7864 0.82425 0.0133213
1648800 60.2689 237.553 55.7864 0.82435 0.0199774
1649000 60.2689 237.566 55.7864 0.82445 0.026057
1649200 60.2689 237.579 55.7864 0.82455 0.000866455
1649400 60.2689 237.592 55.7864 0.82465 0.0117101
1649600 60.2689 237.605 55.7864 0.82475 -0.000792967
1649800 60.2689 237.618 55.7864 0.82485 -0.00535584
1650000 60.2689 237.631 55.7864 0.82495 -0.0257826
1650200 60.2689 237.644 55.7864 0.82505 -0.00483331
1650400 60.2689 237.657 55.7864 0.82515 -0.00236073
1650600 60.2689 237.67 55.7864 0.82525 -0.0156958
1650800 60.2689 237.683 55.7864 0.82535 -0.0117816
1651000 60.2689 237.696 55.7864 0.82545 -0.001865
1651200 60.2689 237.709 55.7864 0.82555 -0.0154615
1651400 60.2689 237.722 55.7864 0.82565 0.00208476
1651600 60.2689 237.735 55.7864 0.82575 0.00226694
1651800 60.2689 237.748 55.7864 0.82585 0.0156364
1652000 60.2689 237.761 55.7864 0.82595 0.027569
1652200 60.2689 237.774 55.7864 0.82605 0.0136874
1652400 60.2689 237.787 55.7864 0.82615 0.0232701
1652600 60.2689 237.8 55.7864 0.82625 0.00638393
1652800 60.2689 237.813 55.7864 0.82635 0.011977
1653000 60.2689 237.826 55.7864 0.82645 0.028954
1653200 60.2689 237.839 55.7864 0.82655 0.0076107
1653400 60.2689 237.852 55.7864 0.82665 -0.00647499
1653600 60.2689 237.865 55.7864 0.82675 -0.0107467
1653800 60.2689 237.878 55.7864 0.82685 0.012363
1654000 60.2689 237.891 55.7864 0.82695 -0.0118922
1654200 60.2689 237.904 55.7864 0.82705 -0.0110483
1654400 60.2689 237.917 55.7864 0.82715 -0.0169266
1654600 60.2689 237.93 55.7864 0.82725 -0.015844
1654800 60.2689 237.943 55.7864 0.82735 -0.00337072
1655000 60.2689 237.956 55.7864 0.82745 -0.00899271
1655200 60.2689 237.97 55.7864 0.82755 -0.00441877
1655400 60.2689 237.983 55.7864 0.82765 0.0130748
1655600 60.2689 237.996 55.7864 0.82775 0.00274224
1655800 60.2689 238.009 55.7864 0.82785 0.0176554
1656000 60.2689 238.022 55.7864 0.82795 0.0228774
1656200 60.2689 238.035 55.7864 0.82805 0.00240695
1656400 60.2689 238.048 55.7864 0.82815 0.0154857
1656600 60.2689 238.061 55.7864 0.82825 0.0300835
1656800 60.2689 238.074 55.7864 0.82835 0.0217017
1657000 60.2689 238.087 55.7864 0.82845 0.00991525
1657200 60.2689 238.1 55.7864 0.82855 0.0191423
1657400 60.2689 238.113 55.7864 0.82865 -0.00353109
1657600 60.2689 238.126 55.7864 0.82875 0.00463371
1657800 60.2689 238.139 55.7864 0.82885 -0.019388
1658000 60.2689 238.152 55.7864 0.82895 -0.0103311
1658200 60.2689 238.165 55.7864 0.82905 -0.0091468
1658400 60.2689 238.178 55.7864 0.82915 -0.0178667
1658600 60.2689 238.191 55.7864 0.82925 -0.0156339
1658800 60.2689 238.204 55.7864 0.82935 -0.00646909
1659000 60.2689 238.217 55.7864 0.82945 -0.00871636
1659200 60.2689 238.23 55.7864 0.82955 -0.0108367
1659400 60.2689 238.243 55.7864 0.82965 0.0126417
1659600 60.2689 238.256 55.7864 0.82975 0.0113188
1659800 60.2689 238.269 55.7864 0.82985 0.0100272
1660000 60.2689 238.282 55.7864 0.82995 0.0230661
1660200 60.2689 238.295 55.7864 0.83005 0.0134051
1660400 60.2689 238.308 55.7864 0.83015 0.0252984
1660600 60.2689 238.321 55.7864 0.83025 0.0255706
1660800 60.2689 238.334 55.7864 0.83035 0.00132782
1661000 60.2689 238.347 55.7864 0.83045 0.0229679
1661200 60.2689 238.36 55.7864 0.83055 0.0146129
1661400 60.2689 238.373 55.7864 0.83065 -0.00348897
1661600 60.2689 238.386 55.7864 0.83075 0.00281005
1661800 60.2689 238.399 55.7864 0.83085 -0.0290855
1662000 60.2689 238.412 55.7864 0.83095 -0.0134418
1662200 60.2689 238.425 55.7864 0.83105 -0.0113485
1662400 60.2689 238.438 55.7864 0.83115 -0.0131701
1662600 60.2689 238.451 55.7864 0.83125 -0.00725212
1662800 60.2689 238.464 55.7864 0.83135 -0.00546057
1663000 60.2689 238.477 55.7864 0.83145 -0.0113317
1663200 60.2689 238.49 55.7864 0.83155 -0.00308934
1663400 60.2689 238.503 55.7864 0.83165 0.00587081
1663600 60.2689 238.516 55.7864 0.83175 0.0219486
1663800 60.2689 238.529 55.7864 0.83185 0.0228309
1664000 60.2689 238.542 55.7864 0.83195 0.0233217
1664200 60.2689 238.555 55.7864 0.83205 0.0115411
1664400 60.2689 238.568 55.7864 0.83215 0.036567
1664600 60.2689 238.582 55.7864 0.83225 0.00340133
1664800 60.2689 238.595 55.7864 0.83235 0.0157588
1665000 60.2689 238.608 55.7864 0.83245 -0.00321827
1665200 60.2689 238.621 55.7864 0.83255 0.00685841
1665400 60.2689 238.634 55.7864 0.83265 0.00941439
1665600 60.2689 238.647 55.7864 0.83275 0.00790983
1665800 60.2689 238.66 55.7864 0.83285 -0.0169937
1666000 60.2689 238.673 55.7864 0.83295 -0.0416706
1666200 60.2689 238.686 55.7864 0.83305 -0.012894
1666400 60.2689 238.699 55.7864 0.83315 -0.00643431
1666600 60.2689 238.712 55.7864 0.83325 -0.0205586
1666800 60.2689 238.725 55.7864 0.83335 0.00988134
1667000 60.2689 238.738 55.7864 0.83345 -0.00807676
1667200 60.2689 238.751 55.7864 0.83355 0.0126518
1667400 60.2689 238.764 55.7864 0.83365 0.00426563
1667600 60.2689 238.777 55.7864 0.83375 0.000822021
1667800 60.2689 238.79 55.7864 0.83385 0.023729
1668000 60.2689 238.803 55.7864 0.83395 0.0290846
1668200 60.2689 238.816 55.7864 0.83405 0.018877
1668400 60.2689 238.829 55.7864 0.83415 0.0196268
1668600 60.2689 238.842 55.7864 0.83425 0.00846726
1668800 60.2689 238.855 55.7864 0.83435 0.00222696
1669000 60.2689 238.868 55.7864 0.83445 0.00919195
1669200 60.2689 238.881 55.7864 0.83455 -0.00161092
1669400 60.2689 238.894 55.7864 0.83465 -0.00218982
1669600 60.2689 238.907 55.7864 0.83475 0.00524448
1669800 60.2689 238.92 55.7864 0.83485 -0.00132146
1670000 60.2689 238.933 55.7864 0.83495 -0.0124464
1670200 60.2689 238.946 55.7864 0.83505 -0.0231318
1670400 60.2689 238.959 55.7864 0.83515 -0.018113
1670600 60.2689 238.972 55.7864 0.83525 -0.00241271
1670800 60.2689 238.985 55.7864 0.83535 0.00510078
1671000 60.2689 238.998 55.7864 0.83545 0.00772551
1671200 60.2689 239.011 55.7864 0.83555 -0.000312879
1671400 60.2689 239.024 55.7864 0.83565 0.0150934
1671600 60.2689 239.037 55.7864 0.83575 -0.00534659
1671800 60.2689 239.05 55.7864 0.83585 0.0152665
1672000 60.2689 239.063 55.7864 0.83595 0.0187266
1672200 60.2689 239.076 55.7864 0.83605 0.00773583
1672400 60.2689 239.089 55.7864 0.83615 0.0394378
1672600 60.2689 239.102 55.7864 0.83625 0.0122436
1672800 60.2689 239.115 55.7864 0.83635 0.00842424
1673000 60.2689 239.128 55.7864 0.83645 -0.00379146
1673200 60.2689 239.141 55.7864 0.83655 0.00096403
1673400 60.2689 239.154 55.7864 0.83665 -0.0126013
1673600 60.2689 239.167 55.7864 0.83675 -0.0100831
1673800 60.2689 239.18 55.7864 0.83685 0.000314408
1674000 60.2689 239.193 55.7864 0.83695 0.00114064
1674200 60.2689 239.207 55.7864 0.83705 -0.014385
1674400 60.2689 239.22 55.7864 0.83715 -0.0134761
1674600 60.2689 239.233 55.7864 0.83725 -0.0129844
1674800 60.2689 239.246 55.7864 0.83735 -0.0194424
1675000 60.2689 239.259 55.7864 0.83745 0.0124717
1675200 60.2689 239.272 55.7864 0.83755 0.0363497
1675400 60.2689 239.285 55.7864 0.83765 0.0208753
1675600 60.2689 239.298 55.7864 0.83775 0.00573523
1675800 60.2689 239.311 55.7864 0.83785 0.0188065
1676000 60.2689 239.324 55.7864 0.83795 -0.00808914
1676200 60.2689 239.337 55.7864 0.83805 0.00954684
1676400 60.2689 239.35 55.7864 0.83815 0.0201849
1676600 60.2689 239.363 55.7864 0.83825 0.0192213
1676800 60.2689 239.376 55.7864 0.83835 -0.00124786
1677000 60.2689 239.389 55.7864 0.83845 0.0108419
1677200 60.2689 239.402 55.7864 0.83855 -0.0127401
1677400 60.2689 239.415 55.7864 0.83865 -0.0212915
1677600 60.2689 239.428 55.7864 0.83875 -0.00718947
1677800 60.2689 239.441 55.7864 0.83885 -0.00227994
1678000 60.2689 239.454 55.7864 0.83895 -0.00565118
1678200 60.2689 239.467 55.7864 0.83905 -0.00124287
1678400 60.2689 239.48 55.7864 0.83915 0.00981143
1678600 60.2689 239.493 55.7864 0.83925 -0.00827047
1678800 60.2689 239.506 55.7864 0.83935 -0.0117178
1679000 60.2689 239.519 55.7864 0.83945 -0.000182981
1679200 60.2689 239.532 55.7864 0.83955 0.012006
1679400 60.2689 239.545 55.7864 0.83965 0.0131943
1679600 60.2689 239.558 55.7864 0.83975 0.0301081
1679800 60.2689 239.571 55.7864 0.83985 0.0208302
1680000 60.2689 239.584 55.7864 0.83995 0.0153224
1680200 60.2689 239.597 55.7864 0.84005 0.00817838
1680400 60.2689 239.61 55.7864 0.84015 -0.00697934
1680600 60.2689 239.623 55.7864 0.84025 0.0145771
1680800 60.2689 239.636 55.7864 0.84035 0.00596114
1681000 60.2689 239.649 55.7864 0.84045 0.0219761
1681200 60.2689 239.662 55.7864 0.84055 -0.0024028
1681400 60.2689 239.675 55.7864 0.84065 -0.0176534
1681600 60.2689 239.688 55.7864 0.84075 -0.0304628
1681800 60.2689 239.701 55.7864 0.84085 -0.0204622
1682000 60.2689 239.714 55.7864 0.84095 -0.0176435
1682200 60.2689 239.727 55.7864 0.84105 0.00897919
1682400 60.2689 239.74 55.7864 0.84115 0.00349694
1682600 60.2689 239.753 55.7864 0.84125 0.00325844
1682800 60.2689 239.766 55.7864 0.84135 0.0132365
1683000 60.2689 239.779 55.7864 0.84145 -0.0286767
1683200 60.2689 239.792 55.7864 0.84155 0.00548503
1683400 60.2689 239.805 55.7864 0.84165 0.0289795
1683600 60.2689 239.819 55.7864 0.84175 0.0371171
1683800 60.2689 239.832 55.7864 0.84185 0.0119563
1684000 60.2689 239.845 55.7864 0.84195 0.0268218
1684200 60.2689 239.858 55.7864 0.84205 0.00779894
1684400 60.2689 239.871 55.7864 0.84215 0.023967
1684600 60.2689 239.884 55.7864 0.84225 -0.0115816
1684800 60.2689 239.897 55.7864 0.84235 0.000155089
1685000 60.2689 239.91 55.7864 0.84245 0.00472331
1685200 60.2689 239.923 55.7864 0.84255 0.00314983
1685400 60.2689 239.936 55.7864 0.84265 -0.0201678
1685600 60.2689 239.949 55.7864 0.84275 -0.0224306
1685800 60.2689 239.962 55.7864 0.84285 -0.0132235
1686000 60.2689 239.975 55.7864 0.84295 -0.0139367
1686200 60.2689 239.988 55.7864 0.84305 0.00659132
1686400 60.2689 240.001 55.7864 0.84315 -0.00963541
1686600 60.2689 240.014 55.7864 0.84325 0.00703692
1686800 60.2689 240.027 55.7864 0.84335 -0.000401782
1687000 60.2689 240.04 55.7864 0.84345 0.00691059
1687200 60.2689 240.053 55.7864 0.84355 0.00947326
1687400 60.2689 240.066 55.7864 0.84365 0.0193005
1687600 60.2689 240.079 55.7864 0.84375 0.0319349
1687800 60.2689 240.092 55.7864 0.84385 0.0072058
1688000 60.2689 240.105 55.7864 0.84395 0.025888
1688200 60.2689 240.118 55.7864 0.84405 -0.00336804
1688400 60.2689 240.131 55.7864 0.84415 0.0140529
1688600 60.2689 240.144 55.7864 0.84425 -0.00130344
1688800 60.2689 240.157 55.7864 0.84435 0.00178539
1689000 60.2689 240.17 55.7864 0.84445 -0.00241857
1689200 60.2689 240.183 55.7864 0.84455 -0.00988736
1689400 60.2689 240.196 55.7864 0.84465 -0.0107428
1689600 60.2689 240.209 55.7864 0.84475 -0.0103639
1689800 60.2689 240.222 55.7864 0.84485 -0.0115584
1690000 60.2689 240.235 55.7864 0.84495 -0.00715397
1690200 60.2689 240.248 55.7864 0.84505 -0.000720459
1690400 60.2689 240.261 55.7864 0.84515 0.01081
1690600 60.2689 240.274 55.7864 0.84525 -0.00236966
1690800 60.2689 240.287 55.7864 0.84535 0.0171457
1691000 60.2689 240.3 55.7864 0.84545 0.00323278
1691200 60.2689 240.313 55.7864 0.84555 -0.00159858
1691400 60.2689 240.326 55.7864 0.84565 0.0309583
1691600 60.2689 240.339 55.7864 0.84575 0.00820237
1691800 60.2689 240.352 55.7864 0.84585 0.020494
1692000 60.2689 240.365 55.7864 0.84595 0.00712765
1692200 60.2689 240.378 55.7864 0.84605 0.00220632
1692400 60.2689 240.391 55.7864 0.84615 -0.0039041
1692600 60.2689 240.404 55.7864 0.84625 0.0066971
1692800 60.2689 240.417 55.7864 0.84635 -0.00479351
1693000 60.2689 240.431 55.7864 0.84645 0.00338833
1693200 60.2689 240.444 55.7864 0.84655 0.0103318
1693400 60.2689 240.457 55.7864 0.84665 -0.00963887
1693600 60.2689 240.47 55.7864 0.84675 -0.00768104
1693800 60.2689 240.483 55.7864 0.84685 -0.0062053
1694000 60.2689 240.496 55.7864 0.84695 -0.0119065
1694200 60.2689 240.509 55.7864 0.84705 -0.00604748
1694400 60.2689 240.522 55.7864 0.84715 0.019681
1694600 60.2689 240.535 55.7864 0.84725 0.00224753
1694800 60.2689 240.548 55.7864 0.84735 -0.00819498
1695000 60.2689 240.561 55.7864 0.84745 0.00142785
1695200 60.2689 240.574 55.7864 0.84755 -0.00342975
1695400 60.2689 240.587 55.7864 0.84765 0.0155166
1695600 60.2689 240.6 55.7864 0.84775 0.0307665
1695800 60.2689 240.613 55.7864 0.84785 0.0143718
1696000 60.2689 240.626 55.7864 0.84795 0.0139448
1696200 60.2689 240.639 55.7864 0.84805 -0.00613188
1696400 60.2689 240.652 55.7864 0.84815 0.0108454
1696600 60.2689 240.665 55.7864 0.84825 0.00293762
1696800 60.2689 240.678 55.7864 0.84835 0.00828677
1697000 60.2689 240.691 55.7864 0.84845 -0.010008
1697200 60.2689 240.704 55.7864 0.84855 0.0112524
1697400 60.2689 240.717 55.7864 0.84865 -0.00514835
1697600 60.2689 240.73 55.7864 0.84875 -0.00732498
1697800 60.2689 240.743 55.7864 0.84885 -0.00634559
1698000 60.2689 240.756 55.7864 0.84895 -0.0210588
1698200 60.2689 240.769 55.7864 0.84905 0.0120785
1698400 60.2689 240.782 55.7864 0.84915 -0.00891733
1698600 60.2689 240.795 55.7864 0.84925 0.00489259
1698800 60.2689 240.808 55.7864 0.84935 0.00411655
1699000 60.2689 240.821 55.7864 0.84945 0.000672862
1699200 60.2689 240.834 55.7864 0.84955 0.00489883
1699400 60.2689 240.847 55.7864 0.84965 0.0134063
1699600 60.2689 240.86 55.7864 0.84975 0.0052485
1699800 60.2689 240.873 55.7864 0.84985 0.00757837
1700000 60.2689 240.886 55.7864 0.84995 0.0279264
1700200 60.2689 240.899 55.7864 0.85005 0.0199836
1700400 60.2689 240.912 55.7864 0.85015 0.0030642
1700600 60.2689 240.925 55.7864 0.85025 -0.0174128
1700800 60.2689 240.938 55.7864 0.85035 0.0104775
1701000 60.2689 240.951 55.7864 0.85045 0.00703455
1701200 60.2689 240.964 55.7864 0.85055 -0.00935399
1701400 60.2689 240.977 55.7864 0.85065 -0.000594562
1701600 60.2689 240.99 55.7864 0.85075 0.000107252
1701800 60.2689 241.003 55.7864 0.85085 -0.0167019
1702000 60.2689 241.016 55.7864 0.85095 -0.00638023
1702200 60.2689 241.029 55.7864 0.85105 -0.00279701
1702400 60.2689 241.043 55.7864 0.85115 0.00195317
1702600 60.2689 241.056 55.7864 0.85125 0.0026809
1702800 60.2689 241.069 55.7864 0.85135 0.016935
1703000 60.2689 241.082 55.7864 0.85145 0.011339
1703200 60.2689 241.095 55.7864 0.85155 0.00250159
1703400 60.2689 241.108 55.7864 0.85165 0.0237549
1703600 60.2689 241.121 55.7864 0.85175 -0.0282321
1703800 60.2689 241.134 55.7864 0.85185 0.024472
1704000 60.2689 241.147 55.7864 0.85195 -0.00100668
1704200 60.2689 241.16 55.7864 0.85205 0.0198602
1704400 60.2689 241.173 55.7864 0.85215 0.0193854
1704600 60.2689 241.186 55.7864 0.85225 -0.0151735
1704800 60.2689 241.199 55.7864 0.85235 0.00797662
1705000 60.2689 241.212 55.7864 0.85245 -0.00251912
1705200 60.2689 241.225 55.7864 0.85255 -0.00498436
1705400 60.2689 241.238 55.7864 0.85265 -0.00510359
1705600 60.2689 241.251 55.7864 0.85275 0.00341248
1705800 60.2689 241.264 55.7864 0.85285 0.00775119
1706000 60.2689 241.277 55.7864 0.85295 0.012168
1706200 60.2689 241.29 55.7864 0.85305 -0.0229898
1706400 60.2689 241.303 55.7864 0.85315 -0.0201063
1706600 60.2689 241.316 55.7864 0.85325 0.0116243
1706800 60.2689 241.329 55.7864 0.85335 0.0126429
1707000 60.2689 241.342 55.7864 0.85345 0.0135054
1707200 60.2689 241.355 55.7864 0.85355 0.0093151
1707400 60.2689 241.368 55.7864 0.85365 0.00197057
1707600 60.2689 241.381 55.7864 0.85375 0.00737518
1707800 60.2689 241.394 55.7864 0.85385 0.00903614
1708000 60.2689 241.407 55.7864 0.85395 0.00763906
1708200 60.2689 241.42 55.7864 0.85405 0.0126611
1708400 60.2689 241.433 55.7864 0.85415 -0.00500527
1708600 60.2689 241.446 55.7864 0.85425 0.00255012
1708800 60.2689 241.459 55.7864 0.85435 -0.00392687
1709000 60.2689 241.472 55.7864 0.85445 -0.0023858
1709200 60.2689 241.485 55.7864 0.85455 -0.00787784
1709400 60.2689 241.498 55.7864 0.85465 0.00157322
1709600 60.2689 241.511 55.7864 0.85475 0.0150411
1709800 60.2689 241.524 55.7864 0.85485 -0.0103362
1710000 60.2689 241.537 55.7864 0.85495 -0.00810367
1710200 60.2689 241.55 55.7864 0.85505 0.00832869
1710400 60.2689 241.563 55.7864 0.85515 0.00457336
1710600 60.2689 241.576 55.7864 0.85525 0.0016525
1710800 60.2689 241.589 55.7864 0.85535 0.00980711
1711000 60.2689 241.602 55.7864 0.85545 0.00858297
1711200 60.2689 241.615 55.7864 0.85555 0.00103049
1711400 60.2689 241.628 55.7864 0.85565 0.0138998
1711600 60.2689 241.641 55.7864 0.85575 0.0110854
1711800 60.2689 241.655 55.7864 0.85585 0.00313128
1712000 60.2689 241.668 55.7864 0.85595 0.00690433
1712200 60.2689 241.681 55.7864 0.85605 -0.00139515
1712400 60.2689 241.694 55.7864 0.85615 -0.00250557
1712600 60.2689 241.707 55.7864 0.85625 0.00928193
1712800 60.2689 241.72 55.7864 0.85635 -0.00236304
1713000 60.2689 241.733 55.7864 0.85645 0.000696185
1713200 60.2689 241.746 55.7864 0.85655 0.000391864
1713400 60.2689 241.759 55.7864 0.85665 -0.00597281
1713600 60.2689 241.772 55.7864 0.85675 -0.014871
1713800 60.2689 241.785 55.7864 0.85685 -0.00284735
1714000 60.2689 241.798 55.7864 0.85695 0.0152206
1714200 60.2689 241.811 55.7864 0.85705 -0.00174706
1714400 60.2689 241.824 55.7864 0.85715 0.00701067
1714600 60.2689 241.837 55.7864 0.85725 0.0111573
1714800 60.2689 241.85 55.7864 0.85735 0.00713257
1715000 60.2689 241.863 55.7864 0.85745 -0.00353167
1715200 60.2689 241.876 55.7864 0.85755 0.0136361
1715400 60.2689 241.889 55.7864 0.85765 0.00205881
1715600 60.2689 241.902 55.7864 0.85775 0.015167
1715800 60.2689 241.915 55.7864 0.85785 -0.00398595
1716000 60.2689 241.928 55.7864 0.85795 0.00212299
1716200 60.2689 241.941 55.7864 0.85805 0.00275682
1716400 60.2689 241.954 55.7864 0.85815 0.012613
1716600 60.2689 241.967 55.7864 0.85825 -0.00129546
1716800 60.2689 241.98 55.7864 0.85835 0.00391108
1717000 60.2689 241.993 55.7864 0.85845 -0.0104331
1717200 60.2689 242.006 55.7864 0.85855 -0.00498334
1717400 60.2689 242.019 55.7864 0.85865 0.00535042
1717600 60.2689 242.032 55.7864 0.85875 0.0132729
1717800 60.2689 242.045 55.7864 0.85885 0.000819635
1718000 60.2689 242.058 55.7864 0.85895 -0.00392556
1718200 60.2689 242.071 55.7864 0.85905 0.00805456
1718400 60.2689 242.084 55.7864 0.85915 -0.00154755
1718600 60.2689 242.097 55.7864 0.85925 -0.000869789
1718800 60.2689 242.11 55.7864 0.85935 0.00594027
1719000 60.2689 242.123 55.7864 0.85945 0.00894312
1719200 60.2689 242.136 55.7864 0.85955 0.00414214
1719400 60.2689 242.149 55.7864 0.85965 0.0151374
1719600 60.2689 242.162 55.7864 0.85975 0.00556535
1719800 60.2689 242.175 55.7864 0.85985 0.00165499
1720000 60.2689 242.188 55.7864 0.85995 -0.0266057
1720200 60.2689 242.201 55.7864 0.86005 0.00944958
1720400 60.2689 242.214 55.7864 0.86015 0.0121782
1720600 60.2689 242.227 55.7864 0.86025 0.0161717
1720800 60.2689 242.24 55.7864 0.86035 -0.00800773
1721000 60.2689 242.253 55.7864 0.86045 0.00504686
1721200 60.2689 242.267 55.7864 0.86055 0.00421736
1721400 60.2689 242.28 55.7864 0.86065 -0.0103225
1721600 60.2689 242.293 55.7864 0.86075 -0.0046947
1721800 60.2689 242.306 55.7864 0.86085 0.00980255
1722000 60.2689 242.319 55.7864 0.86095 0.0114062
1722200 60.2689 242.332 55.7864 0.86105 0.000745746
1722400 60.2689 242.345 55.7864 0.86115 0.00671047
1722600 60.2689 242.358 55.7864 0.86125 -0.0103856
1722800 60.2689 242.371 55.7864 0.86135 0.00352366
1723000 60.2689 242.384 55.7864 0.86145 -0.00297786
1723200 60.2689 242.397 55.7864 0.86155 0.0152081
1723400 60.2689 242.41 55.7864 0.86165 0.0163904
1723600 60.2689 242.423 55.7864 0.86175 0.0259328
1723800 60.2689 242.436 55.7864 0.86185 -0.0186441
1724000 60.2689 242.449 55.7864 0.86195 0.0109421
1724200 60.2689 242.462 55.7864 0.86205 -0.0121207
1724400 60.2689 242.475 55.7864 0.86215 -0.00209856
1724600 60.2689 242.488 55.7864 0.86225 0.0161614
1724800 60.2689 242.501 55.7864 0.86235 -0.0143804
1725000 60.2689 242.514 55.7864 0.86245 0.0181565
1725200 60.2689 242.527 55.7864 0.86255 -0.000542145
1725400 60.2689 242.54 55.7864 0.86265 -0.0098144
1725600 60.2689 242.553 55.7864 0.86275 -0.0150024
1725800 60.2689 242.566 55.7864 0.86285 0.0102803
1726000 60.2689 242.579 55.7864 0.86295 0.00363571
1726200 60.2689 242.592 55.7864 0.86305 -0.0055101
1726400 60.2689 242.605 55.7864 0.86315 0.0027102
1726600 60.2689 242.618 55.7864 0.86325 0.0151476
1726800 60.2689 242.631 55.7864 0.86335 -0.00197099
1727000 60.2689 242.644 55.7864 0.86345 0.00133094
1727200 60.2689 242.657 55.7864 0.86355 0.00383639
1727400 60.2689 242.67 55.7864 0.86365 0.0194346
1727600 60.2689 242.683 55.7864 0.86375 0.00699921
1727800 60.2689 242.696 55.7864 0.86385 0.0192921
1728000 60.2689 242.709 55.7864 0.86395 0.000853426
1728200 60.2689 242.722 55.7864 0.86405 0.00591301
1728400 60.2689 242.735 55.7864 0.86415 0.00224172
1728600 60.2689 242.748 55.7864 0.86425 -0.00883755
1728800 60.2689 242.761 55.7864 0.86435 0.00103426
1729000 60.2689 242.774 55.7864 0.86445 -0.000629554
1729200 60.2689 242.787 55.7864 0.86455 0.0141522
1729400 60.2689 242.8 55.7864 0.86465 0.0116402
1729600 60.2689 242.813 55.7864 0.86475 -0.0177884
1729800 60.2689 242.826 55.7864 0.86485 -0.0182535
1730000 60.2689 242.839 55.7864 0.86495 0.00438208
1730200 60.2689 242.852 55.7864 0.86505 0.002816
1730400 60.2689 242.865 55.7864 0.86515 4.12088e-05
1730600 60.2689 242.879 55.7864 0.86525 0.00916538
1730800 60.2689 242.892 55.7864 0.86535 0.0217904
1731000 60.2689 242.905 55.7864 0.86545 -0.00916864
1731200 60.2689 242.918 55.7864 0.86555 -0.0028334
1731400 60.2689 242.931 55.7864 0.86565 0.00705217
1731600 60.2689 242.944 55.7864 0.86575 -0.000725383
1731800 60.2689 242.957 55.7864 0.86585 0.0110826
1732000 60.2689 242.97 55.7864 0.86595 0.0169512
1732200 60.2689 242.983 55.7864 0.86605 0.0117037
1732400 60.2689 242.996 55.7864 0.86615 -0.0102317
1732600 60.2689 243.009 55.7864 0.86625 0.00357223
1732800 60.2689 243.022 55.7864 0.86635 0.00429357
1733000 60.2689 243.035 55.7864 0.86645 0.0107482
1733200 60.2689 243.048 55.7864 0.86655 0.0017035
1733400 60.2689 243.061 55.7864 0.86665 0.00214121
1733600 60.2689 243.074 55.7864 0.86675 0.00766728
1733800 60.2689 243.087 55.7864 0.86685 -0.0257045
1734000 60.2689 243.1 55.7864 0.86695 -0.00813664
1734200 60.2689 243.113 55.7864 0.86705 -0.00211828
1734400 60.2689 243.126 55.7864 0.86715 0.0178485
1734600 60.2689 243.139 55.7864 0.86725 -0.00374567
1734800 60.2689 243.152 55.7864 0.86735 0.0115831
1735000 60.2689 243.165 55.7864 0.86745 -0.000323591
1735200 60.2689 243.178 55.7864 0.86755 -0.0110171
1735400 60.2689 243.191 55.7864 0.86765 0.0164035
1735600 60.2689 243.204 55.7864 0.86775 0.00915996
1735800 60.2689 243.217 55.7864 0.86785 0.0125717
1736000 60.2689 243.23 55.7864 0.86795 0.00694679
1736200 60.2689 243.243 55.7864 0.86805 0.00961882
1736400 60.2689 243.256 55.7864 0.86815 0.0108839
1736600 60.2689 243.269 55.7864 0.86825 -0.00427864
1736800 60.2689 243.282 55.7864 0.86835 0.00696165
1737000 60.2689 243.295 55.7864 0.86845 0.0123033
1737200 60.2689 243.308 55.7864 0.86855 -0.00345749
1737400 60.2689 243.321 55.7864 0.86865 0.00817367
1737600 60.2689 243.334 55.7864 0.86875 -0.0148582
1737800 60.2689 243.347 55.7864 0.86885 -0.0034866
1738000 60.2689 243.36 55.7864 0.86895 -0.0194703
1738200 60.2689 243.373 55.7864 0.86905 0.00244321
1738400 60.2689 243.386 55.7864 0.86915 -0.00379823
1738600 60.2689 243.399 55.7864 0.86925 -0.00291638
1738800 60.2689 243.412 55.7864 0.86935 0.000780542
1739000 60.2689 243.425 55.7864 0.86945 0.0113978
1739200 60.2689 243.438 55.7864 0.86955 0.0113022
1739400 60.2689 243.451 55.7864 0.86965 0.00401968
1739600 60.2689 243.464 55.7864 0.86975 0.0136217
1739800 60.2689 243.477 55.7864 0.86985 0.0185751
1740000 60.2689 243.491 55.7864 0.86995 0.00569135
1740200 60.2689 243.504 55.7864 0.87005 0.0150368
1740400 60.2689 243.517 55.7864 0.87015 0.00231316
1740600 60.2689 243.53 55.7864 0.87025 0.00751736
1740800 60.2689 243.543 55.7864 0.87035 -0.00312155
1741000 60.2689 243.556 55.7864 0.87045 0.0055116
1741200 60.2689 243.569 55.7864 0.87055 0.00393109
1741400 60.2689 243.582 55.7864 0.87065 -0.0251528
1741600 60.2689 243.595 55.7864 0.87075 0.001744
1741800 60.2689 243.608 55.7864 0.87085 -0.0130669
1742000 60.2689 243.621 55.7864 0.87095 -0.00703499
1742200 60.2689 243.634 55.7864 0.87105 0.00232167
1742400 60.2689 243.647 55.7864 0.87115 0.00188025
1742600 60.2689 243.66 55.7864 0.87125 0.00995408
1742800 60.2689 243.673 55.7864 0.87135 -0.00412584
1743000 60.2689 243.686 55.7864 0.87145 0.00672166
1743200 60.2689 243.699 55.7864 0.87155 0.0161448
1743400 60.2689 243.712 55.7864 0.87165 0.0216919
1743600 60.2689 243.725 55.7864 0.87175 0.0108781
1743800 60.2689 243.738 55.7864 0.87185 0.00419767
1744000 60.2689 243.751 55.7864 0.87195 0.016526
1744200 60.2689 243.764 55.7864 0.87205 0.0193879
1744400 60.2689 243.777 55.7864 0.87215 -0.0170303
1744600 60.2689 243.79 55.7864 0.87225 -0.0174544
1744800 60.2689 243.803 55.7864 0.87235 0.0149587
1745000 60.2689 243.816 55.7864 0.87245 0.0102646
1745200 60.2689 243.829 55.7864 0.87255 -0.00712995
1745400 60.2689 243.842 55.7864 0.87265 -0.0186426
1745600 60.2689 243.855 55.7864 0.87275 -0.00481786
1745800 60.2689 243.868 55.7864 0.87285 0.00221205
1746000 60.2689 243.881 55.7864 0.87295 -0.00547233
1746200 60.2689 243.894 55.7864 0.87305 -0.00188811
1746400 60.2689 243.907 55.7864 0.87315 0.00607724
1746600 60.2689 243.92 55.7864 0.87325 0.00948325
1746800 60.2689 243.933 55.7864 0.87335 0.0264936
1747000 60.2689 243.946 55.7864 0.87345 0.00869379
1747200 60.2689 243.959 55.7864 0.87355 -0.0102548
1747400 60.2689 243.972 55.7864 0.87365 0.010531
1747600 60.2689 243.985 55.7864 0.87375 -0.00974075
1747800 60.2689 243.998 55.7864 0.87385 0.0288854
1748000 60.2689 244.011 55.7864 0.87395 0.00428983
1748200 60.2689 244.024 55.7864 0.87405 0.0082429
1748400 60.2689 244.037 55.7864 0.87415 0.0069519
1748600 60.2689 244.05 55.7864 0.87425 0.00183964
1748800 60.2689 244.063 55.7864 0.87435 -0.0167878
1749000 60.2689 244.076 55.7864 0.87445 -0.0120656
1749200 60.2689 244.089 55.7864 0.87455 0.00623525
1749400 60.2689 244.103 55.7864 0.87465 -0.00649592
1749600 60.2689 244.116 55.7864 0.87475 0.00623632
1749800 60.2689 244.129 55.7864 0.87485 -0.00862726
1750000 60.2689 244.142 55.7864 0.87495 0.00852799
1750200 60.2689 244.155 55.7864 0.87505 -0.0224767
1750400 60.2689 244.168 55.7864 0.87515 0.0146418
1750600 60.2689 244.181 55.7864 0.87525 0.0120472
1750800 60.2689 244.194 55.7864 0.87535 0.00938526
1751000 60.2689 244.207 55.7864 0.87545 0.0166578
1751200 60.2689 244.22 55.7864 0.87555 0.0148297
1751400 60.2689 244.233 55.7864 0.87565 0.00975045
1751600 60.2689 244.246 55.7864 0.87575 0.00776472
1751800 60.2689 244.259 55.7864 0.87585 0.00419308
1752000 60.2689 244.272 55.7864 0.87595 -0.00420743
1752200 60.2689 244.285 55.7864 0.87605 -0.00279887
1752400 60.2689 244.298 55.7864 0.87615 0.00859458
1752600 60.2689 244.311 55.7864 0.87625 0.00201986
1752800 60.2689 244.324 55.7864 0.87635 0.00833397
1753000 60.2689 244.337 55.7864 0.87645 -0.0223249
1753200 60.2689 244.35 55.7864 0.87655 -0.0109173
1753400 60.2689 244.363 55.7864 0.87665 -0.00477795
1753600 60.2689 244.376 55.7864 0.87675 0.0189674
1753800 60.2689 244.389 55.7864 0.87685 -0.00188095
1754000 60.2689 244.402 55.7864 0.87695 -0.00679392
1754200 60.2689 244.415 55.7864 0.87705 0.021293
1754400 60.2689 244.428 55.7864 0.87715 -0.0123149
1754600 60.2689 244.441 55.7864 0.87725 0.0122583
1754800 60.2689 244.454 55.7864 0.87735 0.00127907
1755000 60.2689 244.467 55.7864 0.87745 0.00806273
1755200 60.2689 244.48 55.7864 0.87755 0.0204584
1755400 60.2689 244.493 55.7864 0.87765 0.0103645
1755600 60.2689 244.506 55.7864 0.87775 0.00165844
1755800 60.2689 244.519 55.7864 0.87785 0.0101581
1756000 60.2689 244.532 55.7864 0.87795 -0.00182214
1756200 60.2689 244.545 55.7864 0.87805 -0.00746953
1756400 60.2689 244.558 55.7864 0.87815 0.00182697
1756600 60.2689 244.571 55.7864 0.87825 0.014048
1756800 60.2689 244.584 55.7864 0.87835 -0.0161443
1757000 60.2689 244.597 55.7864 0.87845 0.000354085
1757200 60.2689 244.61 55.7864 0.87855 0.00418661
1757400 60.2689 244.623 55.7864 0.87865 -0.00669357
1757600 60.2689 244.636 55.7864 0.87875 0.00196061
1757800 60.2689 244.649 55.7864 0.87885 -0.0103818
1758000 60.2689 244.662 55.7864 0.87895 0.0168067
1758200 60.2689 244.675 55.7864 0.87905 0.00475421
1758400 60.2689 244.688 55.7864 0.87915 0.00258702
1758600 60.2689 244.701 55.7864 0.87925 0.00762754
1758800 60.2689 244.714 55.7864 0.87935 0.0102208
1759000 60.2689 244.728 55.7864 0.87945 0.013672
1759200 60.2689 244.741 55.7864 0.87955 0.00774825
1759400 60.2689 244.754 55.7864 0.87965 -0.00341137
1759600 60.2689 244.767 55.7864 0.87975 0.00830113
1759800 60.2689 244.78 55.7864 0.87985 0.0120427
1760000 60.2689 244.793 55.7864 0.87995 0.00187103
1760200 60.2689 244.806 55.7864 0.88005 -0.0125127
1760400 60.2689 244.819 55.7864 0.88015 -0.00370189
1760600 60.2689 244.832 55.7864 0.88025 0.000968277
1760800 60.2689 244.845 55.7864 0.88035 0.014302
1761000 60.2689 244.858 55.7864 0.88045 -0.0178828
1761200 60.2689 244.871 55.7864 0.88055 -0.00789601
1761400 60.2689 244.884 55.7864 0.88065 -0.00278687
1761600 60.2689 244.897 55.7864 0.88075 0.0204452
1761800 60.2689 244.91 55.7864 0.88085 -0.0140388
1762000 60.2689 244.923 55.7864 0.88095 0.0161369
1762200 60.2689 244.936 55.7864 0.88105 0.000299432
1762400 60.2689 244.949 55.7864 0.88115 0.0225251
1762600 60.2689 244.962 55.7864 0.88125 0.0129968
1762800 60.2689 244.975 55.7864 0.88135 0.00943665
1763000 60.2689 244.988 55.7864 0.88145 -0.00493502
1763200 60.2689 245.001 55.7864 0.88155 0.00704248
1763400 60.2689 245.014 55.7864 0.88165 0.0048962
1763600 60.2689 245.027 55.7864 0.88175 0.00148988
1763800 60.2689 245.04 55.7864 0.88185 0.0129266
1764000 60.2689 245.053 55.7864 0.88195 -0.0134396
1764200 60.2689 245.066 55.7864 0.88205 0.0070342
1764400 60.2689 245.079 55.7864 0.88215 -0.0101427
1764600 60.2689 245.092 55.7864 0.88225 -0.0162343
1764800 60.2689 245.105 55.7864 0.88235 -0.0102866
1765000 60.2689 245.118 55.7864 0.88245 0.00941231
1765200 60.2689 245.131 55.7864 0.88255 0.0155325
1765400 60.2689 245.144 55.7864 0.88265 -0.00484154
1765600 60.2689 245.157 55.7864 0.88275 0.000331064
1765800 60.2689 245.17 55.7864 0.88285 0.0027898
1766000 60.2689 245.183 55.7864 0.88295 0.0245392
1766200 60.2689 245.196 55.7864 0.88305 0.00568144
1766400 60.2689 245.209 55.7864 0.88315 0.00433396
1766600 60.2689 245.222 55.7864 0.88325 0.0184546
1766800 60.2689 245.235 55.7864 0.88335 0.00744483
1767000 60.2689 245.248 55.7864 0.88345 0.0172448
1767200 60.2689 245.261 55.7864 0.88355 0.010229
1767400 60.2689 245.274 55.7864 0.88365 -0.010236
1767600 60.2689 245.287 55.7864 0.88375 -0.00688942
1767800 60.2689 245.3 55.7864 0.88385 0.00194848
1768000 60.2689 245.313 55.7864 0.88395 -0.00592291
1768200 60.2689 245.326 55.7864 0.88405 -0.0119884
1768400 60.2689 245.34 55.7864 0.88415 -0.00450561
1768600 60.2689 245.353 55.7864 0.88425 0.00134306
1768800 60.2689 245.366 55.7864 0.88435 0.000754805
1769000 60.2689 245.379 55.7864 0.88445 -0.0181227
1769200 60.2689 245.392 55.7864 0.88455 0.00896195
1769400 60.2689 245.405 55.7864 0.88465 0.00847758
1769600 60.2689 245.418 55.7864 0.88475 0.00683549
1769800 60.2689 245.431 55.7864 0.88485 0.0123548
1770000 60.2689 245.444 55.7864 0.88495 0.014783
1770200 60.2689 245.457 55.7864 0.88505 0.0209749
1770400 60.2689 245.47 55.7864 0.88515 0.00951375
1770600 60.2689 245.483 55.7864 0.88525 -0.00506735
1770800 60.2689 245.496 55.7864 0.88535 0.00725535
1771000 60.2689 245.509 55.7864 0.88545 -0.0010996
1771200 60.2689 245.522 55.7864 0.88555 0.00322509
1771400 60.2689 245.535 55.7864 0.88565 0.0035238
1771600 60.2689 245.548 55.7864 0.88575 0.00155112
1771800 60.2689 245.561 55.7864 0.88585 0.00303972
1772000 60.2689 245.574 55.7864 0.88595 -0.0195936
1772200 60.2689 245.587 55.7864 0.88605 -0.0052941
1772400 60.2689 245.6 55.7864 0.88615 -0.00862502
1772600 60.2689 245.613 55.7864 0.88625 0.0225779
1772800 60.2689 245.626 55.7864 0.88635 -0.000328728
1773000 60.2689 245.639 55.7864 0.88645 -0.01392
1773200 60.2689 245.652 55.7864 0.88655 0.0168592
1773400 60.2689 245.665 55.7864 0.88665 -0.00282191
1773600 60.2689 245.678 55.7864 0.88675 -0.00204407
1773800 60.2689 245.691 55.7864 0.88685 0.010236
1774000 60.2689 245.704 55.7864 0.88695 0.034078
1774200 60.2689 245.717 55.7864 0.88705 0.00336407
1774400 60.2689 245.73 55.7864 0.88715 0.00612186
1774600 60.2689 245.743 55.7864 0.88725 0.0119768
1774800 60.2689 245.756 55.7864 0.88735 0.000994844
1775000 60.2689 245.769 55.7864 0.88745 -0.000102623
1775200 60.2689 245.782 55.7864 0.88755 0.0135868
1775400 60.2689 245.795 55.7864 0.88765 0.00915218
1775600 60.2689 245.808 55.7864 0.88775 -0.0178166
1775800 60.2689 245.821 55.7864 0.88785 -0.00141841
1776000 60.2689 245.834 55.7864 0.88795 -0.0119931
1776200 60.2689 245.847 55.7864 0.88805 -0.00780528
1776400 60.2689 245.86 55.7864 0.88815 -0.00986718
1776600 60.2689 245.873 55.7864 0.88825 0.00691521
1776800 60.2689 245.886 55.7864 0.88835 0.00944057
1777000 60.2689 245.899 55.7864 0.88845 -0.00184468
1777200 60.2689 245.912 55.7864 0.88855 0.000469115
1777400 60.2689 245.925 55.7864 0.88865 0.0101072
1777600 60.2689 245.938 55.7864 0.88875 0.0103689
1777800 60.2689 245.952 55.7864 0.88885 0.00582672
1778000 60.2689 245.965 55.7864 0.88895 0.0219879
1778200 60.2689 245.978 55.7864 0.88905 0.00114162
1778400 60.2689 245.991 55.7864 0.88915 0.0152453
1778600 60.2689 246.004 55.7864 0.88925 0.00716693
1778800 60.2689 246.017 55.7864 0.88935 0.00134979
1779000 60.2689 246.03 55.7864 0.88945 -0.00159252
1779200 60.2689 246.043 55.7864 0.88955 0.00214965
1779400 60.2689 246.056 55.7864 0.88965 0.00917719
1779600 60.2689 246.069 55.7864 0.88975 -0.00833088
1779800 60.2689 246.082 55.7864 0.88985 -0.00444649
1780000 60.2689 246.095 55.7864 0.88995 -0.000929063
1780200 60.2689 246.108 55.7864 0.89005 -0.0174074
1780400 60.2689 246.121 55.7864 0.89015 0.00740474
1780600 60.2689 246.134 55.7864 0.89025 -0.00768552
1780800 60.2689 246.147 55.7864 0.89035 0.00927965
1781000 60.2689 246.16 55.7864 0.89045 0.00698587
1781200 60.2689 246.173 55.7864 0.89055 -0.00633655
1781400 60.2689 246.186 55.7864 0.89065 0.00825675
1781600 60.2689 246.199 55.7864 0.89075 0.00951973
1781800 60.2689 246.212 55.7864 0.89085 0.000855135
1782000 60.2689 246.225 55.7864 0.89095 0.011436
1782200 60.2689 246.238 55.7864 0.89105 0.02519
1782400 60.2689 246.251 55.7864 0.89115 -0.00765948
1782600 60.2689 246.264 55.7864 0.89125 0.0217811
1782800 60.2689 246.277 55.7864 0.89135 -0.00995377
1783000 60.2689 246.29 55.7864 0.89145 0.00582665
1783200 60.2689 246.303 55.7864 0.89155 0.00593481
1783400 60.2689 246.316 55.7864 0.89165 0.00494221
1783600 60.2689 246.329 55.7864 0.89175 -0.00412178
1783800 60.2689 246.342 55.7864 0.89185 -0.00346097
1784000 60.2689 246.355 55.7864 0.89195 -0.00908531
1784200 60.2689 246.368 55.7864 0.89205 0.00627961
1784400 60.2689 246.381 55.7864 0.89215 0.00830153
1784600 60.2689 246.394 55.7864 0.89225 0.001738
1784800 60.2689 246.407 55.7864 0.89235 -0.0180174
1785000 60.2689 246.42 55.7864 0.89245 0.0113626
1785200 60.2689 246.433 55.7864 0.89255 -0.003434
1785400 60.2689 246.446 55.7864 0.89265 0.00599436
1785600 60.2689 246.459 55.7864 0.89275 0.00836341
1785800 60.2689 246.472 55.7864 0.89285 0.0148601
1786000 60.2689 246.485 55.7864 0.89295 0.0102381
1786200 60.2689 246.498 55.7864 0.89305 0.000194322
1786400 60.2689 246.511 55.7864 0.89315 -0.00182675
1786600 60.2689 246.524 55.7864 0.89325 0.00918429
1786800 60.2689 246.537 55.7864 0.89335 0.0112968
1787000 60.2689 246.55 55.7864 0.89345 0.00396688
1787200 60.2689 246.564 55.7864 0.89355 0.0022974
1787400 60.2689 246.577 55.7864 0.89365 -0.00827533
1787600 60.2689 246.59 55.7864 0.89375 0.020636
1787800 60.2689 246.603 55.7864 0.89385 -0.0110713
1788000 60.2689 246.616 55.7864 0.89395 -0.00709271
1788200 60.2689 246.629 55.7864 0.89405 0.00286245
1788400 60.2689 246.642 55.7864 0.89415 -0.00385916
1788600 60.2689 246.655 55.7864 0.89425 0.00663443
1788800 60.2689 246.668 55.7864 0.89435 -0.00743227
1789000 60.2689 246.681 55.7864 0.89445 0.00421828
1789200 60.2689 246.694 55.7864 0.89455 -0.010027
1789400 60.2689 246.707 55.7864 0.89465 0.0246095
1789600 60.2689 246.72 55.7864 0.89475 -0.0171019
1789800 60.2689 246.733 55.7864 0.89485 0.0105577
1790000 60.2689 246.746 55.7864 0.89495 0.00289117
1790200 60.2689 246.759 55.7864 0.89505 0.00853325
1790400 60.2689 246.772 55.7864 0.89515 0.0168307
1790600 60.2689 246.785 55.7864 0.89525 0.0185784
1790800 60.2689 246.798 55.7864 0.89535 0.00951001
1791000 60.2689 246.811 55.7864 0.89545 0.00774693
1791200 60.2689 246.824 55.7864 0.89555 -0.0122221
1791400 60.2689 246.837 55.7864 0.89565 0.0134021
1791600 60.2689 246.85 55.7864 0.89575 0.0136436
1791800 60.2689 246.863 55.7864 0.89585 0.000403976
1792000 60.2689 246.876 55.7864 0.89595 -0.00677281
1792200 60.2689 246.889 55.7864 0.89605 -0.0130651
1792400 60.2689 246.902 55.7864 0.89615 -0.00390915
1792600 60.2689 246.915 55.7864 0.89625 -0.019265
1792800 60.2689 246.928 55.7864 0.89635 -0.00273045
1793000 60.2689 246.941 55.7864 0.89645 0.00929487
1793200 60.2689 246.954 55.7864 0.89655 0.00900067
1793400 60.2689 246.967 55.7864 0.89665 -0.00790157
1793600 60.2689 246.98 55.7864 0.89675 0.00611223
1793800 60.2689 246.993 55.7864 0.89685 -0.00323891
1794000 60.2689 247.006 55.7864 0.89695 0.00778629
1794200 60.2689 247.019 55.7864 0.89705 0.0134702
1794400 60.2689 247.032 55.7864 0.89715 0.0240268
1794600 60.2689 247.045 55.7864 0.89725 0.0099669
1794800 60.2689 247.058 55.7864 0.89735 0.00924658
1795000 60.2689 247.071 55.7864 0.89745 0.0148945
1795200 60.2689 247.084 55.7864 0.89755 -0.00816935
1795400 60.2689 247.097 55.7864 0.89765 0.00253901
1795600 60.2689 247.11 55.7864 0.89775 0.0105344
1795800 60.2689 247.123 55.7864 0.89785 -0.00841823
1796000 60.2689 247.136 55.7864 0.89795 0.0223371
1796200 60.2689 247.149 55.7864 0.89805 -0.0121938
1796400 60.2689 247.162 55.7864 0.89815 -0.0119452
1796600 60.2689 247.176 55.7864 0.89825 -0.0115171
1796800 60.2689 247.189 55.7864 0.89835 -0.0141038
1797000 60.2689 247.202 55.7864 0.89845 0.0132696
1797200 60.2689 247.215 55.7864 0.89855 -0.0138986
1797400 60.2689 247.228 55.7864 0.89865 0.0186447
1797600 60.2689 247.241 55.7864 0.89875 0.00416584
1797800 60.2689 247.254 55.7864 0.89885 0.00140712
1798000 60.2689 247.267 55.7864 0.89895 -0.00278221
1798200 60.2689 247.28 55.7864 0.89905 0.0033042
1798400 60.2689 247.293 55.7864 0.89915 0.010606
1798600 60.2689 247.306 55.7864 0.89925 0.0233655
1798800 60.2689 247.319 55.7864 0.89935 0.0181668
1799000 60.2689 247.332 55.7864 0.89945 0.00426621
1799200 60.2689 247.345 55.7864 0.89955 0.0101801
1799400 60.2689 247.358 55.7864 0.89965 0.00279988
1799600 60.2689 247.371 55.7864 0.89975 -0.00784397
1799800 60.2689 247.384 55.7864 0.89985 0.00873949
1800000 60.2689 247.397 55.7864 0.89995 -0.0101939
1800200 60.2689 247.41 55.7864 0.90005 0.00251185
1800400 60.2689 247.423 55.7864 0.90015 0.0117995
1800600 60.2689 247.436 55.7864 0.90025 -0.0113493
1800800 60.2689 247.449 55.7864 0.90035 -0.0173896
1801000 60.2689 247.462 55.7864 0.90045 -0.00535336
1801200 60.2689 247.475 55.7864 0.90055 -0.000709057
1801400 60.2689 247.488 55.7864 0.90065 0.0119599
1801600 60.2689 247.501 55.7864 0.90075 -0.00843277
1801800 60.2689 247.514 55.7864 0.90085 -0.00514149
1802000 60.2689 247.527 55.7864 0.90095 0.0121093
1802200 60.2689 247.54 55.7864 0.90105 0.0149981
1802400 60.2689 247.553 55.7864 0.90115 0.00896841
1802600 60.2689 247.566 55.7864 0.90125 -0.00265604
1802800 60.2689 247.579 55.7864 0.90135 0.0377887
1803000 60.2689 247.592 55.7864 0.90145 0.010935
1803200 60.2689 247.605 55.7864 0.90155 0.00134499
1803400 60.2689 247.618 55.7864 0.90165 0.000285605
1803600 60.2689 247.631 55.7864 0.90175 0.00130683
1803800 60.2689 247.644 55.7864 0.90185 -0.000130281
1804000 60.2689 247.657 55.7864 0.90195 -0.00423452
1804200 60.2689 247.67 55.7864 0.90205 -0.00674076
1804400 60.2689 247.683 55.7864 0.90215 0.0128181
1804600 60.2689 247.696 55.7864 0.90225 -0.0151573
1804800 60.2689 247.709 55.7864 0.90235 -0.0030093
1805000 60.2689 247.722 55.7864 0.90245 -0.00407919
1805200 60.2689 247.735 55.7864 0.90255 -0.00969342
1805400 60.2689 247.748 55.7864 0.90265 0.00453601
1805600 60.2689 247.761 55.7864 0.90275 -0.00982089
1805800 60.2689 247.774 55.7864 0.90285 0.0226134
1806000 60.2689 247.788 55.7864 0.90295 0.00407315
1806200 60.2689 247.801 55.7864 0.90305 0.01044
1806400 60.2689 247.814 55.7864 0.90315 0.0119676
1806600 60.2689 247.827 55.7864 0.90325 0.00212402
1806800 60.2689 247.84 55.7864 0.90335 0.0190195
1807000 60.2689 247.853 55.7864 0.90345 0.00506231
1807200 60.2689 247.866 55.7864 0.90355 0.0113902
1807400 60.2689 247.879 55.7864 0.90365 0.0148417
1807600 60.2689 247.892 55.7864 0.90375 -0.00587967
1807800 60.2689 247.905 55.7864 0.90385 -0.00628852
1808000 60.2689 247.918 55.7864 0.90395 -0.00848128
1808200 60.2689 247.931 55.7864 0.90405 0.00350068
1808400 60.2689 247.944 55.7864 0.90415 -0.00717089
1808600 60.2689 247.957 55.7864 0.90425 0.000697048
1808800 60.2689 247.97 55.7864 0.90435 -0.00757077
1809000 60.2689 247.983 55.7864 0.90445 0.00631809
1809200 60.2689 247.996 55.7864 0.90455 -0.00369044
1809400 60.2689 248.009 55.7864 0.90465 -0.00398109
1809600 60.2689 248.022 55.7864 0.90475 -0.00107283
1809800 60.2689 248.035 55.7864 0.90485 -0.0012707
1810000 60.2689 248.048 55.7864 0.90495 0.0149316
1810200 60.2689 248.061 55.7864 0.90505 0.00983717
1810400 60.2689 248.074 55.7864 0.90515 0.0118496
1810600 60.2689 248.087 55.7864 0.90525 0.00473527
1810800 60.2689 248.1 55.7864 0.90535 0.0117596
1811000 60.2689 248.113 55.7864 0.90545 0.0114552
1811200 60.2689 248.126 55.7864 0.90555 0.00526758
1811400 60.2689 248.139 55.7864 0.90565 0.0160798
1811600 60.2689 248.152 55.7864 0.90575 0.00590473
1811800 60.2689 248.165 55.7864 0.90585 -0.000458798
1812000 60.2689 248.178 55.7864 0.90595 -0.005798
1812200 60.2689 248.191 55.7864 0.90605 -0.00863809
1812400 60.2689 248.204 55.7864 0.90615 -0.010428
1812600 60.2689 248.217 55.7864 0.90625 0.0034449
1812800 60.2689 248.23 55.7864 0.90635 -0.017098
1813000 60.2689 248.243 55.7864 0.90645 0.00711545
1813200 60.2689 248.256 55.7864 0.90655 -0.000851274
1813400 60.2689 248.269 55.7864 0.90665 -0.00947155
1813600 60.2689 248.282 55.7864 0.90675 -0.00572573
1813800 60.2689 248.295 55.7864 0.90685 0.00276979
1814000 60.2689 248.308 55.7864 0.90695 0.0186206
1814200 60.2689 248.321 55.7864 0.90705 0.0292578
1814400 60.2689 248.334 55.7864 0.90715 -0.00231116
1814600 60.2689 248.347 55.7864 0.90725 0.0223854
1814800 60.2689 248.36 55.7864 0.90735 0.0107525
1815000 60.2689 248.373 55.7864 0.90745 -0.00297305
1815200 60.2689 248.386 55.7864 0.90755 0.000905639
1815400 60.2689 248.4 55.7864 0.90765 0.0042936
1815600 60.2689 248.413 55.7864 0.90775 -0.00895625
1815800 60.2689 248.426 55.7864 0.90785 0.0178233
1816000 60.2689 248.439 55.7864 0.90795 0.00254444
1816200 60.2689 248.452 55.7864 0.90805 -0.0122101
1816400 60.2689 248.465 55.7864 0.90815 -0.0196676
1816600 60.2689 248.478 55.7864 0.90825 -0.00768246
1816800 60.2689 248.491 55.7864 0.90835 -0.0124539
1817000 60.2689 248.504 55.7864 0.90845 0.00176404
1817200 60.2689 248.517 55.7864 0.90855 0.0116359
1817400 60.2689 248.53 55.7864 0.90865 0.00723348
1817600 60.2689 248.543 55.7864 0.90875 -0.00197428
1817800 60.2689 248.556 55.7864 0.90885 0.00491255
1818000 60.2689 248.569 55.7864 0.90895 0.0223261
1818200 60.2689 248.582 55.7864 0.90905 0.0107523
1818400 60.2689 248.595 55.7864 0.90915 0.0202231
1818600 60.2689 248.608 55.7864 0.90925 0.0120895
1818800 60.2689 248.621 55.7864 0.90935 0.0347877
1819000 60.2689 248.634 55.7864 0.90945 -0.016874
1819200 60.2689 248.647 55.7864 0.90955 -0.00949775
1819400 60.2689 248.66 55.7864 0.90965 -0.00910569
1819600 60.2689 248.673 55.7864 0.90975 0.00430251
1819800 60.2689 248.686 55.7864 0.90985 -0.00740095
1820000 60.2689 248.699 55.7864 0.90995 -0.0145608
1820200 60.2689 248.712 55.7864 0.91005 0.00332521
1820400 60.2689 248.725 55.7864 0.91015 -0.00722822
1820600 60.2689 248.738 55.7864 0.91025 -0.013134
1820800 60.2689 248.751 55.7864 0.91035 -0.000500819
1821000 60.2689 248.764 55.7864 0.91045 -0.000563626
1821200 60.2689 248.777 55.7864 0.91055 0.003001
1821400 60.2689 248.79 55.7864 0.91065 0.0157468
1821600 60.2689 248.803 55.7864 0.91075 0.00133509
1821800 60.2689 248.816 55.7864 0.91085 0.0217561
1822000 60.2689 248.829 55.7864 0.91095 0.00717101
1822200 60.2689 248.842 55.7864 0.91105 0.0211487
1822400 60.2689 248.855 55.7864 0.91115 0.0261165
1822600 60.2689 248.868 55.7864 0.91125 -0.00181143
1822800 60.2689 248.881 55.7864 0.91135 0.00366363
1823000 60.2689 248.894 55.7864 0.91145 0.0092369
1823200 60.2689 248.907 55.7864 0.91155 -0.00327973
1823400 60.2689 248.92 55.7864 0.91165 -0.0157874
1823600 60.2689 248.933 55.7864 0.91175 -0.00642246
1823800 60.2689 248.946 55.7864 0.91185 -0.00826086
1824000 60.2689 248.959 55.7864 0.91195 0.000203705
1824200 60.2689 248.972 55.7864 0.91205 -0.00731378
1824400 60.2689 248.985 55.7864 0.91215 -0.00721716
1824600 60.2689 248.998 55.7864 0.91225 -0.0111938
1824800 60.2689 249.012 55.7864 0.91235 -0.0051317
1825000 60.2689 249.025 55.7864 0.91245 0.00796938
1825200 60.2689 249.038 55.7864 0.91255 -0.00813126
1825400 60.2689 249.051 55.7864 0.91265 0.00772509
1825600 60.2689 249.064 55.7864 0.91275 0.0255084
1825800 60.2689 249.077 55.7864 0.91285 0.0325857
1826000 60.2689 249.09 55.7864 0.91295 0.000810786
1826200 60.2689 249.103 55.7864 0.91305 0.00500938
1826400 60.2689 249.116 55.7864 0.91315 0.0140196
1826600 60.2689 249.129 55.7864 0.91325 0.00213294
1826800 60.2689 249.142 55.7864 0.91335 0.01131
1827000 60.2689 249.155 55.7864 0.91345 -0.00292878
1827200 60.2689 249.168 55.7864 0.91355 0.00376437
1827400 60.2689 249.181 55.7864 0.91365 -0.000209211
1827600 60.2689 249.194 55.7864 0.91375 -0.0143187
1827800 60.2689 249.207 55.7864 0.91385 -0.00980882
1828000 60.2689 249.22 55.7864 0.91395 -0.0125781
1828200 60.2689 249.233 55.7864 0.91405 0.00508919
1828400 60.2689 249.246 55.7864 0.91415 -0.00271451
1828600 60.2689 249.259 55.7864 0.91425 0.000927686
1828800 60.2689 249.272 55.7864 0.91435 0.00822777
1829000 60.2689 249.285 55.7864 0.91445 -0.00229841
1829200 60.2689 249.298 55.7864 0.91455 -0.003855
1829400 60.2689 249.311 55.7864 0.91465 0.00500393
1829600 60.2689 249.324 55.7864 0.91475 0.0247751
1829800 60.2689 249.337 55.7864 0.91485 -0.00304627
1830000 60.2689 249.35 55.7864 0.91495 0.0242822
1830200 60.2689 249.363 55.7864 0.91505 0.0163871
1830400 60.2689 249.376 55.7864 0.91515 -0.00590621
1830600 60.2689 249.389 55.7864 0.91525 0.00734867
1830800 60.2689 249.402 55.7864 0.91535 -0.00190639
1831000 60.2689 249.415 55.7864 0.91545 0.00720234
1831200 60.2689 249.428 55.7864 0.91555 -0.0125716
1831400 60.2689 249.441 55.7864 0.91565 -0.00194438
1831600 60.2689 249.454 55.7864 0.91575 -0.00289321
1831800 60.2689 249.467 55.7864 0.91585 -0.00897561
1832000 60.2689 249.48 55.7864 0.91595 -0.00549859
1832200 60.2689 249.493 55.7864 0.91605 -0.00427808
1832400 60.2689 249.506 55.7864 0.91615 0.0101596
1832600 60.2689 249.519 55.7864 0.91625 -0.0042848
1832800 60.2689 249.532 55.7864 0.91635 0.0124492
1833000 60.2689 249.545 55.7864 0.91645 -0.00554152
1833200 60.2689 249.558 55.7864 0.91655 0.0044328
1833400 60.2689 249.571 55.7864 0.91665 -0.00686924
1833600 60.2689 249.584 55.7864 0.91675 0.0174818
1833800 60.2689 249.597 55.7864 0.91685 0.0237028
1834000 60.2689 249.61 55.7864 0.91695 0.0262553
1834200 60.2689 249.624 55.7864 0.91705 0.00201298
1834400 60.2689 249.637 55.7864 0.91715 -0.00441745
1834600 60.2689 249.65 55.7864 0.91725 -0.00516806
1834800 60.2689 249.663 55.7864 0.91735 0.00971322
1835000 60.2689 249.676 55.7864 0.91745 -0.00296262
1835200 60.2689 249.689 55.7864 0.91755 0.00479067
1835400 60.2689 249.702 55.7864 0.91765 0.00643881
1835600 60.2689 249.715 55.7864 0.91775 -0.0137932
1835800 60.2689 249.728 55.7864 0.91785 -0.00557781
1836000 60.2689 249.741 55.7864 0.91795 -0.0313802
1836200 60.2689 249.754 55.7864 0.91805 -0.00975222
1836400 60.2689 249.767 55.7864 0.91815 0.00217594
1836600 60.2689 249.78 55.7864 0.91825 0.0118011
1836800 60.2689 249.793 55.7864 0.91835 0.0111114
1837000 60.2689 249.806 55.7864 0.91845 -0.00775998
1837200 60.2689 249.819 55.7864 0.91855 0.012771
1837400 60.2689 249.832 55.7864 0.91865 -0.00178198
1837600 60.2689 249.845 55.7864 0.91875 0.0121217
1837800 60.2689 249.858 55.7864 0.91885 0.0246069
1838000 60.2689 249.871 55.7864 0.91895 0.0259636
1838200 60.2689 249.884 55.7864 0.91905 0.0157462
1838400 60.2689 249.897 55.7864 0.91915 0.00206336
1838600 60.2689 249.91 55.7864 0.91925 0.00879893
1838800 60.2689 249.923 55.7864 0.91935 -0.00552032
1839000 60.2689 249.936 55.7864 0.91945 -0.00766102
1839200 60.2689 249.949 55.7864 0.91955 -0.0120827
1839400 60.2689 249.962 55.7864 0.91965 0.00658542
1839600 60.2689 249.975 55.7864 0.91975 -0.0196095
1839800 60.2689 249.988 55.7864 0.91985 -0.00721899
1840000 60.2689 250.001 55.7864 0.91995 -0.0141966
1840200 60.2689 250.014 55.7864 0.92005 -0.0140786
1840400 60.2689 250.027 55.7864 0.92015 0.00474484
1840600 60.2689 250.04 55.7864 0.92025 0.00146194
1840800 60.2689 250.053 55.7864 0.92035 0.00648724
1841000 60.2689 250.066 55.7864 0.92045 0.00859111
1841200 60.2689 250.079 55.7864 0.92055 0.0268476
1841400 60.2689 250.092 55.7864 0.92065 -0.00461665
1841600 60.2689 250.105 55.7864 0.92075 0.0202113
1841800 60.2689 250.118 55.7864 0.92085 0.00450833
1842000 60.2689 250.131 55.7864 0.92095 0.0122127
1842200 60.2689 250.144 55.7864 0.92105 0.00528671
1842400 60.2689 250.157 55.7864 0.92115 3.06508e-05
1842600 60.2689 250.17 55.7864 0.92125 0.00543248
1842800 60.2689 250.183 55.7864 0.92135 0.00550727
1843000 60.2689 250.196 55.7864 0.92145 -0.011963
1843200 60.2689 250.209 55.7864 0.92155 -0.014641
1843400 60.2689 250.222 55.7864 0.92165 -0.00178759
1843600 60.2689 250.236 55.7864 0.92175 -0.00190374
1843800 60.2689 250.249 55.7864 0.92185 0.00767294
1844000 60.2689 250.262 55.7864 0.92195 -0.00893566
1844200 60.2689 250.275 55.7864 0.92205 0.00279893
1844400 60.2689 250.288 55.7864 0.92215 0.0102299
1844600 60.2689 250.301 55.7864 0.92225 0.000286126
1844800 60.2689 250.314 55.7864 0.92235 -0.0143418
1845000 60.2689 250.327 55.7864 0.92245 0.012911
1845200 60.2689 250.34 55.7864 0.92255 0.0162101
1845400 60.2689 250.353 55.7864 0.92265 0.0141606
1845600 60.2689 250.366 55.7864 0.92275 0.00193514
1845800 60.2689 250.379 55.7864 0.92285 0.00854832
1846000 60.2689 250.392 55.7864 0.92295 -0.00381273
1846200 60.2689 250.405 55.7864 0.92305 -0.00137095
1846400 60.2689 250.418 55.7864 0.92315 0.00694909
1846600 60.2689 250.431 55.7864 0.92325 -0.00182519
1846800 60.2689 250.444 55.7864 0.92335 0.0161738
1847000 60.2689 250.457 55.7864 0.92345 -0.000856465
1847200 60.2689 250.47 55.7864 0.92355 -0.0137511
1847400 60.2689 250.483 55.7864 0.92365 -0.0106019
1847600 60.2689 250.496 55.7864 0.92375 0.011405
1847800 60.2689 250.509 55.7864 0.92385 -0.00851291
1848000 60.2689 250.522 55.7864 0.92395 -0.00769734
1848200 60.2689 250.535 55.7864 0.92405 0.0157554
1848400 60.2689 250.548 55.7864 0.92415 -0.00184091
1848600 60.2689 250.561 55.7864 0.92425 -0.00923553
1848800 60.2689 250.574 55.7864 0.92435 -0.0017044
1849000 60.2689 250.587 55.7864 0.92445 0.00359064
1849200 60.2689 250.6 55.7864 0.92455 0.0137162
1849400 60.2689 250.613 55.7864 0.92465 0.0237855
1849600 60.2689 250.626 55.7864 0.92475 -0.00415596
1849800 60.2689 250.639 55.7864 0.92485 0.00653058
1850000 60.2689 250.652 55.7864 0.92495 0.0105748
1850200 60.2689 250.665 55.7864 0.92505 0.00521728
1850400 60.2689 250.678 55.7864 0.92515 0.0156026
1850600 60.2689 250.691 55.7864 0.92525 0.00373314
1850800 60.2689 250.704 55.7864 0.92535 0.00945049
1851000 60.2689 250.717 55.7864 0.92545 -0.018626
1851200 60.2689 250.73 55.7864 0.92555 -0.0121699
1851400 60.2689 250.743 55.7864 0.92565 0.00427719
1851600 60.2689 250.756 55.7864 0.92575 -0.0111555
1851800 60.2689 250.769 55.7864 0.92585 -0.00379818
1852000 60.2689 250.782 55.7864 0.92595 -0.00897646
1852200 60.2689 250.795 55.7864 0.92605 -0.00692598
1852400 60.2689 250.808 55.7864 0.92615 -0.00545646
1852600 60.2689 250.821 55.7864 0.92625 -0.00265109
1852800 60.2689 250.834 55.7864 0.92635 0.0189079
1853000 60.2689 250.847 55.7864 0.92645 -0.00420803
1853200 60.2689 250.861 55.7864 0.92655 0.0198924
1853400 60.2689 250.874 55.7864 0.92665 0.0204685
1853600 60.2689 250.887 55.7864 0.92675 0.00676982
1853800 60.2689 250.9 55.7864 0.92685 0.00527984
1854000 60.2689 250.913 55.7864 0.92695 0.0210042
1854200 60.2689 250.926 55.7864 0.92705 0.0142537
1854400 60.2689 250.939 55.7864 0.92715 0.0101782
1854600 60.2689 250.952 55.7864 0.92725 -0.00243828
1854800 60.2689 250.965 55.7864 0.92735 -0.00580096
1855000 60.2689 250.978 55.7864 0.92745 -0.00422615
1855200 60.2689 250.991 55.7864 0.92755 -0.0190712
1855400 60.2689 251.004 55.7864 0.92765 -0.0173699
1855600 60.2689 251.017 55.7864 0.92775 -0.0020747
1855800 60.2689 251.03 55.7864 0.92785 -0.0110846
1856000 60.2689 251.043 55.7864 0.92795 0.00532872
1856200 60.2689 251.056 55.7864 0.92805 -0.019367
1856400 60.2689 251.069 55.7864 0.92815 -0.00259938
1856600 60.2689 251.082 55.7864 0.92825 -0.00797278
1856800 60.2689 251.095 55.7864 0.92835 0.0110934
1857000 60.2689 251.108 55.7864 0.92845 0.0260833
1857200 60.2689 251.121 55.7864 0.92855 0.0115385
1857400 60.2689 251.134 55.7864 0.92865 0.036898
1857600 60.2689 251.147 55.7864 0.92875 0.00146903
1857800 60.2689 251.16 55.7864 0.92885 0.00242818
1858000 60.2689 251.173 55.7864 0.92895 0.0105148
1858200 60.2689 251.186 55.7864 0.92905 0.00809053
1858400 60.2689 251.199 55.7864 0.92915 0.013494
1858600 60.2689 251.212 55.7864 0.92925 0.0113025
1858800 60.2689 251.225 55.7864 0.92935 -0.00729016
1859000 60.2689 251.238 55.7864 0.92945 -0.00657632
1859200 60.2689 251.251 55.7864 0.92955 -0.00867286
1859400 60.2689 251.264 55.7864 0.92965 -0.0217013
1859600 60.2689 251.277 55.7864 0.92975 -0.0148718
1859800 60.2689 251.29 55.7864 0.92985 -0.0132831
1860000 60.2689 251.303 55.7864 0.92995 -0.000265088
1860200 60.2689 251.316 55.7864 0.93005 -0.00372961
1860400 60.2689 251.329 55.7864 0.93015 0.000292494
1860600 60.2689 251.342 55.7864 0.93025 0.0011436
1860800 60.2689 251.355 55.7864 0.93035 0.00112117
1861000 60.2689 251.368 55.7864 0.93045 0.00647261
1861200 60.2689 251.381 55.7864 0.93055 0.015118
1861400 60.2689 251.394 55.7864 0.93065 0.0257331
1861600 60.2689 251.407 55.7864 0.93075 0.0146871
1861800 60.2689 251.42 55.7864 0.93085 0.0196182
1862000 60.2689 251.433 55.7864 0.93095 0.0115807
1862200 60.2689 251.446 55.7864 0.93105 0.0153078
1862400 60.2689 251.459 55.7864 0.93115 -0.00815206
1862600 60.2689 251.473 55.7864 0.93125 0.000966971
1862800 60.2689 251.486 55.7864 0.93135 0.00578688
1863000 60.2689 251.499 55.7864 0.93145 -0.00856498
1863200 60.2689 251.512 55.7864 0.93155 0.00226054
1863400 60.2689 251.525 55.7864 0.93165 -0.0208429
1863600 60.2689 251.538 55.7864 0.93175 -0.0173754
1863800 60.2689 251.551 55.7864 0.93185 -0.0261777
1864000 60.2689 251.564 55.7864 0.93195 -0.00973374
1864200 60.2689 251.577 55.7864 0.93205 0.00100865
1864400 60.2689 251.59 55.7864 0.93215 0.00902577
1864600 60.2689 251.603 55.7864 0.93225 0.0120873
1864800 60.2689 251.616 55.7864 0.93235 0.00901049
1865000 60.2689 251.629 55.7864 0.93245 -0.00111957
1865200 60.2689 251.642 55.7864 0.93255 0.00513404
1865400 60.2689 251.655 55.7864 0.93265 0.0174434
1865600 60.2689 251.668 55.7864 0.93275 0.0206592
1865800 60.2689 251.681 55.7864 0.93285 0.00956698
1866000 60.2689 251.694 55.7864 0.93295 0.0238809
1866200 60.2689 251.707 55.7864 0.93305 -0.0123232
1866400 60.2689 251.72 55.7864 0.93315 0.0102025
1866600 60.2689 251.733 55.7864 0.93325 -0.00131979
1866800 60.2689 251.746 55.7864 0.93335 0.00966449
1867000 60.2689 251.759 55.7864 0.93345 0.0025603
1867200 60.2689 251.772 55.7864 0.93355 -0.00911995
1867400 60.2689 251.785 55.7864 0.93365 -0.00664417
1867600 60.2689 251.798 55.7864 0.93375 -0.0184018
1867800 60.2689 251.811 55.7864 0.93385 0.00203237
1868000 60.2689 251.824 55.7864 0.93395 -0.0184448
1868200 60.2689 251.837 55.7864 0.93405 -0.0246884
1868400 60.2689 251.85 55.7864 0.93415 0.00543582
1868600 60.2689 251.863 55.7864 0.93425 0.0163893
1868800 60.2689 251.876 55.7864 0.93435 0.00832767
1869000 60.2689 251.889 55.7864 0.93445 -0.00091717
1869200 60.2689 251.902 55.7864 0.93455 0.0120172
1869400 60.2689 251.915 55.7864 0.93465 0.000271089
1869600 60.2689 251.928 55.7864 0.93475 0.0129291
1869800 60.2689 251.941 55.7864 0.93485 0.0326163
1870000 60.2689 251.954 55.7864 0.93495 0.0105809
1870200 60.2689 251.967 55.7864 0.93505 0.0156429
1870400 60.2689 251.98 55.7864 0.93515 0.0181454
1870600 60.2689 251.993 55.7864 0.93525 -0.0076506
1870800 60.2689 252.006 55.7864 0.93535 -0.0118848
1871000 60.2689 252.019 55.7864 0.93545 -0.00973432
1871200 60.2689 252.032 55.7864 0.93555 0.00553248
1871400 60.2689 252.045 55.7864 0.93565 0.0045003
1871600 60.2689 252.058 55.7864 0.93575 -0.0151333
1871800 60.2689 252.071 55.7864 0.93585 -0.0150108
1872000 60.2689 252.085 55.7864 0.93595 -0.0140547
1872200 60.2689 252.098 55.7864 0.93605 0.00632582
1872400 60.2689 252.111 55.7864 0.93615 -0.0224455
1872600 60.2689 252.124 55.7864 0.93625 -0.0119833
1872800 60.2689 252.137 55.7864 0.93635 0.00631606
1873000 60.2689 252.15 55.7864 0.93645 0.0193542
1873200 60.2689 252.163 55.7864 0.93655 0.0123623
1873400 60.2689 252.176 55.7864 0.93665 0.0102217
1873600 60.2689 252.189 55.7864 0.93675 0.0123408
1873800 60.2689 252.202 55.7864 0.93685 0.00521722
1874000 60.2689 252.215 55.7864 0.93695 0.0081128
1874200 60.2689 252.228 55.7864 0.93705 0.0296345
1874400 60.2689 252.241 55.7864 0.93715 0.0125256
1874600 60.2689 252.254 55.7864 0.93725 0.014513
1874800 60.2689 252.267 55.7864 0.93735 -0.0108909
1875000 60.2689 252.28 55.7864 0.93745 0.00228294
1875200 60.2689 252.293 55.7864 0.93755 -0.00413996
1875400 60.2689 252.306 55.7864 0.93765 -0.00257699
1875600 60.2689 252.319 55.7864 0.93775 -0.0313069
1875800 60.2689 252.332 55.7864 0.93785 -0.00744068
1876000 60.2689 252.345 55.7864 0.93795 -0.00614779
1876200 60.2689 252.358 55.7864 0.93805 -0.00892986
1876400 60.2689 252.371 55.7864 0.93815 0.00115097
1876600 60.2689 252.384 55.7864 0.93825 -0.0108408
1876800 60.2689 252.397 55.7864 0.93835 -0.0123039
1877000 60.2689 252.41 55.7864 0.93845 0.0164006
1877200 60.2689 252.423 55.7864 0.93855 0.0187536
1877400 60.2689 252.436 55.7864 0.93865 0.0160531
1877600 60.2689 252.449 55.7864 0.93875 0.0236857
1877800 60.2689 252.462 55.7864 0.93885 0.0102067
1878000 60.2689 252.475 55.7864 0.93895 0.00960654
1878200 60.2689 252.488 55.7864 0.93905 0.0105534
1878400 60.2689 252.501 55.7864 0.93915 0.00709569
1878600 60.2689 252.514 55.7864 0.93925 0.0134111
1878800 60.2689 252.527 55.7864 0.93935 0.0124698
1879000 60.2689 252.54 55.7864 0.93945 -0.0079281
1879200 60.2689 252.553 55.7864 0.93955 -0.0029088
1879400 60.2689 252.566 55.7864 0.93965 -0.0290963
1879600 60.2689 252.579 55.7864 0.93975 -0.0125987
1879800 60.2689 252.592 55.7864 0.93985 -0.00392169
1880000 60.2689 252.605 55.7864 0.93995 -0.00764719
1880200 60.2689 252.618 55.7864 0.94005 -0.0114141
1880400 60.2689 252.631 55.7864 0.94015 0.000522172
1880600 60.2689 252.644 55.7864 0.94025 -0.0155099
1880800 60.2689 252.657 55.7864 0.94035 -0.00399502
1881000 60.2689 252.67 55.7864 0.94045 0.0146679
1881200 60.2689 252.683 55.7864 0.94055 0.0197635
1881400 60.2689 252.697 55.7864 0.94065 0.0147725
1881600 60.2689 252.71 55.7864 0.94075 0.0142818
1881800 60.2689 252.723 55.7864 0.94085 0.0113869
1882000 60.2689 252.736 55.7864 0.94095 0.0199936
1882200 60.2689 252.749 55.7864 0.94105 0.0046886
1882400 60.2689 252.762 55.7864 0.94115 0.0140264
1882600 60.2689 252.775 55.7864 0.94125 -0.00311461
1882800 60.2689 252.788 55.7864 0.94135 0.00689684
1883000 60.2689 252.801 55.7864 0.94145 0.00147899
1883200 60.2689 252.814 55.7864 0.94155 -0.0216125
1883400 60.2689 252.827 55.7864 0.94165 -0.0120818
1883600 60.2689 252.84 55.7864 0.94175 -0.00963229
1883800 60.2689 252.853 55.7864 0.94185 0.00223453
1884000 60.2689 252.866 55.7864 0.94195 0.00159424
1884200 60.2689 252.879 55.7864 0.94205 -0.0130064
1884400 60.2689 252.892 55.7864 0.94215 -0.0091657
1884600 60.2689 252.905 55.7864 0.94225 -0.00450789
1884800 60.2689 252.918 55.7864 0.94235 0.0195223
1885000 60.2689 252.931 55.7864 0.94245 0.0147113
1885200 60.2689 252.944 55.7864 0.94255 0.0058071
1885400 60.2689 252.957 55.7864 0.94265 0.0151881
1885600 60.2689 252.97 55.7864 0.94275 0.00803398
1885800 60.2689 252.983 55.7864 0.94285 0.00665576
1886000 60.2689 252.996 55.7864 0.94295 0.0161967
1886200 60.2689 253.009 55.7864 0.94305 0.00226934
1886400 60.2689 253.022 55.7864 0.94315 0.0159008
1886600 60.2689 253.035 55.7864 0.94325 0.000273028
1886800 60.2689 253.048 55.7864 0.94335 -0.0119399
1887000 60.2689 253.061 55.7864 0.94345 0.00173679
1887200 60.2689 253.074 55.7864 0.94355 -0.0194524
1887400 60.2689 253.087 55.7864 0.94365 -0.00691524
1887600 60.2689 253.1 55.7864 0.94375 -0.000313643
1887800 60.2689 253.113 55.7864 0.94385 -0.00317321
1888000 60.2689 253.126 55.7864 0.94395 -0.000183059
1888200 60.2689 253.139 55.7864 0.94405 -0.0141029
1888400 60.2689 253.152 55.7864 0.94415 -0.000217899
1888600 60.2689 253.165 55.7864 0.94425 -0.00555496
1888800 60.2689 253.178 55.7864 0.94435 0.0166931
1889000 60.2689 253.191 55.7864 0.94445 0.005905
1889200 60.2689 253.204 55.7864 0.94455 0.0153698
1889400 60.2689 253.217 55.7864 0.94465 0.0222947
1889600 60.2689 253.23 55.7864 0.94475 0.00551658
1889800 60.2689 253.243 55.7864 0.94485 -0.00798968
1890000 60.2689 253.256 55.7864 0.94495 0.0157413
1890200 60.2689 253.269 55.7864 0.94505 0.0184736
1890400 60.2689 253.282 55.7864 0.94515 0.00616475
1890600 60.2689 253.295 55.7864 0.94525 -0.00411763
1890800 60.2689 253.309 55.7864 0.94535 0.00355236
1891000 60.2689 253.322 55.7864 0.94545 -0.0102877
1891200 60.2689 253.335 55.7864 0.94555 -0.00745173
1891400 60.2689 253.348 55.7864 0.94565 -0.0167094
1891600 60.2689 253.361 55.7864 0.94575 -0.00516679
1891800 60.2689 253.374 55.7864 0.94585 -0.00628166
1892000 60.2689 253.387 55.7864 0.94595 -0.00594276
1892200 60.2689 253.4 55.7864 0.94605 0.0048608
1892400 60.2689 253.413 55.7864 0.94615 0.00257915
1892600 60.2689 253.426 55.7864 0.94625 0.000522658
1892800 60.2689 253.439 55.7864 0.94635 0.0133565
1893000 60.2689 253.452 55.7864 0.94645 0.00136782
1893200 60.2689 253.465 55.7864 0.94655 0.000567732
1893400 60.2689 253.478 55.7864 0.94665 0.00113237
1893600 60.2689 253.491 55.7864 0.94675 0.0229208
1893800 60.2689 253.504 55.7864 0.94685 0.00864185
1894000 60.2689 253.517 55.7864 0.94695 0.0191023
1894200 60.2689 253.53 55.7864 0.94705 0.0198393
1894400 60.2689 253.543 55.7864 0.94715 -0.00221697
1894600 60.2689 253.556 55.7864 0.94725 -0.0154023
1894800 60.2689 253.569 55.7864 0.94735 0.00361951
1895000 60.2689 253.582 55.7864 0.94745 0.00183863
1895200 60.2689 253.595 55.7864 0.94755 -0.00564046
1895400 60.2689 253.608 55.7864 0.94765 -0.00922763
1895600 60.2689 253.621 55.7864 0.94775 -0.00311505
1895800 60.2689 253.634 55.7864 0.94785 0.00310566
1896000 60.2689 253.647 55.7864 0.94795 -0.0133023
1896200 60.2689 253.66 55.7864 0.94805 -0.0146213
1896400 60.2689 253.673 55.7864 0.94815 0.00507735
1896600 60.2689 253.686 55.7864 0.94825 0.00162814
1896800 60.2689 253.699 55.7864 0.94835 0.0129941
1897000 60.2689 253.712 55.7864 0.94845 0.0215612
1897200 60.2689 253.725 55.7864 0.94855 -0.00747745
1897400 60.2689 253.738 55.7864 0.94865 0.00790243
1897600 60.2689 253.751 55.7864 0.94875 0.0118704
1897800 60.2689 253.764 55.7864 0.94885 0.00504733
1898000 60.2689 253.777 55.7864 0.94895 0.00215678
1898200 60.2689 253.79 55.7864 0.94905 0.023339
1898400 60.2689 253.803 55.7864 0.94915 -0.000572095
1898600 60.2689 253.816 55.7864 0.94925 -0.00126667
1898800 60.2689 253.829 55.7864 0.94935 -0.00791066
1899000 60.2689 253.842 55.7864 0.94945 -0.0056325
1899200 60.2689 253.855 55.7864 0.94955 0.00754762
1899400 60.2689 253.868 55.7864 0.94965 -0.0117856
1899600 60.2689 253.881 55.7864 0.94975 0.0040053
1899800 60.2689 253.894 55.7864 0.94985 -0.0057757
1900000 60.2689 253.907 55.7864 0.94995 0.0028097
1900200 60.2689 253.921 55.7864 0.95005 -0.014012
1900400 60.2689 253.934 55.7864 0.95015 0.00707258
1900600 60.2689 253.947 55.7864 0.95025 -0.0076883
1900800 60.2689 253.96 55.7864 0.95035 0.00967398
1901000 60.2689 253.973 55.7864 0.95045 0.0108323
1901200 60.2689 253.986 55.7864 0.95055 0.0266897
1901400 60.2689 253.999 55.7864 0.95065 -0.000923399
1901600 60.2689 254.012 55.7864 0.95075 0.0039447
1901800 60.2689 254.025 55.7864 0.95085 -0.00546004
1902000 60.2689 254.038 55.7864 0.95095 0.00246368
1902200 60.2689 254.051 55.7864 0.95105 0.00886277
1902400 60.2689 254.064 55.7864 0.95115 0.0124633
1902600 60.2689 254.077 55.7864 0.95125 0.00415271
1902800 60.2689 254.09 55.7864 0.95135 -0.00611904
1903000 60.2689 254.103 55.7864 0.95145 -0.00478592
1903200 60.2689 254.116 55.7864 0.95155 -0.0142764
1903400 60.2689 254.129 55.7864 0.95165 -0.00305874
1903600 60.2689 254.142 55.7864 0.95175 0.0102556
1903800 60.2689 254.155 55.7864 0.95185 -0.00318271
1904000 60.2689 254.168 55.7864 0.95195 0.0072816
1904200 60.2689 254.181 55.7864 0.95205 0.000634877
1904400 60.2689 254.194 55.7864 0.95215 0.00163371
1904600 60.2689 254.207 55.7864 0.95225 -0.00060907
1904800 60.2689 254.22 55.7864 0.95235 -0.0103029
1905000 60.2689 254.233 55.7864 0.95245 0.018711
1905200 60.2689 254.246 55.7864 0.95255 0.015417
1905400 60.2689 254.259 55.7864 0.95265 0.0125653
1905600 60.2689 254.272 55.7864 0.95275 -0.0121615
1905800 60.2689 254.285 55.7864 0.95285 0.000980372
1906000 60.2689 254.298 55.7864 0.95295 -6.96051e-05
1906200 60.2689 254.311 55.7864 0.95305 -0.00164466
1906400 60.2689 254.324 55.7864 0.95315 0.00309574
1906600 60.2689 254.337 55.7864 0.95325 -0.000146267
1906800 60.2689 254.35 55.7864 0.95335 -0.00185158
1907000 60.2689 254.363 55.7864 0.95345 -0.00389329
1907200 60.2689 254.376 55.7864 0.95355 0.0159382
1907400 60.2689 254.389 55.7864 0.95365 -0.0164062
1907600 60.2689 254.402 55.7864 0.95375 0.00255621
1907800 60.2689 254.415 55.7864 0.95385 0.0133149
1908000 60.2689 254.428 55.7864 0.95395 -0.0019009
1908200 60.2689 254.441 55.7864 0.95405 0.0178733
1908400 60.2689 254.454 55.7864 0.95415 0.00851085
1908600 60.2689 254.467 55.7864 0.95425 -0.00107549
1908800 60.2689 254.48 55.7864 0.95435 -0.0090885
1909000 60.2689 254.493 55.7864 0.95445 0.0097688
1909200 60.2689 254.506 55.7864 0.95455 0.00486026
1909400 60.2689 254.519 55.7864 0.95465 0.00608824
1909600 60.2689 254.533 55.7864 0.95475 0.00476319
1909800 60.2689 254.546 55.7864 0.95485 -0.0123793
1910000 60.2689 254.559 55.7864 0.95495 -0.0196252
1910200 60.2689 254.572 55.7864 0.95505 0.0018863
1910400 60.2689 254.585 55.7864 0.95515 -0.00905228
1910600 60.2689 254.598 55.7864 0.95525 0.000220683
1910800 60.2689 254.611 55.7864 0.95535 0.0214539
1911000 60.2689 254.624 55.7864 0.95545 0.00935426
1911200 60.2689 254.637 55.7864 0.95555 -0.00292169
1911400 60.2689 254.65 55.7864 0.95565 0.0216108
1911600 60.2689 254.663 55.7864 0.95575 0.00431609
1911800 60.2689 254.676 55.7864 0.95585 0.00598034
1912000 60.2689 254.689 55.7864 0.95595 0.00149224
1912200 60.2689 254.702 55.7864 0.95605 0.00856313
1912400 60.2689 254.715 55.7864 0.95615 -0.00390773
1912600 60.2689 254.728 55.7864 0.95625 0.00910227
1912800 60.2689 254.741 55.7864 0.95635 -0.0130893
1913000 60.2689 254.754 55.7864 0.95645 -0.00638873
1913200 60.2689 254.767 55.7864 0.95655 -0.00575655
1913400 60.2689 254.78 55.7864 0.95665 0.00308585
1913600 60.2689 254.793 55.7864 0.95675 -0.00348502
1913800 60.2689 254.806 55.7864 0.95685 -0.0011222
1914000 60.2689 254.819 55.7864 0.95695 0.00292462
1914200 60.2689 254.832 55.7864 0.95705 0.00165864
1914400 60.2689 254.845 55.7864 0.95715 -0.0103462
1914600 60.2689 254.858 55.7864 0.95725 0.011683
1914800 60.2689 254.871 55.7864 0.95735 0.0167267
1915000 60.2689 254.884 55.7864 0.95745 -0.00322731
1915200 60.2689 254.897 55.7864 0.95755 0.00809353
1915400 60.2689 254.91 55.7864 0.95765 0.0109128
1915600 60.2689 254.923 55.7864 0.95775 0.012707
1915800 60.2689 254.936 55.7864 0.95785 -0.00134921
1916000 60.2689 254.949 55.7864 0.95795 -0.00234067
1916200 60.2689 254.962 55.7864 0.95805 0.0025897
1916400 60.2689 254.975 55.7864 0.95815 -0.00147707
1916600 60.2689 254.988 55.7864 0.95825 0.0137622
1916800 60.2689 255.001 55.7864 0.95835 -0.0151474
1917000 60.2689 255.014 55.7864 0.95845 -0.0125569
1917200 60.2689 255.027 55.7864 0.95855 -0.00852095
1917400 60.2689 255.04 55.7864 0.95865 0.002087
1917600 60.2689 255.053 55.7864 0.95875 0.00406552
1917800 60.2689 255.066 55.7864 0.95885 -0.0069128
1918000 60.2689 255.079 55.7864 0.95895 0.00630872
1918200 60.2689 255.092 55.7864 0.95905 0.0111569
1918400 60.2689 255.105 55.7864 0.95915 0.0091003
1918600 60.2689 255.118 55.7864 0.95925 0.00249264
1918800 60.2689 255.131 55.7864 0.95935 -0.00218843
1919000 60.2689 255.145 55.7864 0.95945 0.0149314
1919200 60.2689 255.158 55.7864 0.95955 0.00294846
1919400 60.2689 255.171 55.7864 0.95965 0.01547
1919600 60.2689 255.184 55.7864 0.95975 -0.00691989
1919800 60.2689 255.197 55.7864 0.95985 0.00992997
1920000 60.2689 255.21 55.7864 0.95995 -0.00166709
1920200 60.2689 255.223 55.7864 0.96005 -0.00251636
1920400 60.2689 255.236 55.7864 0.96015 -0.00745779
1920600 60.2689 255.249 55.7864 0.96025 5.85407e-05
1920800 60.2689 255.262 55.7864 0.96035 -0.0125048
1921000 60.2689 255.275 55.7864 0.96045 0.0133879
1921200 60.2689 255.288 55.7864 0.96055 0.00839616
1921400 60.2689 255.301 55.7864 0.96065 0.0101764
1921600 60.2689 255.314 55.7864 0.96075 -0.0208611
1921800 60.2689 255.327 55.7864 0.96085 -0.000788641
1922000 60.2689 255.34 55.7864 0.96095 0.00335021
1922200 60.2689 255.353 55.7864 0.96105 -0.000154059
1922400 60.2689 255.366 55.7864 0.96115 0.0114891
1922600 60.2689 255.379 55.7864 0.96125 -0.00915187
1922800 60.2689 255.392 55.7864 0.96135 0.0185343
1923000 60.2689 255.405 55.7864 0.96145 0.00633985
1923200 60.2689 255.418 55.7864 0.96155 -0.00595742
1923400 60.2689 255.431 55.7864 0.96165 0.00598585
1923600 60.2689 255.444 55.7864 0.96175 -0.00961372
1923800 60.2689 255.457 55.7864 0.96185 -0.00762259
1924000 60.2689 255.47 55.7864 0.96195 0.019028
1924200 60.2689 255.483 55.7864 0.96205 0.0072271
1924400 60.2689 255.496 55.7864 0.96215 0.00743029
1924600 60.2689 255.509 55.7864 0.96225 -0.00337647
1924800 60.2689 255.522 55.7864 0.96235 -0.0035706
1925000 60.2689 255.535 55.7864 0.96245 -0.00542704
1925200 60.2689 255.548 55.7864 0.96255 0.0116894
1925400 60.2689 255.561 55.7864 0.96265 -0.002456
1925600 60.2689 255.574 55.7864 0.96275 0.0106446
1925800 60.2689 255.587 55.7864 0.96285 0.000457048
1926000 60.2689 255.6 55.7864 0.96295 -0.0139399
1926200 60.2689 255.613 55.7864 0.96305 -0.0149827
1926400 60.2689 255.626 55.7864 0.96315 0.0137727
1926600 60.2689 255.639 55.7864 0.96325 0.000214708
1926800 60.2689 255.652 55.7864 0.96335 0.0124347
1927000 60.2689 255.665 55.7864 0.96345 0.00605178
1927200 60.2689 255.678 55.7864 0.96355 0.007377
1927400 60.2689 255.691 55.7864 0.96365 -0.00174447
1927600 60.2689 255.704 55.7864 0.96375 -0.016274
1927800 60.2689 255.717 55.7864 0.96385 -0.000163209
1928000 60.2689 255.73 55.7864 0.96395 0.00866084
1928200 60.2689 255.743 55.7864 0.96405 0.0148103
1928400 60.2689 255.757 55.7864 0.96415 0.00715147
1928600 60.2689 255.77 55.7864 0.96425 0.00280313
1928800 60.2689 255.783 55.7864 0.96435 -0.00250506
1929000 60.2689 255.796 55.7864 0.96445 -0.00331524
1929200 60.2689 255.809 55.7864 0.96455 -0.00966408
1929400 60.2689 255.822 55.7864 0.96465 0.00737274
1929600 60.2689 255.835 55.7864 0.96475 0.0103871
1929800 60.2689 255.848 55.7864 0.96485 -0.00411865
1930000 60.2689 255.861 55.7864 0.96495 -0.00673631
1930200 60.2689 255.874 55.7864 0.96505 0.00863948
1930400 60.2689 255.887 55.7864 0.96515 -0.00135092
1930600 60.2689 255.9 55.7864 0.96525 -0.00727762
1930800 60.2689 255.913 55.7864 0.96535 0.00917801
1931000 60.2689 255.926 55.7864 0.96545 -0.00661979
1931200 60.2689 255.939 55.7864 0.96555 0.0202249
1931400 60.2689 255.952 55.7864 0.96565 0.00184525
1931600 60.2689 255.965 55.7864 0.96575 -0.00390895
1931800 60.2689 255.978 55.7864 0.96585 -0.000558041
1932000 60.2689 255.991 55.7864 0.96595 0.00607189
1932200 60.2689 256.004 55.7864 0.96605 -0.0012352
1932400 60.2689 256.017 55.7864 0.96615 -0.000661433
1932600 60.2689 256.03 55.7864 0.96625 0.00347764
1932800 60.2689 256.043 55.7864 0.96635 -0.0151429
1933000 60.2689 256.056 55.7864 0.96645 0.012746
1933200 60.2689 256.069 55.7864 0.96655 0.00683926
1933400 60.2689 256.082 55.7864 0.96665 -0.00690924
1933600 60.2689 256.095 55.7864 0.96675 -0.000425043
1933800 60.2689 256.108 55.7864 0.96685 -0.000245914
1934000 60.2689 256.121 55.7864 0.96695 0.00110767
1934200 60.2689 256.134 55.7864 0.96705 0.00364522
1934400 60.2689 256.147 55.7864 0.96715 0.0156501
1934600 60.2689 256.16 55.7864 0.96725 -0.00751793
1934800 60.2689 256.173 55.7864 0.96735 0.00162343
1935000 60.2689 256.186 55.7864 0.96745 0.019729
1935200 60.2689 256.199 55.7864 0.96755 -0.00409227
1935400 60.2689 256.212 55.7864 0.96765 0.00929934
1935600 60.2689 256.225 55.7864 0.96775 -0.00497461
1935800 60.2689 256.238 55.7864 0.96785 0.00231926
1936000 60.2689 256.251 55.7864 0.96795 0.00737761
1936200 60.2689 256.264 55.7864 0.96805 -0.00630119
1936400 60.2689 256.277 55.7864 0.96815 -0.00655531
1936600 60.2689 256.29 55.7864 0.96825 -0.00238823
1936800 60.2689 256.303 55.7864 0.96835 -0.00402185
1937000 60.2689 256.316 55.7864 0.96845 0.00529046
1937200 60.2689 256.329 55.7864 0.96855 0.00979297
1937400 60.2689 256.342 55.7864 0.96865 -0.0173761
1937600 60.2689 256.355 55.7864 0.96875 0.00440265
1937800 60.2689 256.368 55.7864 0.96885 0.0110617
1938000 60.2689 256.382 55.7864 0.96895 0.00250585
1938200 60.2689 256.395 55.7864 0.96905 0.000295048
1938400 60.2689 256.408 55.7864 0.96915 0.00691481
1938600 60.2689 256.421 55.7864 0.96925 -0.00600108
1938800 60.2689 256.434 55.7864 0.96935 -5.72864e-05
1939000 60.2689 256.447 55.7864 0.96945 0.00777536
1939200 60.2689 256.46 55.7864 0.96955 -0.0102571
1939400 60.2689 256.473 55.7864 0.96965 0.0103504
1939600 60.2689 256.486 55.7864 0.96975 -0.00407945
1939800 60.2689 256.499 55.7864 0.96985 0.00584371
1940000 60.2689 256.512 55.7864 0.96995 -0.00926996
1940200 60.2689 256.525 55.7864 0.97005 0.0148483
1940400 60.2689 256.538 55.7864 0.97015 0.00723994
1940600 60.2689 256.551 55.7864 0.97025 -0.00629026
1940800 60.2689 256.564 55.7864 0.97035 0.0105382
1941000 60.2689 256.577 55.7864 0.97045 -0.00547468
1941200 60.2689 256.59 55.7864 0.97055 0.00979777
1941400 60.2689 256.603 55.7864 0.97065 -0.00582019
1941600 60.2689 256.616 55.7864 0.97075 0.0142828
1941800 60.2689 256.629 55.7864 0.97085 -0.00907055
1942000 60.2689 256.642 55.7864 0.97095 -0.00627592
1942200 60.2689 256.655 55.7864 0.97105 0.0100482
1942400 60.2689 256.668 55.7864 0.97115 -0.00433996
1942600 60.2689 256.681 55.7864 0.97125 -0.00891253
1942800 60.2689 256.694 55.7864 0.97135 -0.00597969
1943000 60.2689 256.707 55.7864 0.97145 0.00761489
1943200 60.2689 256.72 55.7864 0.97155 0.0053951
1943400 60.2689 256.733 55.7864 0.97165 -0.000971747
1943600 60.2689 256.746 55.7864 0.97175 -0.00481848
1943800 60.2689 256.759 55.7864 0.97185 0.00889843
1944000 60.2689 256.772 55.7864 0.97195 0.00658328
1944200 60.2689 256.785 55.7864 0.97205 0.0112009
1944400 60.2689 256.798 55.7864 0.97215 -0.00540025
1944600 60.2689 256.811 55.7864 0.97225 -0.00515092
1944800 60.2689 256.824 55.7864 0.97235 0.0108879
1945000 60.2689 256.837 55.7864 0.97245 0.00200068
1945200 60.2689 256.85 55.7864 0.97255 -0.0104971
1945400 60.2689 256.863 55.7864 0.97265 0.00991314
1945600 60.2689 256.876 55.7864 0.97275 -0.00305918
1945800 60.2689 256.889 55.7864 0.97285 0.00146887
1946000 60.2689 256.902 55.7864 0.97295 -0.00131732
1946200 60.2689 256.915 55.7864 0.97305 0.00310952
1946400 60.2689 256.928 55.7864 0.97315 -0.00762753
1946600 60.2689 256.941 55.7864 0.97325 0.0046395
1946800 60.2689 256.954 55.7864 0.97335 0.0111865
1947000 60.2689 256.967 55.7864 0.97345 -0.00800292
1947200 60.2689 256.98 55.7864 0.97355 0.00170938
1947400 60.2689 256.994 55.7864 0.97365 0.00698984
1947600 60.2689 257.007 55.7864 0.97375 0.000113572
1947800 60.2689 257.02 55.7864 0.97385 -0.00415616
1948000 60.2689 257.033 55.7864 0.97395 -0.00295842
1948200 60.2689 257.046 55.7864 0.97405 0.015829
1948400 60.2689 257.059 55.7864 0.97415 0.0117276
1948600 60.2689 257.072 55.7864 0.97425 0.00516317
1948800 60.2689 257.085 55.7864 0.97435 -0.000349758
1949000 60.2689 257.098 55.7864 0.97445 -0.00442348
1949200 60.2689 257.111 55.7864 0.97455 -0.0095271
1949400 60.2689 257.124 55.7864 0.97465 0.0041435
1949600 60.2689 257.137 55.7864 0.97475 -0.00395745
1949800 60.2689 257.15 55.7864 0.97485 -0.0057395
1950000 60.2689 257.163 55.7864 0.97495 0.010828
1950200 60.2689 257.176 55.7864 0.97505 -0.014083
1950400 60.2689 257.189 55.7864 0.97515 -0.00468847
1950600 60.2689 257.202 55.7864 0.97525 -0.00180842
1950800 60.2689 257.215 55.7864 0.97535 0.000749065
1951000 60.2689 257.228 55.7864 0.97545 0.00187405
1951200 60.2689 257.241 55.7864 0.97555 0.0200951
1951400 60.2689 257.254 55.7864 0.97565 0.00119544
1951600 60.2689 257.267 55.7864 0.97575 0.0107594
1951800 60.2689 257.28 55.7864 0.97585 0.00553523
1952000 60.2689 257.293 55.7864 0.97595 0.00330774
1952200 60.2689 257.306 55.7864 0.97605 -0.00508628
1952400 60.2689 257.319 55.7864 0.97615 0.00530113
1952600 60.2689 257.332 55.7864 0.97625 0.00474357
1952800 60.2689 257.345 55.7864 0.97635 0.00317982
1953000 60.2689 257.358 55.7864 0.97645 -0.00682185
1953200 60.2689 257.371 55.7864 0.97655 0.00565697
1953400 60.2689 257.384 55.7864 0.97665 -0.0115916
1953600 60.2689 257.397 55.7864 0.97675 -0.00236317
1953800 60.2689 257.41 55.7864 0.97685 -0.00124482
1954000 60.2689 257.423 55.7864 0.97695 -0.00916923
1954200 60.2689 257.436 55.7864 0.97705 -0.00615508
1954400 60.2689 257.449 55.7864 0.97715 0.000951508
1954600 60.2689 257.462 55.7864 0.97725 0.00413176
1954800 60.2689 257.475 55.7864 0.97735 0.00964214
1955000 60.2689 257.488 55.7864 0.97745 0.00441857
1955200 60.2689 257.501 55.7864 0.97755 -0.00774134
1955400 60.2689 257.514 55.7864 0.97765 0.0215713
1955600 60.2689 257.527 55.7864 0.97775 -0.00135678
1955800 60.2689 257.54 55.7864 0.97785 0.00754788
1956000 60.2689 257.553 55.7864 0.97795 0.000815872
1956200 60.2689 257.566 55.7864 0.97805 0.00705317
1956400 60.2689 257.579 55.7864 0.97815 0.00778027
1956600 60.2689 257.592 55.7864 0.97825 -0.0107032
1956800 60.2689 257.606 55.7864 0.97835 -0.00547126
1957000 60.2689 257.619 55.7864 0.97845 0.00928376
1957200 60.2689 257.632 55.7864 0.97855 -0.00172807
1957400 60.2689 257.645 55.7864 0.97865 -0.00278894
1957600 60.2689 257.658 55.7864 0.97875 0.00499401
1957800 60.2689 257.671 55.7864 0.97885 -0.0137378
1958000 60.2689 257.684 55.7864 0.97895 -0.0028907
1958200 60.2689 257.697 55.7864 0.97905 -0.00181608
1958400 60.2689 257.71 55.7864 0.97915 0.00751116
1958600 60.2689 257.723 55.7864 0.97925 -0.0030244
1958800 60.2689 257.736 55.7864 0.97935 0.00301096
1959000 60.2689 257.749 55.7864 0.97945 0.00291379
1959200 60.2689 257.762 55.7864 0.97955 0.00560486
1959400 60.2689 257.775 55.7864 0.97965 -0.00544617
1959600 60.2689 257.788 55.7864 0.97975 0.0106897
1959800 60.2689 257.801 55.7864 0.97985 0.0182629
1960000 60.2689 257.814 55.7864 0.97995 -0.0146754
1960200 60.2689 257.827 55.7864 0.98005 0.00843421
1960400 60.2689 257.84 55.7864 0.98015 -0.00324955
1960600 60.2689 257.853 55.7864 0.98025 -0.00794858
1960800 60.2689 257.866 55.7864 0.98035 0.00310915
1961000 60.2689 257.879 55.7864 0.98045 0.00118707
1961200 60.2689 257.892 55.7864 0.98055 0.00111846
1961400 60.2689 257.905 55.7864 0.98065 -0.0102809
1961600 60.2689 257.918 55.7864 0.98075 0.00134906
1961800 60.2689 257.931 55.7864 0.98085 0.00846158
1962000 60.2689 257.944 55.7864 0.98095 0.0016421
1962200 60.2689 257.957 55.7864 0.98105 0.000620973
1962400 60.2689 257.97 55.7864 0.98115 0.00849958
1962600 60.2689 257.983 55.7864 0.98125 0.00649861
1962800 60.2689 257.996 55.7864 0.98135 -0.00881505
1963000 60.2689 258.009 55.7864 0.98145 -0.00843535
1963200 60.2689 258.022 55.7864 0.98155 0.0194763
1963400 60.2689 258.035 55.7864 0.98165 -0.0103697
1963600 60.2689 258.048 55.7864 0.98175 0.01026
1963800 60.2689 258.061 55.7864 0.98185 -0.0116192
1964000 60.2689 258.074 55.7864 0.98195 0.00504368
1964200 60.2689 258.087 55.7864 0.98205 0.00270703
1964400 60.2689 258.1 55.7864 0.98215 0.00290324
1964600 60.2689 258.113 55.7864 0.98225 -0.00422167
1964800 60.2689 258.126 55.7864 0.98235 0.0166353
1965000 60.2689 258.139 55.7864 0.98245 -0.00428859
1965200 60.2689 258.152 55.7864 0.98255 -0.00035966
1965400 60.2689 258.165 55.7864 0.98265 -0.000458306
1965600 60.2689 258.178 55.7864 0.98275 -0.00380794
1965800 60.2689 258.191 55.7864 0.98285 8.051e-05
1966000 60.2689 258.204 55.7864 0.98295 -0.00219564
1966200 60.2689 258.218 55.7864 0.98305 -0.00183052
1966400 60.2689 258.231 55.7864 0.98315 0.00104024
1966600 60.2689 258.244 55.7864 0.98325 0.00915187
1966800 60.2689 258.257 55.7864 0.98335 -0.0100137
1967000 60.2689 258.27 55.7864 0.98345 0.0039401
1967200 60.2689 258.283 55.7864 0.98355 -0.000107062
1967400 60.2689 258.296 55.7864 0.98365 -0.00105754
1967600 60.2689 258.309 55.7864 0.98375 -0.00838472
1967800 60.2689 258.322 55.7864 0.98385 0.00580235
1968000 60.2689 258.335 55.7864 0.98395 0.00261655
1968200 60.2689 258.348 55.7864 0.98405 0.00858961
1968400 60.2689 258.361 55.7864 0.98415 0.0098056
1968600 60.2689 258.374 55.7864 0.98425 -0.0140457
1968800 60.2689 258.387 55.7864 0.98435 0.0145139
1969000 60.2689 258.4 55.7864 0.98445 0.0103914
1969200 60.2689 258.413 55.7864 0.98455 -0.000256494
1969400 60.2689 258.426 55.7864 0.98465 0.00860684
1969600 60.2689 258.439 55.7864 0.98475 -0.00115305
1969800 60.2689 258.452 55.7864 0.98485 -0.00440745
1970000 60.2689 258.465 55.7864 0.98495 -0.00230177
1970200 60.2689 258.478 55.7864 0.98505 0.000722162
1970400 60.2689 258.491 55.7864 0.98515 -0.00255454
1970600 60.2689 258.504 55.7864 0.98525 -0.007635
1970800 60.2689 258.517 55.7864 0.98535 -0.0012217
1971000 60.2689 258.53 55.7864 0.98545 -0.00715242
1971200 60.2689 258.543 55.7864 0.98555 0.00884128
1971400 60.2689 258.556 55.7864 0.98565 -0.0182324
1971600 60.2689 258.569 55.7864 0.98575 0.0149188
1971800 60.2689 258.582 55.7864 0.98585 -0.00264367
1972000 60.2689 258.595 55.7864 0.98595 0.0105586
1972200 60.2689 258.608 55.7864 0.98605 -0.00134387
1972400 60.2689 258.621 55.7864 0.98615 0.00574638
1972600 60.2689 258.634 55.7864 0.98625 0.0128339
1972800 60.2689 258.647 55.7864 0.98635 0.00136759
1973000 60.2689 258.66 55.7864 0.98645 -0.00399362
1973200 60.2689 258.673 55.7864 0.98655 0.000666284
1973400 60.2689 258.686 55.7864 0.98665 0.000923166
1973600 60.2689 258.699 55.7864 0.98675 -0.00755663
1973800 60.2689 258.712 55.7864 0.98685 0.00427651
1974000 60.2689 258.725 55.7864 0.98695 -0.00426258
1974200 60.2689 258.738 55.7864 0.98705 0.0124463
1974400 60.2689 258.751 55.7864 0.98715 -0.00641219
1974600 60.2689 258.764 55.7864 0.98725 -0.010889
1974800 60.2689 258.777 55.7864 0.98735 0.00476813
1975000 60.2689 258.79 55.7864 0.98745 0.00954584
1975200 60.2689 258.803 55.7864 0.98755 -0.00652439
1975400 60.2689 258.816 55.7864 0.98765 0.0219948
1975600 60.2689 258.83 55.7864 0.98775 -0.00146919
1975800 60.2689 258.843 55.7864 0.98785 -0.00723298
1976000 60.2689 258.856 55.7864 0.98795 0.00484751
1976200 60.2689 258.869 55.7864 0.98805 -0.00103928
1976400 60.2689 258.882 55.7864 0.98815 -0.00268409
1976600 60.2689 258.895 55.7864 0.98825 -0.00738093
1976800 60.2689 258.908 55.7864 0.98835 -0.00897396
1977000 60.2689 258.921 55.7864 0.98845 0.00119891
1977200 60.2689 258.934 55.7864 0.98855 0.0104124
1977400 60.2689 258.947 55.7864 0.98865 0.00465564
1977600 60.2689 258.96 55.7864 0.98875 -0.00863435
1977800 60.2689 258.973 55.7864 0.98885 -0.00357368
1978000 60.2689 258.986 55.7864 0.98895 0.0103105
1978200 60.2689 258.999 55.7864 0.98905 0.00941393
1978400 60.2689 259.012 55.7864 0.98915 0.00600172
1978600 60.2689 259.025 55.7864 0.98925 0.00976879
1978800 60.2689 259.038 55.7864 0.98935 -0.00547007
1979000 60.2689 259.051 55.7864 0.98945 0.000887694
1979200 60.2689 259.064 55.7864 0.98955 0.00702168
1979400 60.2689 259.077 55.7864 0.98965 -0.00921419
1979600 60.2689 259.09 55.7864 0.98975 0.00753049
1979800 60.2689 259.103 55.7864 0.98985 -0.000311493
1980000 60.2689 259.116 55.7864 0.98995 0.000572842
1980200 60.2689 259.129 55.7864 0.99005 -0.00316317
1980400 60.2689 259.142 55.7864 0.99015 -0.0119319
1980600 60.2689 259.155 55.7864 0.99025 -0.0160816
1980800 60.2689 259.168 55.7864 0.99035 -0.00260612
1981000 60.2689 259.181 55.7864 0.99045 0.0129972
1981200 60.2689 259.194 55.7864 0.99055 0.00139882
1981400 60.2689 259.207 55.7864 0.99065 0.00939365
1981600 60.2689 259.22 55.7864 0.99075 -0.00643442
1981800 60.2689 259.233 55.7864 0.99085 0.00965215
1982000 60.2689 259.246 55.7864 0.99095 -0.0162623
1982200 60.2689 259.259 55.7864 0.99105 0.0180242
1982400 60.2689 259.272 55.7864 0.99115 0.024587
1982600 60.2689 259.285 55.7864 0.99125 0.0103092
1982800 60.2689 259.298 55.7864 0.99135 -0.00595419
1983000 60.2689 259.311 55.7864 0.99145 0.00734283
1983200 60.2689 259.324 55.7864 0.99155 -0.00107172
1983400 60.2689 259.337 55.7864 0.99165 -0.00953658
1983600 60.2689 259.35 55.7864 0.99175 -0.00855073
1983800 60.2689 259.363 55.7864 0.99185 0.00141414
1984000 60.2689 259.376 55.7864 0.99195 -0.0150363
1984200 60.2689 259.389 55.7864 0.99205 -0.00416832
1984400 60.2689 259.402 55.7864 0.99215 -0.00534365
1984600 60.2689 259.415 55.7864 0.99225 0.00737946
1984800 60.2689 259.428 55.7864 0.99235 -0.00697022
1985000 60.2689 259.442 55.7864 0.99245 0.00255968
1985200 60.2689 259.455 55.7864 0.99255 0.00307481
1985400 60.2689 259.468 55.7864 0.99265 0.00825184
1985600 60.2689 259.481 55.7864 0.99275 0.0027038
1985800 60.2689 259.494 55.7864 0.99285 0.0123733
1986000 60.2689 259.507 55.7864 0.99295 0.00436482
1986200 60.2689 259.52 55.7864 0.99305 0.0132642
1986400 60.2689 259.533 55.7864 0.99315 0.00983729
1986600 60.2689 259.546 55.7864 0.99325 -0.00356887
1986800 60.2689 259.559 55.7864 0.99335 -0.00752415
1987000 60.2689 259.572 55.7864 0.99345 0.00513196
1987200 60.2689 259.585 55.7864 0.99355 -0.00543311
1987400 60.2689 259.598 55.7864 0.99365 -0.00385345
1987600 60.2689 259.611 55.7864 0.99375 -0.0113278
1987800 60.2689 259.624 55.7864 0.99385 0.00283536
1988000 60.2689 259.637 55.7864 0.99395 -0.0213103
1988200 60.2689 259.65 55.7864 0.99405 -0.00145989
1988400 60.2689 259.663 55.7864 0.99415 0.00400386
1988600 60.2689 259.676 55.7864 0.99425 0.00562696
1988800 60.2689 259.689 55.7864 0.99435 -0.00232574
1989000 60.2689 259.702 55.7864 0.99445 0.0178789
1989200 60.2689 259.715 55.7864 0.99455 0.00500883
1989400 60.2689 259.728 55.7864 0.99465 0.00103161
1989600 60.2689 259.741 55.7864 0.99475 -0.00709017
1989800 60.2689 259.754 55.7864 0.99485 0.0059481
1990000 60.2689 259.767 55.7864 0.99495 0.0134736
1990200 60.2689 259.78 55.7864 0.99505 0.00440221
1990400 60.2689 259.793 55.7864 0.99515 0.0100202
1990600 60.2689 259.806 55.7864 0.99525 -0.0132897
1990800 60.2689 259.819 55.7864 0.99535 0.00890161
1991000 60.2689 259.832 55.7864 0.99545 0.000579545
1991200 60.2689 259.845 55.7864 0.99555 0.000238487
1991400 60.2689 259.858 55.7864 0.99565 0.021784
1991600 60.2689 259.871 55.7864 0.99575 -0.00826169
1991800 60.2689 259.884 55.7864 0.99585 -0.0119663
1992000 60.2689 259.897 55.7864 0.99595 -0.00924658
1992200 60.2689 259.91 55.7864 0.99605 -0.000841955
1992400 60.2689 259.923 55.7864 0.99615 -0.00768601
1992600 60.2689 259.936 55.7864 0.99625 -0.00889018
1992800 60.2689 259.949 55.7864 0.99635 -0.0108613
1993000 60.2689 259.962 55.7864 0.99645 -0.000335604
1993200 60.2689 259.975 55.7864 0.99655 0.00754241
1993400 60.2689 259.988 55.7864 0.99665 -0.00570765
1993600 60.2689 260.001 55.7864 0.99675 0.0103057
1993800 60.2689 260.014 55.7864 0.99685 0.0119115
1994000 60.2689 260.027 55.7864 0.99695 0.00951182
1994200 60.2689 260.04 55.7864 0.99705 -0.00122014
1994400 60.2689 260.054 55.7864 0.99715 0.0180014
1994600 60.2689 260.067 55.7864 0.99725 0.00690661
1994800 60.2689 260.08 55.7864 0.99735 0.0161063
1995000 60.2689 260.093 55.7864 0.99745 0.0119532
1995200 60.2689 260.106 55.7864 0.99755 -0.00461094
1995400 60.2689 260.119 55.7864 0.99765 -0.00393859
1995600 60.2689 260.132 55.7864 0.99775 -0.0139787
1995800 60.2689 260.145 55.7864 0.99785 -0.0146466
1996000 60.2689 260.158 55.7864 0.99795 0.01485
1996200 60.2689 260.171 55.7864 0.99805 -0.0133217
1996400 60.2689 260.184 55.7864 0.99815 -0.020958
1996600 60.2689 260.197 55.7864 0.99825 -0.00395465
1996800 60.2689 260.21 55.7864 0.99835 -0.00549015
1997000 60.2689 260.223 55.7864 0.99845 -0.00555099
1997200 60.2689 260.236 55.7864 0.99855 0.00089514
1997400 60.2689 260.249 55.7864 0.99865 0.00571161
1997600 60.2689 260.262 55.7864 0.99875 0.0148897
1997800 60.2689 260.275 55.7864 0.99885 0.0119299
1998000 60.2689 260.288 55.7864 0.99895 0.00291671
1998200 60.2689 260.301 55.7864 0.99905 0.0085117
1998400 60.2689 260.314 55.7864 0.99915 0.0246652
1998600 60.2689 260.327 55.7864 0.99925 0.0137775
1998800 60.2689 260.34 55.7864 0.99935 -0.00253142
1999000 60.2689 260.353 55.7864 0.99945 0.0141472
1999200 60.2689 260.366 55.7864 0.99955 -0.0138024
1999400 60.2689 260.379 55.7864 0.99965 -0.00349544
1999600 60.2689 260.392 55.7864 0.99975 -0.00352642
1999800 60.2689 260.405 55.7864 0.99985 -0.00880512
2000000 60.2689 260.418 55.7864 0.99995 -0.00375385
