# Time-averaged data for fix Re_Primary
Step Lx Ly Lz StrainY StressYY
200 60.2096 130.245 55.7714 5.025e-05 -0.0309131
400 60.2096 130.258 55.7714 0.00015025 -0.0391499
600 60.2096 130.271 55.7714 0.00025025 -0.0157012
800 60.2096 130.284 55.7714 0.00035025 -0.0267313
1000 60.2096 130.297 55.7714 0.00045025 0.00338654
1200 60.2096 130.31 55.7714 0.00055025 0.0184108
1400 60.2096 130.323 55.7714 0.00065025 0.0020956
1600 60.2096 130.336 55.7714 0.00075025 0.0428614
1800 60.2096 130.349 55.7714 0.00085025 0.0293546
2000 60.2096 130.362 55.7714 0.00095025 0.0467461
2200 60.2096 130.375 55.7714 0.00105025 0.0565682
2400 60.2096 130.388 55.7714 0.00115025 0.0936568
2600 60.2096 130.401 55.7714 0.00125025 0.0652927
2800 60.2096 130.414 55.7714 0.00135025 0.102039
3000 60.2096 130.427 55.7714 0.00145025 0.0934332
3200 60.2096 130.44 55.7714 0.00155025 0.126016
3400 60.2096 130.453 55.7714 0.00165025 0.104192
3600 60.2096 130.466 55.7714 0.00175025 0.135764
3800 60.2096 130.479 55.7714 0.00185025 0.142992
4000 60.2096 130.492 55.7714 0.00195025 0.142525
4200 60.2096 130.505 55.7714 0.00205025 0.167307
4400 60.2096 130.518 55.7714 0.00215025 0.162189
4600 60.2096 130.531 55.7714 0.00225025 0.178391
4800 60.2096 130.544 55.7714 0.00235025 0.186565
5000 60.2096 130.557 55.7714 0.00245025 0.199522
5200 60.2096 130.57 55.7714 0.00255025 0.222071
5400 60.2096 130.583 55.7714 0.00265025 0.214784
5600 60.2096 130.597 55.7714 0.00275025 0.264901
5800 60.2096 130.61 55.7714 0.00285025 0.223792
6000 60.2096 130.623 55.7714 0.00295025 0.246308
6200 60.2096 130.636 55.7714 0.00305025 0.27834
6400 60.2096 130.649 55.7714 0.00315025 0.254609
6600 60.2096 130.662 55.7714 0.00325025 0.290946
6800 60.2096 130.675 55.7714 0.00335025 0.284815
7000 60.2096 130.688 55.7714 0.00345025 0.314567
7200 60.2096 130.701 55.7714 0.00355025 0.298228
7400 60.2096 130.714 55.7714 0.00365025 0.325708
7600 60.2096 130.727 55.7714 0.00375025 0.338428
7800 60.2096 130.74 55.7714 0.00385025 0.34985
8000 60.2096 130.753 55.7714 0.00395025 0.35696
8200 60.2096 130.766 55.7714 0.00405025 0.365112
8400 60.2096 130.779 55.7714 0.00415025 0.386954
8600 60.2096 130.792 55.7714 0.00425025 0.383691
8800 60.2096 130.805 55.7714 0.00435025 0.396003
9000 60.2096 130.818 55.7714 0.00445025 0.39262
9200 60.2096 130.831 55.7714 0.00455025 0.415991
9400 60.2096 130.844 55.7714 0.00465025 0.44403
9600 60.2096 130.857 55.7714 0.00475025 0.42403
9800 60.2096 130.87 55.7714 0.00485025 0.451431
10000 60.2096 130.883 55.7714 0.00495025 0.466504
10200 60.2096 130.896 55.7714 0.00505025 0.47416
10400 60.2096 130.909 55.7714 0.00515025 0.474124
10600 60.2096 130.922 55.7714 0.00525025 0.495825
10800 60.2096 130.935 55.7714 0.00535025 0.504211
11000 60.2096 130.948 55.7714 0.00545025 0.536003
11200 60.2096 130.961 55.7714 0.00555025 0.514229
11400 60.2096 130.974 55.7714 0.00565025 0.514471
11600 60.2096 130.987 55.7714 0.00575025 0.555599
11800 60.2096 131 55.7714 0.00585025 0.58485
12000 60.2096 131.013 55.7714 0.00595025 0.550289
12200 60.2096 131.026 55.7714 0.00605025 0.569364
12400 60.2096 131.039 55.7714 0.00615025 0.591404
12600 60.2096 131.052 55.7714 0.00625025 0.581909
12800 60.2096 131.065 55.7714 0.00635025 0.617605
13000 60.2096 131.078 55.7714 0.00645025 0.623332
13200 60.2096 131.091 55.7714 0.00655025 0.632385
13400 60.2096 131.104 55.7714 0.00665025 0.63719
13600 60.2096 131.117 55.7714 0.00675025 0.651586
13800 60.2096 131.13 55.7714 0.00685025 0.654953
14000 60.2096 131.144 55.7714 0.00695025 0.681459
14200 60.2096 131.157 55.7714 0.00705025 0.67137
14400 60.2096 131.17 55.7714 0.00715025 0.694519
14600 60.2096 131.183 55.7714 0.00725025 0.69502
14800 60.2096 131.196 55.7714 0.00735025 0.701728
15000 60.2096 131.209 55.7714 0.00745025 0.764129
15200 60.2096 131.222 55.7714 0.00755025 0.699736
15400 60.2096 131.235 55.7714 0.00765025 0.762988
15600 60.2096 131.248 55.7714 0.00775025 0.755326
15800 60.2096 131.261 55.7714 0.00785025 0.773008
16000 60.2096 131.274 55.7714 0.00795025 0.778653
16200 60.2096 131.287 55.7714 0.00805025 0.788565
16400 60.2096 131.3 55.7714 0.00815025 0.800944
16600 60.2096 131.313 55.7714 0.00825025 0.810643
16800 60.2096 131.326 55.7714 0.00835025 0.835116
17000 60.2096 131.339 55.7714 0.00845025 0.814335
17200 60.2096 131.352 55.7714 0.00855025 0.849392
17400 60.2096 131.365 55.7714 0.00865025 0.847125
17600 60.2096 131.378 55.7714 0.00875025 0.866757
17800 60.2096 131.391 55.7714 0.00885025 0.874433
18000 60.2096 131.404 55.7714 0.00895025 0.884624
18200 60.2096 131.417 55.7714 0.00905025 0.900133
18400 60.2096 131.43 55.7714 0.00915025 0.919733
18600 60.2096 131.443 55.7714 0.00925025 0.903783
18800 60.2096 131.456 55.7714 0.00935025 0.942185
19000 60.2096 131.469 55.7714 0.00945025 0.913604
19200 60.2096 131.482 55.7714 0.00955025 0.953217
19400 60.2096 131.495 55.7714 0.00965025 0.95698
19600 60.2096 131.508 55.7714 0.00975025 0.956666
19800 60.2096 131.521 55.7714 0.00985025 1.00673
20000 60.2096 131.534 55.7714 0.00995025 0.969512
20200 60.2096 131.547 55.7714 0.0100502 1.01878
20400 60.2096 131.56 55.7714 0.0101502 1.00319
20600 60.2096 131.573 55.7714 0.0102502 1.02424
20800 60.2096 131.586 55.7714 0.0103502 1.00936
21000 60.2096 131.599 55.7714 0.0104502 1.06245
21200 60.2096 131.612 55.7714 0.0105502 1.05108
21400 60.2096 131.625 55.7714 0.0106502 1.06222
21600 60.2096 131.638 55.7714 0.0107502 1.05361
21800 60.2096 131.651 55.7714 0.0108502 1.10457
22000 60.2096 131.664 55.7714 0.0109502 1.0985
22200 60.2096 131.678 55.7714 0.0110502 1.10962
22400 60.2096 131.691 55.7714 0.0111502 1.11322
22600 60.2096 131.704 55.7714 0.0112502 1.14979
22800 60.2096 131.717 55.7714 0.0113502 1.1322
23000 60.2096 131.73 55.7714 0.0114502 1.16256
23200 60.2096 131.743 55.7714 0.0115502 1.15147
23400 60.2096 131.756 55.7714 0.0116502 1.1776
23600 60.2096 131.769 55.7714 0.0117502 1.18397
23800 60.2096 131.782 55.7714 0.0118502 1.19071
24000 60.2096 131.795 55.7714 0.0119502 1.20249
24200 60.2096 131.808 55.7714 0.0120502 1.24084
24400 60.2096 131.821 55.7714 0.0121502 1.21409
24600 60.2096 131.834 55.7714 0.0122502 1.24062
24800 60.2096 131.847 55.7714 0.0123502 1.25544
25000 60.2096 131.86 55.7714 0.0124502 1.28629
25200 60.2096 131.873 55.7714 0.0125502 1.25811
25400 60.2096 131.886 55.7714 0.0126502 1.28955
25600 60.2096 131.899 55.7714 0.0127502 1.27629
25800 60.2096 131.912 55.7714 0.0128502 1.32995
26000 60.2096 131.925 55.7714 0.0129502 1.30133
26200 60.2096 131.938 55.7714 0.0130502 1.32792
26400 60.2096 131.951 55.7714 0.0131502 1.33956
26600 60.2096 131.964 55.7714 0.0132502 1.33805
26800 60.2096 131.977 55.7714 0.0133502 1.36599
27000 60.2096 131.99 55.7714 0.0134502 1.36896
27200 60.2096 132.003 55.7714 0.0135502 1.38725
27400 60.2096 132.016 55.7714 0.0136502 1.38383
27600 60.2096 132.029 55.7714 0.0137502 1.39582
27800 60.2096 132.042 55.7714 0.0138502 1.43316
28000 60.2096 132.055 55.7714 0.0139502 1.41673
28200 60.2096 132.068 55.7714 0.0140502 1.43824
28400 60.2096 132.081 55.7714 0.0141502 1.45924
28600 60.2096 132.094 55.7714 0.0142502 1.4475
28800 60.2096 132.107 55.7714 0.0143502 1.47782
29000 60.2096 132.12 55.7714 0.0144502 1.47281
29200 60.2096 132.133 55.7714 0.0145502 1.47834
29400 60.2096 132.146 55.7714 0.0146502 1.51849
29600 60.2096 132.159 55.7714 0.0147502 1.5255
29800 60.2096 132.172 55.7714 0.0148502 1.51049
30000 60.2096 132.185 55.7714 0.0149502 1.53455
30200 60.2096 132.198 55.7714 0.0150502 1.53137
30400 60.2096 132.211 55.7714 0.0151502 1.581
30600 60.2096 132.225 55.7714 0.0152502 1.5752
30800 60.2096 132.238 55.7714 0.0153502 1.55502
31000 60.2096 132.251 55.7714 0.0154502 1.60351
31200 60.2096 132.264 55.7714 0.0155502 1.60515
31400 60.2096 132.277 55.7714 0.0156502 1.59941
31600 60.2096 132.29 55.7714 0.0157502 1.62455
31800 60.2096 132.303 55.7714 0.0158502 1.63442
32000 60.2096 132.316 55.7714 0.0159502 1.6728
32200 60.2096 132.329 55.7714 0.0160502 1.64133
32400 60.2096 132.342 55.7714 0.0161502 1.69019
32600 60.2096 132.355 55.7714 0.0162502 1.66396
32800 60.2096 132.368 55.7714 0.0163502 1.68926
33000 60.2096 132.381 55.7714 0.0164502 1.68942
33200 60.2096 132.394 55.7714 0.0165502 1.72833
33400 60.2096 132.407 55.7714 0.0166502 1.70279
33600 60.2096 132.42 55.7714 0.0167502 1.76153
33800 60.2096 132.433 55.7714 0.0168502 1.74618
34000 60.2096 132.446 55.7714 0.0169502 1.72751
34200 60.2096 132.459 55.7714 0.0170502 1.79181
34400 60.2096 132.472 55.7714 0.0171502 1.78868
34600 60.2096 132.485 55.7714 0.0172502 1.77303
34800 60.2096 132.498 55.7714 0.0173502 1.8157
35000 60.2096 132.511 55.7714 0.0174502 1.81866
35200 60.2096 132.524 55.7714 0.0175502 1.79896
35400 60.2096 132.537 55.7714 0.0176502 1.8535
35600 60.2096 132.55 55.7714 0.0177502 1.84925
35800 60.2096 132.563 55.7714 0.0178502 1.86315
36000 60.2096 132.576 55.7714 0.0179502 1.85405
36200 60.2096 132.589 55.7714 0.0180502 1.88803
36400 60.2096 132.602 55.7714 0.0181502 1.89747
36600 60.2096 132.615 55.7714 0.0182502 1.89267
36800 60.2096 132.628 55.7714 0.0183502 1.92802
37000 60.2096 132.641 55.7714 0.0184502 1.94121
37200 60.2096 132.654 55.7714 0.0185502 1.92947
37400 60.2096 132.667 55.7714 0.0186502 1.92861
37600 60.2096 132.68 55.7714 0.0187502 1.96607
37800 60.2096 132.693 55.7714 0.0188502 1.96888
38000 60.2096 132.706 55.7714 0.0189502 1.98458
38200 60.2096 132.719 55.7714 0.0190502 2.00463
38400 60.2096 132.732 55.7714 0.0191502 1.99942
38600 60.2096 132.745 55.7714 0.0192502 2.01769
38800 60.2096 132.758 55.7714 0.0193502 2.02194
39000 60.2096 132.772 55.7714 0.0194502 2.04427
39200 60.2096 132.785 55.7714 0.0195502 2.0516
39400 60.2096 132.798 55.7714 0.0196502 2.05894
39600 60.2096 132.811 55.7714 0.0197502 2.06426
39800 60.2096 132.824 55.7714 0.0198502 2.10021
40000 60.2096 132.837 55.7714 0.0199502 2.10735
40200 60.2096 132.85 55.7714 0.0200502 2.1094
40400 60.2096 132.863 55.7714 0.0201502 2.12808
40600 60.2096 132.876 55.7714 0.0202502 2.11183
40800 60.2096 132.889 55.7714 0.0203502 2.14143
41000 60.2096 132.902 55.7714 0.0204502 2.14317
41200 60.2096 132.915 55.7714 0.0205502 2.16538
41400 60.2096 132.928 55.7714 0.0206502 2.1895
41600 60.2096 132.941 55.7714 0.0207502 2.18332
41800 60.2096 132.954 55.7714 0.0208502 2.19278
42000 60.2096 132.967 55.7714 0.0209502 2.20676
42200 60.2096 132.98 55.7714 0.0210502 2.21123
42400 60.2096 132.993 55.7714 0.0211502 2.22184
42600 60.2096 133.006 55.7714 0.0212502 2.2447
42800 60.2096 133.019 55.7714 0.0213502 2.25281
43000 60.2096 133.032 55.7714 0.0214502 2.25918
43200 60.2096 133.045 55.7714 0.0215502 2.278
43400 60.2096 133.058 55.7714 0.0216502 2.28468
43600 60.2096 133.071 55.7714 0.0217502 2.32072
43800 60.2096 133.084 55.7714 0.0218502 2.28871
44000 60.2096 133.097 55.7714 0.0219502 2.3155
44200 60.2096 133.11 55.7714 0.0220502 2.32907
44400 60.2096 133.123 55.7714 0.0221502 2.37052
44600 60.2096 133.136 55.7714 0.0222502 2.31339
44800 60.2096 133.149 55.7714 0.0223502 2.3764
45000 60.2096 133.162 55.7714 0.0224502 2.38646
45200 60.2096 133.175 55.7714 0.0225502 2.39211
45400 60.2096 133.188 55.7714 0.0226502 2.39075
45600 60.2096 133.201 55.7714 0.0227502 2.41565
45800 60.2096 133.214 55.7714 0.0228502 2.42483
46000 60.2096 133.227 55.7714 0.0229502 2.4516
46200 60.2096 133.24 55.7714 0.0230502 2.42564
46400 60.2096 133.253 55.7714 0.0231502 2.46799
46600 60.2096 133.266 55.7714 0.0232502 2.45983
46800 60.2096 133.279 55.7714 0.0233502 2.4958
47000 60.2096 133.292 55.7714 0.0234502 2.47766
47200 60.2096 133.305 55.7714 0.0235502 2.5138
47400 60.2096 133.319 55.7714 0.0236502 2.51771
47600 60.2096 133.332 55.7714 0.0237502 2.52442
47800 60.2096 133.345 55.7714 0.0238502 2.55193
48000 60.2096 133.358 55.7714 0.0239502 2.54982
48200 60.2096 133.371 55.7714 0.0240502 2.56322
48400 60.2096 133.384 55.7714 0.0241502 2.58026
48600 60.2096 133.397 55.7714 0.0242502 2.56519
48800 60.2096 133.41 55.7714 0.0243502 2.61341
49000 60.2096 133.423 55.7714 0.0244502 2.61016
49200 60.2096 133.436 55.7714 0.0245502 2.61456
49400 60.2096 133.449 55.7714 0.0246502 2.62074
49600 60.2096 133.462 55.7714 0.0247502 2.64945
49800 60.2096 133.475 55.7714 0.0248502 2.65473
50000 60.2096 133.488 55.7714 0.0249502 2.65859
50200 60.2096 133.501 55.7714 0.0250502 2.68009
50400 60.2096 133.514 55.7714 0.0251502 2.66604
50600 60.2096 133.527 55.7714 0.0252502 2.70475
50800 60.2096 133.54 55.7714 0.0253502 2.71902
51000 60.2096 133.553 55.7714 0.0254502 2.71592
51200 60.2096 133.566 55.7714 0.0255502 2.72368
51400 60.2096 133.579 55.7714 0.0256502 2.75213
51600 60.2096 133.592 55.7714 0.0257502 2.75466
51800 60.2096 133.605 55.7714 0.0258502 2.77783
52000 60.2096 133.618 55.7714 0.0259502 2.77739
52200 60.2096 133.631 55.7714 0.0260502 2.78994
52400 60.2096 133.644 55.7714 0.0261502 2.79571
52600 60.2096 133.657 55.7714 0.0262502 2.80512
52800 60.2096 133.67 55.7714 0.0263502 2.84141
53000 60.2096 133.683 55.7714 0.0264502 2.83289
53200 60.2096 133.696 55.7714 0.0265502 2.8347
53400 60.2096 133.709 55.7714 0.0266502 2.88655
53600 60.2096 133.722 55.7714 0.0267502 2.87298
53800 60.2096 133.735 55.7714 0.0268502 2.88984
54000 60.2096 133.748 55.7714 0.0269502 2.90357
54200 60.2096 133.761 55.7714 0.0270502 2.89843
54400 60.2096 133.774 55.7714 0.0271502 2.93529
54600 60.2096 133.787 55.7714 0.0272502 2.92752
54800 60.2096 133.8 55.7714 0.0273502 2.93363
55000 60.2096 133.813 55.7714 0.0274502 2.96394
55200 60.2096 133.826 55.7714 0.0275502 2.95918
55400 60.2096 133.839 55.7714 0.0276502 2.9655
55600 60.2096 133.852 55.7714 0.0277502 2.99604
55800 60.2096 133.866 55.7714 0.0278502 2.99707
56000 60.2096 133.879 55.7714 0.0279502 3.00943
56200 60.2096 133.892 55.7714 0.0280502 3.02372
56400 60.2096 133.905 55.7714 0.0281502 3.0357
56600 60.2096 133.918 55.7714 0.0282502 3.04366
56800 60.2096 133.931 55.7714 0.0283502 3.03878
57000 60.2096 133.944 55.7714 0.0284502 3.0895
57200 60.2096 133.957 55.7714 0.0285502 3.0839
57400 60.2096 133.97 55.7714 0.0286502 3.09598
57600 60.2096 133.983 55.7714 0.0287502 3.09176
57800 60.2096 133.996 55.7714 0.0288502 3.13224
58000 60.2096 134.009 55.7714 0.0289502 3.13241
58200 60.2096 134.022 55.7714 0.0290502 3.14342
58400 60.2096 134.035 55.7714 0.0291502 3.15111
58600 60.2096 134.048 55.7714 0.0292502 3.154
58800 60.2096 134.061 55.7714 0.0293502 3.18326
59000 60.2096 134.074 55.7714 0.0294502 3.18691
59200 60.2096 134.087 55.7714 0.0295502 3.18977
59400 60.2096 134.1 55.7714 0.0296502 3.2341
59600 60.2096 134.113 55.7714 0.0297502 3.20208
59800 60.2096 134.126 55.7714 0.0298502 3.22058
60000 60.2096 134.139 55.7714 0.0299502 3.25126
60200 60.2096 134.152 55.7714 0.0300502 3.26029
60400 60.2096 134.165 55.7714 0.0301502 3.27554
60600 60.2096 134.178 55.7714 0.0302502 3.26743
60800 60.2096 134.191 55.7714 0.0303502 3.29336
61000 60.2096 134.204 55.7714 0.0304502 3.30214
61200 60.2096 134.217 55.7714 0.0305502 3.31439
61400 60.2096 134.23 55.7714 0.0306502 3.32414
61600 60.2096 134.243 55.7714 0.0307502 3.35169
61800 60.2096 134.256 55.7714 0.0308502 3.33449
62000 60.2096 134.269 55.7714 0.0309502 3.36325
62200 60.2096 134.282 55.7714 0.0310502 3.36477
62400 60.2096 134.295 55.7714 0.0311502 3.38012
62600 60.2096 134.308 55.7714 0.0312502 3.39727
62800 60.2096 134.321 55.7714 0.0313502 3.42645
63000 60.2096 134.334 55.7714 0.0314502 3.38637
63200 60.2096 134.347 55.7714 0.0315502 3.44594
63400 60.2096 134.36 55.7714 0.0316502 3.43836
63600 60.2096 134.373 55.7714 0.0317502 3.4676
63800 60.2096 134.386 55.7714 0.0318502 3.47001
64000 60.2096 134.399 55.7714 0.0319502 3.47841
64200 60.2096 134.413 55.7714 0.0320502 3.51043
64400 60.2096 134.426 55.7714 0.0321502 3.49364
64600 60.2096 134.439 55.7714 0.0322502 3.51097
64800 60.2096 134.452 55.7714 0.0323502 3.54
65000 60.2096 134.465 55.7714 0.0324502 3.53641
65200 60.2096 134.478 55.7714 0.0325502 3.53911
65400 60.2096 134.491 55.7714 0.0326502 3.57569
65600 60.2096 134.504 55.7714 0.0327502 3.56997
65800 60.2096 134.517 55.7714 0.0328502 3.57566
66000 60.2096 134.53 55.7714 0.0329502 3.59154
66200 60.2096 134.543 55.7714 0.0330502 3.61967
66400 60.2096 134.556 55.7714 0.0331502 3.62478
66600 60.2096 134.569 55.7714 0.0332502 3.62005
66800 60.2096 134.582 55.7714 0.0333502 3.65553
67000 60.2096 134.595 55.7714 0.0334502 3.67312
67200 60.2096 134.608 55.7714 0.0335502 3.66539
67400 60.2096 134.621 55.7714 0.0336502 3.68878
67600 60.2096 134.634 55.7714 0.0337502 3.68767
67800 60.2096 134.647 55.7714 0.0338502 3.70193
68000 60.2096 134.66 55.7714 0.0339502 3.72672
68200 60.2096 134.673 55.7714 0.0340502 3.73784
68400 60.2096 134.686 55.7714 0.0341502 3.72928
68600 60.2096 134.699 55.7714 0.0342502 3.74589
68800 60.2096 134.712 55.7714 0.0343502 3.74909
69000 60.2096 134.725 55.7714 0.0344502 3.77696
69200 60.2096 134.738 55.7714 0.0345502 3.792
69400 60.2096 134.751 55.7714 0.0346502 3.76502
69600 60.2096 134.764 55.7714 0.0347502 3.82392
69800 60.2096 134.777 55.7714 0.0348502 3.82215
70000 60.2096 134.79 55.7714 0.0349502 3.81846
70200 60.2096 134.803 55.7714 0.0350502 3.84866
70400 60.2096 134.816 55.7714 0.0351502 3.86871
70600 60.2096 134.829 55.7714 0.0352502 3.84996
70800 60.2096 134.842 55.7714 0.0353502 3.89263
71000 60.2096 134.855 55.7714 0.0354502 3.89279
71200 60.2096 134.868 55.7714 0.0355502 3.89087
71400 60.2096 134.881 55.7714 0.0356502 3.91755
71600 60.2096 134.894 55.7714 0.0357502 3.91567
71800 60.2096 134.907 55.7714 0.0358502 3.92503
72000 60.2096 134.92 55.7714 0.0359502 3.95043
72200 60.2096 134.933 55.7714 0.0360502 3.97283
72400 60.2096 134.946 55.7714 0.0361502 3.95103
72600 60.2096 134.96 55.7714 0.0362502 3.99249
72800 60.2096 134.973 55.7714 0.0363502 4.00154
73000 60.2096 134.986 55.7714 0.0364502 3.99967
73200 60.2096 134.999 55.7714 0.0365502 4.0179
73400 60.2096 135.012 55.7714 0.0366502 4.034
73600 60.2096 135.025 55.7714 0.0367502 4.05568
73800 60.2096 135.038 55.7714 0.0368502 4.05425
74000 60.2096 135.051 55.7714 0.0369502 4.07525
74200 60.2096 135.064 55.7714 0.0370502 4.0723
74400 60.2096 135.077 55.7714 0.0371502 4.10496
74600 60.2096 135.09 55.7714 0.0372502 4.10384
74800 60.2096 135.103 55.7714 0.0373502 4.11078
75000 60.2096 135.116 55.7714 0.0374502 4.14342
75200 60.2096 135.129 55.7714 0.0375502 4.1177
75400 60.2096 135.142 55.7714 0.0376502 4.18439
75600 60.2096 135.155 55.7714 0.0377502 4.16177
75800 60.2096 135.168 55.7714 0.0378502 4.17995
76000 60.2096 135.181 55.7714 0.0379502 4.18616
76200 60.2096 135.194 55.7714 0.0380502 4.19964
76400 60.2096 135.207 55.7714 0.0381502 4.24771
76600 60.2096 135.22 55.7714 0.0382502 4.21444
76800 60.2096 135.233 55.7714 0.0383502 4.24656
77000 60.2096 135.246 55.7714 0.0384502 4.25814
77200 60.2096 135.259 55.7714 0.0385502 4.25182
77400 60.2096 135.272 55.7714 0.0386502 4.28499
77600 60.2096 135.285 55.7714 0.0387502 4.31651
77800 60.2096 135.298 55.7714 0.0388502 4.26383
78000 60.2096 135.311 55.7714 0.0389502 4.32438
78200 60.2096 135.324 55.7714 0.0390502 4.31765
78400 60.2096 135.337 55.7714 0.0391502 4.33551
78600 60.2096 135.35 55.7714 0.0392502 4.34518
78800 60.2096 135.363 55.7714 0.0393502 4.36693
79000 60.2096 135.376 55.7714 0.0394502 4.37532
79200 60.2096 135.389 55.7714 0.0395502 4.37874
79400 60.2096 135.402 55.7714 0.0396502 4.38021
79600 60.2096 135.415 55.7714 0.0397502 4.41831
79800 60.2096 135.428 55.7714 0.0398502 4.41144
80000 60.2096 135.441 55.7714 0.0399502 4.43543
80200 60.2096 135.454 55.7714 0.0400502 4.43422
80400 60.2096 135.467 55.7714 0.0401502 4.45676
80600 60.2096 135.48 55.7714 0.0402502 4.46559
80800 60.2096 135.493 55.7714 0.0403502 4.46677
81000 60.2096 135.507 55.7714 0.0404502 4.51413
81200 60.2096 135.52 55.7714 0.0405502 4.49534
81400 60.2096 135.533 55.7714 0.0406502 4.50585
81600 60.2096 135.546 55.7714 0.0407502 4.5236
81800 60.2096 135.559 55.7714 0.0408502 4.5654
82000 60.2096 135.572 55.7714 0.0409502 4.56687
82200 60.2096 135.585 55.7714 0.0410502 4.54664
82400 60.2096 135.598 55.7714 0.0411502 4.57489
82600 60.2096 135.611 55.7714 0.0412502 4.59639
82800 60.2096 135.624 55.7714 0.0413502 4.597
83000 60.2096 135.637 55.7714 0.0414502 4.60778
83200 60.2096 135.65 55.7714 0.0415502 4.62599
83400 60.2096 135.663 55.7714 0.0416502 4.64462
83600 60.2096 135.676 55.7714 0.0417502 4.65577
83800 60.2096 135.689 55.7714 0.0418502 4.66182
84000 60.2096 135.702 55.7714 0.0419502 4.6775
84200 60.2096 135.715 55.7714 0.0420502 4.69073
84400 60.2096 135.728 55.7714 0.0421502 4.69897
84600 60.2096 135.741 55.7714 0.0422502 4.71521
84800 60.2096 135.754 55.7714 0.0423502 4.72055
85000 60.2096 135.767 55.7714 0.0424502 4.74617
85200 60.2096 135.78 55.7714 0.0425502 4.74655
85400 60.2096 135.793 55.7714 0.0426502 4.76406
85600 60.2096 135.806 55.7714 0.0427502 4.78393
85800 60.2096 135.819 55.7714 0.0428502 4.77659
86000 60.2096 135.832 55.7714 0.0429502 4.80549
86200 60.2096 135.845 55.7714 0.0430502 4.81528
86400 60.2096 135.858 55.7714 0.0431502 4.81727
86600 60.2096 135.871 55.7714 0.0432502 4.85019
86800 60.2096 135.884 55.7714 0.0433502 4.83903
87000 60.2096 135.897 55.7714 0.0434502 4.8599
87200 60.2096 135.91 55.7714 0.0435502 4.87656
87400 60.2096 135.923 55.7714 0.0436502 4.88706
87600 60.2096 135.936 55.7714 0.0437502 4.88832
87800 60.2096 135.949 55.7714 0.0438502 4.89624
88000 60.2096 135.962 55.7714 0.0439502 4.93031
88200 60.2096 135.975 55.7714 0.0440502 4.92923
88400 60.2096 135.988 55.7714 0.0441502 4.9667
88600 60.2096 136.001 55.7714 0.0442502 4.96657
88800 60.2096 136.014 55.7714 0.0443502 4.95668
89000 60.2096 136.027 55.7714 0.0444502 4.99382
89200 60.2096 136.04 55.7714 0.0445502 5.0054
89400 60.2096 136.054 55.7714 0.0446502 4.99833
89600 60.2096 136.067 55.7714 0.0447502 5.0171
89800 60.2096 136.08 55.7714 0.0448502 5.04421
90000 60.2096 136.093 55.7714 0.0449502 5.0448
90200 60.2096 136.106 55.7714 0.0450502 5.08118
90400 60.2096 136.119 55.7714 0.0451502 5.07103
90600 60.2096 136.132 55.7714 0.0452502 5.07179
90800 60.2096 136.145 55.7714 0.0453502 5.1082
91000 60.2096 136.158 55.7714 0.0454502 5.12193
91200 60.2096 136.171 55.7714 0.0455502 5.12326
91400 60.2096 136.184 55.7714 0.0456502 5.11929
91600 60.2096 136.197 55.7714 0.0457502 5.14492
91800 60.2096 136.21 55.7714 0.0458502 5.16395
92000 60.2096 136.223 55.7714 0.0459502 5.18229
92200 60.2096 136.236 55.7714 0.0460502 5.18307
92400 60.2096 136.249 55.7714 0.0461502 5.19137
92600 60.2096 136.262 55.7714 0.0462502 5.21959
92800 60.2096 136.275 55.7714 0.0463502 5.20653
93000 60.2096 136.288 55.7714 0.0464502 5.25924
93200 60.2096 136.301 55.7714 0.0465502 5.23389
93400 60.2096 136.314 55.7714 0.0466502 5.27553
93600 60.2096 136.327 55.7714 0.0467502 5.27764
93800 60.2096 136.34 55.7714 0.0468502 5.28518
94000 60.2096 136.353 55.7714 0.0469502 5.30416
94200 60.2096 136.366 55.7714 0.0470502 5.31978
94400 60.2096 136.379 55.7714 0.0471502 5.3218
94600 60.2096 136.392 55.7714 0.0472502 5.3455
94800 60.2096 136.405 55.7714 0.0473502 5.33987
95000 60.2096 136.418 55.7714 0.0474502 5.39244
95200 60.2096 136.431 55.7714 0.0475502 5.35772
95400 60.2096 136.444 55.7714 0.0476502 5.41194
95600 60.2096 136.457 55.7714 0.0477502 5.38623
95800 60.2096 136.47 55.7714 0.0478502 5.42275
96000 60.2096 136.483 55.7714 0.0479502 5.42154
96200 60.2096 136.496 55.7714 0.0480502 5.44406
96400 60.2096 136.509 55.7714 0.0481502 5.4598
96600 60.2096 136.522 55.7714 0.0482502 5.45804
96800 60.2096 136.535 55.7714 0.0483502 5.47831
97000 60.2096 136.548 55.7714 0.0484502 5.49713
97200 60.2096 136.561 55.7714 0.0485502 5.50506
97400 60.2096 136.574 55.7714 0.0486502 5.52319
97600 60.2096 136.587 55.7714 0.0487502 5.51897
97800 60.2096 136.601 55.7714 0.0488502 5.53814
98000 60.2096 136.614 55.7714 0.0489502 5.55699
98200 60.2096 136.627 55.7714 0.0490502 5.57424
98400 60.2096 136.64 55.7714 0.0491502 5.57121
98600 60.2096 136.653 55.7714 0.0492502 5.58909
98800 60.2096 136.666 55.7714 0.0493502 5.62795
99000 60.2096 136.679 55.7714 0.0494502 5.61897
99200 60.2096 136.692 55.7714 0.0495502 5.62653
99400 60.2096 136.705 55.7714 0.0496502 5.65293
99600 60.2096 136.718 55.7714 0.0497502 5.65132
99800 60.2096 136.731 55.7714 0.0498502 5.67866
100000 60.2096 136.744 55.7714 0.0499502 5.68669
100200 60.2096 136.757 55.7714 0.0500502 5.69345
100400 60.2096 136.77 55.7714 0.0501502 5.70795
100600 60.2096 136.783 55.7714 0.0502502 5.71281
100800 60.2096 136.796 55.7714 0.0503502 5.74465
101000 60.2096 136.809 55.7714 0.0504502 5.7449
101200 60.2096 136.822 55.7714 0.0505502 5.76105
101400 60.2096 136.835 55.7714 0.0506502 5.77161
101600 60.2096 136.848 55.7714 0.0507502 5.79393
101800 60.2096 136.861 55.7714 0.0508502 5.78054
102000 60.2096 136.874 55.7714 0.0509502 5.83004
102200 60.2096 136.887 55.7714 0.0510502 5.81753
102400 60.2096 136.9 55.7714 0.0511502 5.83925
102600 60.2096 136.913 55.7714 0.0512502 5.85011
102800 60.2096 136.926 55.7714 0.0513502 5.85259
103000 60.2096 136.939 55.7714 0.0514502 5.87847
103200 60.2096 136.952 55.7714 0.0515502 5.87786
103400 60.2096 136.965 55.7714 0.0516502 5.91027
103600 60.2096 136.978 55.7714 0.0517502 5.91138
103800 60.2096 136.991 55.7714 0.0518502 5.92153
104000 60.2096 137.004 55.7714 0.0519502 5.93888
104200 60.2096 137.017 55.7714 0.0520502 5.95134
104400 60.2096 137.03 55.7714 0.0521502 5.97161
104600 60.2096 137.043 55.7714 0.0522502 5.97101
104800 60.2096 137.056 55.7714 0.0523502 5.99381
105000 60.2096 137.069 55.7714 0.0524502 5.98268
105200 60.2096 137.082 55.7714 0.0525502 6.03726
105400 60.2096 137.095 55.7714 0.0526502 6.01892
105600 60.2096 137.108 55.7714 0.0527502 6.03151
105800 60.2096 137.121 55.7714 0.0528502 6.06754
106000 60.2096 137.134 55.7714 0.0529502 6.04371
106200 60.2096 137.148 55.7714 0.0530502 6.08929
106400 60.2096 137.161 55.7714 0.0531502 6.09864
106600 60.2096 137.174 55.7714 0.0532502 6.10105
106800 60.2096 137.187 55.7714 0.0533502 6.12847
107000 60.2096 137.2 55.7714 0.0534502 6.12711
107200 60.2096 137.213 55.7714 0.0535502 6.14213
107400 60.2096 137.226 55.7714 0.0536502 6.17129
107600 60.2096 137.239 55.7714 0.0537502 6.16505
107800 60.2096 137.252 55.7714 0.0538502 6.18736
108000 60.2096 137.265 55.7714 0.0539502 6.17778
108200 60.2096 137.278 55.7714 0.0540502 6.21871
108400 60.2096 137.291 55.7714 0.0541502 6.23639
108600 60.2096 137.304 55.7714 0.0542502 6.22152
108800 60.2096 137.317 55.7714 0.0543502 6.24394
109000 60.2096 137.33 55.7714 0.0544502 6.26121
109200 60.2096 137.343 55.7714 0.0545502 6.28286
109400 60.2096 137.356 55.7714 0.0546502 6.26642
109600 60.2096 137.369 55.7714 0.0547502 6.31178
109800 60.2096 137.382 55.7714 0.0548502 6.31112
110000 60.2096 137.395 55.7714 0.0549502 6.3287
110200 60.2096 137.408 55.7714 0.0550502 6.33845
110400 60.2096 137.421 55.7714 0.0551502 6.3498
110600 60.2096 137.434 55.7714 0.0552502 6.36376
110800 60.2096 137.447 55.7714 0.0553502 6.38801
111000 60.2096 137.46 55.7714 0.0554502 6.40045
111200 60.2096 137.473 55.7714 0.0555502 6.39746
111400 60.2096 137.486 55.7714 0.0556502 6.41042
111600 60.2096 137.499 55.7714 0.0557502 6.44023
111800 60.2096 137.512 55.7714 0.0558502 6.44497
112000 60.2096 137.525 55.7714 0.0559502 6.4523
112200 60.2096 137.538 55.7714 0.0560502 6.46572
112400 60.2096 137.551 55.7714 0.0561502 6.48215
112600 60.2096 137.564 55.7714 0.0562502 6.49468
112800 60.2096 137.577 55.7714 0.0563502 6.50508
113000 60.2096 137.59 55.7714 0.0564502 6.51796
113200 60.2096 137.603 55.7714 0.0565502 6.55651
113400 60.2096 137.616 55.7714 0.0566502 6.52992
113600 60.2096 137.629 55.7714 0.0567502 6.57331
113800 60.2096 137.642 55.7714 0.0568502 6.57391
114000 60.2096 137.655 55.7714 0.0569502 6.57876
114200 60.2096 137.668 55.7714 0.0570502 6.5926
114400 60.2096 137.681 55.7714 0.0571502 6.60874
114600 60.2096 137.695 55.7714 0.0572502 6.61117
114800 60.2096 137.708 55.7714 0.0573502 6.63524
115000 60.2096 137.721 55.7714 0.0574502 6.65199
115200 60.2096 137.734 55.7714 0.0575502 6.65062
115400 60.2096 137.747 55.7714 0.0576502 6.67525
115600 60.2096 137.76 55.7714 0.0577502 6.69342
115800 60.2096 137.773 55.7714 0.0578502 6.69429
116000 60.2096 137.786 55.7714 0.0579502 6.71714
116200 60.2096 137.799 55.7714 0.0580502 6.72338
116400 60.2096 137.812 55.7714 0.0581502 6.74576
116600 60.2096 137.825 55.7714 0.0582502 6.76188
116800 60.2096 137.838 55.7714 0.0583502 6.76081
117000 60.2096 137.851 55.7714 0.0584502 6.78495
117200 60.2096 137.864 55.7714 0.0585502 6.79551
117400 60.2096 137.877 55.7714 0.0586502 6.7926
117600 60.2096 137.89 55.7714 0.0587502 6.81579
117800 60.2096 137.903 55.7714 0.0588502 6.83158
118000 60.2096 137.916 55.7714 0.0589502 6.8393
118200 60.2096 137.929 55.7714 0.0590502 6.85897
118400 60.2096 137.942 55.7714 0.0591502 6.86752
118600 60.2096 137.955 55.7714 0.0592502 6.89512
118800 60.2096 137.968 55.7714 0.0593502 6.8899
119000 60.2096 137.981 55.7714 0.0594502 6.90736
119200 60.2096 137.994 55.7714 0.0595502 6.92709
119400 60.2096 138.007 55.7714 0.0596502 6.94298
119600 60.2096 138.02 55.7714 0.0597502 6.95183
119800 60.2096 138.033 55.7714 0.0598502 6.95643
120000 60.2096 138.046 55.7714 0.0599502 6.98828
120200 60.2096 138.059 55.7714 0.0600502 6.98526
120400 60.2096 138.072 55.7714 0.0601502 7.0152
120600 60.2096 138.085 55.7714 0.0602502 7.01114
120800 60.2096 138.098 55.7714 0.0603502 7.02686
121000 60.2096 138.111 55.7714 0.0604502 7.04174
121200 60.2096 138.124 55.7714 0.0605502 7.05209
121400 60.2096 138.137 55.7714 0.0606502 7.07833
121600 60.2096 138.15 55.7714 0.0607502 7.06706
121800 60.2096 138.163 55.7714 0.0608502 7.08776
122000 60.2096 138.176 55.7714 0.0609502 7.11302
122200 60.2096 138.189 55.7714 0.0610502 7.10721
122400 60.2096 138.202 55.7714 0.0611502 7.12821
122600 60.2096 138.215 55.7714 0.0612502 7.14895
122800 60.2096 138.228 55.7714 0.0613502 7.15525
123000 60.2096 138.242 55.7714 0.0614502 7.1778
123200 60.2096 138.255 55.7714 0.0615502 7.17103
123400 60.2096 138.268 55.7714 0.0616502 7.1951
123600 60.2096 138.281 55.7714 0.0617502 7.2117
123800 60.2096 138.294 55.7714 0.0618502 7.23751
124000 60.2096 138.307 55.7714 0.0619502 7.22724
124200 60.2096 138.32 55.7714 0.0620502 7.24556
124400 60.2096 138.333 55.7714 0.0621502 7.26693
124600 60.2096 138.346 55.7714 0.0622502 7.26252
124800 60.2096 138.359 55.7714 0.0623502 7.28149
125000 60.2096 138.372 55.7714 0.0624502 7.29603
125200 60.2096 138.385 55.7714 0.0625502 7.3184
125400 60.2096 138.398 55.7714 0.0626502 7.32312
125600 60.2096 138.411 55.7714 0.0627502 7.34179
125800 60.2096 138.424 55.7714 0.0628502 7.34604
126000 60.2096 138.437 55.7714 0.0629502 7.37917
126200 60.2096 138.45 55.7714 0.0630502 7.37627
126400 60.2096 138.463 55.7714 0.0631502 7.39984
126600 60.2096 138.476 55.7714 0.0632502 7.38936
126800 60.2096 138.489 55.7714 0.0633502 7.43812
127000 60.2096 138.502 55.7714 0.0634502 7.42711
127200 60.2096 138.515 55.7714 0.0635502 7.43844
127400 60.2096 138.528 55.7714 0.0636502 7.4547
127600 60.2096 138.541 55.7714 0.0637502 7.46617
127800 60.2096 138.554 55.7714 0.0638502 7.4976
128000 60.2096 138.567 55.7714 0.0639502 7.50023
128200 60.2096 138.58 55.7714 0.0640502 7.51446
128400 60.2096 138.593 55.7714 0.0641502 7.52661
128600 60.2096 138.606 55.7714 0.0642502 7.54227
128800 60.2096 138.619 55.7714 0.0643502 7.55061
129000 60.2096 138.632 55.7714 0.0644502 7.56547
129200 60.2096 138.645 55.7714 0.0645502 7.58981
129400 60.2096 138.658 55.7714 0.0646502 7.58513
129600 60.2096 138.671 55.7714 0.0647502 7.60472
129800 60.2096 138.684 55.7714 0.0648502 7.61997
130000 60.2096 138.697 55.7714 0.0649502 7.62293
130200 60.2096 138.71 55.7714 0.0650502 7.64646
130400 60.2096 138.723 55.7714 0.0651502 7.64524
130600 60.2096 138.736 55.7714 0.0652502 7.69074
130800 60.2096 138.749 55.7714 0.0653502 7.65829
131000 60.2096 138.762 55.7714 0.0654502 7.71171
131200 60.2096 138.775 55.7714 0.0655502 7.71071
131400 60.2096 138.789 55.7714 0.0656502 7.73263
131600 60.2096 138.802 55.7714 0.0657502 7.71508
131800 60.2096 138.815 55.7714 0.0658502 7.76651
132000 60.2096 138.828 55.7714 0.0659502 7.76541
132200 60.2096 138.841 55.7714 0.0660502 7.77777
132400 60.2096 138.854 55.7714 0.0661502 7.7806
132600 60.2096 138.867 55.7714 0.0662502 7.82122
132800 60.2096 138.88 55.7714 0.0663502 7.80821
133000 60.2096 138.893 55.7714 0.0664502 7.83401
133200 60.2096 138.906 55.7714 0.0665502 7.84205
133400 60.2096 138.919 55.7714 0.0666502 7.86126
133600 60.2096 138.932 55.7714 0.0667502 7.8508
133800 60.2096 138.945 55.7714 0.0668502 7.90674
134000 60.2096 138.958 55.7714 0.0669502 7.89848
134200 60.2096 138.971 55.7714 0.0670502 7.91406
134400 60.2096 138.984 55.7714 0.0671502 7.93077
134600 60.2096 138.997 55.7714 0.0672502 7.94158
134800 60.2096 139.01 55.7714 0.0673502 7.95557
135000 60.2096 139.023 55.7714 0.0674502 7.97398
135200 60.2096 139.036 55.7714 0.0675502 7.96733
135400 60.2096 139.049 55.7714 0.0676502 7.98837
135600 60.2096 139.062 55.7714 0.0677502 8.01788
135800 60.2096 139.075 55.7714 0.0678502 8.01344
136000 60.2096 139.088 55.7714 0.0679502 8.03122
136200 60.2096 139.101 55.7714 0.0680502 8.03343
136400 60.2096 139.114 55.7714 0.0681502 8.06624
136600 60.2096 139.127 55.7714 0.0682502 8.06686
136800 60.2096 139.14 55.7714 0.0683502 8.08787
137000 60.2096 139.153 55.7714 0.0684502 8.09804
137200 60.2096 139.166 55.7714 0.0685502 8.1232
137400 60.2096 139.179 55.7714 0.0686502 8.10499
137600 60.2096 139.192 55.7714 0.0687502 8.15536
137800 60.2096 139.205 55.7714 0.0688502 8.13623
138000 60.2096 139.218 55.7714 0.0689502 8.17137
138200 60.2096 139.231 55.7714 0.0690502 8.18117
138400 60.2096 139.244 55.7714 0.0691502 8.18327
138600 60.2096 139.257 55.7714 0.0692502 8.22106
138800 60.2096 139.27 55.7714 0.0693502 8.20456
139000 60.2096 139.283 55.7714 0.0694502 8.24283
139200 60.2096 139.296 55.7714 0.0695502 8.25666
139400 60.2096 139.309 55.7714 0.0696502 8.24484
139600 60.2096 139.322 55.7714 0.0697502 8.27279
139800 60.2096 139.336 55.7714 0.0698502 8.2771
140000 60.2096 139.349 55.7714 0.0699502 8.29741
140200 60.2096 139.362 55.7714 0.0700502 8.31799
140400 60.2096 139.375 55.7714 0.0701502 8.32692
140600 60.2096 139.388 55.7714 0.0702502 8.338
140800 60.2096 139.401 55.7714 0.0703502 8.33047
141000 60.2096 139.414 55.7714 0.0704502 8.37931
141200 60.2096 139.427 55.7714 0.0705502 8.36494
141400 60.2096 139.44 55.7714 0.0706502 8.4042
141600 60.2096 139.453 55.7714 0.0707502 8.4013
141800 60.2096 139.466 55.7714 0.0708502 8.42026
142000 60.2096 139.479 55.7714 0.0709502 8.42591
142200 60.2096 139.492 55.7714 0.0710502 8.4478
142400 60.2096 139.505 55.7714 0.0711502 8.44812
142600 60.2096 139.518 55.7714 0.0712502 8.48411
142800 60.2096 139.531 55.7714 0.0713502 8.48425
143000 60.2096 139.544 55.7714 0.0714502 8.49011
143200 60.2096 139.557 55.7714 0.0715502 8.52765
143400 60.2096 139.57 55.7714 0.0716502 8.53919
143600 60.2096 139.583 55.7714 0.0717502 8.52786
143800 60.2096 139.596 55.7714 0.0718502 8.5556
144000 60.2096 139.609 55.7714 0.0719502 8.56618
144200 60.2096 139.622 55.7714 0.0720502 8.58807
144400 60.2096 139.635 55.7714 0.0721502 8.59455
144600 60.2096 139.648 55.7714 0.0722502 8.61971
144800 60.2096 139.661 55.7714 0.0723502 8.62388
145000 60.2096 139.674 55.7714 0.0724502 8.64656
145200 60.2096 139.687 55.7714 0.0725502 8.63432
145400 60.2096 139.7 55.7714 0.0726502 8.68786
145600 60.2096 139.713 55.7714 0.0727502 8.6599
145800 60.2096 139.726 55.7714 0.0728502 8.70598
146000 60.2096 139.739 55.7714 0.0729502 8.69825
146200 60.2096 139.752 55.7714 0.0730502 8.72421
146400 60.2096 139.765 55.7714 0.0731502 8.72988
146600 60.2096 139.778 55.7714 0.0732502 8.7396
146800 60.2096 139.791 55.7714 0.0733502 8.77062
147000 60.2096 139.804 55.7714 0.0734502 8.77713
147200 60.2096 139.817 55.7714 0.0735502 8.78042
147400 60.2096 139.83 55.7714 0.0736502 8.82086
147600 60.2096 139.843 55.7714 0.0737502 8.79891
147800 60.2096 139.856 55.7714 0.0738502 8.84319
148000 60.2096 139.869 55.7714 0.0739502 8.83263
148200 60.2096 139.883 55.7714 0.0740502 8.85358
148400 60.2096 139.896 55.7714 0.0741502 8.86696
148600 60.2096 139.909 55.7714 0.0742502 8.88481
148800 60.2096 139.922 55.7714 0.0743502 8.90045
149000 60.2096 139.935 55.7714 0.0744502 8.90354
149200 60.2096 139.948 55.7714 0.0745502 8.93526
149400 60.2096 139.961 55.7714 0.0746502 8.92497
149600 60.2096 139.974 55.7714 0.0747502 8.96031
149800 60.2096 139.987 55.7714 0.0748502 8.9717
150000 60.2096 140 55.7714 0.0749502 8.98613
150200 60.2096 140.013 55.7714 0.0750502 8.97602
150400 60.2096 140.026 55.7714 0.0751502 9.01173
150600 60.2096 140.039 55.7714 0.0752502 9.02265
150800 60.2096 140.052 55.7714 0.0753502 9.03318
151000 60.2096 140.065 55.7714 0.0754502 9.05188
151200 60.2096 140.078 55.7714 0.0755502 9.0669
151400 60.2096 140.091 55.7714 0.0756502 9.06477
151600 60.2096 140.104 55.7714 0.0757502 9.09475
151800 60.2096 140.117 55.7714 0.0758502 9.09584
152000 60.2096 140.13 55.7714 0.0759502 9.12686
152200 60.2096 140.143 55.7714 0.0760502 9.11796
152400 60.2096 140.156 55.7714 0.0761502 9.14399
152600 60.2096 140.169 55.7714 0.0762502 9.16262
152800 60.2096 140.182 55.7714 0.0763502 9.16343
153000 60.2096 140.195 55.7714 0.0764502 9.18548
153200 60.2096 140.208 55.7714 0.0765502 9.19758
153400 60.2096 140.221 55.7714 0.0766502 9.20691
153600 60.2096 140.234 55.7714 0.0767502 9.21903
153800 60.2096 140.247 55.7714 0.0768502 9.24674
154000 60.2096 140.26 55.7714 0.0769502 9.26205
154200 60.2096 140.273 55.7714 0.0770502 9.24638
154400 60.2096 140.286 55.7714 0.0771502 9.28195
154600 60.2096 140.299 55.7714 0.0772502 9.29888
154800 60.2096 140.312 55.7714 0.0773502 9.30821
155000 60.2096 140.325 55.7714 0.0774502 9.32625
155200 60.2096 140.338 55.7714 0.0775502 9.34855
155400 60.2096 140.351 55.7714 0.0776502 9.34718
155600 60.2096 140.364 55.7714 0.0777502 9.35808
155800 60.2096 140.377 55.7714 0.0778502 9.38134
156000 60.2096 140.39 55.7714 0.0779502 9.38021
156200 60.2096 140.403 55.7714 0.0780502 9.41806
156400 60.2096 140.416 55.7714 0.0781502 9.40806
156600 60.2096 140.43 55.7714 0.0782502 9.4346
156800 60.2096 140.443 55.7714 0.0783502 9.43988
157000 60.2096 140.456 55.7714 0.0784502 9.45786
157200 60.2096 140.469 55.7714 0.0785502 9.47754
157400 60.2096 140.482 55.7714 0.0786502 9.48771
157600 60.2096 140.495 55.7714 0.0787502 9.48232
157800 60.2096 140.508 55.7714 0.0788502 9.51061
158000 60.2096 140.521 55.7714 0.0789502 9.53505
158200 60.2096 140.534 55.7714 0.0790502 9.53917
158400 60.2096 140.547 55.7714 0.0791502 9.5413
158600 60.2096 140.56 55.7714 0.0792502 9.57684
158800 60.2096 140.573 55.7714 0.0793502 9.57533
159000 60.2096 140.586 55.7714 0.0794502 9.58981
159200 60.2096 140.599 55.7714 0.0795502 9.61537
159400 60.2096 140.612 55.7714 0.0796502 9.61352
159600 60.2096 140.625 55.7714 0.0797502 9.6313
159800 60.2096 140.638 55.7714 0.0798502 9.64943
160000 60.2096 140.651 55.7714 0.0799502 9.66868
160200 60.2096 140.664 55.7714 0.0800502 9.65988
160400 60.2096 140.677 55.7714 0.0801502 9.69158
160600 60.2096 140.69 55.7714 0.0802502 9.69935
160800 60.2096 140.703 55.7714 0.0803502 9.72523
161000 60.2096 140.716 55.7714 0.0804502 9.71636
161200 60.2096 140.729 55.7714 0.0805502 9.76525
161400 60.2096 140.742 55.7714 0.0806502 9.75073
161600 60.2096 140.755 55.7714 0.0807502 9.7664
161800 60.2096 140.768 55.7714 0.0808502 9.78961
162000 60.2096 140.781 55.7714 0.0809502 9.79388
162200 60.2096 140.794 55.7714 0.0810502 9.82573
162400 60.2096 140.807 55.7714 0.0811502 9.81292
162600 60.2096 140.82 55.7714 0.0812502 9.83314
162800 60.2096 140.833 55.7714 0.0813502 9.85808
163000 60.2096 140.846 55.7714 0.0814502 9.85625
163200 60.2096 140.859 55.7714 0.0815502 9.8914
163400 60.2096 140.872 55.7714 0.0816502 9.9002
163600 60.2096 140.885 55.7714 0.0817502 9.89768
163800 60.2096 140.898 55.7714 0.0818502 9.91719
164000 60.2096 140.911 55.7714 0.0819502 9.94192
164200 60.2096 140.924 55.7714 0.0820502 9.93539
164400 60.2096 140.937 55.7714 0.0821502 9.95938
164600 60.2096 140.95 55.7714 0.0822502 9.97589
164800 60.2096 140.963 55.7714 0.0823502 9.98845
165000 60.2096 140.977 55.7714 0.0824502 9.98432
165200 60.2096 140.99 55.7714 0.0825502 10.01
165400 60.2096 141.003 55.7714 0.0826502 10.0364
165600 60.2096 141.016 55.7714 0.0827502 10.0471
165800 60.2096 141.029 55.7714 0.0828502 10.043
166000 60.2096 141.042 55.7714 0.0829502 10.0862
166200 60.2096 141.055 55.7714 0.0830502 10.0801
166400 60.2096 141.068 55.7714 0.0831502 10.0982
166600 60.2096 141.081 55.7714 0.0832502 10.103
166800 60.2096 141.094 55.7714 0.0833502 10.1327
167000 60.2096 141.107 55.7714 0.0834502 10.1398
167200 60.2096 141.12 55.7714 0.0835502 10.1554
167400 60.2096 141.133 55.7714 0.0836502 10.1713
167600 60.2096 141.146 55.7714 0.0837502 10.1748
167800 60.2096 141.159 55.7714 0.0838502 10.2097
168000 60.2096 141.172 55.7714 0.0839502 10.1992
168200 60.2096 141.185 55.7714 0.0840502 10.2315
168400 60.2096 141.198 55.7714 0.0841502 10.2198
168600 60.2096 141.211 55.7714 0.0842502 10.2429
168800 60.2096 141.224 55.7714 0.0843502 10.2757
169000 60.2096 141.237 55.7714 0.0844502 10.2629
169200 60.2096 141.25 55.7714 0.0845502 10.3025
169400 60.2096 141.263 55.7714 0.0846502 10.297
169600 60.2096 141.276 55.7714 0.0847502 10.3305
169800 60.2096 141.289 55.7714 0.0848502 10.3393
170000 60.2096 141.302 55.7714 0.0849502 10.336
170200 60.2096 141.315 55.7714 0.0850502 10.3734
170400 60.2096 141.328 55.7714 0.0851502 10.3652
170600 60.2096 141.341 55.7714 0.0852502 10.3777
170800 60.2096 141.354 55.7714 0.0853502 10.4214
171000 60.2096 141.367 55.7714 0.0854502 10.3943
171200 60.2096 141.38 55.7714 0.0855502 10.4522
171400 60.2096 141.393 55.7714 0.0856502 10.4398
171600 60.2096 141.406 55.7714 0.0857502 10.4514
171800 60.2096 141.419 55.7714 0.0858502 10.4706
172000 60.2096 141.432 55.7714 0.0859502 10.4783
172200 60.2096 141.445 55.7714 0.0860502 10.5064
172400 60.2096 141.458 55.7714 0.0861502 10.4979
172600 60.2096 141.471 55.7714 0.0862502 10.4912
172800 60.2096 141.484 55.7714 0.0863502 10.5035
173000 60.2096 141.497 55.7714 0.0864502 10.5334
173200 60.2096 141.51 55.7714 0.0865502 10.5307
173400 60.2096 141.524 55.7714 0.0866502 10.5469
173600 60.2096 141.537 55.7714 0.0867502 10.5592
173800 60.2096 141.55 55.7714 0.0868502 10.5964
174000 60.2096 141.563 55.7714 0.0869502 10.5811
174200 60.2096 141.576 55.7714 0.0870502 10.6075
174400 60.2096 141.589 55.7714 0.0871502 10.5993
174600 60.2096 141.602 55.7714 0.0872502 10.6119
174800 60.2096 141.615 55.7714 0.0873502 10.6425
175000 60.2096 141.628 55.7714 0.0874502 10.6418
175200 60.2096 141.641 55.7714 0.0875502 10.6421
175400 60.2096 141.654 55.7714 0.0876502 10.6797
175600 60.2096 141.667 55.7714 0.0877502 10.6729
175800 60.2096 141.68 55.7714 0.0878502 10.706
176000 60.2096 141.693 55.7714 0.0879502 10.7199
176200 60.2096 141.706 55.7714 0.0880502 10.7162
176400 60.2096 141.719 55.7714 0.0881502 10.7432
176600 60.2096 141.732 55.7714 0.0882502 10.7619
176800 60.2096 141.745 55.7714 0.0883502 10.7696
177000 60.2096 141.758 55.7714 0.0884502 10.7769
177200 60.2096 141.771 55.7714 0.0885502 10.798
177400 60.2096 141.784 55.7714 0.0886502 10.797
177600 60.2096 141.797 55.7714 0.0887502 10.8291
177800 60.2096 141.81 55.7714 0.0888502 10.8385
178000 60.2096 141.823 55.7714 0.0889502 10.8443
178200 60.2096 141.836 55.7714 0.0890502 10.8655
178400 60.2096 141.849 55.7714 0.0891502 10.8833
178600 60.2096 141.862 55.7714 0.0892502 10.896
178800 60.2096 141.875 55.7714 0.0893502 10.9084
179000 60.2096 141.888 55.7714 0.0894502 10.918
179200 60.2096 141.901 55.7714 0.0895502 10.9402
179400 60.2096 141.914 55.7714 0.0896502 10.9496
179600 60.2096 141.927 55.7714 0.0897502 10.9612
179800 60.2096 141.94 55.7714 0.0898502 10.9919
180000 60.2096 141.953 55.7714 0.0899502 10.9734
180200 60.2096 141.966 55.7714 0.0900502 11.0128
180400 60.2096 141.979 55.7714 0.0901502 11.0168
180600 60.2096 141.992 55.7714 0.0902502 11.04
180800 60.2096 142.005 55.7714 0.0903502 11.0375
181000 60.2096 142.018 55.7714 0.0904502 11.0712
181200 60.2096 142.031 55.7714 0.0905502 11.0664
181400 60.2096 142.044 55.7714 0.0906502 11.0816
181600 60.2096 142.057 55.7714 0.0907502 11.1125
181800 60.2096 142.071 55.7714 0.0908502 11.1243
182000 60.2096 142.084 55.7714 0.0909502 11.1213
182200 60.2096 142.097 55.7714 0.0910502 11.1509
182400 60.2096 142.11 55.7714 0.0911502 11.1667
182600 60.2096 142.123 55.7714 0.0912502 11.163
182800 60.2096 142.136 55.7714 0.0913502 11.1713
183000 60.2096 142.149 55.7714 0.0914502 11.216
183200 60.2096 142.162 55.7714 0.0915502 11.2109
183400 60.2096 142.175 55.7714 0.0916502 11.2437
183600 60.2096 142.188 55.7714 0.0917502 11.2394
183800 60.2096 142.201 55.7714 0.0918502 11.2481
184000 60.2096 142.214 55.7714 0.0919502 11.2857
184200 60.2096 142.227 55.7714 0.0920502 11.2666
184400 60.2096 142.24 55.7714 0.0921502 11.3039
184600 60.2096 142.253 55.7714 0.0922502 11.2742
184800 60.2096 142.266 55.7714 0.0923502 11.2992
185000 60.2096 142.279 55.7714 0.0924502 11.3122
185200 60.2096 142.292 55.7714 0.0925502 11.3244
185400 60.2096 142.305 55.7714 0.0926502 11.3444
185600 60.2096 142.318 55.7714 0.0927502 11.3471
185800 60.2096 142.331 55.7714 0.0928502 11.3761
186000 60.2096 142.344 55.7714 0.0929502 11.3796
186200 60.2096 142.357 55.7714 0.0930502 11.3895
186400 60.2096 142.37 55.7714 0.0931502 11.4159
186600 60.2096 142.383 55.7714 0.0932502 11.4179
186800 60.2096 142.396 55.7714 0.0933502 11.4428
187000 60.2096 142.409 55.7714 0.0934502 11.4445
187200 60.2096 142.422 55.7714 0.0935502 11.4815
187400 60.2096 142.435 55.7714 0.0936502 11.473
187600 60.2096 142.448 55.7714 0.0937502 11.5016
187800 60.2096 142.461 55.7714 0.0938502 11.4911
188000 60.2096 142.474 55.7714 0.0939502 11.5318
188200 60.2096 142.487 55.7714 0.0940502 11.5255
188400 60.2096 142.5 55.7714 0.0941502 11.5485
188600 60.2096 142.513 55.7714 0.0942502 11.5692
188800 60.2096 142.526 55.7714 0.0943502 11.5692
189000 60.2096 142.539 55.7714 0.0944502 11.594
189200 60.2096 142.552 55.7714 0.0945502 11.6086
189400 60.2096 142.565 55.7714 0.0946502 11.6252
189600 60.2096 142.578 55.7714 0.0947502 11.6093
189800 60.2096 142.591 55.7714 0.0948502 11.6624
190000 60.2096 142.604 55.7714 0.0949502 11.6549
190200 60.2096 142.618 55.7714 0.0950502 11.6704
190400 60.2096 142.631 55.7714 0.0951502 11.6956
190600 60.2096 142.644 55.7714 0.0952502 11.6985
190800 60.2096 142.657 55.7714 0.0953502 11.7221
191000 60.2096 142.67 55.7714 0.0954502 11.7192
191200 60.2096 142.683 55.7714 0.0955502 11.7381
191400 60.2096 142.696 55.7714 0.0956502 11.7621
191600 60.2096 142.709 55.7714 0.0957502 11.7716
191800 60.2096 142.722 55.7714 0.0958502 11.7923
192000 60.2096 142.735 55.7714 0.0959502 11.7902
192200 60.2096 142.748 55.7714 0.0960502 11.8143
192400 60.2096 142.761 55.7714 0.0961502 11.8142
192600 60.2096 142.774 55.7714 0.0962502 11.8316
192800 60.2096 142.787 55.7714 0.0963502 11.86
193000 60.2096 142.8 55.7714 0.0964502 11.8572
193200 60.2096 142.813 55.7714 0.0965502 11.8887
193400 60.2096 142.826 55.7714 0.0966502 11.8966
193600 60.2096 142.839 55.7714 0.0967502 11.907
193800 60.2096 142.852 55.7714 0.0968502 11.9211
194000 60.2096 142.865 55.7714 0.0969502 11.9292
194200 60.2096 142.878 55.7714 0.0970502 11.9549
194400 60.2096 142.891 55.7714 0.0971502 11.9577
194600 60.2096 142.904 55.7714 0.0972502 11.9714
194800 60.2096 142.917 55.7714 0.0973502 11.9695
195000 60.2096 142.93 55.7714 0.0974502 11.9874
195200 60.2096 142.943 55.7714 0.0975502 11.9993
195400 60.2096 142.956 55.7714 0.0976502 12.0173
195600 60.2096 142.969 55.7714 0.0977502 12.0393
195800 60.2096 142.982 55.7714 0.0978502 12.0461
196000 60.2096 142.995 55.7714 0.0979502 12.0538
196200 60.2096 143.008 55.7714 0.0980502 12.0811
196400 60.2096 143.021 55.7714 0.0981502 12.0787
196600 60.2096 143.034 55.7714 0.0982502 12.1098
196800 60.2096 143.047 55.7714 0.0983502 12.1132
197000 60.2096 143.06 55.7714 0.0984502 12.1367
197200 60.2096 143.073 55.7714 0.0985502 12.1483
197400 60.2096 143.086 55.7714 0.0986502 12.1604
197600 60.2096 143.099 55.7714 0.0987502 12.1687
197800 60.2096 143.112 55.7714 0.0988502 12.189
198000 60.2096 143.125 55.7714 0.0989502 12.1929
198200 60.2096 143.138 55.7714 0.0990502 12.2185
198400 60.2096 143.151 55.7714 0.0991502 12.2354
198600 60.2096 143.165 55.7714 0.0992502 12.229
198800 60.2096 143.178 55.7714 0.0993502 12.2577
199000 60.2096 143.191 55.7714 0.0994502 12.2741
199200 60.2096 143.204 55.7714 0.0995502 12.2875
199400 60.2096 143.217 55.7714 0.0996502 12.3034
199600 60.2096 143.23 55.7714 0.0997502 12.3106
199800 60.2096 143.243 55.7714 0.0998502 12.3216
200000 60.2096 143.256 55.7714 0.0999502 12.3504
200200 60.2096 143.269 55.7714 0.10005 12.3535
200400 60.2096 143.282 55.7714 0.10015 12.3717
200600 60.2096 143.295 55.7714 0.10025 12.3836
200800 60.2096 143.308 55.7714 0.10035 12.3947
201000 60.2096 143.321 55.7714 0.10045 12.4283
201200 60.2096 143.334 55.7714 0.10055 12.4124
201400 60.2096 143.347 55.7714 0.10065 12.4473
201600 60.2096 143.36 55.7714 0.10075 12.4593
201800 60.2096 143.373 55.7714 0.10085 12.4489
202000 60.2096 143.386 55.7714 0.10095 12.4763
202200 60.2096 143.399 55.7714 0.10105 12.483
202400 60.2096 143.412 55.7714 0.10115 12.5061
202600 60.2096 143.425 55.7714 0.10125 12.5118
202800 60.2096 143.438 55.7714 0.10135 12.5333
203000 60.2096 143.451 55.7714 0.10145 12.5362
203200 60.2096 143.464 55.7714 0.10155 12.5561
203400 60.2096 143.477 55.7714 0.10165 12.5745
203600 60.2096 143.49 55.7714 0.10175 12.5874
203800 60.2096 143.503 55.7714 0.10185 12.6039
204000 60.2096 143.516 55.7714 0.10195 12.5988
204200 60.2096 143.529 55.7714 0.10205 12.6343
204400 60.2096 143.542 55.7714 0.10215 12.6434
204600 60.2096 143.555 55.7714 0.10225 12.6574
204800 60.2096 143.568 55.7714 0.10235 12.6653
205000 60.2096 143.581 55.7714 0.10245 12.6965
205200 60.2096 143.594 55.7714 0.10255 12.6851
205400 60.2096 143.607 55.7714 0.10265 12.7253
205600 60.2096 143.62 55.7714 0.10275 12.7308
205800 60.2096 143.633 55.7714 0.10285 12.7348
206000 60.2096 143.646 55.7714 0.10295 12.748
206200 60.2096 143.659 55.7714 0.10305 12.7679
206400 60.2096 143.672 55.7714 0.10315 12.7781
206600 60.2096 143.685 55.7714 0.10325 12.7999
206800 60.2096 143.698 55.7714 0.10335 12.7845
207000 60.2096 143.712 55.7714 0.10345 12.8135
207200 60.2096 143.725 55.7714 0.10355 12.8202
207400 60.2096 143.738 55.7714 0.10365 12.8411
207600 60.2096 143.751 55.7714 0.10375 12.8548
207800 60.2096 143.764 55.7714 0.10385 12.8587
208000 60.2096 143.777 55.7714 0.10395 12.8879
208200 60.2096 143.79 55.7714 0.10405 12.8951
208400 60.2096 143.803 55.7714 0.10415 12.9085
208600 60.2096 143.816 55.7714 0.10425 12.9048
208800 60.2096 143.829 55.7714 0.10435 12.9451
209000 60.2096 143.842 55.7714 0.10445 12.9591
209200 60.2096 143.855 55.7714 0.10455 12.9482
209400 60.2096 143.868 55.7714 0.10465 12.981
209600 60.2096 143.881 55.7714 0.10475 12.9879
209800 60.2096 143.894 55.7714 0.10485 13.0132
210000 60.2096 143.907 55.7714 0.10495 13.0202
210200 60.2096 143.92 55.7714 0.10505 13.0291
210400 60.2096 143.933 55.7714 0.10515 13.0429
210600 60.2096 143.946 55.7714 0.10525 13.0777
210800 60.2096 143.959 55.7714 0.10535 13.0822
211000 60.2096 143.972 55.7714 0.10545 13.0922
211200 60.2096 143.985 55.7714 0.10555 13.0979
211400 60.2096 143.998 55.7714 0.10565 13.1219
211600 60.2096 144.011 55.7714 0.10575 13.1454
211800 60.2096 144.024 55.7714 0.10585 13.1339
212000 60.2096 144.037 55.7714 0.10595 13.1743
212200 60.2096 144.05 55.7714 0.10605 13.1586
212400 60.2096 144.063 55.7714 0.10615 13.194
212600 60.2096 144.076 55.7714 0.10625 13.218
212800 60.2096 144.089 55.7714 0.10635 13.2016
213000 60.2096 144.102 55.7714 0.10645 13.2339
213200 60.2096 144.115 55.7714 0.10655 13.2458
213400 60.2096 144.128 55.7714 0.10665 13.2642
213600 60.2096 144.141 55.7714 0.10675 13.2602
213800 60.2096 144.154 55.7714 0.10685 13.3001
214000 60.2096 144.167 55.7714 0.10695 13.2913
214200 60.2096 144.18 55.7714 0.10705 13.3041
214400 60.2096 144.193 55.7714 0.10715 13.3181
214600 60.2096 144.206 55.7714 0.10725 13.3255
214800 60.2096 144.219 55.7714 0.10735 13.3507
215000 60.2096 144.232 55.7714 0.10745 13.365
215200 60.2096 144.245 55.7714 0.10755 13.3691
215400 60.2096 144.259 55.7714 0.10765 13.3875
215600 60.2096 144.272 55.7714 0.10775 13.4012
215800 60.2096 144.285 55.7714 0.10785 13.4061
216000 60.2096 144.298 55.7714 0.10795 13.4174
216200 60.2096 144.311 55.7714 0.10805 13.4102
216400 60.2096 144.324 55.7714 0.10815 13.4416
216600 60.2096 144.337 55.7714 0.10825 13.4582
216800 60.2096 144.35 55.7714 0.10835 13.4554
217000 60.2096 144.363 55.7714 0.10845 13.4782
217200 60.2096 144.376 55.7714 0.10855 13.4976
217400 60.2096 144.389 55.7714 0.10865 13.4837
217600 60.2096 144.402 55.7714 0.10875 13.5352
217800 60.2096 144.415 55.7714 0.10885 13.5039
218000 60.2096 144.428 55.7714 0.10895 13.5356
218200 60.2096 144.441 55.7714 0.10905 13.5494
218400 60.2096 144.454 55.7714 0.10915 13.5651
218600 60.2096 144.467 55.7714 0.10925 13.5776
218800 60.2096 144.48 55.7714 0.10935 13.6031
219000 60.2096 144.493 55.7714 0.10945 13.6017
219200 60.2096 144.506 55.7714 0.10955 13.6219
219400 60.2096 144.519 55.7714 0.10965 13.6298
219600 60.2096 144.532 55.7714 0.10975 13.6378
219800 60.2096 144.545 55.7714 0.10985 13.6492
220000 60.2096 144.558 55.7714 0.10995 13.6634
220200 60.2096 144.571 55.7714 0.11005 13.6832
220400 60.2096 144.584 55.7714 0.11015 13.6728
220600 60.2096 144.597 55.7714 0.11025 13.7153
220800 60.2096 144.61 55.7714 0.11035 13.7006
221000 60.2096 144.623 55.7714 0.11045 13.744
221200 60.2096 144.636 55.7714 0.11055 13.7494
221400 60.2096 144.649 55.7714 0.11065 13.7445
221600 60.2096 144.662 55.7714 0.11075 13.7605
221800 60.2096 144.675 55.7714 0.11085 13.7476
222000 60.2096 144.688 55.7714 0.11095 13.7582
222200 60.2096 144.701 55.7714 0.11105 13.7888
222400 60.2096 144.714 55.7714 0.11115 13.772
222600 60.2096 144.727 55.7714 0.11125 13.8038
222800 60.2096 144.74 55.7714 0.11135 13.8172
223000 60.2096 144.753 55.7714 0.11145 13.831
223200 60.2096 144.766 55.7714 0.11155 13.8506
223400 60.2096 144.779 55.7714 0.11165 13.8561
223600 60.2096 144.793 55.7714 0.11175 13.8732
223800 60.2096 144.806 55.7714 0.11185 13.8862
224000 60.2096 144.819 55.7714 0.11195 13.8971
224200 60.2096 144.832 55.7714 0.11205 13.9214
224400 60.2096 144.845 55.7714 0.11215 13.9407
224600 60.2096 144.858 55.7714 0.11225 13.9333
224800 60.2096 144.871 55.7714 0.11235 13.9577
225000 60.2096 144.884 55.7714 0.11245 13.9851
225200 60.2096 144.897 55.7714 0.11255 13.975
225400 60.2096 144.91 55.7714 0.11265 13.9984
225600 60.2096 144.923 55.7714 0.11275 14.0068
225800 60.2096 144.936 55.7714 0.11285 14.0384
226000 60.2096 144.949 55.7714 0.11295 14.0288
226200 60.2096 144.962 55.7714 0.11305 14.0115
226400 60.2096 144.975 55.7714 0.11315 14.0449
226600 60.2096 144.988 55.7714 0.11325 14.0384
226800 60.2096 145.001 55.7714 0.11335 14.048
227000 60.2096 145.014 55.7714 0.11345 14.0614
227200 60.2096 145.027 55.7714 0.11355 14.089
227400 60.2096 145.04 55.7714 0.11365 14.0869
227600 60.2096 145.053 55.7714 0.11375 14.0816
227800 60.2096 145.066 55.7714 0.11385 14.1285
228000 60.2096 145.079 55.7714 0.11395 14.1289
228200 60.2096 145.092 55.7714 0.11405 14.1403
228400 60.2096 145.105 55.7714 0.11415 14.1656
228600 60.2096 145.118 55.7714 0.11425 14.175
228800 60.2096 145.131 55.7714 0.11435 14.1682
229000 60.2096 145.144 55.7714 0.11445 14.1882
229200 60.2096 145.157 55.7714 0.11455 14.1935
229400 60.2096 145.17 55.7714 0.11465 14.2072
229600 60.2096 145.183 55.7714 0.11475 14.2112
229800 60.2096 145.196 55.7714 0.11485 14.2197
230000 60.2096 145.209 55.7714 0.11495 14.2417
230200 60.2096 145.222 55.7714 0.11505 14.2303
230400 60.2096 145.235 55.7714 0.11515 14.2546
230600 60.2096 145.248 55.7714 0.11525 14.2596
230800 60.2096 145.261 55.7714 0.11535 14.2765
231000 60.2096 145.274 55.7714 0.11545 14.2672
231200 60.2096 145.287 55.7714 0.11555 14.2814
231400 60.2096 145.3 55.7714 0.11565 14.3055
231600 60.2096 145.313 55.7714 0.11575 14.3171
231800 60.2096 145.326 55.7714 0.11585 14.3237
232000 60.2096 145.34 55.7714 0.11595 14.3502
232200 60.2096 145.353 55.7714 0.11605 14.3447
232400 60.2096 145.366 55.7714 0.11615 14.3663
232600 60.2096 145.379 55.7714 0.11625 14.3548
232800 60.2096 145.392 55.7714 0.11635 14.3713
233000 60.2096 145.405 55.7714 0.11645 14.3875
233200 60.2096 145.418 55.7714 0.11655 14.4139
233400 60.2096 145.431 55.7714 0.11665 14.4073
233600 60.2096 145.444 55.7714 0.11675 14.4281
233800 60.2096 145.457 55.7714 0.11685 14.4377
234000 60.2096 145.47 55.7714 0.11695 14.4616
234200 60.2096 145.483 55.7714 0.11705 14.4717
234400 60.2096 145.496 55.7714 0.11715 14.4704
234600 60.2096 145.509 55.7714 0.11725 14.5003
234800 60.2096 145.522 55.7714 0.11735 14.5154
235000 60.2096 145.535 55.7714 0.11745 14.517
235200 60.2096 145.548 55.7714 0.11755 14.5468
235400 60.2096 145.561 55.7714 0.11765 14.5419
235600 60.2096 145.574 55.7714 0.11775 14.5671
235800 60.2096 145.587 55.7714 0.11785 14.5793
236000 60.2096 145.6 55.7714 0.11795 14.5768
236200 60.2096 145.613 55.7714 0.11805 14.5898
236400 60.2096 145.626 55.7714 0.11815 14.6228
236600 60.2096 145.639 55.7714 0.11825 14.6223
236800 60.2096 145.652 55.7714 0.11835 14.6416
237000 60.2096 145.665 55.7714 0.11845 14.6492
237200 60.2096 145.678 55.7714 0.11855 14.6709
237400 60.2096 145.691 55.7714 0.11865 14.6786
237600 60.2096 145.704 55.7714 0.11875 14.6948
237800 60.2096 145.717 55.7714 0.11885 14.6933
238000 60.2096 145.73 55.7714 0.11895 14.7217
238200 60.2096 145.743 55.7714 0.11905 14.7317
238400 60.2096 145.756 55.7714 0.11915 14.7337
238600 60.2096 145.769 55.7714 0.11925 14.757
238800 60.2096 145.782 55.7714 0.11935 14.7679
239000 60.2096 145.795 55.7714 0.11945 14.7834
239200 60.2096 145.808 55.7714 0.11955 14.7914
239400 60.2096 145.821 55.7714 0.11965 14.8034
239600 60.2096 145.834 55.7714 0.11975 14.8133
239800 60.2096 145.847 55.7714 0.11985 14.8279
240000 60.2096 145.86 55.7714 0.11995 14.828
240200 60.2096 145.873 55.7714 0.12005 14.8519
240400 60.2096 145.887 55.7714 0.12015 14.8372
240600 60.2096 145.9 55.7714 0.12025 14.8448
240800 60.2096 145.913 55.7714 0.12035 14.8574
241000 60.2096 145.926 55.7714 0.12045 14.8681
241200 60.2096 145.939 55.7714 0.12055 14.8794
241400 60.2096 145.952 55.7714 0.12065 14.9022
241600 60.2096 145.965 55.7714 0.12075 14.9144
241800 60.2096 145.978 55.7714 0.12085 14.9308
242000 60.2096 145.991 55.7714 0.12095 14.9233
242200 60.2096 146.004 55.7714 0.12105 14.9712
242400 60.2096 146.017 55.7714 0.12115 14.9484
242600 60.2096 146.03 55.7714 0.12125 14.9764
242800 60.2096 146.043 55.7714 0.12135 14.9897
243000 60.2096 146.056 55.7714 0.12145 15.0019
243200 60.2096 146.069 55.7714 0.12155 15.015
243400 60.2096 146.082 55.7714 0.12165 15.0357
243600 60.2096 146.095 55.7714 0.12175 15.0399
243800 60.2096 146.108 55.7714 0.12185 15.0556
244000 60.2096 146.121 55.7714 0.12195 15.0648
244200 60.2096 146.134 55.7714 0.12205 15.0844
244400 60.2096 146.147 55.7714 0.12215 15.0935
244600 60.2096 146.16 55.7714 0.12225 15.114
244800 60.2096 146.173 55.7714 0.12235 15.1236
245000 60.2096 146.186 55.7714 0.12245 15.1338
245200 60.2096 146.199 55.7714 0.12255 15.1551
245400 60.2096 146.212 55.7714 0.12265 15.1537
245600 60.2096 146.225 55.7714 0.12275 15.1955
245800 60.2096 146.238 55.7714 0.12285 15.1761
246000 60.2096 146.251 55.7714 0.12295 15.1905
246200 60.2096 146.264 55.7714 0.12305 15.2182
246400 60.2096 146.277 55.7714 0.12315 15.2051
246600 60.2096 146.29 55.7714 0.12325 15.2372
246800 60.2096 146.303 55.7714 0.12335 15.25
247000 60.2096 146.316 55.7714 0.12345 15.2598
247200 60.2096 146.329 55.7714 0.12355 15.2755
247400 60.2096 146.342 55.7714 0.12365 15.2583
247600 60.2096 146.355 55.7714 0.12375 15.2641
247800 60.2096 146.368 55.7714 0.12385 15.2791
248000 60.2096 146.381 55.7714 0.12395 15.2679
248200 60.2096 146.394 55.7714 0.12405 15.2854
248400 60.2096 146.407 55.7714 0.12415 15.2377
248600 60.2096 146.42 55.7714 0.12425 15.2316
248800 60.2096 146.434 55.7714 0.12435 15.2126
249000 60.2096 146.447 55.7714 0.12445 15.2262
249200 60.2096 146.46 55.7714 0.12455 15.2493
249400 60.2096 146.473 55.7714 0.12465 15.2227
249600 60.2096 146.486 55.7714 0.12475 15.2413
249800 60.2096 146.499 55.7714 0.12485 15.2254
250000 60.2096 146.512 55.7714 0.12495 15.2274
250200 60.2096 146.525 55.7714 0.12505 15.2275
250400 60.2096 146.538 55.7714 0.12515 15.2439
250600 60.2096 146.551 55.7714 0.12525 15.2475
250800 60.2096 146.564 55.7714 0.12535 15.2794
251000 60.2096 146.577 55.7714 0.12545 15.2953
251200 60.2096 146.59 55.7714 0.12555 15.278
251400 60.2096 146.603 55.7714 0.12565 15.3017
251600 60.2096 146.616 55.7714 0.12575 15.2866
251800 60.2096 146.629 55.7714 0.12585 15.3051
252000 60.2096 146.642 55.7714 0.12595 15.3042
252200 60.2096 146.655 55.7714 0.12605 15.2581
252400 60.2096 146.668 55.7714 0.12615 15.2561
252600 60.2096 146.681 55.7714 0.12625 15.2856
252800 60.2096 146.694 55.7714 0.12635 15.2853
253000 60.2096 146.707 55.7714 0.12645 15.2972
253200 60.2096 146.72 55.7714 0.12655 15.2993
253400 60.2096 146.733 55.7714 0.12665 15.3109
253600 60.2096 146.746 55.7714 0.12675 15.326
253800 60.2096 146.759 55.7714 0.12685 15.3331
254000 60.2096 146.772 55.7714 0.12695 15.3472
254200 60.2096 146.785 55.7714 0.12705 15.3592
254400 60.2096 146.798 55.7714 0.12715 15.3825
254600 60.2096 146.811 55.7714 0.12725 15.3795
254800 60.2096 146.824 55.7714 0.12735 15.4174
255000 60.2096 146.837 55.7714 0.12745 15.3947
255200 60.2096 146.85 55.7714 0.12755 15.3915
255400 60.2096 146.863 55.7714 0.12765 15.4026
255600 60.2096 146.876 55.7714 0.12775 15.3853
255800 60.2096 146.889 55.7714 0.12785 15.4264
256000 60.2096 146.902 55.7714 0.12795 15.3983
256200 60.2096 146.915 55.7714 0.12805 15.4159
256400 60.2096 146.928 55.7714 0.12815 15.4099
256600 60.2096 146.941 55.7714 0.12825 15.4356
256800 60.2096 146.954 55.7714 0.12835 15.4177
257000 60.2096 146.967 55.7714 0.12845 15.4494
257200 60.2096 146.981 55.7714 0.12855 15.4636
257400 60.2096 146.994 55.7714 0.12865 15.4636
257600 60.2096 147.007 55.7714 0.12875 15.4642
257800 60.2096 147.02 55.7714 0.12885 15.5043
258000 60.2096 147.033 55.7714 0.12895 15.4851
258200 60.2096 147.046 55.7714 0.12905 15.5339
258400 60.2096 147.059 55.7714 0.12915 15.5115
258600 60.2096 147.072 55.7714 0.12925 15.5322
258800 60.2096 147.085 55.7714 0.12935 15.5235
259000 60.2096 147.098 55.7714 0.12945 15.5514
259200 60.2096 147.111 55.7714 0.12955 15.5483
259400 60.2096 147.124 55.7714 0.12965 15.5655
259600 60.2096 147.137 55.7714 0.12975 15.5427
259800 60.2096 147.15 55.7714 0.12985 15.5819
260000 60.2096 147.163 55.7714 0.12995 15.5668
260200 60.2096 147.176 55.7714 0.13005 15.5564
260400 60.2096 147.189 55.7714 0.13015 15.5732
260600 60.2096 147.202 55.7714 0.13025 15.588
260800 60.2096 147.215 55.7714 0.13035 15.5491
261000 60.2096 147.228 55.7714 0.13045 15.5216
261200 60.2096 147.241 55.7714 0.13055 15.5136
261400 60.2096 147.254 55.7714 0.13065 15.5241
261600 60.2096 147.267 55.7714 0.13075 15.5283
261800 60.2096 147.28 55.7714 0.13085 15.558
262000 60.2096 147.293 55.7714 0.13095 15.5512
262200 60.2096 147.306 55.7714 0.13105 15.5761
262400 60.2096 147.319 55.7714 0.13115 15.5605
262600 60.2096 147.332 55.7714 0.13125 15.5654
262800 60.2096 147.345 55.7714 0.13135 15.6014
263000 60.2096 147.358 55.7714 0.13145 15.5609
263200 60.2096 147.371 55.7714 0.13155 15.5976
263400 60.2096 147.384 55.7714 0.13165 15.6148
263600 60.2096 147.397 55.7714 0.13175 15.613
263800 60.2096 147.41 55.7714 0.13185 15.631
264000 60.2096 147.423 55.7714 0.13195 15.6469
264200 60.2096 147.436 55.7714 0.13205 15.6608
264400 60.2096 147.449 55.7714 0.13215 15.6356
264600 60.2096 147.462 55.7714 0.13225 15.6535
264800 60.2096 147.475 55.7714 0.13235 15.6458
265000 60.2096 147.488 55.7714 0.13245 15.6629
265200 60.2096 147.501 55.7714 0.13255 15.6687
265400 60.2096 147.514 55.7714 0.13265 15.667
265600 60.2096 147.528 55.7714 0.13275 15.6419
265800 60.2096 147.541 55.7714 0.13285 15.6097
266000 60.2096 147.554 55.7714 0.13295 15.6308
266200 60.2096 147.567 55.7714 0.13305 15.6313
266400 60.2096 147.58 55.7714 0.13315 15.6605
266600 60.2096 147.593 55.7714 0.13325 15.673
266800 60.2096 147.606 55.7714 0.13335 15.6673
267000 60.2096 147.619 55.7714 0.13345 15.7047
267200 60.2096 147.632 55.7714 0.13355 15.7005
267400 60.2096 147.645 55.7714 0.13365 15.7151
267600 60.2096 147.658 55.7714 0.13375 15.7059
267800 60.2096 147.671 55.7714 0.13385 15.7084
268000 60.2096 147.684 55.7714 0.13395 15.667
268200 60.2096 147.697 55.7714 0.13405 15.6674
268400 60.2096 147.71 55.7714 0.13415 15.6614
268600 60.2096 147.723 55.7714 0.13425 15.6647
268800 60.2096 147.736 55.7714 0.13435 15.6413
269000 60.2096 147.749 55.7714 0.13445 15.6334
269200 60.2096 147.762 55.7714 0.13455 15.6414
269400 60.2096 147.775 55.7714 0.13465 15.6103
269600 60.2096 147.788 55.7714 0.13475 15.6031
269800 60.2096 147.801 55.7714 0.13485 15.6408
270000 60.2096 147.814 55.7714 0.13495 15.651
270200 60.2096 147.827 55.7714 0.13505 15.6543
270400 60.2096 147.84 55.7714 0.13515 15.649
270600 60.2096 147.853 55.7714 0.13525 15.6664
270800 60.2096 147.866 55.7714 0.13535 15.6823
271000 60.2096 147.879 55.7714 0.13545 15.6773
271200 60.2096 147.892 55.7714 0.13555 15.6737
271400 60.2096 147.905 55.7714 0.13565 15.6846
271600 60.2096 147.918 55.7714 0.13575 15.703
271800 60.2096 147.931 55.7714 0.13585 15.7013
272000 60.2096 147.944 55.7714 0.13595 15.7175
272200 60.2096 147.957 55.7714 0.13605 15.7304
272400 60.2096 147.97 55.7714 0.13615 15.7544
272600 60.2096 147.983 55.7714 0.13625 15.7615
272800 60.2096 147.996 55.7714 0.13635 15.7636
273000 60.2096 148.009 55.7714 0.13645 15.7983
273200 60.2096 148.022 55.7714 0.13655 15.8105
273400 60.2096 148.035 55.7714 0.13665 15.7746
273600 60.2096 148.048 55.7714 0.13675 15.8041
273800 60.2096 148.061 55.7714 0.13685 15.835
274000 60.2096 148.075 55.7714 0.13695 15.8184
274200 60.2096 148.088 55.7714 0.13705 15.831
274400 60.2096 148.101 55.7714 0.13715 15.8261
274600 60.2096 148.114 55.7714 0.13725 15.8617
274800 60.2096 148.127 55.7714 0.13735 15.8356
275000 60.2096 148.14 55.7714 0.13745 15.8765
275200 60.2096 148.153 55.7714 0.13755 15.8637
275400 60.2096 148.166 55.7714 0.13765 15.9098
275600 60.2096 148.179 55.7714 0.13775 15.892
275800 60.2096 148.192 55.7714 0.13785 15.8948
276000 60.2096 148.205 55.7714 0.13795 15.9045
276200 60.2096 148.218 55.7714 0.13805 15.9272
276400 60.2096 148.231 55.7714 0.13815 15.918
276600 60.2096 148.244 55.7714 0.13825 15.9684
276800 60.2096 148.257 55.7714 0.13835 15.9454
277000 60.2096 148.27 55.7714 0.13845 15.9745
277200 60.2096 148.283 55.7714 0.13855 15.9829
277400 60.2096 148.296 55.7714 0.13865 16.0043
277600 60.2096 148.309 55.7714 0.13875 16.0198
277800 60.2096 148.322 55.7714 0.13885 16.0084
278000 60.2096 148.335 55.7714 0.13895 16.0475
278200 60.2096 148.348 55.7714 0.13905 16.0322
278400 60.2096 148.361 55.7714 0.13915 16.0157
278600 60.2096 148.374 55.7714 0.13925 16.0338
278800 60.2096 148.387 55.7714 0.13935 15.9785
279000 60.2096 148.4 55.7714 0.13945 15.9972
279200 60.2096 148.413 55.7714 0.13955 16.0215
279400 60.2096 148.426 55.7714 0.13965 16.0176
279600 60.2096 148.439 55.7714 0.13975 16.0362
279800 60.2096 148.452 55.7714 0.13985 16.042
280000 60.2096 148.465 55.7714 0.13995 16.0447
280200 60.2096 148.478 55.7714 0.14005 16.0655
280400 60.2096 148.491 55.7714 0.14015 16.079
280600 60.2096 148.504 55.7714 0.14025 16.0873
280800 60.2096 148.517 55.7714 0.14035 16.0838
281000 60.2096 148.53 55.7714 0.14045 16.0923
281200 60.2096 148.543 55.7714 0.14055 16.1115
281400 60.2096 148.556 55.7714 0.14065 16.1247
281600 60.2096 148.569 55.7714 0.14075 16.1427
281800 60.2096 148.582 55.7714 0.14085 16.1594
282000 60.2096 148.595 55.7714 0.14095 16.166
282200 60.2096 148.608 55.7714 0.14105 16.1687
282400 60.2096 148.622 55.7714 0.14115 16.1952
282600 60.2096 148.635 55.7714 0.14125 16.2123
282800 60.2096 148.648 55.7714 0.14135 16.206
283000 60.2096 148.661 55.7714 0.14145 16.2262
283200 60.2096 148.674 55.7714 0.14155 16.2459
283400 60.2096 148.687 55.7714 0.14165 16.2592
283600 60.2096 148.7 55.7714 0.14175 16.265
283800 60.2096 148.713 55.7714 0.14185 16.2836
284000 60.2096 148.726 55.7714 0.14195 16.2827
284200 60.2096 148.739 55.7714 0.14205 16.3158
284400 60.2096 148.752 55.7714 0.14215 16.2973
284600 60.2096 148.765 55.7714 0.14225 16.3168
284800 60.2096 148.778 55.7714 0.14235 16.3165
285000 60.2096 148.791 55.7714 0.14245 16.2735
285200 60.2096 148.804 55.7714 0.14255 16.3038
285400 60.2096 148.817 55.7714 0.14265 16.3128
285600 60.2096 148.83 55.7714 0.14275 16.3172
285800 60.2096 148.843 55.7714 0.14285 16.3314
286000 60.2096 148.856 55.7714 0.14295 16.3543
286200 60.2096 148.869 55.7714 0.14305 16.3457
286400 60.2096 148.882 55.7714 0.14315 16.3845
286600 60.2096 148.895 55.7714 0.14325 16.392
286800 60.2096 148.908 55.7714 0.14335 16.3693
287000 60.2096 148.921 55.7714 0.14345 16.4006
287200 60.2096 148.934 55.7714 0.14355 16.3926
287400 60.2096 148.947 55.7714 0.14365 16.421
287600 60.2096 148.96 55.7714 0.14375 16.4288
287800 60.2096 148.973 55.7714 0.14385 16.4519
288000 60.2096 148.986 55.7714 0.14395 16.4205
288200 60.2096 148.999 55.7714 0.14405 16.4456
288400 60.2096 149.012 55.7714 0.14415 16.4668
288600 60.2096 149.025 55.7714 0.14425 16.4477
288800 60.2096 149.038 55.7714 0.14435 16.4949
289000 60.2096 149.051 55.7714 0.14445 16.4797
289200 60.2096 149.064 55.7714 0.14455 16.4944
289400 60.2096 149.077 55.7714 0.14465 16.4685
289600 60.2096 149.09 55.7714 0.14475 16.4375
289800 60.2096 149.103 55.7714 0.14485 16.4121
290000 60.2096 149.116 55.7714 0.14495 16.3772
290200 60.2096 149.129 55.7714 0.14505 16.3174
290400 60.2096 149.142 55.7714 0.14515 16.3509
290600 60.2096 149.155 55.7714 0.14525 16.3595
290800 60.2096 149.169 55.7714 0.14535 16.3511
291000 60.2096 149.182 55.7714 0.14545 16.3787
291200 60.2096 149.195 55.7714 0.14555 16.3626
291400 60.2096 149.208 55.7714 0.14565 16.3885
291600 60.2096 149.221 55.7714 0.14575 16.3875
291800 60.2096 149.234 55.7714 0.14585 16.4052
292000 60.2096 149.247 55.7714 0.14595 16.397
292200 60.2096 149.26 55.7714 0.14605 16.3948
292400 60.2096 149.273 55.7714 0.14615 16.3792
292600 60.2096 149.286 55.7714 0.14625 16.3429
292800 60.2096 149.299 55.7714 0.14635 16.3518
293000 60.2096 149.312 55.7714 0.14645 16.3504
293200 60.2096 149.325 55.7714 0.14655 16.3451
293400 60.2096 149.338 55.7714 0.14665 16.3761
293600 60.2096 149.351 55.7714 0.14675 16.3687
293800 60.2096 149.364 55.7714 0.14685 16.4021
294000 60.2096 149.377 55.7714 0.14695 16.3836
294200 60.2096 149.39 55.7714 0.14705 16.4175
294400 60.2096 149.403 55.7714 0.14715 16.4154
294600 60.2096 149.416 55.7714 0.14725 16.4016
294800 60.2096 149.429 55.7714 0.14735 16.4306
295000 60.2096 149.442 55.7714 0.14745 16.4177
295200 60.2096 149.455 55.7714 0.14755 16.4294
295400 60.2096 149.468 55.7714 0.14765 16.4416
295600 60.2096 149.481 55.7714 0.14775 16.4198
295800 60.2096 149.494 55.7714 0.14785 16.4142
296000 60.2096 149.507 55.7714 0.14795 16.4089
296200 60.2096 149.52 55.7714 0.14805 16.3947
296400 60.2096 149.533 55.7714 0.14815 16.3596
296600 60.2096 149.546 55.7714 0.14825 16.3919
296800 60.2096 149.559 55.7714 0.14835 16.3727
297000 60.2096 149.572 55.7714 0.14845 16.3457
297200 60.2096 149.585 55.7714 0.14855 16.3156
297400 60.2096 149.598 55.7714 0.14865 16.33
297600 60.2096 149.611 55.7714 0.14875 16.3051
297800 60.2096 149.624 55.7714 0.14885 16.3345
298000 60.2096 149.637 55.7714 0.14895 16.3312
298200 60.2096 149.65 55.7714 0.14905 16.372
298400 60.2096 149.663 55.7714 0.14915 16.3042
298600 60.2096 149.676 55.7714 0.14925 16.345
298800 60.2096 149.689 55.7714 0.14935 16.3658
299000 60.2096 149.702 55.7714 0.14945 16.3671
299200 60.2096 149.716 55.7714 0.14955 16.3873
299400 60.2096 149.729 55.7714 0.14965 16.3954
299600 60.2096 149.742 55.7714 0.14975 16.4071
299800 60.2096 149.755 55.7714 0.14985 16.423
300000 60.2096 149.768 55.7714 0.14995 16.4199
300200 60.2096 149.781 55.7714 0.15005 16.4426
300400 60.2096 149.794 55.7714 0.15015 16.4607
300600 60.2096 149.807 55.7714 0.15025 16.4715
300800 60.2096 149.82 55.7714 0.15035 16.4792
301000 60.2096 149.833 55.7714 0.15045 16.4915
301200 60.2096 149.846 55.7714 0.15055 16.4768
301400 60.2096 149.859 55.7714 0.15065 16.5162
301600 60.2096 149.872 55.7714 0.15075 16.5002
301800 60.2096 149.885 55.7714 0.15085 16.5164
302000 60.2096 149.898 55.7714 0.15095 16.5327
302200 60.2096 149.911 55.7714 0.15105 16.526
302400 60.2096 149.924 55.7714 0.15115 16.5476
302600 60.2096 149.937 55.7714 0.15125 16.5669
302800 60.2096 149.95 55.7714 0.15135 16.56
303000 60.2096 149.963 55.7714 0.15145 16.5604
303200 60.2096 149.976 55.7714 0.15155 16.5753
303400 60.2096 149.989 55.7714 0.15165 16.5736
303600 60.2096 150.002 55.7714 0.15175 16.5917
303800 60.2096 150.015 55.7714 0.15185 16.613
304000 60.2096 150.028 55.7714 0.15195 16.6
304200 60.2096 150.041 55.7714 0.15205 16.596
304400 60.2096 150.054 55.7714 0.15215 16.6274
304600 60.2096 150.067 55.7714 0.15225 16.6068
304800 60.2096 150.08 55.7714 0.15235 16.6279
305000 60.2096 150.093 55.7714 0.15245 16.6002
305200 60.2096 150.106 55.7714 0.15255 16.6124
305400 60.2096 150.119 55.7714 0.15265 16.6033
305600 60.2096 150.132 55.7714 0.15275 16.63
305800 60.2096 150.145 55.7714 0.15285 16.6254
306000 60.2096 150.158 55.7714 0.15295 16.6258
306200 60.2096 150.171 55.7714 0.15305 16.5986
306400 60.2096 150.184 55.7714 0.15315 16.5795
306600 60.2096 150.197 55.7714 0.15325 16.5943
306800 60.2096 150.21 55.7714 0.15335 16.5928
307000 60.2096 150.223 55.7714 0.15345 16.5712
307200 60.2096 150.236 55.7714 0.15355 16.5886
307400 60.2096 150.249 55.7714 0.15365 16.6057
307600 60.2096 150.263 55.7714 0.15375 16.6012
307800 60.2096 150.276 55.7714 0.15385 16.5875
308000 60.2096 150.289 55.7714 0.15395 16.5692
308200 60.2096 150.302 55.7714 0.15405 16.5701
308400 60.2096 150.315 55.7714 0.15415 16.5598
308600 60.2096 150.328 55.7714 0.15425 16.5504
308800 60.2096 150.341 55.7714 0.15435 16.568
309000 60.2096 150.354 55.7714 0.15445 16.5747
309200 60.2096 150.367 55.7714 0.15455 16.543
309400 60.2096 150.38 55.7714 0.15465 16.5481
309600 60.2096 150.393 55.7714 0.15475 16.5321
309800 60.2096 150.406 55.7714 0.15485 16.5313
310000 60.2096 150.419 55.7714 0.15495 16.5257
310200 60.2096 150.432 55.7714 0.15505 16.5538
310400 60.2096 150.445 55.7714 0.15515 16.5315
310600 60.2096 150.458 55.7714 0.15525 16.5604
310800 60.2096 150.471 55.7714 0.15535 16.5389
311000 60.2096 150.484 55.7714 0.15545 16.5174
311200 60.2096 150.497 55.7714 0.15555 16.5416
311400 60.2096 150.51 55.7714 0.15565 16.5515
311600 60.2096 150.523 55.7714 0.15575 16.5582
311800 60.2096 150.536 55.7714 0.15585 16.5677
312000 60.2096 150.549 55.7714 0.15595 16.566
312200 60.2096 150.562 55.7714 0.15605 16.592
312400 60.2096 150.575 55.7714 0.15615 16.584
312600 60.2096 150.588 55.7714 0.15625 16.6078
312800 60.2096 150.601 55.7714 0.15635 16.5831
313000 60.2096 150.614 55.7714 0.15645 16.5494
313200 60.2096 150.627 55.7714 0.15655 16.5543
313400 60.2096 150.64 55.7714 0.15665 16.5621
313600 60.2096 150.653 55.7714 0.15675 16.5196
313800 60.2096 150.666 55.7714 0.15685 16.518
314000 60.2096 150.679 55.7714 0.15695 16.5005
314200 60.2096 150.692 55.7714 0.15705 16.4714
314400 60.2096 150.705 55.7714 0.15715 16.5014
314600 60.2096 150.718 55.7714 0.15725 16.51
314800 60.2096 150.731 55.7714 0.15735 16.5154
315000 60.2096 150.744 55.7714 0.15745 16.5074
315200 60.2096 150.757 55.7714 0.15755 16.5258
315400 60.2096 150.77 55.7714 0.15765 16.5416
315600 60.2096 150.783 55.7714 0.15775 16.5063
315800 60.2096 150.796 55.7714 0.15785 16.5029
316000 60.2096 150.81 55.7714 0.15795 16.4978
316200 60.2096 150.823 55.7714 0.15805 16.5325
316400 60.2096 150.836 55.7714 0.15815 16.4879
316600 60.2096 150.849 55.7714 0.15825 16.5141
316800 60.2096 150.862 55.7714 0.15835 16.5183
317000 60.2096 150.875 55.7714 0.15845 16.5182
317200 60.2096 150.888 55.7714 0.15855 16.5171
317400 60.2096 150.901 55.7714 0.15865 16.5256
317600 60.2096 150.914 55.7714 0.15875 16.5585
317800 60.2096 150.927 55.7714 0.15885 16.5484
318000 60.2096 150.94 55.7714 0.15895 16.5659
318200 60.2096 150.953 55.7714 0.15905 16.5549
318400 60.2096 150.966 55.7714 0.15915 16.537
318600 60.2096 150.979 55.7714 0.15925 16.5048
318800 60.2096 150.992 55.7714 0.15935 16.5228
319000 60.2096 151.005 55.7714 0.15945 16.5473
319200 60.2096 151.018 55.7714 0.15955 16.5324
319400 60.2096 151.031 55.7714 0.15965 16.5203
319600 60.2096 151.044 55.7714 0.15975 16.5398
319800 60.2096 151.057 55.7714 0.15985 16.5698
320000 60.2096 151.07 55.7714 0.15995 16.5634
320200 60.2096 151.083 55.7714 0.16005 16.5549
320400 60.2096 151.096 55.7714 0.16015 16.5701
320600 60.2096 151.109 55.7714 0.16025 16.5807
320800 60.2096 151.122 55.7714 0.16035 16.5946
321000 60.2096 151.135 55.7714 0.16045 16.6146
321200 60.2096 151.148 55.7714 0.16055 16.6139
321400 60.2096 151.161 55.7714 0.16065 16.5966
321600 60.2096 151.174 55.7714 0.16075 16.6042
321800 60.2096 151.187 55.7714 0.16085 16.6013
322000 60.2096 151.2 55.7714 0.16095 16.6226
322200 60.2096 151.213 55.7714 0.16105 16.577
322400 60.2096 151.226 55.7714 0.16115 16.6034
322600 60.2096 151.239 55.7714 0.16125 16.5706
322800 60.2096 151.252 55.7714 0.16135 16.6022
323000 60.2096 151.265 55.7714 0.16145 16.5875
323200 60.2096 151.278 55.7714 0.16155 16.5884
323400 60.2096 151.291 55.7714 0.16165 16.5572
323600 60.2096 151.304 55.7714 0.16175 16.5432
323800 60.2096 151.317 55.7714 0.16185 16.4877
324000 60.2096 151.33 55.7714 0.16195 16.4456
324200 60.2096 151.343 55.7714 0.16205 16.4668
324400 60.2096 151.357 55.7714 0.16215 16.4841
324600 60.2096 151.37 55.7714 0.16225 16.4761
324800 60.2096 151.383 55.7714 0.16235 16.4659
325000 60.2096 151.396 55.7714 0.16245 16.4524
325200 60.2096 151.409 55.7714 0.16255 16.4195
325400 60.2096 151.422 55.7714 0.16265 16.4297
325600 60.2096 151.435 55.7714 0.16275 16.4199
325800 60.2096 151.448 55.7714 0.16285 16.4181
326000 60.2096 151.461 55.7714 0.16295 16.4138
326200 60.2096 151.474 55.7714 0.16305 16.4064
326400 60.2096 151.487 55.7714 0.16315 16.4124
326600 60.2096 151.5 55.7714 0.16325 16.412
326800 60.2096 151.513 55.7714 0.16335 16.4214
327000 60.2096 151.526 55.7714 0.16345 16.401
327200 60.2096 151.539 55.7714 0.16355 16.4051
327400 60.2096 151.552 55.7714 0.16365 16.4078
327600 60.2096 151.565 55.7714 0.16375 16.4068
327800 60.2096 151.578 55.7714 0.16385 16.3791
328000 60.2096 151.591 55.7714 0.16395 16.3587
328200 60.2096 151.604 55.7714 0.16405 16.3472
328400 60.2096 151.617 55.7714 0.16415 16.3319
328600 60.2096 151.63 55.7714 0.16425 16.2956
328800 60.2096 151.643 55.7714 0.16435 16.226
329000 60.2096 151.656 55.7714 0.16445 16.1953
329200 60.2096 151.669 55.7714 0.16455 16.1748
329400 60.2096 151.682 55.7714 0.16465 16.1558
329600 60.2096 151.695 55.7714 0.16475 16.0784
329800 60.2096 151.708 55.7714 0.16485 15.9636
330000 60.2096 151.721 55.7714 0.16495 15.8667
330200 60.2096 151.734 55.7714 0.16505 15.7831
330400 60.2096 151.747 55.7714 0.16515 15.7754
330600 60.2096 151.76 55.7714 0.16525 15.6721
330800 60.2096 151.773 55.7714 0.16535 15.6258
331000 60.2096 151.786 55.7714 0.16545 15.513
331200 60.2096 151.799 55.7714 0.16555 15.4036
331400 60.2096 151.812 55.7714 0.16565 15.3223
331600 60.2096 151.825 55.7714 0.16575 15.1716
331800 60.2096 151.838 55.7714 0.16585 15.0206
332000 60.2096 151.851 55.7714 0.16595 14.7845
332200 60.2096 151.864 55.7714 0.16605 14.3945
332400 60.2096 151.877 55.7714 0.16615 13.8618
332600 60.2096 151.89 55.7714 0.16625 13.073
332800 60.2096 151.904 55.7714 0.16635 11.8752
333000 60.2096 151.917 55.7714 0.16645 10.3536
333200 60.2096 151.93 55.7714 0.16655 8.5391
333400 60.2096 151.943 55.7714 0.16665 6.38027
333600 60.2096 151.956 55.7714 0.16675 4.37879
333800 60.2096 151.969 55.7714 0.16685 2.58218
334000 60.2096 151.982 55.7714 0.16695 1.02946
334200 60.2096 151.995 55.7714 0.16705 -0.21306
334400 60.2096 152.008 55.7714 0.16715 -1.30985
334600 60.2096 152.021 55.7714 0.16725 -2.1783
334800 60.2096 152.034 55.7714 0.16735 -2.79919
335000 60.2096 152.047 55.7714 0.16745 -3.19771
335200 60.2096 152.06 55.7714 0.16755 -3.4505
335400 60.2096 152.073 55.7714 0.16765 -3.45297
335600 60.2096 152.086 55.7714 0.16775 -3.31305
335800 60.2096 152.099 55.7714 0.16785 -2.94786
336000 60.2096 152.112 55.7714 0.16795 -2.48104
336200 60.2096 152.125 55.7714 0.16805 -1.85301
336400 60.2096 152.138 55.7714 0.16815 -1.09985
336600 60.2096 152.151 55.7714 0.16825 -0.133298
336800 60.2096 152.164 55.7714 0.16835 0.95592
337000 60.2096 152.177 55.7714 0.16845 2.17368
337200 60.2096 152.19 55.7714 0.16855 3.34069
337400 60.2096 152.203 55.7714 0.16865 4.16892
337600 60.2096 152.216 55.7714 0.16875 4.47067
337800 60.2096 152.229 55.7714 0.16885 4.06153
338000 60.2096 152.242 55.7714 0.16895 3.22168
338200 60.2096 152.255 55.7714 0.16905 2.09449
338400 60.2096 152.268 55.7714 0.16915 0.915146
338600 60.2096 152.281 55.7714 0.16925 -0.0992887
338800 60.2096 152.294 55.7714 0.16935 -1.00929
339000 60.2096 152.307 55.7714 0.16945 -1.82591
339200 60.2096 152.32 55.7714 0.16955 -2.39007
339400 60.2096 152.333 55.7714 0.16965 -2.80369
339600 60.2096 152.346 55.7714 0.16975 -3.04447
339800 60.2096 152.359 55.7714 0.16985 -3.03502
340000 60.2096 152.372 55.7714 0.16995 -2.84828
340200 60.2096 152.385 55.7714 0.17005 -2.48582
340400 60.2096 152.398 55.7714 0.17015 -1.98519
340600 60.2096 152.411 55.7714 0.17025 -1.29313
340800 60.2096 152.424 55.7714 0.17035 -0.458954
341000 60.2096 152.437 55.7714 0.17045 0.464683
341200 60.2096 152.451 55.7714 0.17055 1.52515
341400 60.2096 152.464 55.7714 0.17065 2.56955
341600 60.2096 152.477 55.7714 0.17075 3.40171
341800 60.2096 152.49 55.7714 0.17085 3.88466
342000 60.2096 152.503 55.7714 0.17095 3.75525
342200 60.2096 152.516 55.7714 0.17105 3.15627
342400 60.2096 152.529 55.7714 0.17115 2.21611
342600 60.2096 152.542 55.7714 0.17125 1.19631
342800 60.2096 152.555 55.7714 0.17135 0.179685
343000 60.2096 152.568 55.7714 0.17145 -0.713354
343200 60.2096 152.581 55.7714 0.17155 -1.48954
343400 60.2096 152.594 55.7714 0.17165 -2.08957
343600 60.2096 152.607 55.7714 0.17175 -2.45766
343800 60.2096 152.62 55.7714 0.17185 -2.72624
344000 60.2096 152.633 55.7714 0.17195 -2.8248
344200 60.2096 152.646 55.7714 0.17205 -2.67256
344400 60.2096 152.659 55.7714 0.17215 -2.34977
344600 60.2096 152.672 55.7714 0.17225 -1.87154
344800 60.2096 152.685 55.7714 0.17235 -1.26556
345000 60.2096 152.698 55.7714 0.17245 -0.487432
345200 60.2096 152.711 55.7714 0.17255 0.385965
345400 60.2096 152.724 55.7714 0.17265 1.35415
345600 60.2096 152.737 55.7714 0.17275 2.32273
345800 60.2096 152.75 55.7714 0.17285 3.07548
346000 60.2096 152.763 55.7714 0.17295 3.50601
346200 60.2096 152.776 55.7714 0.17305 3.41169
346400 60.2096 152.789 55.7714 0.17315 2.8945
346600 60.2096 152.802 55.7714 0.17325 2.08235
346800 60.2096 152.815 55.7714 0.17335 1.12389
347000 60.2096 152.828 55.7714 0.17345 0.190178
347200 60.2096 152.841 55.7714 0.17355 -0.641284
347400 60.2096 152.854 55.7714 0.17365 -1.3971
347600 60.2096 152.867 55.7714 0.17375 -1.92411
347800 60.2096 152.88 55.7714 0.17385 -2.32616
348000 60.2096 152.893 55.7714 0.17395 -2.5504
348200 60.2096 152.906 55.7714 0.17405 -2.60667
348400 60.2096 152.919 55.7714 0.17415 -2.45937
348600 60.2096 152.932 55.7714 0.17425 -2.1507
348800 60.2096 152.945 55.7714 0.17435 -1.67793
349000 60.2096 152.958 55.7714 0.17445 -1.06785
349200 60.2096 152.971 55.7714 0.17455 -0.364867
349400 60.2096 152.984 55.7714 0.17465 0.500619
349600 60.2096 152.998 55.7714 0.17475 1.41451
349800 60.2096 153.011 55.7714 0.17485 2.24266
350000 60.2096 153.024 55.7714 0.17495 2.90799
350200 60.2096 153.037 55.7714 0.17505 3.17853
350400 60.2096 153.05 55.7714 0.17515 3.05614
350600 60.2096 153.063 55.7714 0.17525 2.53894
350800 60.2096 153.076 55.7714 0.17535 1.78464
351000 60.2096 153.089 55.7714 0.17545 0.90806
351200 60.2096 153.102 55.7714 0.17555 0.0290143
351400 60.2096 153.115 55.7714 0.17565 -0.755911
351600 60.2096 153.128 55.7714 0.17575 -1.38659
351800 60.2096 153.141 55.7714 0.17585 -1.84866
352000 60.2096 153.154 55.7714 0.17595 -2.20367
352200 60.2096 153.167 55.7714 0.17605 -2.36371
352400 60.2096 153.18 55.7714 0.17615 -2.38155
352600 60.2096 153.193 55.7714 0.17625 -2.1935
352800 60.2096 153.206 55.7714 0.17635 -1.88402
353000 60.2096 153.219 55.7714 0.17645 -1.43059
353200 60.2096 153.232 55.7714 0.17655 -0.841316
353400 60.2096 153.245 55.7714 0.17665 -0.10245
353600 60.2096 153.258 55.7714 0.17675 0.703157
353800 60.2096 153.271 55.7714 0.17685 1.51872
354000 60.2096 153.284 55.7714 0.17695 2.24088
354200 60.2096 153.297 55.7714 0.17705 2.74721
354400 60.2096 153.31 55.7714 0.17715 2.90104
354600 60.2096 153.323 55.7714 0.17725 2.63705
354800 60.2096 153.336 55.7714 0.17735 2.11122
355000 60.2096 153.349 55.7714 0.17745 1.40547
355200 60.2096 153.362 55.7714 0.17755 0.584607
355400 60.2096 153.375 55.7714 0.17765 -0.179708
355600 60.2096 153.388 55.7714 0.17775 -0.853571
355800 60.2096 153.401 55.7714 0.17785 -1.45917
356000 60.2096 153.414 55.7714 0.17795 -1.84128
356200 60.2096 153.427 55.7714 0.17805 -2.09323
356400 60.2096 153.44 55.7714 0.17815 -2.22523
356600 60.2096 153.453 55.7714 0.17825 -2.15933
356800 60.2096 153.466 55.7714 0.17835 -1.92941
357000 60.2096 153.479 55.7714 0.17845 -1.57824
357200 60.2096 153.492 55.7714 0.17855 -1.09947
357400 60.2096 153.505 55.7714 0.17865 -0.480381
357600 60.2096 153.518 55.7714 0.17875 0.215385
357800 60.2096 153.531 55.7714 0.17885 0.965221
358000 60.2096 153.545 55.7714 0.17895 1.70612
358200 60.2096 153.558 55.7714 0.17905 2.27761
358400 60.2096 153.571 55.7714 0.17915 2.57943
358600 60.2096 153.584 55.7714 0.17925 2.57049
358800 60.2096 153.597 55.7714 0.17935 2.2794
359000 60.2096 153.61 55.7714 0.17945 1.6664
359200 60.2096 153.623 55.7714 0.17955 0.947808
359400 60.2096 153.636 55.7714 0.17965 0.218044
359600 60.2096 153.649 55.7714 0.17975 -0.47219
359800 60.2096 153.662 55.7714 0.17985 -1.05909
360000 60.2096 153.675 55.7714 0.17995 -1.51163
360200 60.2096 153.688 55.7714 0.18005 -1.83744
360400 60.2096 153.701 55.7714 0.18015 -2.00566
360600 60.2096 153.714 55.7714 0.18025 -2.04434
360800 60.2096 153.727 55.7714 0.18035 -1.93452
361000 60.2096 153.74 55.7714 0.18045 -1.6516
361200 60.2096 153.753 55.7714 0.18055 -1.27869
361400 60.2096 153.766 55.7714 0.18065 -0.727673
361600 60.2096 153.779 55.7714 0.18075 -0.0788867
361800 60.2096 153.792 55.7714 0.18085 0.620706
362000 60.2096 153.805 55.7714 0.18095 1.26368
362200 60.2096 153.818 55.7714 0.18105 1.8648
362400 60.2096 153.831 55.7714 0.18115 2.27333
362600 60.2096 153.844 55.7714 0.18125 2.40963
362800 60.2096 153.857 55.7714 0.18135 2.24534
363000 60.2096 153.87 55.7714 0.18145 1.81398
363200 60.2096 153.883 55.7714 0.18155 1.19611
363400 60.2096 153.896 55.7714 0.18165 0.496766
363600 60.2096 153.909 55.7714 0.18175 -0.174875
363800 60.2096 153.922 55.7714 0.18185 -0.783481
364000 60.2096 153.935 55.7714 0.18195 -1.23071
364200 60.2096 153.948 55.7714 0.18205 -1.59773
364400 60.2096 153.961 55.7714 0.18215 -1.82294
364600 60.2096 153.974 55.7714 0.18225 -1.89336
364800 60.2096 153.987 55.7714 0.18235 -1.84034
365000 60.2096 154 55.7714 0.18245 -1.66312
365200 60.2096 154.013 55.7714 0.18255 -1.34269
365400 60.2096 154.026 55.7714 0.18265 -0.848631
365600 60.2096 154.039 55.7714 0.18275 -0.296791
365800 60.2096 154.052 55.7714 0.18285 0.346671
366000 60.2096 154.065 55.7714 0.18295 0.975611
366200 60.2096 154.078 55.7714 0.18305 1.56577
366400 60.2096 154.092 55.7714 0.18315 1.96083
366600 60.2096 154.105 55.7714 0.18325 2.18778
366800 60.2096 154.118 55.7714 0.18335 2.13166
367000 60.2096 154.131 55.7714 0.18345 1.82631
367200 60.2096 154.144 55.7714 0.18355 1.32335
367400 60.2096 154.157 55.7714 0.18365 0.667431
367600 60.2096 154.17 55.7714 0.18375 0.0423845
367800 60.2096 154.183 55.7714 0.18385 -0.519653
368000 60.2096 154.196 55.7714 0.18395 -1.0175
368200 60.2096 154.209 55.7714 0.18405 -1.38759
368400 60.2096 154.222 55.7714 0.18415 -1.64125
368600 60.2096 154.235 55.7714 0.18425 -1.74588
368800 60.2096 154.248 55.7714 0.18435 -1.74413
369000 60.2096 154.261 55.7714 0.18445 -1.61712
369200 60.2096 154.274 55.7714 0.18455 -1.31585
369400 60.2096 154.287 55.7714 0.18465 -0.978609
369600 60.2096 154.3 55.7714 0.18475 -0.417087
369800 60.2096 154.313 55.7714 0.18485 0.181291
370000 60.2096 154.326 55.7714 0.18495 0.749481
370200 60.2096 154.339 55.7714 0.18505 1.29658
370400 60.2096 154.352 55.7714 0.18515 1.7648
370600 60.2096 154.365 55.7714 0.18525 1.99252
370800 60.2096 154.378 55.7714 0.18535 2.03167
371000 60.2096 154.391 55.7714 0.18545 1.79879
371200 60.2096 154.404 55.7714 0.18555 1.35339
371400 60.2096 154.417 55.7714 0.18565 0.799101
371600 60.2096 154.43 55.7714 0.18575 0.198875
371800 60.2096 154.443 55.7714 0.18585 -0.39475
372000 60.2096 154.456 55.7714 0.18595 -0.831699
372200 60.2096 154.469 55.7714 0.18605 -1.24772
372400 60.2096 154.482 55.7714 0.18615 -1.47295
372600 60.2096 154.495 55.7714 0.18625 -1.6381
372800 60.2096 154.508 55.7714 0.18635 -1.68427
373000 60.2096 154.521 55.7714 0.18645 -1.54918
373200 60.2096 154.534 55.7714 0.18655 -1.31251
373400 60.2096 154.547 55.7714 0.18665 -0.954317
373600 60.2096 154.56 55.7714 0.18675 -0.501631
373800 60.2096 154.573 55.7714 0.18685 0.0246001
374000 60.2096 154.586 55.7714 0.18695 0.592003
374200 60.2096 154.599 55.7714 0.18705 1.15899
374400 60.2096 154.612 55.7714 0.18715 1.57629
374600 60.2096 154.625 55.7714 0.18725 1.85275
374800 60.2096 154.639 55.7714 0.18735 1.89255
375000 60.2096 154.652 55.7714 0.18745 1.72622
375200 60.2096 154.665 55.7714 0.18755 1.38456
375400 60.2096 154.678 55.7714 0.18765 0.850054
375600 60.2096 154.691 55.7714 0.18775 0.284115
375800 60.2096 154.704 55.7714 0.18785 -0.248041
376000 60.2096 154.717 55.7714 0.18795 -0.727918
376200 60.2096 154.73 55.7714 0.18805 -1.07514
376400 60.2096 154.743 55.7714 0.18815 -1.37269
376600 60.2096 154.756 55.7714 0.18825 -1.53933
376800 60.2096 154.769 55.7714 0.18835 -1.57783
377000 60.2096 154.782 55.7714 0.18845 -1.49022
377200 60.2096 154.795 55.7714 0.18855 -1.27808
377400 60.2096 154.808 55.7714 0.18865 -0.974165
377600 60.2096 154.821 55.7714 0.18875 -0.535967
377800 60.2096 154.834 55.7714 0.18885 -0.0451027
378000 60.2096 154.847 55.7714 0.18895 0.487238
378200 60.2096 154.86 55.7714 0.18905 0.995952
378400 60.2096 154.873 55.7714 0.18915 1.40572
378600 60.2096 154.886 55.7714 0.18925 1.70276
378800 60.2096 154.899 55.7714 0.18935 1.78767
379000 60.2096 154.912 55.7714 0.18945 1.68159
379200 60.2096 154.925 55.7714 0.18955 1.34975
379400 60.2096 154.938 55.7714 0.18965 0.894586
379600 60.2096 154.951 55.7714 0.18975 0.349269
379800 60.2096 154.964 55.7714 0.18985 -0.161664
380000 60.2096 154.977 55.7714 0.18995 -0.595128
380200 60.2096 154.99 55.7714 0.19005 -1.00208
380400 60.2096 155.003 55.7714 0.19015 -1.2557
380600 60.2096 155.016 55.7714 0.19025 -1.45672
380800 60.2096 155.029 55.7714 0.19035 -1.47915
381000 60.2096 155.042 55.7714 0.19045 -1.43794
381200 60.2096 155.055 55.7714 0.19055 -1.25227
381400 60.2096 155.068 55.7714 0.19065 -0.973929
381600 60.2096 155.081 55.7714 0.19075 -0.56725
381800 60.2096 155.094 55.7714 0.19085 -0.0811672
382000 60.2096 155.107 55.7714 0.19095 0.419719
382200 60.2096 155.12 55.7714 0.19105 0.858488
382400 60.2096 155.133 55.7714 0.19115 1.29646
382600 60.2096 155.146 55.7714 0.19125 1.58678
382800 60.2096 155.159 55.7714 0.19135 1.67762
383000 60.2096 155.172 55.7714 0.19145 1.59741
383200 60.2096 155.186 55.7714 0.19155 1.35893
383400 60.2096 155.199 55.7714 0.19165 0.902346
383600 60.2096 155.212 55.7714 0.19175 0.401677
383800 60.2096 155.225 55.7714 0.19185 -0.0918916
384000 60.2096 155.238 55.7714 0.19195 -0.538668
384200 60.2096 155.251 55.7714 0.19205 -0.928777
384400 60.2096 155.264 55.7714 0.19215 -1.18015
384600 60.2096 155.277 55.7714 0.19225 -1.35182
384800 60.2096 155.29 55.7714 0.19235 -1.43444
385000 60.2096 155.303 55.7714 0.19245 -1.38566
385200 60.2096 155.316 55.7714 0.19255 -1.20998
385400 60.2096 155.329 55.7714 0.19265 -0.952012
385600 60.2096 155.342 55.7714 0.19275 -0.53934
385800 60.2096 155.355 55.7714 0.19285 -0.132217
386000 60.2096 155.368 55.7714 0.19295 0.366677
386200 60.2096 155.381 55.7714 0.19305 0.812159
386400 60.2096 155.394 55.7714 0.19315 1.22273
386600 60.2096 155.407 55.7714 0.19325 1.49229
386800 60.2096 155.42 55.7714 0.19335 1.59188
387000 60.2096 155.433 55.7714 0.19345 1.53607
387200 60.2096 155.446 55.7714 0.19355 1.26913
387400 60.2096 155.459 55.7714 0.19365 0.898051
387600 60.2096 155.472 55.7714 0.19375 0.440327
387800 60.2096 155.485 55.7714 0.19385 -0.0679629
388000 60.2096 155.498 55.7714 0.19395 -0.490142
388200 60.2096 155.511 55.7714 0.19405 -0.881496
388400 60.2096 155.524 55.7714 0.19415 -1.13398
388600 60.2096 155.537 55.7714 0.19425 -1.28959
388800 60.2096 155.55 55.7714 0.19435 -1.34743
389000 60.2096 155.563 55.7714 0.19445 -1.31038
389200 60.2096 155.576 55.7714 0.19455 -1.14975
389400 60.2096 155.589 55.7714 0.19465 -0.892722
389600 60.2096 155.602 55.7714 0.19475 -0.560886
389800 60.2096 155.615 55.7714 0.19485 -0.149239
390000 60.2096 155.628 55.7714 0.19495 0.318461
390200 60.2096 155.641 55.7714 0.19505 0.762714
390400 60.2096 155.654 55.7714 0.19515 1.17735
390600 60.2096 155.667 55.7714 0.19525 1.41703
390800 60.2096 155.68 55.7714 0.19535 1.52114
391000 60.2096 155.693 55.7714 0.19545 1.46618
391200 60.2096 155.706 55.7714 0.19555 1.19527
391400 60.2096 155.719 55.7714 0.19565 0.848249
391600 60.2096 155.733 55.7714 0.19575 0.416665
391800 60.2096 155.746 55.7714 0.19585 -0.0344789
392000 60.2096 155.759 55.7714 0.19595 -0.440723
392200 60.2096 155.772 55.7714 0.19605 -0.814076
392400 60.2096 155.785 55.7714 0.19615 -1.07154
392600 60.2096 155.798 55.7714 0.19625 -1.23186
392800 60.2096 155.811 55.7714 0.19635 -1.28638
393000 60.2096 155.824 55.7714 0.19645 -1.24412
393200 60.2096 155.837 55.7714 0.19655 -1.12003
393400 60.2096 155.85 55.7714 0.19665 -0.882605
393600 60.2096 155.863 55.7714 0.19675 -0.556297
393800 60.2096 155.876 55.7714 0.19685 -0.126072
394000 60.2096 155.889 55.7714 0.19695 0.314965
394200 60.2096 155.902 55.7714 0.19705 0.731526
394400 60.2096 155.915 55.7714 0.19715 1.07896
394600 60.2096 155.928 55.7714 0.19725 1.34012
394800 60.2096 155.941 55.7714 0.19735 1.44045
395000 60.2096 155.954 55.7714 0.19745 1.38228
395200 60.2096 155.967 55.7714 0.19755 1.17323
395400 60.2096 155.98 55.7714 0.19765 0.821242
395600 60.2096 155.993 55.7714 0.19775 0.421226
395800 60.2096 156.006 55.7714 0.19785 -0.0148361
396000 60.2096 156.019 55.7714 0.19795 -0.417929
396200 60.2096 156.032 55.7714 0.19805 -0.752438
396400 60.2096 156.045 55.7714 0.19815 -1.03074
396600 60.2096 156.058 55.7714 0.19825 -1.16235
396800 60.2096 156.071 55.7714 0.19835 -1.21988
397000 60.2096 156.084 55.7714 0.19845 -1.21217
397200 60.2096 156.097 55.7714 0.19855 -1.06611
397400 60.2096 156.11 55.7714 0.19865 -0.82585
397600 60.2096 156.123 55.7714 0.19875 -0.550703
397800 60.2096 156.136 55.7714 0.19885 -0.155775
398000 60.2096 156.149 55.7714 0.19895 0.290824
398200 60.2096 156.162 55.7714 0.19905 0.69234
398400 60.2096 156.175 55.7714 0.19915 1.05774
398600 60.2096 156.188 55.7714 0.19925 1.28398
398800 60.2096 156.201 55.7714 0.19935 1.34698
399000 60.2096 156.214 55.7714 0.19945 1.33704
399200 60.2096 156.227 55.7714 0.19955 1.10114
399400 60.2096 156.24 55.7714 0.19965 0.837116
399600 60.2096 156.253 55.7714 0.19975 0.386499
399800 60.2096 156.266 55.7714 0.19985 0.0155964
400000 60.2096 156.28 55.7714 0.19995 -0.409164
400200 60.2096 156.293 55.7714 0.20005 -0.751141
400400 60.2096 156.306 55.7714 0.20015 -0.9999
400600 60.2096 156.319 55.7714 0.20025 -1.13346
400800 60.2096 156.332 55.7714 0.20035 -1.20241
401000 60.2096 156.345 55.7714 0.20045 -1.14683
401200 60.2096 156.358 55.7714 0.20055 -1.03806
401400 60.2096 156.371 55.7714 0.20065 -0.798961
401600 60.2096 156.384 55.7714 0.20075 -0.484715
401800 60.2096 156.397 55.7714 0.20085 -0.113088
402000 60.2096 156.41 55.7714 0.20095 0.254011
402200 60.2096 156.423 55.7714 0.20105 0.690956
402400 60.2096 156.436 55.7714 0.20115 1.02085
402600 60.2096 156.449 55.7714 0.20125 1.25611
402800 60.2096 156.462 55.7714 0.20135 1.31501
403000 60.2096 156.475 55.7714 0.20145 1.29067
403200 60.2096 156.488 55.7714 0.20155 1.06636
403400 60.2096 156.501 55.7714 0.20165 0.747406
403600 60.2096 156.514 55.7714 0.20175 0.388625
403800 60.2096 156.527 55.7714 0.20185 -0.026254
404000 60.2096 156.54 55.7714 0.20195 -0.38272
404200 60.2096 156.553 55.7714 0.20205 -0.721776
404400 60.2096 156.566 55.7714 0.20215 -0.94651
404600 60.2096 156.579 55.7714 0.20225 -1.1016
404800 60.2096 156.592 55.7714 0.20235 -1.13303
405000 60.2096 156.605 55.7714 0.20245 -1.15029
405200 60.2096 156.618 55.7714 0.20255 -0.988865
405400 60.2096 156.631 55.7714 0.20265 -0.768149
405600 60.2096 156.644 55.7714 0.20275 -0.451206
405800 60.2096 156.657 55.7714 0.20285 -0.158151
406000 60.2096 156.67 55.7714 0.20295 0.305097
406200 60.2096 156.683 55.7714 0.20305 0.636566
406400 60.2096 156.696 55.7714 0.20315 0.970302
406600 60.2096 156.709 55.7714 0.20325 1.21008
406800 60.2096 156.722 55.7714 0.20335 1.29264
407000 60.2096 156.735 55.7714 0.20345 1.2322
407200 60.2096 156.748 55.7714 0.20355 1.05028
407400 60.2096 156.761 55.7714 0.20365 0.740746
407600 60.2096 156.774 55.7714 0.20375 0.372113
407800 60.2096 156.787 55.7714 0.20385 -0.031234
408000 60.2096 156.8 55.7714 0.20395 -0.381127
408200 60.2096 156.813 55.7714 0.20405 -0.690376
408400 60.2096 156.827 55.7714 0.20415 -0.940033
408600 60.2096 156.84 55.7714 0.20425 -1.05534
408800 60.2096 156.853 55.7714 0.20435 -1.11202
409000 60.2096 156.866 55.7714 0.20445 -1.11315
409200 60.2096 156.879 55.7714 0.20455 -0.9751
409400 60.2096 156.892 55.7714 0.20465 -0.758374
409600 60.2096 156.905 55.7714 0.20475 -0.447018
409800 60.2096 156.918 55.7714 0.20485 -0.10049
410000 60.2096 156.931 55.7714 0.20495 0.28938
410200 60.2096 156.944 55.7714 0.20505 0.666662
410400 60.2096 156.957 55.7714 0.20515 0.964544
410600 60.2096 156.97 55.7714 0.20525 1.17315
410800 60.2096 156.983 55.7714 0.20535 1.26239
411000 60.2096 156.996 55.7714 0.20545 1.19896
411200 60.2096 157.009 55.7714 0.20555 1.02694
411400 60.2096 157.022 55.7714 0.20565 0.702171
411600 60.2096 157.035 55.7714 0.20575 0.316708
411800 60.2096 157.048 55.7714 0.20585 -0.0275813
412000 60.2096 157.061 55.7714 0.20595 -0.382338
412200 60.2096 157.074 55.7714 0.20605 -0.701617
412400 60.2096 157.087 55.7714 0.20615 -0.901894
412600 60.2096 157.1 55.7714 0.20625 -1.07464
412800 60.2096 157.113 55.7714 0.20635 -1.11884
413000 60.2096 157.126 55.7714 0.20645 -1.05718
413200 60.2096 157.139 55.7714 0.20655 -0.937376
413400 60.2096 157.152 55.7714 0.20665 -0.692567
413600 60.2096 157.165 55.7714 0.20675 -0.402974
413800 60.2096 157.178 55.7714 0.20685 -0.0735727
414000 60.2096 157.191 55.7714 0.20695 0.317599
414200 60.2096 157.204 55.7714 0.20705 0.664915
414400 60.2096 157.217 55.7714 0.20715 0.929639
414600 60.2096 157.23 55.7714 0.20725 1.13992
414800 60.2096 157.243 55.7714 0.20735 1.22954
415000 60.2096 157.256 55.7714 0.20745 1.14738
415200 60.2096 157.269 55.7714 0.20755 0.976776
415400 60.2096 157.282 55.7714 0.20765 0.664783
415600 60.2096 157.295 55.7714 0.20775 0.303854
415800 60.2096 157.308 55.7714 0.20785 -0.0758751
416000 60.2096 157.321 55.7714 0.20795 -0.385599
416200 60.2096 157.334 55.7714 0.20805 -0.693552
416400 60.2096 157.347 55.7714 0.20815 -0.87283
416600 60.2096 157.36 55.7714 0.20825 -1.03248
416800 60.2096 157.374 55.7714 0.20835 -1.06002
417000 60.2096 157.387 55.7714 0.20845 -1.02434
417200 60.2096 157.4 55.7714 0.20855 -0.891707
417400 60.2096 157.413 55.7714 0.20865 -0.68166
417600 60.2096 157.426 55.7714 0.20875 -0.390626
417800 60.2096 157.439 55.7714 0.20885 -0.0387415
418000 60.2096 157.452 55.7714 0.20895 0.323859
418200 60.2096 157.465 55.7714 0.20905 0.66139
418400 60.2096 157.478 55.7714 0.20915 0.921369
418600 60.2096 157.491 55.7714 0.20925 1.09668
418800 60.2096 157.504 55.7714 0.20935 1.15939
419000 60.2096 157.517 55.7714 0.20945 1.11143
419200 60.2096 157.53 55.7714 0.20955 0.938393
419400 60.2096 157.543 55.7714 0.20965 0.627517
419600 60.2096 157.556 55.7714 0.20975 0.293694
419800 60.2096 157.569 55.7714 0.20985 -0.0846773
420000 60.2096 157.582 55.7714 0.20995 -0.419868
420200 60.2096 157.595 55.7714 0.21005 -0.67172
420400 60.2096 157.608 55.7714 0.21015 -0.886043
420600 60.2096 157.621 55.7714 0.21025 -0.985495
420800 60.2096 157.634 55.7714 0.21035 -1.01722
421000 60.2096 157.647 55.7714 0.21045 -0.980112
421200 60.2096 157.66 55.7714 0.21055 -0.870074
421400 60.2096 157.673 55.7714 0.21065 -0.646617
421600 60.2096 157.686 55.7714 0.21075 -0.374282
421800 60.2096 157.699 55.7714 0.21085 -0.0423084
422000 60.2096 157.712 55.7714 0.21095 0.330376
422200 60.2096 157.725 55.7714 0.21105 0.644946
422400 60.2096 157.738 55.7714 0.21115 0.910974
422600 60.2096 157.751 55.7714 0.21125 1.05929
422800 60.2096 157.764 55.7714 0.21135 1.13758
423000 60.2096 157.777 55.7714 0.21145 1.07537
423200 60.2096 157.79 55.7714 0.21155 0.885642
423400 60.2096 157.803 55.7714 0.21165 0.606222
423600 60.2096 157.816 55.7714 0.21175 0.263477
423800 60.2096 157.829 55.7714 0.21185 -0.0620606
424000 60.2096 157.842 55.7714 0.21195 -0.408127
424200 60.2096 157.855 55.7714 0.21205 -0.648607
424400 60.2096 157.868 55.7714 0.21215 -0.861626
424600 60.2096 157.881 55.7714 0.21225 -0.984161
424800 60.2096 157.894 55.7714 0.21235 -0.999182
425000 60.2096 157.908 55.7714 0.21245 -0.961118
425200 60.2096 157.921 55.7714 0.21255 -0.827509
425400 60.2096 157.934 55.7714 0.21265 -0.62292
425600 60.2096 157.947 55.7714 0.21275 -0.360125
425800 60.2096 157.96 55.7714 0.21285 -0.0035447
426000 60.2096 157.973 55.7714 0.21295 0.341669
426200 60.2096 157.986 55.7714 0.21305 0.62929
426400 60.2096 157.999 55.7714 0.21315 0.885995
426600 60.2096 158.012 55.7714 0.21325 1.07924
426800 60.2096 158.025 55.7714 0.21335 1.11053
427000 60.2096 158.038 55.7714 0.21345 1.01896
427200 60.2096 158.051 55.7714 0.21355 0.851628
427400 60.2096 158.064 55.7714 0.21365 0.583865
427600 60.2096 158.077 55.7714 0.21375 0.237402
427800 60.2096 158.09 55.7714 0.21385 -0.079217
428000 60.2096 158.103 55.7714 0.21395 -0.383882
428200 60.2096 158.116 55.7714 0.21405 -0.677494
428400 60.2096 158.129 55.7714 0.21415 -0.859174
428600 60.2096 158.142 55.7714 0.21425 -0.951226
428800 60.2096 158.155 55.7714 0.21435 -0.971857
429000 60.2096 158.168 55.7714 0.21445 -0.934244
429200 60.2096 158.181 55.7714 0.21455 -0.766548
429400 60.2096 158.194 55.7714 0.21465 -0.58868
429600 60.2096 158.207 55.7714 0.21475 -0.320571
429800 60.2096 158.22 55.7714 0.21485 -0.0224089
430000 60.2096 158.233 55.7714 0.21495 0.351057
430200 60.2096 158.246 55.7714 0.21505 0.632585
430400 60.2096 158.259 55.7714 0.21515 0.899876
430600 60.2096 158.272 55.7714 0.21525 1.04845
430800 60.2096 158.285 55.7714 0.21535 1.06896
431000 60.2096 158.298 55.7714 0.21545 0.972793
431200 60.2096 158.311 55.7714 0.21555 0.806323
431400 60.2096 158.324 55.7714 0.21565 0.530385
431600 60.2096 158.337 55.7714 0.21575 0.223503
431800 60.2096 158.35 55.7714 0.21585 -0.106383
432000 60.2096 158.363 55.7714 0.21595 -0.399572
432200 60.2096 158.376 55.7714 0.21605 -0.633894
432400 60.2096 158.389 55.7714 0.21615 -0.850407
432600 60.2096 158.402 55.7714 0.21625 -0.91858
432800 60.2096 158.415 55.7714 0.21635 -0.956692
433000 60.2096 158.428 55.7714 0.21645 -0.891042
433200 60.2096 158.441 55.7714 0.21655 -0.761191
433400 60.2096 158.455 55.7714 0.21665 -0.535449
433600 60.2096 158.468 55.7714 0.21675 -0.26596
433800 60.2096 158.481 55.7714 0.21685 0.0303876
434000 60.2096 158.494 55.7714 0.21695 0.333983
434200 60.2096 158.507 55.7714 0.21705 0.636037
434400 60.2096 158.52 55.7714 0.21715 0.87915
434600 60.2096 158.533 55.7714 0.21725 1.01971
434800 60.2096 158.546 55.7714 0.21735 1.04475
435000 60.2096 158.559 55.7714 0.21745 0.941542
435200 60.2096 158.572 55.7714 0.21755 0.76881
435400 60.2096 158.585 55.7714 0.21765 0.474024
435600 60.2096 158.598 55.7714 0.21775 0.181169
435800 60.2096 158.611 55.7714 0.21785 -0.119164
436000 60.2096 158.624 55.7714 0.21795 -0.406898
436200 60.2096 158.637 55.7714 0.21805 -0.644876
436400 60.2096 158.65 55.7714 0.21815 -0.816827
436600 60.2096 158.663 55.7714 0.21825 -0.921035
436800 60.2096 158.676 55.7714 0.21835 -0.916676
437000 60.2096 158.689 55.7714 0.21845 -0.880785
437200 60.2096 158.702 55.7714 0.21855 -0.708547
437400 60.2096 158.715 55.7714 0.21865 -0.484562
437600 60.2096 158.728 55.7714 0.21875 -0.256962
437800 60.2096 158.741 55.7714 0.21885 0.0595865
438000 60.2096 158.754 55.7714 0.21895 0.358682
438200 60.2096 158.767 55.7714 0.21905 0.657383
438400 60.2096 158.78 55.7714 0.21915 0.856675
438600 60.2096 158.793 55.7714 0.21925 0.980848
438800 60.2096 158.806 55.7714 0.21935 0.997963
439000 60.2096 158.819 55.7714 0.21945 0.918651
439200 60.2096 158.832 55.7714 0.21955 0.718358
439400 60.2096 158.845 55.7714 0.21965 0.454465
439600 60.2096 158.858 55.7714 0.21975 0.153812
439800 60.2096 158.871 55.7714 0.21985 -0.161266
440000 60.2096 158.884 55.7714 0.21995 -0.422181
440200 60.2096 158.897 55.7714 0.22005 -0.621567
440400 60.2096 158.91 55.7714 0.22015 -0.825005
440600 60.2096 158.923 55.7714 0.22025 -0.878699
440800 60.2096 158.936 55.7714 0.22035 -0.890177
441000 60.2096 158.949 55.7714 0.22045 -0.851186
441200 60.2096 158.962 55.7714 0.22055 -0.668948
441400 60.2096 158.975 55.7714 0.22065 -0.4869
441600 60.2096 158.988 55.7714 0.22075 -0.234692
441800 60.2096 159.002 55.7714 0.22085 0.0922471
442000 60.2096 159.015 55.7714 0.22095 0.395205
442200 60.2096 159.028 55.7714 0.22105 0.654734
442400 60.2096 159.041 55.7714 0.22115 0.865409
442600 60.2096 159.054 55.7714 0.22125 0.965534
442800 60.2096 159.067 55.7714 0.22135 0.954866
443000 60.2096 159.08 55.7714 0.22145 0.858638
443200 60.2096 159.093 55.7714 0.22155 0.686041
443400 60.2096 159.106 55.7714 0.22165 0.440992
443600 60.2096 159.119 55.7714 0.22175 0.155191
443800 60.2096 159.132 55.7714 0.22185 -0.1477
444000 60.2096 159.145 55.7714 0.22195 -0.450162
444200 60.2096 159.158 55.7714 0.22205 -0.681528
444400 60.2096 159.171 55.7714 0.22215 -0.821031
444600 60.2096 159.184 55.7714 0.22225 -0.856222
444800 60.2096 159.197 55.7714 0.22235 -0.869807
445000 60.2096 159.21 55.7714 0.22245 -0.785261
445200 60.2096 159.223 55.7714 0.22255 -0.649277
445400 60.2096 159.236 55.7714 0.22265 -0.450203
445600 60.2096 159.249 55.7714 0.22275 -0.215514
445800 60.2096 159.262 55.7714 0.22285 0.100257
446000 60.2096 159.275 55.7714 0.22295 0.425073
446200 60.2096 159.288 55.7714 0.22305 0.655056
446400 60.2096 159.301 55.7714 0.22315 0.869823
446600 60.2096 159.314 55.7714 0.22325 0.98154
446800 60.2096 159.327 55.7714 0.22335 0.934644
447000 60.2096 159.34 55.7714 0.22345 0.841482
447200 60.2096 159.353 55.7714 0.22355 0.616835
447400 60.2096 159.366 55.7714 0.22365 0.384913
447600 60.2096 159.379 55.7714 0.22375 0.112706
447800 60.2096 159.392 55.7714 0.22385 -0.180454
448000 60.2096 159.405 55.7714 0.22395 -0.459497
448200 60.2096 159.418 55.7714 0.22405 -0.656434
448400 60.2096 159.431 55.7714 0.22415 -0.796521
448600 60.2096 159.444 55.7714 0.22425 -0.88356
448800 60.2096 159.457 55.7714 0.22435 -0.868304
449000 60.2096 159.47 55.7714 0.22445 -0.785582
449200 60.2096 159.483 55.7714 0.22455 -0.627639
449400 60.2096 159.496 55.7714 0.22465 -0.377785
449600 60.2096 159.509 55.7714 0.22475 -0.159775
449800 60.2096 159.522 55.7714 0.22485 0.143097
450000 60.2096 159.535 55.7714 0.22495 0.414393
450200 60.2096 159.549 55.7714 0.22505 0.670293
450400 60.2096 159.562 55.7714 0.22515 0.860233
450600 60.2096 159.575 55.7714 0.22525 0.92102
450800 60.2096 159.588 55.7714 0.22535 0.955556
451000 60.2096 159.601 55.7714 0.22545 0.850086
451200 60.2096 159.614 55.7714 0.22555 0.598533
451400 60.2096 159.627 55.7714 0.22565 0.354484
451600 60.2096 159.64 55.7714 0.22575 0.0599412
451800 60.2096 159.653 55.7714 0.22585 -0.220692
452000 60.2096 159.666 55.7714 0.22595 -0.449481
452200 60.2096 159.679 55.7714 0.22605 -0.668138
452400 60.2096 159.692 55.7714 0.22615 -0.784134
452600 60.2096 159.705 55.7714 0.22625 -0.8554
452800 60.2096 159.718 55.7714 0.22635 -0.838087
453000 60.2096 159.731 55.7714 0.22645 -0.761216
453200 60.2096 159.744 55.7714 0.22655 -0.612611
453400 60.2096 159.757 55.7714 0.22665 -0.383098
453600 60.2096 159.77 55.7714 0.22675 -0.121443
453800 60.2096 159.783 55.7714 0.22685 0.138816
454000 60.2096 159.796 55.7714 0.22695 0.447441
454200 60.2096 159.809 55.7714 0.22705 0.696739
454400 60.2096 159.822 55.7714 0.22715 0.847333
454600 60.2096 159.835 55.7714 0.22725 0.95486
454800 60.2096 159.848 55.7714 0.22735 0.881794
455000 60.2096 159.861 55.7714 0.22745 0.77578
455200 60.2096 159.874 55.7714 0.22755 0.599112
455400 60.2096 159.887 55.7714 0.22765 0.316369
455600 60.2096 159.9 55.7714 0.22775 0.0373725
455800 60.2096 159.913 55.7714 0.22785 -0.248925
456000 60.2096 159.926 55.7714 0.22795 -0.474488
456200 60.2096 159.939 55.7714 0.22805 -0.671527
456400 60.2096 159.952 55.7714 0.22815 -0.785853
456600 60.2096 159.965 55.7714 0.22825 -0.840386
456800 60.2096 159.978 55.7714 0.22835 -0.808717
457000 60.2096 159.991 55.7714 0.22845 -0.712505
457200 60.2096 160.004 55.7714 0.22855 -0.581568
457400 60.2096 160.017 55.7714 0.22865 -0.351801
457600 60.2096 160.03 55.7714 0.22875 -0.0807244
457800 60.2096 160.043 55.7714 0.22885 0.169638
458000 60.2096 160.056 55.7714 0.22895 0.453489
458200 60.2096 160.069 55.7714 0.22905 0.701025
458400 60.2096 160.082 55.7714 0.22915 0.862136
458600 60.2096 160.096 55.7714 0.22925 0.929448
458800 60.2096 160.109 55.7714 0.22935 0.85512
459000 60.2096 160.122 55.7714 0.22945 0.737557
459200 60.2096 160.135 55.7714 0.22955 0.532467
459400 60.2096 160.148 55.7714 0.22965 0.298988
459600 60.2096 160.161 55.7714 0.22975 -0.0159279
459800 60.2096 160.174 55.7714 0.22985 -0.238949
460000 60.2096 160.187 55.7714 0.22995 -0.500902
460200 60.2096 160.2 55.7714 0.23005 -0.655617
460400 60.2096 160.213 55.7714 0.23015 -0.766855
460600 60.2096 160.226 55.7714 0.23025 -0.828196
460800 60.2096 160.239 55.7714 0.23035 -0.792323
461000 60.2096 160.252 55.7714 0.23045 -0.700836
461200 60.2096 160.265 55.7714 0.23055 -0.519972
461400 60.2096 160.278 55.7714 0.23065 -0.314862
461600 60.2096 160.291 55.7714 0.23075 -0.050686
461800 60.2096 160.304 55.7714 0.23085 0.192931
462000 60.2096 160.317 55.7714 0.23095 0.454008
462200 60.2096 160.33 55.7714 0.23105 0.677638
462400 60.2096 160.343 55.7714 0.23115 0.856128
462600 60.2096 160.356 55.7714 0.23125 0.884729
462800 60.2096 160.369 55.7714 0.23135 0.847428
463000 60.2096 160.382 55.7714 0.23145 0.712569
463200 60.2096 160.395 55.7714 0.23155 0.50213
463400 60.2096 160.408 55.7714 0.23165 0.253487
463600 60.2096 160.421 55.7714 0.23175 -0.0223455
463800 60.2096 160.434 55.7714 0.23185 -0.254908
464000 60.2096 160.447 55.7714 0.23195 -0.517011
464200 60.2096 160.46 55.7714 0.23205 -0.650566
464400 60.2096 160.473 55.7714 0.23215 -0.774938
464600 60.2096 160.486 55.7714 0.23225 -0.817144
464800 60.2096 160.499 55.7714 0.23235 -0.77615
465000 60.2096 160.512 55.7714 0.23245 -0.66644
465200 60.2096 160.525 55.7714 0.23255 -0.485687
465400 60.2096 160.538 55.7714 0.23265 -0.305763
465600 60.2096 160.551 55.7714 0.23275 -0.00531878
465800 60.2096 160.564 55.7714 0.23285 0.215333
466000 60.2096 160.577 55.7714 0.23295 0.486306
466200 60.2096 160.59 55.7714 0.23305 0.701938
466400 60.2096 160.603 55.7714 0.23315 0.831253
466600 60.2096 160.616 55.7714 0.23325 0.904781
466800 60.2096 160.629 55.7714 0.23335 0.802934
467000 60.2096 160.643 55.7714 0.23345 0.697965
467200 60.2096 160.656 55.7714 0.23355 0.441953
467400 60.2096 160.669 55.7714 0.23365 0.211977
467600 60.2096 160.682 55.7714 0.23375 -0.038084
467800 60.2096 160.695 55.7714 0.23385 -0.290414
468000 60.2096 160.708 55.7714 0.23395 -0.525718
468200 60.2096 160.721 55.7714 0.23405 -0.663811
468400 60.2096 160.734 55.7714 0.23415 -0.757968
468600 60.2096 160.747 55.7714 0.23425 -0.807322
468800 60.2096 160.76 55.7714 0.23435 -0.731996
469000 60.2096 160.773 55.7714 0.23445 -0.639593
469200 60.2096 160.786 55.7714 0.23455 -0.485323
469400 60.2096 160.799 55.7714 0.23465 -0.258766
469600 60.2096 160.812 55.7714 0.23475 0.0024842
469800 60.2096 160.825 55.7714 0.23485 0.273443
470000 60.2096 160.838 55.7714 0.23495 0.48865
470200 60.2096 160.851 55.7714 0.23505 0.71281
470400 60.2096 160.864 55.7714 0.23515 0.82444
470600 60.2096 160.877 55.7714 0.23525 0.862065
470800 60.2096 160.89 55.7714 0.23535 0.781293
471000 60.2096 160.903 55.7714 0.23545 0.675796
471200 60.2096 160.916 55.7714 0.23555 0.41585
471400 60.2096 160.929 55.7714 0.23565 0.163655
471600 60.2096 160.942 55.7714 0.23575 -0.0646646
471800 60.2096 160.955 55.7714 0.23585 -0.30882
472000 60.2096 160.968 55.7714 0.23595 -0.517414
472200 60.2096 160.981 55.7714 0.23605 -0.668355
472400 60.2096 160.994 55.7714 0.23615 -0.744993
472600 60.2096 161.007 55.7714 0.23625 -0.781672
472800 60.2096 161.02 55.7714 0.23635 -0.727765
473000 60.2096 161.033 55.7714 0.23645 -0.606872
473200 60.2096 161.046 55.7714 0.23655 -0.433179
473400 60.2096 161.059 55.7714 0.23665 -0.204928
473600 60.2096 161.072 55.7714 0.23675 0.0413529
473800 60.2096 161.085 55.7714 0.23685 0.272234
474000 60.2096 161.098 55.7714 0.23695 0.486932
474200 60.2096 161.111 55.7714 0.23705 0.700198
474400 60.2096 161.124 55.7714 0.23715 0.7904
474600 60.2096 161.137 55.7714 0.23725 0.841877
474800 60.2096 161.15 55.7714 0.23735 0.758811
475000 60.2096 161.163 55.7714 0.23745 0.630945
475200 60.2096 161.176 55.7714 0.23755 0.396221
475400 60.2096 161.19 55.7714 0.23765 0.149728
475600 60.2096 161.203 55.7714 0.23775 -0.107451
475800 60.2096 161.216 55.7714 0.23785 -0.327313
476000 60.2096 161.229 55.7714 0.23795 -0.506311
476200 60.2096 161.242 55.7714 0.23805 -0.663527
476400 60.2096 161.255 55.7714 0.23815 -0.725449
476600 60.2096 161.268 55.7714 0.23825 -0.745719
476800 60.2096 161.281 55.7714 0.23835 -0.706205
477000 60.2096 161.294 55.7714 0.23845 -0.587586
477200 60.2096 161.307 55.7714 0.23855 -0.410815
477400 60.2096 161.32 55.7714 0.23865 -0.19873
477600 60.2096 161.333 55.7714 0.23875 0.066275
477800 60.2096 161.346 55.7714 0.23885 0.308291
478000 60.2096 161.359 55.7714 0.23895 0.539763
478200 60.2096 161.372 55.7714 0.23905 0.689327
478400 60.2096 161.385 55.7714 0.23915 0.799731
478600 60.2096 161.398 55.7714 0.23925 0.818502
478800 60.2096 161.411 55.7714 0.23935 0.732595
479000 60.2096 161.424 55.7714 0.23945 0.584081
479200 60.2096 161.437 55.7714 0.23955 0.386809
479400 60.2096 161.45 55.7714 0.23965 0.109543
479600 60.2096 161.463 55.7714 0.23975 -0.125278
479800 60.2096 161.476 55.7714 0.23985 -0.366008
480000 60.2096 161.489 55.7714 0.23995 -0.554526
480200 60.2096 161.502 55.7714 0.24005 -0.657058
480400 60.2096 161.515 55.7714 0.24015 -0.737539
480600 60.2096 161.528 55.7714 0.24025 -0.722467
480800 60.2096 161.541 55.7714 0.24035 -0.665471
481000 60.2096 161.554 55.7714 0.24045 -0.561953
481200 60.2096 161.567 55.7714 0.24055 -0.346988
481400 60.2096 161.58 55.7714 0.24065 -0.172925
481600 60.2096 161.593 55.7714 0.24075 0.0876698
481800 60.2096 161.606 55.7714 0.24085 0.331308
482000 60.2096 161.619 55.7714 0.24095 0.545521
482200 60.2096 161.632 55.7714 0.24105 0.705258
482400 60.2096 161.645 55.7714 0.24115 0.781927
482600 60.2096 161.658 55.7714 0.24125 0.793842
482800 60.2096 161.671 55.7714 0.24135 0.681437
483000 60.2096 161.684 55.7714 0.24145 0.534482
483200 60.2096 161.697 55.7714 0.24155 0.345941
483400 60.2096 161.71 55.7714 0.24165 0.0769967
483600 60.2096 161.723 55.7714 0.24175 -0.157843
483800 60.2096 161.737 55.7714 0.24185 -0.368
484000 60.2096 161.75 55.7714 0.24195 -0.55119
484200 60.2096 161.763 55.7714 0.24205 -0.666651
484400 60.2096 161.776 55.7714 0.24215 -0.705496
484600 60.2096 161.789 55.7714 0.24225 -0.712458
484800 60.2096 161.802 55.7714 0.24235 -0.626606
485000 60.2096 161.815 55.7714 0.24245 -0.532128
485200 60.2096 161.828 55.7714 0.24255 -0.342177
485400 60.2096 161.841 55.7714 0.24265 -0.124816
485600 60.2096 161.854 55.7714 0.24275 0.116482
485800 60.2096 161.867 55.7714 0.24285 0.351299
486000 60.2096 161.88 55.7714 0.24295 0.557578
486200 60.2096 161.893 55.7714 0.24305 0.7083
486400 60.2096 161.906 55.7714 0.24315 0.768273
486600 60.2096 161.919 55.7714 0.24325 0.760584
486800 60.2096 161.932 55.7714 0.24335 0.657859
487000 60.2096 161.945 55.7714 0.24345 0.502695
487200 60.2096 161.958 55.7714 0.24355 0.324912
487400 60.2096 161.971 55.7714 0.24365 0.0634806
487600 60.2096 161.984 55.7714 0.24375 -0.177048
487800 60.2096 161.997 55.7714 0.24385 -0.395901
488000 60.2096 162.01 55.7714 0.24395 -0.536875
488200 60.2096 162.023 55.7714 0.24405 -0.67296
488400 60.2096 162.036 55.7714 0.24415 -0.725358
488600 60.2096 162.049 55.7714 0.24425 -0.68955
488800 60.2096 162.062 55.7714 0.24435 -0.610362
489000 60.2096 162.075 55.7714 0.24445 -0.474266
489200 60.2096 162.088 55.7714 0.24455 -0.312377
489400 60.2096 162.101 55.7714 0.24465 -0.0914273
489600 60.2096 162.114 55.7714 0.24475 0.104703
489800 60.2096 162.127 55.7714 0.24485 0.368031
490000 60.2096 162.14 55.7714 0.24495 0.561433
490200 60.2096 162.153 55.7714 0.24505 0.741424
490400 60.2096 162.166 55.7714 0.24515 0.771466
490600 60.2096 162.179 55.7714 0.24525 0.734802
490800 60.2096 162.192 55.7714 0.24535 0.614616
491000 60.2096 162.205 55.7714 0.24545 0.454392
491200 60.2096 162.218 55.7714 0.24555 0.254517
491400 60.2096 162.231 55.7714 0.24565 0.0569514
491600 60.2096 162.244 55.7714 0.24575 -0.173658
491800 60.2096 162.257 55.7714 0.24585 -0.409402
492000 60.2096 162.27 55.7714 0.24595 -0.558383
492200 60.2096 162.284 55.7714 0.24605 -0.662688
492400 60.2096 162.297 55.7714 0.24615 -0.7174
492600 60.2096 162.31 55.7714 0.24625 -0.677269
492800 60.2096 162.323 55.7714 0.24635 -0.581977
493000 60.2096 162.336 55.7714 0.24645 -0.4384
493200 60.2096 162.349 55.7714 0.24655 -0.261751
493400 60.2096 162.362 55.7714 0.24665 -0.0642761
493600 60.2096 162.375 55.7714 0.24675 0.158456
493800 60.2096 162.388 55.7714 0.24685 0.389139
494000 60.2096 162.401 55.7714 0.24695 0.585456
494200 60.2096 162.414 55.7714 0.24705 0.704751
494400 60.2096 162.427 55.7714 0.24715 0.753353
494600 60.2096 162.44 55.7714 0.24725 0.721984
494800 60.2096 162.453 55.7714 0.24735 0.602205
495000 60.2096 162.466 55.7714 0.24745 0.42545
495200 60.2096 162.479 55.7714 0.24755 0.189008
495400 60.2096 162.492 55.7714 0.24765 -0.0165752
495600 60.2096 162.505 55.7714 0.24775 -0.225149
495800 60.2096 162.518 55.7714 0.24785 -0.42004
496000 60.2096 162.531 55.7714 0.24795 -0.54802
496200 60.2096 162.544 55.7714 0.24805 -0.650323
496400 60.2096 162.557 55.7714 0.24815 -0.687586
496600 60.2096 162.57 55.7714 0.24825 -0.664696
496800 60.2096 162.583 55.7714 0.24835 -0.560936
497000 60.2096 162.596 55.7714 0.24845 -0.400556
497200 60.2096 162.609 55.7714 0.24855 -0.241584
497400 60.2096 162.622 55.7714 0.24865 0.00103447
497600 60.2096 162.635 55.7714 0.24875 0.234398
497800 60.2096 162.648 55.7714 0.24885 0.404196
498000 60.2096 162.661 55.7714 0.24895 0.585218
498200 60.2096 162.674 55.7714 0.24905 0.654443
498400 60.2096 162.687 55.7714 0.24915 0.740411
498600 60.2096 162.7 55.7714 0.24925 0.715351
498800 60.2096 162.713 55.7714 0.24935 0.575008
499000 60.2096 162.726 55.7714 0.24945 0.381052
499200 60.2096 162.739 55.7714 0.24955 0.167145
499400 60.2096 162.752 55.7714 0.24965 -0.0591835
499600 60.2096 162.765 55.7714 0.24975 -0.277553
499800 60.2096 162.778 55.7714 0.24985 -0.417298
500000 60.2096 162.791 55.7714 0.24995 -0.566969
500200 60.2096 162.804 55.7714 0.25005 -0.643705
500400 60.2096 162.817 55.7714 0.25015 -0.651565
500600 60.2096 162.831 55.7714 0.25025 -0.617016
500800 60.2096 162.844 55.7714 0.25035 -0.567248
501000 60.2096 162.857 55.7714 0.25045 -0.35792
501200 60.2096 162.87 55.7714 0.25055 -0.214871
501400 60.2096 162.883 55.7714 0.25065 0.0355504
501600 60.2096 162.896 55.7714 0.25075 0.251038
501800 60.2096 162.909 55.7714 0.25085 0.427485
502000 60.2096 162.922 55.7714 0.25095 0.564996
502200 60.2096 162.935 55.7714 0.25105 0.679873
502400 60.2096 162.948 55.7714 0.25115 0.704905
502600 60.2096 162.961 55.7714 0.25125 0.64744
502800 60.2096 162.974 55.7714 0.25135 0.552187
503000 60.2096 162.987 55.7714 0.25145 0.375181
503200 60.2096 163 55.7714 0.25155 0.151116
503400 60.2096 163.013 55.7714 0.25165 -0.0772419
503600 60.2096 163.026 55.7714 0.25175 -0.287337
503800 60.2096 163.039 55.7714 0.25185 -0.450402
504000 60.2096 163.052 55.7714 0.25195 -0.569582
504200 60.2096 163.065 55.7714 0.25205 -0.624962
504400 60.2096 163.078 55.7714 0.25215 -0.633743
504600 60.2096 163.091 55.7714 0.25225 -0.598445
504800 60.2096 163.104 55.7714 0.25235 -0.504342
505000 60.2096 163.117 55.7714 0.25245 -0.369453
505200 60.2096 163.13 55.7714 0.25255 -0.186171
505400 60.2096 163.143 55.7714 0.25265 0.0380797
505600 60.2096 163.156 55.7714 0.25275 0.264683
505800 60.2096 163.169 55.7714 0.25285 0.475162
506000 60.2096 163.182 55.7714 0.25295 0.609204
506200 60.2096 163.195 55.7714 0.25305 0.672012
506400 60.2096 163.208 55.7714 0.25315 0.67545
506600 60.2096 163.221 55.7714 0.25325 0.652909
506800 60.2096 163.234 55.7714 0.25335 0.487137
507000 60.2096 163.247 55.7714 0.25345 0.308502
507200 60.2096 163.26 55.7714 0.25355 0.127744
507400 60.2096 163.273 55.7714 0.25365 -0.095212
507600 60.2096 163.286 55.7714 0.25375 -0.282476
507800 60.2096 163.299 55.7714 0.25385 -0.473894
508000 60.2096 163.312 55.7714 0.25395 -0.595149
508200 60.2096 163.325 55.7714 0.25405 -0.610241
508400 60.2096 163.338 55.7714 0.25415 -0.649361
508600 60.2096 163.351 55.7714 0.25425 -0.591821
508800 60.2096 163.364 55.7714 0.25435 -0.459859
509000 60.2096 163.378 55.7714 0.25445 -0.338286
509200 60.2096 163.391 55.7714 0.25455 -0.139404
509400 60.2096 163.404 55.7714 0.25465 0.062083
509600 60.2096 163.417 55.7714 0.25475 0.315833
509800 60.2096 163.43 55.7714 0.25485 0.49684
510000 60.2096 163.443 55.7714 0.25495 0.584453
510200 60.2096 163.456 55.7714 0.25505 0.688693
510400 60.2096 163.469 55.7714 0.25515 0.679263
510600 60.2096 163.482 55.7714 0.25525 0.609845
510800 60.2096 163.495 55.7714 0.25535 0.467906
511000 60.2096 163.508 55.7714 0.25545 0.276128
511200 60.2096 163.521 55.7714 0.25555 0.0829701
511400 60.2096 163.534 55.7714 0.25565 -0.116255
511600 60.2096 163.547 55.7714 0.25575 -0.335046
511800 60.2096 163.56 55.7714 0.25585 -0.48398
512000 60.2096 163.573 55.7714 0.25595 -0.589172
512200 60.2096 163.586 55.7714 0.25605 -0.617171
512400 60.2096 163.599 55.7714 0.25615 -0.630358
512600 60.2096 163.612 55.7714 0.25625 -0.567449
512800 60.2096 163.625 55.7714 0.25635 -0.448711
513000 60.2096 163.638 55.7714 0.25645 -0.283789
513200 60.2096 163.651 55.7714 0.25655 -0.0694211
513400 60.2096 163.664 55.7714 0.25665 0.104899
513600 60.2096 163.677 55.7714 0.25675 0.300273
513800 60.2096 163.69 55.7714 0.25685 0.492729
514000 60.2096 163.703 55.7714 0.25695 0.605218
514200 60.2096 163.716 55.7714 0.25705 0.686361
514400 60.2096 163.729 55.7714 0.25715 0.657579
514600 60.2096 163.742 55.7714 0.25725 0.581424
514800 60.2096 163.755 55.7714 0.25735 0.420495
515000 60.2096 163.768 55.7714 0.25745 0.244973
515200 60.2096 163.781 55.7714 0.25755 0.0398945
515400 60.2096 163.794 55.7714 0.25765 -0.166092
515600 60.2096 163.807 55.7714 0.25775 -0.345247
515800 60.2096 163.82 55.7714 0.25785 -0.475989
516000 60.2096 163.833 55.7714 0.25795 -0.598343
516200 60.2096 163.846 55.7714 0.25805 -0.602068
516400 60.2096 163.859 55.7714 0.25815 -0.624882
516600 60.2096 163.872 55.7714 0.25825 -0.540041
516800 60.2096 163.885 55.7714 0.25835 -0.414329
517000 60.2096 163.898 55.7714 0.25845 -0.247023
517200 60.2096 163.911 55.7714 0.25855 -0.0296878
517400 60.2096 163.925 55.7714 0.25865 0.159569
517600 60.2096 163.938 55.7714 0.25875 0.345591
517800 60.2096 163.951 55.7714 0.25885 0.50291
518000 60.2096 163.964 55.7714 0.25895 0.608299
518200 60.2096 163.977 55.7714 0.25905 0.65944
518400 60.2096 163.99 55.7714 0.25915 0.653449
518600 60.2096 164.003 55.7714 0.25925 0.523689
518800 60.2096 164.016 55.7714 0.25935 0.398801
519000 60.2096 164.029 55.7714 0.25945 0.214221
519200 60.2096 164.042 55.7714 0.25955 0.00332017
519400 60.2096 164.055 55.7714 0.25965 -0.238337
519600 60.2096 164.068 55.7714 0.25975 -0.384788
519800 60.2096 164.081 55.7714 0.25985 -0.495652
520000 60.2096 164.094 55.7714 0.25995 -0.579004
520200 60.2096 164.107 55.7714 0.26005 -0.599258
520400 60.2096 164.12 55.7714 0.26015 -0.569958
520600 60.2096 164.133 55.7714 0.26025 -0.502986
520800 60.2096 164.146 55.7714 0.26035 -0.389484
521000 60.2096 164.159 55.7714 0.26045 -0.203609
521200 60.2096 164.172 55.7714 0.26055 -0.0189636
521400 60.2096 164.185 55.7714 0.26065 0.192406
521600 60.2096 164.198 55.7714 0.26075 0.380906
521800 60.2096 164.211 55.7714 0.26085 0.518641
522000 60.2096 164.224 55.7714 0.26095 0.622626
522200 60.2096 164.237 55.7714 0.26105 0.613118
522400 60.2096 164.25 55.7714 0.26115 0.597322
522600 60.2096 164.263 55.7714 0.26125 0.514132
522800 60.2096 164.276 55.7714 0.26135 0.346551
523000 60.2096 164.289 55.7714 0.26145 0.183439
523200 60.2096 164.302 55.7714 0.26155 -0.0289197
523400 60.2096 164.315 55.7714 0.26165 -0.228673
523600 60.2096 164.328 55.7714 0.26175 -0.381693
523800 60.2096 164.341 55.7714 0.26185 -0.507718
524000 60.2096 164.354 55.7714 0.26195 -0.578834
524200 60.2096 164.367 55.7714 0.26205 -0.570452
524400 60.2096 164.38 55.7714 0.26215 -0.533643
524600 60.2096 164.393 55.7714 0.26225 -0.482183
524800 60.2096 164.406 55.7714 0.26235 -0.356998
525000 60.2096 164.419 55.7714 0.26245 -0.183283
525200 60.2096 164.432 55.7714 0.26255 0.0296768
525400 60.2096 164.445 55.7714 0.26265 0.209035
525600 60.2096 164.458 55.7714 0.26275 0.386054
525800 60.2096 164.472 55.7714 0.26285 0.531895
526000 60.2096 164.485 55.7714 0.26295 0.606061
526200 60.2096 164.498 55.7714 0.26305 0.600751
526400 60.2096 164.511 55.7714 0.26315 0.577228
526600 60.2096 164.524 55.7714 0.26325 0.45084
526800 60.2096 164.537 55.7714 0.26335 0.316652
527000 60.2096 164.55 55.7714 0.26345 0.147807
527200 60.2096 164.563 55.7714 0.26355 -0.0550133
527400 60.2096 164.576 55.7714 0.26365 -0.253549
527600 60.2096 164.589 55.7714 0.26375 -0.398172
527800 60.2096 164.602 55.7714 0.26385 -0.488325
528000 60.2096 164.615 55.7714 0.26395 -0.572243
528200 60.2096 164.628 55.7714 0.26405 -0.561902
528400 60.2096 164.641 55.7714 0.26415 -0.518394
528600 60.2096 164.654 55.7714 0.26425 -0.455629
528800 60.2096 164.667 55.7714 0.26435 -0.307024
529000 60.2096 164.68 55.7714 0.26445 -0.146567
529200 60.2096 164.693 55.7714 0.26455 0.038356
529400 60.2096 164.706 55.7714 0.26465 0.226904
529600 60.2096 164.719 55.7714 0.26475 0.388695
529800 60.2096 164.732 55.7714 0.26485 0.515023
530000 60.2096 164.745 55.7714 0.26495 0.618112
530200 60.2096 164.758 55.7714 0.26505 0.592716
530400 60.2096 164.771 55.7714 0.26515 0.566031
530600 60.2096 164.784 55.7714 0.26525 0.455672
530800 60.2096 164.797 55.7714 0.26535 0.285639
531000 60.2096 164.81 55.7714 0.26545 0.101259
531200 60.2096 164.823 55.7714 0.26555 -0.105518
531400 60.2096 164.836 55.7714 0.26565 -0.26605
531600 60.2096 164.849 55.7714 0.26575 -0.393906
531800 60.2096 164.862 55.7714 0.26585 -0.507709
532000 60.2096 164.875 55.7714 0.26595 -0.541995
532200 60.2096 164.888 55.7714 0.26605 -0.57101
532400 60.2096 164.901 55.7714 0.26615 -0.518368
532600 60.2096 164.914 55.7714 0.26625 -0.440137
532800 60.2096 164.927 55.7714 0.26635 -0.282296
533000 60.2096 164.94 55.7714 0.26645 -0.112475
533200 60.2096 164.953 55.7714 0.26655 0.101968
533400 60.2096 164.966 55.7714 0.26665 0.265667
533600 60.2096 164.979 55.7714 0.26675 0.403204
533800 60.2096 164.992 55.7714 0.26685 0.520567
534000 60.2096 165.005 55.7714 0.26695 0.574272
534200 60.2096 165.019 55.7714 0.26705 0.579141
534400 60.2096 165.032 55.7714 0.26715 0.547456
534600 60.2096 165.045 55.7714 0.26725 0.443365
534800 60.2096 165.058 55.7714 0.26735 0.236774
535000 60.2096 165.071 55.7714 0.26745 0.0605031
535200 60.2096 165.084 55.7714 0.26755 -0.143721
535400 60.2096 165.097 55.7714 0.26765 -0.283327
535600 60.2096 165.11 55.7714 0.26775 -0.421375
535800 60.2096 165.123 55.7714 0.26785 -0.505793
536000 60.2096 165.136 55.7714 0.26795 -0.537813
536200 60.2096 165.149 55.7714 0.26805 -0.548151
536400 60.2096 165.162 55.7714 0.26815 -0.486702
536600 60.2096 165.175 55.7714 0.26825 -0.387495
536800 60.2096 165.188 55.7714 0.26835 -0.237447
537000 60.2096 165.201 55.7714 0.26845 -0.0743675
537200 60.2096 165.214 55.7714 0.26855 0.0994963
537400 60.2096 165.227 55.7714 0.26865 0.27523
537600 60.2096 165.24 55.7714 0.26875 0.451402
537800 60.2096 165.253 55.7714 0.26885 0.543171
538000 60.2096 165.266 55.7714 0.26895 0.602099
538200 60.2096 165.279 55.7714 0.26905 0.569502
538400 60.2096 165.292 55.7714 0.26915 0.477509
538600 60.2096 165.305 55.7714 0.26925 0.366871
538800 60.2096 165.318 55.7714 0.26935 0.209098
539000 60.2096 165.331 55.7714 0.26945 0.046429
539200 60.2096 165.344 55.7714 0.26955 -0.143974
539400 60.2096 165.357 55.7714 0.26965 -0.308979
539600 60.2096 165.37 55.7714 0.26975 -0.43341
539800 60.2096 165.383 55.7714 0.26985 -0.520563
540000 60.2096 165.396 55.7714 0.26995 -0.556054
540200 60.2096 165.409 55.7714 0.27005 -0.519807
540400 60.2096 165.422 55.7714 0.27015 -0.463044
540600 60.2096 165.435 55.7714 0.27025 -0.352859
540800 60.2096 165.448 55.7714 0.27035 -0.233715
541000 60.2096 165.461 55.7714 0.27045 -0.0266572
541200 60.2096 165.474 55.7714 0.27055 0.127517
541400 60.2096 165.487 55.7714 0.27065 0.323084
541600 60.2096 165.5 55.7714 0.27075 0.446434
541800 60.2096 165.513 55.7714 0.27085 0.540833
542000 60.2096 165.526 55.7714 0.27095 0.581182
542200 60.2096 165.539 55.7714 0.27105 0.565792
542400 60.2096 165.552 55.7714 0.27115 0.449165
542600 60.2096 165.566 55.7714 0.27125 0.332922
542800 60.2096 165.579 55.7714 0.27135 0.186636
543000 60.2096 165.592 55.7714 0.27145 -0.00300612
543200 60.2096 165.605 55.7714 0.27155 -0.151417
543400 60.2096 165.618 55.7714 0.27165 -0.343538
543600 60.2096 165.631 55.7714 0.27175 -0.434098
543800 60.2096 165.644 55.7714 0.27185 -0.509985
544000 60.2096 165.657 55.7714 0.27195 -0.557599
544200 60.2096 165.67 55.7714 0.27205 -0.511953
544400 60.2096 165.683 55.7714 0.27215 -0.432172
544600 60.2096 165.696 55.7714 0.27225 -0.341906
544800 60.2096 165.709 55.7714 0.27235 -0.180639
545000 60.2096 165.722 55.7714 0.27245 -0.0217772
545200 60.2096 165.735 55.7714 0.27255 0.158534
545400 60.2096 165.748 55.7714 0.27265 0.338061
545600 60.2096 165.761 55.7714 0.27275 0.455019
545800 60.2096 165.774 55.7714 0.27285 0.540873
546000 60.2096 165.787 55.7714 0.27295 0.555674
546200 60.2096 165.8 55.7714 0.27305 0.537731
546400 60.2096 165.813 55.7714 0.27315 0.450705
546600 60.2096 165.826 55.7714 0.27325 0.331191
546800 60.2096 165.839 55.7714 0.27335 0.141819
547000 60.2096 165.852 55.7714 0.27345 -0.0206656
547200 60.2096 165.865 55.7714 0.27355 -0.188312
547400 60.2096 165.878 55.7714 0.27365 -0.3352
547600 60.2096 165.891 55.7714 0.27375 -0.43528
547800 60.2096 165.904 55.7714 0.27385 -0.523143
548000 60.2096 165.917 55.7714 0.27395 -0.501416
548200 60.2096 165.93 55.7714 0.27405 -0.52732
548400 60.2096 165.943 55.7714 0.27415 -0.423039
548600 60.2096 165.956 55.7714 0.27425 -0.310766
548800 60.2096 165.969 55.7714 0.27435 -0.164218
549000 60.2096 165.982 55.7714 0.27445 0.0158649
549200 60.2096 165.995 55.7714 0.27455 0.172597
549400 60.2096 166.008 55.7714 0.27465 0.312856
549600 60.2096 166.021 55.7714 0.27475 0.462844
549800 60.2096 166.034 55.7714 0.27485 0.549113
550000 60.2096 166.047 55.7714 0.27495 0.564571
550200 60.2096 166.06 55.7714 0.27505 0.518426
550400 60.2096 166.073 55.7714 0.27515 0.426989
550600 60.2096 166.086 55.7714 0.27525 0.276265
550800 60.2096 166.099 55.7714 0.27535 0.137004
551000 60.2096 166.113 55.7714 0.27545 -0.0428432
551200 60.2096 166.126 55.7714 0.27555 -0.191947
551400 60.2096 166.139 55.7714 0.27565 -0.360987
551600 60.2096 166.152 55.7714 0.27575 -0.44342
551800 60.2096 166.165 55.7714 0.27585 -0.512613
552000 60.2096 166.178 55.7714 0.27595 -0.53407
552200 60.2096 166.191 55.7714 0.27605 -0.461809
552400 60.2096 166.204 55.7714 0.27615 -0.402718
552600 60.2096 166.217 55.7714 0.27625 -0.289716
552800 60.2096 166.23 55.7714 0.27635 -0.13033
553000 60.2096 166.243 55.7714 0.27645 0.0422785
553200 60.2096 166.256 55.7714 0.27655 0.205486
553400 60.2096 166.269 55.7714 0.27665 0.363648
553600 60.2096 166.282 55.7714 0.27675 0.466774
553800 60.2096 166.295 55.7714 0.27685 0.539552
554000 60.2096 166.308 55.7714 0.27695 0.548018
554200 60.2096 166.321 55.7714 0.27705 0.491663
554400 60.2096 166.334 55.7714 0.27715 0.389082
554600 60.2096 166.347 55.7714 0.27725 0.263335
554800 60.2096 166.36 55.7714 0.27735 0.084672
555000 60.2096 166.373 55.7714 0.27745 -0.0744487
555200 60.2096 166.386 55.7714 0.27755 -0.254295
555400 60.2096 166.399 55.7714 0.27765 -0.3694
555600 60.2096 166.412 55.7714 0.27775 -0.471768
555800 60.2096 166.425 55.7714 0.27785 -0.480121
556000 60.2096 166.438 55.7714 0.27795 -0.505865
556200 60.2096 166.451 55.7714 0.27805 -0.452422
556400 60.2096 166.464 55.7714 0.27815 -0.373424
556600 60.2096 166.477 55.7714 0.27825 -0.231234
556800 60.2096 166.49 55.7714 0.27835 -0.0990209
557000 60.2096 166.503 55.7714 0.27845 0.071964
557200 60.2096 166.516 55.7714 0.27855 0.239008
557400 60.2096 166.529 55.7714 0.27865 0.378276
557600 60.2096 166.542 55.7714 0.27875 0.475055
557800 60.2096 166.555 55.7714 0.27885 0.525186
558000 60.2096 166.568 55.7714 0.27895 0.509668
558200 60.2096 166.581 55.7714 0.27905 0.452767
558400 60.2096 166.594 55.7714 0.27915 0.366563
558600 60.2096 166.607 55.7714 0.27925 0.232352
558800 60.2096 166.62 55.7714 0.27935 0.0400545
559000 60.2096 166.633 55.7714 0.27945 -0.10125
559200 60.2096 166.646 55.7714 0.27955 -0.250908
559400 60.2096 166.66 55.7714 0.27965 -0.385286
559600 60.2096 166.673 55.7714 0.27975 -0.443881
559800 60.2096 166.686 55.7714 0.27985 -0.491466
560000 60.2096 166.699 55.7714 0.27995 -0.485362
560200 60.2096 166.712 55.7714 0.28005 -0.436481
560400 60.2096 166.725 55.7714 0.28015 -0.346086
560600 60.2096 166.738 55.7714 0.28025 -0.199589
560800 60.2096 166.751 55.7714 0.28035 -0.0746102
561000 60.2096 166.764 55.7714 0.28045 0.093148
561200 60.2096 166.777 55.7714 0.28055 0.247575
561400 60.2096 166.79 55.7714 0.28065 0.398299
561600 60.2096 166.803 55.7714 0.28075 0.491099
561800 60.2096 166.816 55.7714 0.28085 0.515779
562000 60.2096 166.829 55.7714 0.28095 0.499506
562200 60.2096 166.842 55.7714 0.28105 0.430761
562400 60.2096 166.855 55.7714 0.28115 0.338722
562600 60.2096 166.868 55.7714 0.28125 0.204981
562800 60.2096 166.881 55.7714 0.28135 0.0173707
563000 60.2096 166.894 55.7714 0.28145 -0.14062
563200 60.2096 166.907 55.7714 0.28155 -0.261478
563400 60.2096 166.92 55.7714 0.28165 -0.396381
563600 60.2096 166.933 55.7714 0.28175 -0.476254
563800 60.2096 166.946 55.7714 0.28185 -0.481497
564000 60.2096 166.959 55.7714 0.28195 -0.444001
564200 60.2096 166.972 55.7714 0.28205 -0.411884
564400 60.2096 166.985 55.7714 0.28215 -0.315515
564600 60.2096 166.998 55.7714 0.28225 -0.177159
564800 60.2096 167.011 55.7714 0.28235 -0.0593878
565000 60.2096 167.024 55.7714 0.28245 0.0893867
565200 60.2096 167.037 55.7714 0.28255 0.306172
565400 60.2096 167.05 55.7714 0.28265 0.427081
565600 60.2096 167.063 55.7714 0.28275 0.477539
565800 60.2096 167.076 55.7714 0.28285 0.501685
566000 60.2096 167.089 55.7714 0.28295 0.490026
566200 60.2096 167.102 55.7714 0.28305 0.409045
566400 60.2096 167.115 55.7714 0.28315 0.307405
566600 60.2096 167.128 55.7714 0.28325 0.186432
566800 60.2096 167.141 55.7714 0.28335 -0.00442128
567000 60.2096 167.154 55.7714 0.28345 -0.15176
567200 60.2096 167.167 55.7714 0.28355 -0.307127
567400 60.2096 167.18 55.7714 0.28365 -0.396013
567600 60.2096 167.193 55.7714 0.28375 -0.488964
567800 60.2096 167.207 55.7714 0.28385 -0.469021
568000 60.2096 167.22 55.7714 0.28395 -0.452897
568200 60.2096 167.233 55.7714 0.28405 -0.388127
568400 60.2096 167.246 55.7714 0.28415 -0.281885
568600 60.2096 167.259 55.7714 0.28425 -0.156601
568800 60.2096 167.272 55.7714 0.28435 -0.0193953
569000 60.2096 167.285 55.7714 0.28445 0.159043
569200 60.2096 167.298 55.7714 0.28455 0.29035
569400 60.2096 167.311 55.7714 0.28465 0.413756
569600 60.2096 167.324 55.7714 0.28475 0.491859
569800 60.2096 167.337 55.7714 0.28485 0.515006
570000 60.2096 167.35 55.7714 0.28495 0.445572
570200 60.2096 167.363 55.7714 0.28505 0.401749
570400 60.2096 167.376 55.7714 0.28515 0.273251
570600 60.2096 167.389 55.7714 0.28525 0.128693
570800 60.2096 167.402 55.7714 0.28535 -0.0158776
571000 60.2096 167.415 55.7714 0.28545 -0.175205
571200 60.2096 167.428 55.7714 0.28555 -0.28882
571400 60.2096 167.441 55.7714 0.28565 -0.402442
571600 60.2096 167.454 55.7714 0.28575 -0.47754
571800 60.2096 167.467 55.7714 0.28585 -0.479706
572000 60.2096 167.48 55.7714 0.28595 -0.437106
572200 60.2096 167.493 55.7714 0.28605 -0.361987
572400 60.2096 167.506 55.7714 0.28615 -0.269564
572600 60.2096 167.519 55.7714 0.28625 -0.122169
572800 60.2096 167.532 55.7714 0.28635 0.0171488
573000 60.2096 167.545 55.7714 0.28645 0.164718
573200 60.2096 167.558 55.7714 0.28655 0.310714
573400 60.2096 167.571 55.7714 0.28665 0.409858
573600 60.2096 167.584 55.7714 0.28675 0.489141
573800 60.2096 167.597 55.7714 0.28685 0.494469
574000 60.2096 167.61 55.7714 0.28695 0.474059
574200 60.2096 167.623 55.7714 0.28705 0.350967
574400 60.2096 167.636 55.7714 0.28715 0.249454
574600 60.2096 167.649 55.7714 0.28725 0.0963133
574800 60.2096 167.662 55.7714 0.28735 -0.0563574
575000 60.2096 167.675 55.7714 0.28745 -0.185858
575200 60.2096 167.688 55.7714 0.28755 -0.320455
575400 60.2096 167.701 55.7714 0.28765 -0.405591
575600 60.2096 167.714 55.7714 0.28775 -0.46154
575800 60.2096 167.727 55.7714 0.28785 -0.475389
576000 60.2096 167.74 55.7714 0.28795 -0.4098
576200 60.2096 167.754 55.7714 0.28805 -0.34698
576400 60.2096 167.767 55.7714 0.28815 -0.253011
576600 60.2096 167.78 55.7714 0.28825 -0.0956735
576800 60.2096 167.793 55.7714 0.28835 0.0609155
577000 60.2096 167.806 55.7714 0.28845 0.188503
577200 60.2096 167.819 55.7714 0.28855 0.31987
577400 60.2096 167.832 55.7714 0.28865 0.417982
577600 60.2096 167.845 55.7714 0.28875 0.477478
577800 60.2096 167.858 55.7714 0.28885 0.499611
578000 60.2096 167.871 55.7714 0.28895 0.471475
578200 60.2096 167.884 55.7714 0.28905 0.340389
578400 60.2096 167.897 55.7714 0.28915 0.19596
578600 60.2096 167.91 55.7714 0.28925 0.0671597
578800 60.2096 167.923 55.7714 0.28935 -0.0852604
579000 60.2096 167.936 55.7714 0.28945 -0.218992
579200 60.2096 167.949 55.7714 0.28955 -0.338888
579400 60.2096 167.962 55.7714 0.28965 -0.381265
579600 60.2096 167.975 55.7714 0.28975 -0.448611
579800 60.2096 167.988 55.7714 0.28985 -0.486021
580000 60.2096 168.001 55.7714 0.28995 -0.419406
580200 60.2096 168.014 55.7714 0.29005 -0.328985
580400 60.2096 168.027 55.7714 0.29015 -0.20438
580600 60.2096 168.04 55.7714 0.29025 -0.0631502
580800 60.2096 168.053 55.7714 0.29035 0.0703482
581000 60.2096 168.066 55.7714 0.29045 0.233965
581200 60.2096 168.079 55.7714 0.29055 0.32728
581400 60.2096 168.092 55.7714 0.29065 0.448175
581600 60.2096 168.105 55.7714 0.29075 0.46249
581800 60.2096 168.118 55.7714 0.29085 0.489217
582000 60.2096 168.131 55.7714 0.29095 0.433218
582200 60.2096 168.144 55.7714 0.29105 0.328105
582400 60.2096 168.157 55.7714 0.29115 0.174908
582600 60.2096 168.17 55.7714 0.29125 0.0361563
582800 60.2096 168.183 55.7714 0.29135 -0.109072
583000 60.2096 168.196 55.7714 0.29145 -0.235607
583200 60.2096 168.209 55.7714 0.29155 -0.3262
583400 60.2096 168.222 55.7714 0.29165 -0.425367
583600 60.2096 168.235 55.7714 0.29175 -0.441405
583800 60.2096 168.248 55.7714 0.29185 -0.4573
584000 60.2096 168.261 55.7714 0.29195 -0.416641
584200 60.2096 168.274 55.7714 0.29205 -0.304602
584400 60.2096 168.287 55.7714 0.29215 -0.167512
584600 60.2096 168.301 55.7714 0.29225 -0.0560328
584800 60.2096 168.314 55.7714 0.29235 0.107114
585000 60.2096 168.327 55.7714 0.29245 0.218053
585200 60.2096 168.34 55.7714 0.29255 0.365499
585400 60.2096 168.353 55.7714 0.29265 0.435337
585600 60.2096 168.366 55.7714 0.29275 0.458129
585800 60.2096 168.379 55.7714 0.29285 0.474869
586000 60.2096 168.392 55.7714 0.29295 0.407022
586200 60.2096 168.405 55.7714 0.29305 0.287177
586400 60.2096 168.418 55.7714 0.29315 0.156933
586600 60.2096 168.431 55.7714 0.29325 0.0298583
586800 60.2096 168.444 55.7714 0.29335 -0.105286
587000 60.2096 168.457 55.7714 0.29345 -0.273405
587200 60.2096 168.47 55.7714 0.29355 -0.338609
587400 60.2096 168.483 55.7714 0.29365 -0.417599
587600 60.2096 168.496 55.7714 0.29375 -0.449262
587800 60.2096 168.509 55.7714 0.29385 -0.427548
588000 60.2096 168.522 55.7714 0.29395 -0.369909
588200 60.2096 168.535 55.7714 0.29405 -0.292115
588400 60.2096 168.548 55.7714 0.29415 -0.148841
588600 60.2096 168.561 55.7714 0.29425 -0.0308804
588800 60.2096 168.574 55.7714 0.29435 0.127832
589000 60.2096 168.587 55.7714 0.29445 0.256425
589200 60.2096 168.6 55.7714 0.29455 0.346319
589400 60.2096 168.613 55.7714 0.29465 0.446974
589600 60.2096 168.626 55.7714 0.29475 0.481253
589800 60.2096 168.639 55.7714 0.29485 0.421515
590000 60.2096 168.652 55.7714 0.29495 0.36335
590200 60.2096 168.665 55.7714 0.29505 0.257584
590400 60.2096 168.678 55.7714 0.29515 0.147155
590600 60.2096 168.691 55.7714 0.29525 -0.000396371
590800 60.2096 168.704 55.7714 0.29535 -0.13498
591000 60.2096 168.717 55.7714 0.29545 -0.268433
591200 60.2096 168.73 55.7714 0.29555 -0.360619
591400 60.2096 168.743 55.7714 0.29565 -0.413085
591600 60.2096 168.756 55.7714 0.29575 -0.433713
591800 60.2096 168.769 55.7714 0.29585 -0.395956
592000 60.2096 168.782 55.7714 0.29595 -0.358521
592200 60.2096 168.795 55.7714 0.29605 -0.244034
592400 60.2096 168.808 55.7714 0.29615 -0.159108
592600 60.2096 168.821 55.7714 0.29625 0.0155554
592800 60.2096 168.834 55.7714 0.29635 0.134855
593000 60.2096 168.848 55.7714 0.29645 0.279522
593200 60.2096 168.861 55.7714 0.29655 0.361662
593400 60.2096 168.874 55.7714 0.29665 0.459126
593600 60.2096 168.887 55.7714 0.29675 0.447434
593800 60.2096 168.9 55.7714 0.29685 0.436369
594000 60.2096 168.913 55.7714 0.29695 0.336913
594200 60.2096 168.926 55.7714 0.29705 0.24905
594400 60.2096 168.939 55.7714 0.29715 0.0855817
594600 60.2096 168.952 55.7714 0.29725 -0.0177721
594800 60.2096 168.965 55.7714 0.29735 -0.178465
595000 60.2096 168.978 55.7714 0.29745 -0.282183
595200 60.2096 168.991 55.7714 0.29755 -0.357894
595400 60.2096 169.004 55.7714 0.29765 -0.413228
595600 60.2096 169.017 55.7714 0.29775 -0.433638
595800 60.2096 169.03 55.7714 0.29785 -0.40597
596000 60.2096 169.043 55.7714 0.29795 -0.335475
596200 60.2096 169.056 55.7714 0.29805 -0.230549
596400 60.2096 169.069 55.7714 0.29815 -0.0995647
596600 60.2096 169.082 55.7714 0.29825 0.0130007
596800 60.2096 169.095 55.7714 0.29835 0.174475
597000 60.2096 169.108 55.7714 0.29845 0.302143
597200 60.2096 169.121 55.7714 0.29855 0.377522
597400 60.2096 169.134 55.7714 0.29865 0.459587
597600 60.2096 169.147 55.7714 0.29875 0.442055
597800 60.2096 169.16 55.7714 0.29885 0.426042
598000 60.2096 169.173 55.7714 0.29895 0.334441
598200 60.2096 169.186 55.7714 0.29905 0.199609
598400 60.2096 169.199 55.7714 0.29915 0.0727447
598600 60.2096 169.212 55.7714 0.29925 -0.0469835
598800 60.2096 169.225 55.7714 0.29935 -0.192852
599000 60.2096 169.238 55.7714 0.29945 -0.306754
599200 60.2096 169.251 55.7714 0.29955 -0.377974
599400 60.2096 169.264 55.7714 0.29965 -0.437904
599600 60.2096 169.277 55.7714 0.29975 -0.427127
599800 60.2096 169.29 55.7714 0.29985 -0.37246
600000 60.2096 169.303 55.7714 0.29995 -0.306465
600200 60.2096 169.316 55.7714 0.30005 -0.20924
600400 60.2096 169.329 55.7714 0.30015 -0.0765938
600600 60.2096 169.342 55.7714 0.30025 0.0559759
600800 60.2096 169.355 55.7714 0.30035 0.185392
601000 60.2096 169.368 55.7714 0.30045 0.312415
601200 60.2096 169.381 55.7714 0.30055 0.391053
601400 60.2096 169.395 55.7714 0.30065 0.449815
601600 60.2096 169.408 55.7714 0.30075 0.463967
601800 60.2096 169.421 55.7714 0.30085 0.368472
602000 60.2096 169.434 55.7714 0.30095 0.300897
602200 60.2096 169.447 55.7714 0.30105 0.173911
602400 60.2096 169.46 55.7714 0.30115 0.0587939
602600 60.2096 169.473 55.7714 0.30125 -0.0896503
602800 60.2096 169.486 55.7714 0.30135 -0.208904
603000 60.2096 169.499 55.7714 0.30145 -0.318337
603200 60.2096 169.512 55.7714 0.30155 -0.367973
603400 60.2096 169.525 55.7714 0.30165 -0.445104
603600 60.2096 169.538 55.7714 0.30175 -0.387934
603800 60.2096 169.551 55.7714 0.30185 -0.362423
604000 60.2096 169.564 55.7714 0.30195 -0.286688
604200 60.2096 169.577 55.7714 0.30205 -0.186128
604400 60.2096 169.59 55.7714 0.30215 -0.0391899
604600 60.2096 169.603 55.7714 0.30225 0.0696145
604800 60.2096 169.616 55.7714 0.30235 0.215952
605000 60.2096 169.629 55.7714 0.30245 0.348898
605200 60.2096 169.642 55.7714 0.30255 0.394593
605400 60.2096 169.655 55.7714 0.30265 0.444457
605600 60.2096 169.668 55.7714 0.30275 0.397416
605800 60.2096 169.681 55.7714 0.30285 0.388897
606000 60.2096 169.694 55.7714 0.30295 0.270104
606200 60.2096 169.707 55.7714 0.30305 0.16808
606400 60.2096 169.72 55.7714 0.30315 0.00114161
606600 60.2096 169.733 55.7714 0.30325 -0.102678
606800 60.2096 169.746 55.7714 0.30335 -0.25267
607000 60.2096 169.759 55.7714 0.30345 -0.31498
607200 60.2096 169.772 55.7714 0.30355 -0.396395
607400 60.2096 169.785 55.7714 0.30365 -0.412806
607600 60.2096 169.798 55.7714 0.30375 -0.375915
607800 60.2096 169.811 55.7714 0.30385 -0.349099
608000 60.2096 169.824 55.7714 0.30395 -0.280558
608200 60.2096 169.837 55.7714 0.30405 -0.155147
608400 60.2096 169.85 55.7714 0.30415 -0.000287711
608600 60.2096 169.863 55.7714 0.30425 0.096137
608800 60.2096 169.876 55.7714 0.30435 0.237527
609000 60.2096 169.889 55.7714 0.30445 0.339006
609200 60.2096 169.902 55.7714 0.30455 0.426497
609400 60.2096 169.915 55.7714 0.30465 0.449086
609600 60.2096 169.928 55.7714 0.30475 0.402123
609800 60.2096 169.942 55.7714 0.30485 0.361592
610000 60.2096 169.955 55.7714 0.30495 0.218365
610200 60.2096 169.968 55.7714 0.30505 0.123988
610400 60.2096 169.981 55.7714 0.30515 -0.00770382
610600 60.2096 169.994 55.7714 0.30525 -0.11376
610800 60.2096 170.007 55.7714 0.30535 -0.233403
611000 60.2096 170.02 55.7714 0.30545 -0.352319
611200 60.2096 170.033 55.7714 0.30555 -0.401745
611400 60.2096 170.046 55.7714 0.30565 -0.418918
611600 60.2096 170.059 55.7714 0.30575 -0.417163
611800 60.2096 170.072 55.7714 0.30585 -0.318826
612000 60.2096 170.085 55.7714 0.30595 -0.229819
612200 60.2096 170.098 55.7714 0.30605 -0.101347
612400 60.2096 170.111 55.7714 0.30615 0.0357125
612600 60.2096 170.124 55.7714 0.30625 0.123135
612800 60.2096 170.137 55.7714 0.30635 0.231107
613000 60.2096 170.15 55.7714 0.30645 0.361489
613200 60.2096 170.163 55.7714 0.30655 0.40316
613400 60.2096 170.176 55.7714 0.30665 0.423406
613600 60.2096 170.189 55.7714 0.30675 0.395477
613800 60.2096 170.202 55.7714 0.30685 0.330662
614000 60.2096 170.215 55.7714 0.30695 0.209934
614200 60.2096 170.228 55.7714 0.30705 0.100984
614400 60.2096 170.241 55.7714 0.30715 -0.0270783
614600 60.2096 170.254 55.7714 0.30725 -0.15432
614800 60.2096 170.267 55.7714 0.30735 -0.265708
615000 60.2096 170.28 55.7714 0.30745 -0.334934
615200 60.2096 170.293 55.7714 0.30755 -0.387023
615400 60.2096 170.306 55.7714 0.30765 -0.388846
615600 60.2096 170.319 55.7714 0.30775 -0.357266
615800 60.2096 170.332 55.7714 0.30785 -0.329686
616000 60.2096 170.345 55.7714 0.30795 -0.217409
616200 60.2096 170.358 55.7714 0.30805 -0.117254
616400 60.2096 170.371 55.7714 0.30815 0.028058
616600 60.2096 170.384 55.7714 0.30825 0.16787
616800 60.2096 170.397 55.7714 0.30835 0.291411
617000 60.2096 170.41 55.7714 0.30845 0.328228
617200 60.2096 170.423 55.7714 0.30855 0.427049
617400 60.2096 170.436 55.7714 0.30865 0.409774
617600 60.2096 170.449 55.7714 0.30875 0.395816
617800 60.2096 170.462 55.7714 0.30885 0.31174
618000 60.2096 170.476 55.7714 0.30895 0.176631
618200 60.2096 170.489 55.7714 0.30905 0.11553
618400 60.2096 170.502 55.7714 0.30915 -0.0580032
618600 60.2096 170.515 55.7714 0.30925 -0.197855
618800 60.2096 170.528 55.7714 0.30935 -0.27111
619000 60.2096 170.541 55.7714 0.30945 -0.374937
619200 60.2096 170.554 55.7714 0.30955 -0.387507
619400 60.2096 170.567 55.7714 0.30965 -0.404838
619600 60.2096 170.58 55.7714 0.30975 -0.362745
619800 60.2096 170.593 55.7714 0.30985 -0.275405
620000 60.2096 170.606 55.7714 0.30995 -0.200032
620200 60.2096 170.619 55.7714 0.31005 -0.0865894
620400 60.2096 170.632 55.7714 0.31015 0.0397429
620600 60.2096 170.645 55.7714 0.31025 0.186749
620800 60.2096 170.658 55.7714 0.31035 0.321321
621000 60.2096 170.671 55.7714 0.31045 0.371245
621200 60.2096 170.684 55.7714 0.31055 0.435398
621400 60.2096 170.697 55.7714 0.31065 0.397616
621600 60.2096 170.71 55.7714 0.31075 0.359206
621800 60.2096 170.723 55.7714 0.31085 0.26808
622000 60.2096 170.736 55.7714 0.31095 0.165661
622200 60.2096 170.749 55.7714 0.31105 0.0597854
622400 60.2096 170.762 55.7714 0.31115 -0.0824154
622600 60.2096 170.775 55.7714 0.31125 -0.177677
622800 60.2096 170.788 55.7714 0.31135 -0.299693
623000 60.2096 170.801 55.7714 0.31145 -0.364711
623200 60.2096 170.814 55.7714 0.31155 -0.410047
623400 60.2096 170.827 55.7714 0.31165 -0.364181
623600 60.2096 170.84 55.7714 0.31175 -0.3415
623800 60.2096 170.853 55.7714 0.31185 -0.272196
624000 60.2096 170.866 55.7714 0.31195 -0.134099
624200 60.2096 170.879 55.7714 0.31205 -0.0587642
624400 60.2096 170.892 55.7714 0.31215 0.0705267
624600 60.2096 170.905 55.7714 0.31225 0.188012
624800 60.2096 170.918 55.7714 0.31235 0.328531
625000 60.2096 170.931 55.7714 0.31245 0.379526
625200 60.2096 170.944 55.7714 0.31255 0.397637
625400 60.2096 170.957 55.7714 0.31265 0.395498
625600 60.2096 170.97 55.7714 0.31275 0.334008
625800 60.2096 170.983 55.7714 0.31285 0.253472
626000 60.2096 170.996 55.7714 0.31295 0.139898
626200 60.2096 171.009 55.7714 0.31305 0.021517
626400 60.2096 171.023 55.7714 0.31315 -0.106874
626600 60.2096 171.036 55.7714 0.31325 -0.220223
626800 60.2096 171.049 55.7714 0.31335 -0.304449
627000 60.2096 171.062 55.7714 0.31345 -0.363068
627200 60.2096 171.075 55.7714 0.31355 -0.408454
627400 60.2096 171.088 55.7714 0.31365 -0.323003
627600 60.2096 171.101 55.7714 0.31375 -0.312144
627800 60.2096 171.114 55.7714 0.31385 -0.241391
628000 60.2096 171.127 55.7714 0.31395 -0.151399
628200 60.2096 171.14 55.7714 0.31405 -0.0100965
628400 60.2096 171.153 55.7714 0.31415 0.0987609
628600 60.2096 171.166 55.7714 0.31425 0.229423
628800 60.2096 171.179 55.7714 0.31435 0.310053
629000 60.2096 171.192 55.7714 0.31445 0.381033
629200 60.2096 171.205 55.7714 0.31455 0.405963
629400 60.2096 171.218 55.7714 0.31465 0.36151
629600 60.2096 171.231 55.7714 0.31475 0.308482
629800 60.2096 171.244 55.7714 0.31485 0.228634
630000 60.2096 171.257 55.7714 0.31495 0.134096
630200 60.2096 171.27 55.7714 0.31505 -0.0109018
630400 60.2096 171.283 55.7714 0.31515 -0.150894
630600 60.2096 171.296 55.7714 0.31525 -0.228937
630800 60.2096 171.309 55.7714 0.31535 -0.321954
631000 60.2096 171.322 55.7714 0.31545 -0.361917
631200 60.2096 171.335 55.7714 0.31555 -0.357905
631400 60.2096 171.348 55.7714 0.31565 -0.340066
631600 60.2096 171.361 55.7714 0.31575 -0.282904
631800 60.2096 171.374 55.7714 0.31585 -0.208894
632000 60.2096 171.387 55.7714 0.31595 -0.132752
632200 60.2096 171.4 55.7714 0.31605 0.016754
632400 60.2096 171.413 55.7714 0.31615 0.130974
632600 60.2096 171.426 55.7714 0.31625 0.217631
632800 60.2096 171.439 55.7714 0.31635 0.330109
633000 60.2096 171.452 55.7714 0.31645 0.372475
633200 60.2096 171.465 55.7714 0.31655 0.404265
633400 60.2096 171.478 55.7714 0.31665 0.329359
633600 60.2096 171.491 55.7714 0.31675 0.301507
633800 60.2096 171.504 55.7714 0.31685 0.19815
634000 60.2096 171.517 55.7714 0.31695 0.0877187
634200 60.2096 171.53 55.7714 0.31705 -0.0206806
634400 60.2096 171.543 55.7714 0.31715 -0.150379
634600 60.2096 171.556 55.7714 0.31725 -0.258632
634800 60.2096 171.57 55.7714 0.31735 -0.309459
635000 60.2096 171.583 55.7714 0.31745 -0.378705
635200 60.2096 171.596 55.7714 0.31755 -0.347014
635400 60.2096 171.609 55.7714 0.31765 -0.325358
635600 60.2096 171.622 55.7714 0.31775 -0.262121
635800 60.2096 171.635 55.7714 0.31785 -0.210557
636000 60.2096 171.648 55.7714 0.31795 -0.0583707
636200 60.2096 171.661 55.7714 0.31805 0.0195371
636400 60.2096 171.674 55.7714 0.31815 0.162016
636600 60.2096 171.687 55.7714 0.31825 0.24983
636800 60.2096 171.7 55.7714 0.31835 0.340182
637000 60.2096 171.713 55.7714 0.31845 0.382283
637200 60.2096 171.726 55.7714 0.31855 0.366766
637400 60.2096 171.739 55.7714 0.31865 0.32724
637600 60.2096 171.752 55.7714 0.31875 0.243465
637800 60.2096 171.765 55.7714 0.31885 0.18963
638000 60.2096 171.778 55.7714 0.31895 0.0553589
638200 60.2096 171.791 55.7714 0.31905 -0.037714
638400 60.2096 171.804 55.7714 0.31915 -0.178931
638600 60.2096 171.817 55.7714 0.31925 -0.260541
638800 60.2096 171.83 55.7714 0.31935 -0.314626
639000 60.2096 171.843 55.7714 0.31945 -0.379936
639200 60.2096 171.856 55.7714 0.31955 -0.351823
639400 60.2096 171.869 55.7714 0.31965 -0.301463
639600 60.2096 171.882 55.7714 0.31975 -0.243341
639800 60.2096 171.895 55.7714 0.31985 -0.168125
640000 60.2096 171.908 55.7714 0.31995 -0.0387978
640200 60.2096 171.921 55.7714 0.32005 0.0472716
640400 60.2096 171.934 55.7714 0.32015 0.162526
640600 60.2096 171.947 55.7714 0.32025 0.257411
640800 60.2096 171.96 55.7714 0.32035 0.352659
641000 60.2096 171.973 55.7714 0.32045 0.388
641200 60.2096 171.986 55.7714 0.32055 0.358774
641400 60.2096 171.999 55.7714 0.32065 0.323764
641600 60.2096 172.012 55.7714 0.32075 0.232608
641800 60.2096 172.025 55.7714 0.32085 0.134674
642000 60.2096 172.038 55.7714 0.32095 0.0337925
642200 60.2096 172.051 55.7714 0.32105 -0.0680989
642400 60.2096 172.064 55.7714 0.32115 -0.173333
642600 60.2096 172.077 55.7714 0.32125 -0.265578
642800 60.2096 172.09 55.7714 0.32135 -0.356044
643000 60.2096 172.103 55.7714 0.32145 -0.354887
643200 60.2096 172.117 55.7714 0.32155 -0.348985
643400 60.2096 172.13 55.7714 0.32165 -0.308315
643600 60.2096 172.143 55.7714 0.32175 -0.221343
643800 60.2096 172.156 55.7714 0.32185 -0.123256
644000 60.2096 172.169 55.7714 0.32195 -0.0309479
644200 60.2096 172.182 55.7714 0.32205 0.0860199
644400 60.2096 172.195 55.7714 0.32215 0.198153
644600 60.2096 172.208 55.7714 0.32225 0.274082
644800 60.2096 172.221 55.7714 0.32235 0.335287
645000 60.2096 172.234 55.7714 0.32245 0.374716
645200 60.2096 172.247 55.7714 0.32255 0.385045
645400 60.2096 172.26 55.7714 0.32265 0.297484
645600 60.2096 172.273 55.7714 0.32275 0.223102
645800 60.2096 172.286 55.7714 0.32285 0.103062
646000 60.2096 172.299 55.7714 0.32295 -0.00980632
646200 60.2096 172.312 55.7714 0.32305 -0.102046
646400 60.2096 172.325 55.7714 0.32315 -0.211531
646600 60.2096 172.338 55.7714 0.32325 -0.271917
646800 60.2096 172.351 55.7714 0.32335 -0.351743
647000 60.2096 172.364 55.7714 0.32345 -0.338356
647200 60.2096 172.377 55.7714 0.32355 -0.34739
647400 60.2096 172.39 55.7714 0.32365 -0.286569
647600 60.2096 172.403 55.7714 0.32375 -0.199673
647800 60.2096 172.416 55.7714 0.32385 -0.102239
648000 60.2096 172.429 55.7714 0.32395 0.014893
648200 60.2096 172.442 55.7714 0.32405 0.128986
648400 60.2096 172.455 55.7714 0.32415 0.20385
648600 60.2096 172.468 55.7714 0.32425 0.307754
648800 60.2096 172.481 55.7714 0.32435 0.322103
649000 60.2096 172.494 55.7714 0.32445 0.354667
649200 60.2096 172.507 55.7714 0.32455 0.34921
649400 60.2096 172.52 55.7714 0.32465 0.300381
649600 60.2096 172.533 55.7714 0.32475 0.190971
649800 60.2096 172.546 55.7714 0.32485 0.082805
650000 60.2096 172.559 55.7714 0.32495 -0.0313992
650200 60.2096 172.572 55.7714 0.32505 -0.14633
650400 60.2096 172.585 55.7714 0.32515 -0.222646
650600 60.2096 172.598 55.7714 0.32525 -0.296582
650800 60.2096 172.611 55.7714 0.32535 -0.299948
651000 60.2096 172.624 55.7714 0.32545 -0.358989
651200 60.2096 172.637 55.7714 0.32555 -0.320472
651400 60.2096 172.65 55.7714 0.32565 -0.264929
651600 60.2096 172.664 55.7714 0.32575 -0.18447
651800 60.2096 172.677 55.7714 0.32585 -0.111177
652000 60.2096 172.69 55.7714 0.32595 0.0430987
652200 60.2096 172.703 55.7714 0.32605 0.151437
652400 60.2096 172.716 55.7714 0.32615 0.242329
652600 60.2096 172.729 55.7714 0.32625 0.297899
652800 60.2096 172.742 55.7714 0.32635 0.33123
653000 60.2096 172.755 55.7714 0.32645 0.356565
653200 60.2096 172.768 55.7714 0.32655 0.315939
653400 60.2096 172.781 55.7714 0.32665 0.292016
653600 60.2096 172.794 55.7714 0.32675 0.183956
653800 60.2096 172.807 55.7714 0.32685 0.0680079
654000 60.2096 172.82 55.7714 0.32695 -0.0555533
654200 60.2096 172.833 55.7714 0.32705 -0.171182
654400 60.2096 172.846 55.7714 0.32715 -0.244337
654600 60.2096 172.859 55.7714 0.32725 -0.309664
654800 60.2096 172.872 55.7714 0.32735 -0.33078
655000 60.2096 172.885 55.7714 0.32745 -0.325086
655200 60.2096 172.898 55.7714 0.32755 -0.302819
655400 60.2096 172.911 55.7714 0.32765 -0.239162
655600 60.2096 172.924 55.7714 0.32775 -0.18453
655800 60.2096 172.937 55.7714 0.32785 -0.0693366
656000 60.2096 172.95 55.7714 0.32795 0.0517013
656200 60.2096 172.963 55.7714 0.32805 0.176413
656400 60.2096 172.976 55.7714 0.32815 0.256958
656600 60.2096 172.989 55.7714 0.32825 0.307022
656800 60.2096 173.002 55.7714 0.32835 0.343337
657000 60.2096 173.015 55.7714 0.32845 0.348509
657200 60.2096 173.028 55.7714 0.32855 0.300187
657400 60.2096 173.041 55.7714 0.32865 0.255641
657600 60.2096 173.054 55.7714 0.32875 0.14116
657800 60.2096 173.067 55.7714 0.32885 0.0493375
658000 60.2096 173.08 55.7714 0.32895 -0.0666658
658200 60.2096 173.093 55.7714 0.32905 -0.171282
658400 60.2096 173.106 55.7714 0.32915 -0.265045
658600 60.2096 173.119 55.7714 0.32925 -0.288272
658800 60.2096 173.132 55.7714 0.32935 -0.336829
659000 60.2096 173.145 55.7714 0.32945 -0.312538
659200 60.2096 173.158 55.7714 0.32955 -0.293393
659400 60.2096 173.171 55.7714 0.32965 -0.245099
659600 60.2096 173.184 55.7714 0.32975 -0.128857
659800 60.2096 173.197 55.7714 0.32985 -0.0502098
660000 60.2096 173.211 55.7714 0.32995 0.0569743
660200 60.2096 173.224 55.7714 0.33005 0.183944
660400 60.2096 173.237 55.7714 0.33015 0.259649
660600 60.2096 173.25 55.7714 0.33025 0.342936
660800 60.2096 173.263 55.7714 0.33035 0.332012
661000 60.2096 173.276 55.7714 0.33045 0.356359
661200 60.2096 173.289 55.7714 0.33055 0.274976
661400 60.2096 173.302 55.7714 0.33065 0.213635
661600 60.2096 173.315 55.7714 0.33075 0.127416
661800 60.2096 173.328 55.7714 0.33085 0.0253931
662000 60.2096 173.341 55.7714 0.33095 -0.0790477
662200 60.2096 173.354 55.7714 0.33105 -0.193748
662400 60.2096 173.367 55.7714 0.33115 -0.266003
662600 60.2096 173.38 55.7714 0.33125 -0.312902
662800 60.2096 173.393 55.7714 0.33135 -0.337466
663000 60.2096 173.406 55.7714 0.33145 -0.317324
663200 60.2096 173.419 55.7714 0.33155 -0.278341
663400 60.2096 173.432 55.7714 0.33165 -0.196612
663600 60.2096 173.445 55.7714 0.33175 -0.105738
663800 60.2096 173.458 55.7714 0.33185 -0.0294371
664000 60.2096 173.471 55.7714 0.33195 0.0866377
664200 60.2096 173.484 55.7714 0.33205 0.20074
664400 60.2096 173.497 55.7714 0.33215 0.278128
664600 60.2096 173.51 55.7714 0.33225 0.328887
664800 60.2096 173.523 55.7714 0.33235 0.356641
665000 60.2096 173.536 55.7714 0.33245 0.327773
665200 60.2096 173.549 55.7714 0.33255 0.255603
665400 60.2096 173.562 55.7714 0.33265 0.211567
665600 60.2096 173.575 55.7714 0.33275 0.0968014
665800 60.2096 173.588 55.7714 0.33285 -0.0031041
666000 60.2096 173.601 55.7714 0.33295 -0.115066
666200 60.2096 173.614 55.7714 0.33305 -0.208082
666400 60.2096 173.627 55.7714 0.33315 -0.276204
666600 60.2096 173.64 55.7714 0.33325 -0.328424
666800 60.2096 173.653 55.7714 0.33335 -0.331605
667000 60.2096 173.666 55.7714 0.33345 -0.306639
667200 60.2096 173.679 55.7714 0.33355 -0.25756
667400 60.2096 173.692 55.7714 0.33365 -0.173574
667600 60.2096 173.705 55.7714 0.33375 -0.081798
667800 60.2096 173.718 55.7714 0.33385 0.0156264
668000 60.2096 173.731 55.7714 0.33395 0.135945
668200 60.2096 173.744 55.7714 0.33405 0.20409
668400 60.2096 173.758 55.7714 0.33415 0.273797
668600 60.2096 173.771 55.7714 0.33425 0.327258
668800 60.2096 173.784 55.7714 0.33435 0.333808
669000 60.2096 173.797 55.7714 0.33445 0.314504
669200 60.2096 173.81 55.7714 0.33455 0.252589
669400 60.2096 173.823 55.7714 0.33465 0.15382
669600 60.2096 173.836 55.7714 0.33475 0.0779332
669800 60.2096 173.849 55.7714 0.33485 -0.0453724
670000 60.2096 173.862 55.7714 0.33495 -0.135919
670200 60.2096 173.875 55.7714 0.33505 -0.193167
670400 60.2096 173.888 55.7714 0.33515 -0.284215
670600 60.2096 173.901 55.7714 0.33525 -0.320042
670800 60.2096 173.914 55.7714 0.33535 -0.319677
671000 60.2096 173.927 55.7714 0.33545 -0.286476
671200 60.2096 173.94 55.7714 0.33555 -0.233814
671400 60.2096 173.953 55.7714 0.33565 -0.156925
671600 60.2096 173.966 55.7714 0.33575 -0.0500276
671800 60.2096 173.979 55.7714 0.33585 0.0477784
672000 60.2096 173.992 55.7714 0.33595 0.125883
672200 60.2096 174.005 55.7714 0.33605 0.201939
672400 60.2096 174.018 55.7714 0.33615 0.301039
672600 60.2096 174.031 55.7714 0.33625 0.329475
672800 60.2096 174.044 55.7714 0.33635 0.325985
673000 60.2096 174.057 55.7714 0.33645 0.303662
673200 60.2096 174.07 55.7714 0.33655 0.207636
673400 60.2096 174.083 55.7714 0.33665 0.156378
673600 60.2096 174.096 55.7714 0.33675 0.0332685
673800 60.2096 174.109 55.7714 0.33685 -0.0791304
674000 60.2096 174.122 55.7714 0.33695 -0.132875
674200 60.2096 174.135 55.7714 0.33705 -0.212581
674400 60.2096 174.148 55.7714 0.33715 -0.294583
674600 60.2096 174.161 55.7714 0.33725 -0.292069
674800 60.2096 174.174 55.7714 0.33735 -0.321646
675000 60.2096 174.187 55.7714 0.33745 -0.274892
675200 60.2096 174.2 55.7714 0.33755 -0.20135
675400 60.2096 174.213 55.7714 0.33765 -0.150605
675600 60.2096 174.226 55.7714 0.33775 -0.0307866
675800 60.2096 174.239 55.7714 0.33785 0.0629506
676000 60.2096 174.252 55.7714 0.33795 0.170911
676200 60.2096 174.265 55.7714 0.33805 0.217586
676400 60.2096 174.278 55.7714 0.33815 0.294417
676600 60.2096 174.291 55.7714 0.33825 0.297887
676800 60.2096 174.305 55.7714 0.33835 0.334909
677000 60.2096 174.318 55.7714 0.33845 0.277174
677200 60.2096 174.331 55.7714 0.33855 0.212674
677400 60.2096 174.344 55.7714 0.33865 0.110032
677600 60.2096 174.357 55.7714 0.33875 0.0336175
677800 60.2096 174.37 55.7714 0.33885 -0.0737895
678000 60.2096 174.383 55.7714 0.33895 -0.18954
678200 60.2096 174.396 55.7714 0.33905 -0.230905
678400 60.2096 174.409 55.7714 0.33915 -0.301302
678600 60.2096 174.422 55.7714 0.33925 -0.279904
678800 60.2096 174.435 55.7714 0.33935 -0.298318
679000 60.2096 174.448 55.7714 0.33945 -0.263739
679200 60.2096 174.461 55.7714 0.33955 -0.205225
679400 60.2096 174.474 55.7714 0.33965 -0.125476
679600 60.2096 174.487 55.7714 0.33975 -0.00945605
679800 60.2096 174.5 55.7714 0.33985 0.105862
680000 60.2096 174.513 55.7714 0.33995 0.18333
680200 60.2096 174.526 55.7714 0.34005 0.241012
680400 60.2096 174.539 55.7714 0.34015 0.291153
680600 60.2096 174.552 55.7714 0.34025 0.319998
680800 60.2096 174.565 55.7714 0.34035 0.281319
681000 60.2096 174.578 55.7714 0.34045 0.289247
681200 60.2096 174.591 55.7714 0.34055 0.201723
681400 60.2096 174.604 55.7714 0.34065 0.0873675
681600 60.2096 174.617 55.7714 0.34075 -0.0203456
681800 60.2096 174.63 55.7714 0.34085 -0.100529
682000 60.2096 174.643 55.7714 0.34095 -0.193215
682200 60.2096 174.656 55.7714 0.34105 -0.272282
682400 60.2096 174.669 55.7714 0.34115 -0.272968
682600 60.2096 174.682 55.7714 0.34125 -0.301557
682800 60.2096 174.695 55.7714 0.34135 -0.262605
683000 60.2096 174.708 55.7714 0.34145 -0.24151
683200 60.2096 174.721 55.7714 0.34155 -0.17891
683400 60.2096 174.734 55.7714 0.34165 -0.0900709
683600 60.2096 174.747 55.7714 0.34175 -0.0149983
683800 60.2096 174.76 55.7714 0.34185 0.117703
684000 60.2096 174.773 55.7714 0.34195 0.220166
684200 60.2096 174.786 55.7714 0.34205 0.24719
684400 60.2096 174.799 55.7714 0.34215 0.296955
684600 60.2096 174.812 55.7714 0.34225 0.295844
684800 60.2096 174.825 55.7714 0.34235 0.299873
685000 60.2096 174.838 55.7714 0.34245 0.233203
685200 60.2096 174.852 55.7714 0.34255 0.18173
685400 60.2096 174.865 55.7714 0.34265 0.0841442
685600 60.2096 174.878 55.7714 0.34275 -0.0387173
685800 60.2096 174.891 55.7714 0.34285 -0.102366
686000 60.2096 174.904 55.7714 0.34295 -0.205975
686200 60.2096 174.917 55.7714 0.34305 -0.272727
686400 60.2096 174.93 55.7714 0.34315 -0.282077
686600 60.2096 174.943 55.7714 0.34325 -0.296499
686800 60.2096 174.956 55.7714 0.34335 -0.276667
687000 60.2096 174.969 55.7714 0.34345 -0.221667
687200 60.2096 174.982 55.7714 0.34355 -0.138069
687400 60.2096 174.995 55.7714 0.34365 -0.086574
687600 60.2096 175.008 55.7714 0.34375 0.0219361
687800 60.2096 175.021 55.7714 0.34385 0.145495
688000 60.2096 175.034 55.7714 0.34395 0.206049
688200 60.2096 175.047 55.7714 0.34405 0.260676
688400 60.2096 175.06 55.7714 0.34415 0.294578
688600 60.2096 175.073 55.7714 0.34425 0.306663
688800 60.2096 175.086 55.7714 0.34435 0.277657
689000 60.2096 175.099 55.7714 0.34445 0.216721
689200 60.2096 175.112 55.7714 0.34455 0.151773
689400 60.2096 175.125 55.7714 0.34465 0.0471131
689600 60.2096 175.138 55.7714 0.34475 -0.0501412
689800 60.2096 175.151 55.7714 0.34485 -0.140416
690000 60.2096 175.164 55.7714 0.34495 -0.208846
690200 60.2096 175.177 55.7714 0.34505 -0.260745
690400 60.2096 175.19 55.7714 0.34515 -0.282886
690600 60.2096 175.203 55.7714 0.34525 -0.305395
690800 60.2096 175.216 55.7714 0.34535 -0.265852
691000 60.2096 175.229 55.7714 0.34545 -0.190347
691200 60.2096 175.242 55.7714 0.34555 -0.130806
691400 60.2096 175.255 55.7714 0.34565 -0.0520242
691600 60.2096 175.268 55.7714 0.34575 0.0535048
691800 60.2096 175.281 55.7714 0.34585 0.146755
692000 60.2096 175.294 55.7714 0.34595 0.215448
692200 60.2096 175.307 55.7714 0.34605 0.303066
692400 60.2096 175.32 55.7714 0.34615 0.299269
692600 60.2096 175.333 55.7714 0.34625 0.29896
692800 60.2096 175.346 55.7714 0.34635 0.25676
693000 60.2096 175.359 55.7714 0.34645 0.20396
693200 60.2096 175.372 55.7714 0.34655 0.11095
693400 60.2096 175.385 55.7714 0.34665 0.0291922
693600 60.2096 175.399 55.7714 0.34675 -0.0451264
693800 60.2096 175.412 55.7714 0.34685 -0.180864
694000 60.2096 175.425 55.7714 0.34695 -0.189927
694200 60.2096 175.438 55.7714 0.34705 -0.300717
694400 60.2096 175.451 55.7714 0.34715 -0.27291
694600 60.2096 175.464 55.7714 0.34725 -0.282427
694800 60.2096 175.477 55.7714 0.34735 -0.253667
695000 60.2096 175.49 55.7714 0.34745 -0.182377
695200 60.2096 175.503 55.7714 0.34755 -0.119292
695400 60.2096 175.516 55.7714 0.34765 -0.0248264
695600 60.2096 175.529 55.7714 0.34775 0.0701211
695800 60.2096 175.542 55.7714 0.34785 0.130571
696000 60.2096 175.555 55.7714 0.34795 0.228384
696200 60.2096 175.568 55.7714 0.34805 0.266999
696400 60.2096 175.581 55.7714 0.34815 0.321421
696600 60.2096 175.594 55.7714 0.34825 0.28084
696800 60.2096 175.607 55.7714 0.34835 0.265
697000 60.2096 175.62 55.7714 0.34845 0.188985
697200 60.2096 175.633 55.7714 0.34855 0.112428
697400 60.2096 175.646 55.7714 0.34865 0.00971666
697600 60.2096 175.659 55.7714 0.34875 -0.0954694
697800 60.2096 175.672 55.7714 0.34885 -0.15456
698000 60.2096 175.685 55.7714 0.34895 -0.231157
698200 60.2096 175.698 55.7714 0.34905 -0.264505
698400 60.2096 175.711 55.7714 0.34915 -0.289852
698600 60.2096 175.724 55.7714 0.34925 -0.26681
698800 60.2096 175.737 55.7714 0.34935 -0.218616
699000 60.2096 175.75 55.7714 0.34945 -0.193426
699200 60.2096 175.763 55.7714 0.34955 -0.0956508
699400 60.2096 175.776 55.7714 0.34965 0.00625582
699600 60.2096 175.789 55.7714 0.34975 0.0766214
699800 60.2096 175.802 55.7714 0.34985 0.162492
700000 60.2096 175.815 55.7714 0.34995 0.240842
700200 60.2096 175.828 55.7714 0.35005 0.277353
700400 60.2096 175.841 55.7714 0.35015 0.284091
700600 60.2096 175.854 55.7714 0.35025 0.274658
700800 60.2096 175.867 55.7714 0.35035 0.235893
701000 60.2096 175.88 55.7714 0.35045 0.180634
701200 60.2096 175.893 55.7714 0.35055 0.0837118
701400 60.2096 175.906 55.7714 0.35065 -0.0162049
701600 60.2096 175.919 55.7714 0.35075 -0.0980055
701800 60.2096 175.932 55.7714 0.35085 -0.181316
702000 60.2096 175.946 55.7714 0.35095 -0.232637
702200 60.2096 175.959 55.7714 0.35105 -0.261673
702400 60.2096 175.972 55.7714 0.35115 -0.273751
702600 60.2096 175.985 55.7714 0.35125 -0.264963
702800 60.2096 175.998 55.7714 0.35135 -0.226985
703000 60.2096 176.011 55.7714 0.35145 -0.145276
703200 60.2096 176.024 55.7714 0.35155 -0.0813073
703400 60.2096 176.037 55.7714 0.35165 0.0206693
703600 60.2096 176.05 55.7714 0.35175 0.101867
703800 60.2096 176.063 55.7714 0.35185 0.157449
704000 60.2096 176.076 55.7714 0.35195 0.244144
704200 60.2096 176.089 55.7714 0.35205 0.281429
704400 60.2096 176.102 55.7714 0.35215 0.280197
704600 60.2096 176.115 55.7714 0.35225 0.264546
704800 60.2096 176.128 55.7714 0.35235 0.219808
705000 60.2096 176.141 55.7714 0.35245 0.137124
705200 60.2096 176.154 55.7714 0.35255 0.091681
705400 60.2096 176.167 55.7714 0.35265 -0.0323235
705600 60.2096 176.18 55.7714 0.35275 -0.0862922
705800 60.2096 176.193 55.7714 0.35285 -0.185222
706000 60.2096 176.206 55.7714 0.35295 -0.235118
706200 60.2096 176.219 55.7714 0.35305 -0.270847
706400 60.2096 176.232 55.7714 0.35315 -0.256103
706600 60.2096 176.245 55.7714 0.35325 -0.265495
706800 60.2096 176.258 55.7714 0.35335 -0.218213
707000 60.2096 176.271 55.7714 0.35345 -0.138079
707200 60.2096 176.284 55.7714 0.35355 -0.0581568
707400 60.2096 176.297 55.7714 0.35365 0.00671242
707600 60.2096 176.31 55.7714 0.35375 0.113112
707800 60.2096 176.323 55.7714 0.35385 0.188468
708000 60.2096 176.336 55.7714 0.35395 0.238238
708200 60.2096 176.349 55.7714 0.35405 0.290466
708400 60.2096 176.362 55.7714 0.35415 0.278271
708600 60.2096 176.375 55.7714 0.35425 0.258153
708800 60.2096 176.388 55.7714 0.35435 0.219404
709000 60.2096 176.401 55.7714 0.35445 0.129423
709200 60.2096 176.414 55.7714 0.35455 0.0389806
709400 60.2096 176.427 55.7714 0.35465 -0.0329384
709600 60.2096 176.44 55.7714 0.35475 -0.119326
709800 60.2096 176.453 55.7714 0.35485 -0.183955
710000 60.2096 176.466 55.7714 0.35495 -0.249436
710200 60.2096 176.479 55.7714 0.35505 -0.248479
710400 60.2096 176.493 55.7714 0.35515 -0.284917
710600 60.2096 176.506 55.7714 0.35525 -0.256826
710800 60.2096 176.519 55.7714 0.35535 -0.188761
711000 60.2096 176.532 55.7714 0.35545 -0.124308
711200 60.2096 176.545 55.7714 0.35555 -0.0282985
711400 60.2096 176.558 55.7714 0.35565 0.0385434
711600 60.2096 176.571 55.7714 0.35575 0.116991
711800 60.2096 176.584 55.7714 0.35585 0.218692
712000 60.2096 176.597 55.7714 0.35595 0.249945
712200 60.2096 176.61 55.7714 0.35605 0.283289
712400 60.2096 176.623 55.7714 0.35615 0.272661
712600 60.2096 176.636 55.7714 0.35625 0.22768
712800 60.2096 176.649 55.7714 0.35635 0.197854
713000 60.2096 176.662 55.7714 0.35645 0.100678
713200 60.2096 176.675 55.7714 0.35655 0.0315251
713400 60.2096 176.688 55.7714 0.35665 -0.0763393
713600 60.2096 176.701 55.7714 0.35675 -0.130774
713800 60.2096 176.714 55.7714 0.35685 -0.19419
714000 60.2096 176.727 55.7714 0.35695 -0.233439
714200 60.2096 176.74 55.7714 0.35705 -0.25445
714400 60.2096 176.753 55.7714 0.35715 -0.262415
714600 60.2096 176.766 55.7714 0.35725 -0.265341
714800 60.2096 176.779 55.7714 0.35735 -0.171304
715000 60.2096 176.792 55.7714 0.35745 -0.115407
715200 60.2096 176.805 55.7714 0.35755 -0.0176912
715400 60.2096 176.818 55.7714 0.35765 0.0800395
715600 60.2096 176.831 55.7714 0.35775 0.165693
715800 60.2096 176.844 55.7714 0.35785 0.208102
716000 60.2096 176.857 55.7714 0.35795 0.247148
716200 60.2096 176.87 55.7714 0.35805 0.271429
716400 60.2096 176.883 55.7714 0.35815 0.260184
716600 60.2096 176.896 55.7714 0.35825 0.243467
716800 60.2096 176.909 55.7714 0.35835 0.172743
717000 60.2096 176.922 55.7714 0.35845 0.0976641
717200 60.2096 176.935 55.7714 0.35855 -0.000293042
717400 60.2096 176.948 55.7714 0.35865 -0.0826987
717600 60.2096 176.961 55.7714 0.35875 -0.16623
717800 60.2096 176.974 55.7714 0.35885 -0.206566
718000 60.2096 176.987 55.7714 0.35895 -0.255439
718200 60.2096 177 55.7714 0.35905 -0.245231
718400 60.2096 177.013 55.7714 0.35915 -0.228473
718600 60.2096 177.026 55.7714 0.35925 -0.211672
718800 60.2096 177.04 55.7714 0.35935 -0.181843
719000 60.2096 177.053 55.7714 0.35945 -0.106755
719200 60.2096 177.066 55.7714 0.35955 0.000433022
719400 60.2096 177.079 55.7714 0.35965 0.0781259
719600 60.2096 177.092 55.7714 0.35975 0.190055
719800 60.2096 177.105 55.7714 0.35985 0.211439
720000 60.2096 177.118 55.7714 0.35995 0.251416
720200 60.2096 177.131 55.7714 0.36005 0.263504
720400 60.2096 177.144 55.7714 0.36015 0.255713
720600 60.2096 177.157 55.7714 0.36025 0.196056
720800 60.2096 177.17 55.7714 0.36035 0.170372
721000 60.2096 177.183 55.7714 0.36045 0.0682198
721200 60.2096 177.196 55.7714 0.36055 0.00294672
721400 60.2096 177.209 55.7714 0.36065 -0.0912897
721600 60.2096 177.222 55.7714 0.36075 -0.182068
721800 60.2096 177.235 55.7714 0.36085 -0.213339
722000 60.2096 177.248 55.7714 0.36095 -0.248438
722200 60.2096 177.261 55.7714 0.36105 -0.246758
722400 60.2096 177.274 55.7714 0.36115 -0.215575
722600 60.2096 177.287 55.7714 0.36125 -0.209105
722800 60.2096 177.3 55.7714 0.36135 -0.145091
723000 60.2096 177.313 55.7714 0.36145 -0.0859103
723200 60.2096 177.326 55.7714 0.36155 0.0191906
723400 60.2096 177.339 55.7714 0.36165 0.0825354
723600 60.2096 177.352 55.7714 0.36175 0.167822
723800 60.2096 177.365 55.7714 0.36185 0.244125
724000 60.2096 177.378 55.7714 0.36195 0.255905
724200 60.2096 177.391 55.7714 0.36205 0.245534
724400 60.2096 177.404 55.7714 0.36215 0.245427
724600 60.2096 177.417 55.7714 0.36225 0.201422
724800 60.2096 177.43 55.7714 0.36235 0.147259
725000 60.2096 177.443 55.7714 0.36245 0.0632287
725200 60.2096 177.456 55.7714 0.36255 -0.0264549
725400 60.2096 177.469 55.7714 0.36265 -0.106218
725600 60.2096 177.482 55.7714 0.36275 -0.176805
725800 60.2096 177.495 55.7714 0.36285 -0.212837
726000 60.2096 177.508 55.7714 0.36295 -0.247575
726200 60.2096 177.521 55.7714 0.36305 -0.255241
726400 60.2096 177.534 55.7714 0.36315 -0.209738
726600 60.2096 177.547 55.7714 0.36325 -0.192883
726800 60.2096 177.56 55.7714 0.36335 -0.132288
727000 60.2096 177.573 55.7714 0.36345 -0.0513826
727200 60.2096 177.587 55.7714 0.36355 0.0289204
727400 60.2096 177.6 55.7714 0.36365 0.0855053
727600 60.2096 177.613 55.7714 0.36375 0.183461
727800 60.2096 177.626 55.7714 0.36385 0.245605
728000 60.2096 177.639 55.7714 0.36395 0.240399
728200 60.2096 177.652 55.7714 0.36405 0.252941
728400 60.2096 177.665 55.7714 0.36415 0.222713
728600 60.2096 177.678 55.7714 0.36425 0.171157
728800 60.2096 177.691 55.7714 0.36435 0.135589
729000 60.2096 177.704 55.7714 0.36445 0.0655474
729200 60.2096 177.717 55.7714 0.36455 -0.0243808
729400 60.2096 177.73 55.7714 0.36465 -0.143508
729600 60.2096 177.743 55.7714 0.36475 -0.182595
729800 60.2096 177.756 55.7714 0.36485 -0.232254
730000 60.2096 177.769 55.7714 0.36495 -0.24115
730200 60.2096 177.782 55.7714 0.36505 -0.227814
730400 60.2096 177.795 55.7714 0.36515 -0.217254
730600 60.2096 177.808 55.7714 0.36525 -0.148644
730800 60.2096 177.821 55.7714 0.36535 -0.140708
731000 60.2096 177.834 55.7714 0.36545 -0.0428174
731200 60.2096 177.847 55.7714 0.36555 0.0451201
731400 60.2096 177.86 55.7714 0.36565 0.109204
731600 60.2096 177.873 55.7714 0.36575 0.187532
731800 60.2096 177.886 55.7714 0.36585 0.256651
732000 60.2096 177.899 55.7714 0.36595 0.253742
732200 60.2096 177.912 55.7714 0.36605 0.244515
732400 60.2096 177.925 55.7714 0.36615 0.213447
732600 60.2096 177.938 55.7714 0.36625 0.138859
732800 60.2096 177.951 55.7714 0.36635 0.123774
733000 60.2096 177.964 55.7714 0.36645 0.0264178
733200 60.2096 177.977 55.7714 0.36655 -0.0302479
733400 60.2096 177.99 55.7714 0.36665 -0.138785
733600 60.2096 178.003 55.7714 0.36675 -0.194887
733800 60.2096 178.016 55.7714 0.36685 -0.228881
734000 60.2096 178.029 55.7714 0.36695 -0.245265
734200 60.2096 178.042 55.7714 0.36705 -0.234903
734400 60.2096 178.055 55.7714 0.36715 -0.202035
734600 60.2096 178.068 55.7714 0.36725 -0.145844
734800 60.2096 178.081 55.7714 0.36735 -0.096809
735000 60.2096 178.094 55.7714 0.36745 -0.0305904
735200 60.2096 178.107 55.7714 0.36755 0.0574055
735400 60.2096 178.12 55.7714 0.36765 0.133726
735600 60.2096 178.134 55.7714 0.36775 0.201712
735800 60.2096 178.147 55.7714 0.36785 0.238326
736000 60.2096 178.16 55.7714 0.36795 0.266297
736200 60.2096 178.173 55.7714 0.36805 0.234606
736400 60.2096 178.186 55.7714 0.36815 0.208812
736600 60.2096 178.199 55.7714 0.36825 0.131516
736800 60.2096 178.212 55.7714 0.36835 0.0797747
737000 60.2096 178.225 55.7714 0.36845 0.00526804
737200 60.2096 178.238 55.7714 0.36855 -0.0560671
737400 60.2096 178.251 55.7714 0.36865 -0.132892
737600 60.2096 178.264 55.7714 0.36875 -0.206815
737800 60.2096 178.277 55.7714 0.36885 -0.244294
738000 60.2096 178.29 55.7714 0.36895 -0.243827
738200 60.2096 178.303 55.7714 0.36905 -0.219966
738400 60.2096 178.316 55.7714 0.36915 -0.196721
738600 60.2096 178.329 55.7714 0.36925 -0.111327
738800 60.2096 178.342 55.7714 0.36935 -0.0913528
739000 60.2096 178.355 55.7714 0.36945 0.00391409
739200 60.2096 178.368 55.7714 0.36955 0.0673211
739400 60.2096 178.381 55.7714 0.36965 0.155401
739600 60.2096 178.394 55.7714 0.36975 0.189915
739800 60.2096 178.407 55.7714 0.36985 0.250612
740000 60.2096 178.42 55.7714 0.36995 0.243937
740200 60.2096 178.433 55.7714 0.37005 0.246553
740400 60.2096 178.446 55.7714 0.37015 0.193542
740600 60.2096 178.459 55.7714 0.37025 0.112594
740800 60.2096 178.472 55.7714 0.37035 0.0696444
741000 60.2096 178.485 55.7714 0.37045 -0.0210847
741200 60.2096 178.498 55.7714 0.37055 -0.0837724
741400 60.2096 178.511 55.7714 0.37065 -0.138241
741600 60.2096 178.524 55.7714 0.37075 -0.200776
741800 60.2096 178.537 55.7714 0.37085 -0.224594
742000 60.2096 178.55 55.7714 0.37095 -0.235603
742200 60.2096 178.563 55.7714 0.37105 -0.242777
742400 60.2096 178.576 55.7714 0.37115 -0.159634
742600 60.2096 178.589 55.7714 0.37125 -0.130123
742800 60.2096 178.602 55.7714 0.37135 -0.0546878
743000 60.2096 178.615 55.7714 0.37145 0.00611824
743200 60.2096 178.628 55.7714 0.37155 0.0713334
743400 60.2096 178.641 55.7714 0.37165 0.17047
743600 60.2096 178.654 55.7714 0.37175 0.218822
743800 60.2096 178.667 55.7714 0.37185 0.227087
744000 60.2096 178.681 55.7714 0.37195 0.266566
744200 60.2096 178.694 55.7714 0.37205 0.214586
744400 60.2096 178.707 55.7714 0.37215 0.176062
744600 60.2096 178.72 55.7714 0.37225 0.106839
744800 60.2096 178.733 55.7714 0.37235 0.0584365
745000 60.2096 178.746 55.7714 0.37245 -0.0326719
745200 60.2096 178.759 55.7714 0.37255 -0.0831407
745400 60.2096 178.772 55.7714 0.37265 -0.153878
745600 60.2096 178.785 55.7714 0.37275 -0.198445
745800 60.2096 178.798 55.7714 0.37285 -0.241256
746000 60.2096 178.811 55.7714 0.37295 -0.235739
746200 60.2096 178.824 55.7714 0.37305 -0.223993
746400 60.2096 178.837 55.7714 0.37315 -0.169639
746600 60.2096 178.85 55.7714 0.37325 -0.104337
746800 60.2096 178.863 55.7714 0.37335 -0.0496471
747000 60.2096 178.876 55.7714 0.37345 0.0341585
747200 60.2096 178.889 55.7714 0.37355 0.0892218
747400 60.2096 178.902 55.7714 0.37365 0.168446
747600 60.2096 178.915 55.7714 0.37375 0.215707
747800 60.2096 178.928 55.7714 0.37385 0.238421
748000 60.2096 178.941 55.7714 0.37395 0.240843
748200 60.2096 178.954 55.7714 0.37405 0.232437
748400 60.2096 178.967 55.7714 0.37415 0.173878
748600 60.2096 178.98 55.7714 0.37425 0.0898451
748800 60.2096 178.993 55.7714 0.37435 0.0248076
749000 60.2096 179.006 55.7714 0.37445 -0.0266257
749200 60.2096 179.019 55.7714 0.37455 -0.0986507
749400 60.2096 179.032 55.7714 0.37465 -0.162386
749600 60.2096 179.045 55.7714 0.37475 -0.196778
749800 60.2096 179.058 55.7714 0.37485 -0.240949
750000 60.2096 179.071 55.7714 0.37495 -0.228114
750200 60.2096 179.084 55.7714 0.37505 -0.20868
750400 60.2096 179.097 55.7714 0.37515 -0.160583
750600 60.2096 179.11 55.7714 0.37525 -0.106328
750800 60.2096 179.123 55.7714 0.37535 -0.0388786
751000 60.2096 179.136 55.7714 0.37545 0.0478741
751200 60.2096 179.149 55.7714 0.37555 0.0949799
751400 60.2096 179.162 55.7714 0.37565 0.177629
751600 60.2096 179.175 55.7714 0.37575 0.210783
751800 60.2096 179.188 55.7714 0.37585 0.242845
752000 60.2096 179.201 55.7714 0.37595 0.255519
752200 60.2096 179.214 55.7714 0.37605 0.205125
752400 60.2096 179.228 55.7714 0.37615 0.165697
752600 60.2096 179.241 55.7714 0.37625 0.0793873
752800 60.2096 179.254 55.7714 0.37635 0.0370503
753000 60.2096 179.267 55.7714 0.37645 -0.0674988
753200 60.2096 179.28 55.7714 0.37655 -0.103748
753400 60.2096 179.293 55.7714 0.37665 -0.153937
753600 60.2096 179.306 55.7714 0.37675 -0.220045
753800 60.2096 179.319 55.7714 0.37685 -0.211768
754000 60.2096 179.332 55.7714 0.37695 -0.244197
754200 60.2096 179.345 55.7714 0.37705 -0.205526
754400 60.2096 179.358 55.7714 0.37715 -0.184019
754600 60.2096 179.371 55.7714 0.37725 -0.0803787
754800 60.2096 179.384 55.7714 0.37735 -0.0186532
755000 60.2096 179.397 55.7714 0.37745 0.0572056
755200 60.2096 179.41 55.7714 0.37755 0.125337
755400 60.2096 179.423 55.7714 0.37765 0.194745
755600 60.2096 179.436 55.7714 0.37775 0.207512
755800 60.2096 179.449 55.7714 0.37785 0.248731
756000 60.2096 179.462 55.7714 0.37795 0.23694
756200 60.2096 179.475 55.7714 0.37805 0.209859
756400 60.2096 179.488 55.7714 0.37815 0.156726
756600 60.2096 179.501 55.7714 0.37825 0.0756887
756800 60.2096 179.514 55.7714 0.37835 0.00309445
757000 60.2096 179.527 55.7714 0.37845 -0.0613361
757200 60.2096 179.54 55.7714 0.37855 -0.126557
757400 60.2096 179.553 55.7714 0.37865 -0.188279
757600 60.2096 179.566 55.7714 0.37875 -0.22702
757800 60.2096 179.579 55.7714 0.37885 -0.207519
758000 60.2096 179.592 55.7714 0.37895 -0.244763
758200 60.2096 179.605 55.7714 0.37905 -0.186406
758400 60.2096 179.618 55.7714 0.37915 -0.147741
758600 60.2096 179.631 55.7714 0.37925 -0.0908083
758800 60.2096 179.644 55.7714 0.37935 0.0178759
759000 60.2096 179.657 55.7714 0.37945 0.0867017
759200 60.2096 179.67 55.7714 0.37955 0.130745
759400 60.2096 179.683 55.7714 0.37965 0.186693
759600 60.2096 179.696 55.7714 0.37975 0.222822
759800 60.2096 179.709 55.7714 0.37985 0.221646
760000 60.2096 179.722 55.7714 0.37995 0.246073
760200 60.2096 179.735 55.7714 0.38005 0.18924
760400 60.2096 179.748 55.7714 0.38015 0.148145
760600 60.2096 179.761 55.7714 0.38025 0.0706368
760800 60.2096 179.775 55.7714 0.38035 -0.0190742
761000 60.2096 179.788 55.7714 0.38045 -0.0863193
761200 60.2096 179.801 55.7714 0.38055 -0.143681
761400 60.2096 179.814 55.7714 0.38065 -0.181933
761600 60.2096 179.827 55.7714 0.38075 -0.227779
761800 60.2096 179.84 55.7714 0.38085 -0.21567
762000 60.2096 179.853 55.7714 0.38095 -0.207585
762200 60.2096 179.866 55.7714 0.38105 -0.199086
762400 60.2096 179.879 55.7714 0.38115 -0.133848
762600 60.2096 179.892 55.7714 0.38125 -0.0613513
762800 60.2096 179.905 55.7714 0.38135 0.00571247
763000 60.2096 179.918 55.7714 0.38145 0.0899733
763200 60.2096 179.931 55.7714 0.38155 0.144663
763400 60.2096 179.944 55.7714 0.38165 0.214667
763600 60.2096 179.957 55.7714 0.38175 0.226731
763800 60.2096 179.97 55.7714 0.38185 0.238088
764000 60.2096 179.983 55.7714 0.38195 0.220441
764200 60.2096 179.996 55.7714 0.38205 0.165371
764400 60.2096 180.009 55.7714 0.38215 0.128169
764600 60.2096 180.022 55.7714 0.38225 0.0480055
764800 60.2096 180.035 55.7714 0.38235 0.00303747
765000 60.2096 180.048 55.7714 0.38245 -0.0929663
765200 60.2096 180.061 55.7714 0.38255 -0.148391
765400 60.2096 180.074 55.7714 0.38265 -0.220762
765600 60.2096 180.087 55.7714 0.38275 -0.238467
765800 60.2096 180.1 55.7714 0.38285 -0.226897
766000 60.2096 180.113 55.7714 0.38295 -0.188021
766200 60.2096 180.126 55.7714 0.38305 -0.164428
766400 60.2096 180.139 55.7714 0.38315 -0.128506
766600 60.2096 180.152 55.7714 0.38325 -0.0352276
766800 60.2096 180.165 55.7714 0.38335 0.0168194
767000 60.2096 180.178 55.7714 0.38345 0.0857089
767200 60.2096 180.191 55.7714 0.38355 0.165552
767400 60.2096 180.204 55.7714 0.38365 0.213791
767600 60.2096 180.217 55.7714 0.38375 0.272754
767800 60.2096 180.23 55.7714 0.38385 0.240429
768000 60.2096 180.243 55.7714 0.38395 0.182183
768200 60.2096 180.256 55.7714 0.38405 0.164811
768400 60.2096 180.269 55.7714 0.38415 0.0951867
768600 60.2096 180.282 55.7714 0.38425 0.0453331
768800 60.2096 180.295 55.7714 0.38435 -0.0418803
769000 60.2096 180.308 55.7714 0.38445 -0.0945928
769200 60.2096 180.322 55.7714 0.38455 -0.174964
769400 60.2096 180.335 55.7714 0.38465 -0.212369
769600 60.2096 180.348 55.7714 0.38475 -0.240497
769800 60.2096 180.361 55.7714 0.38485 -0.244951
770000 60.2096 180.374 55.7714 0.38495 -0.18781
770200 60.2096 180.387 55.7714 0.38505 -0.145239
770400 60.2096 180.4 55.7714 0.38515 -0.0780505
770600 60.2096 180.413 55.7714 0.38525 -0.0211417
770800 60.2096 180.426 55.7714 0.38535 0.0353298
771000 60.2096 180.439 55.7714 0.38545 0.124687
771200 60.2096 180.452 55.7714 0.38555 0.158511
771400 60.2096 180.465 55.7714 0.38565 0.232066
771600 60.2096 180.478 55.7714 0.38575 0.239754
771800 60.2096 180.491 55.7714 0.38585 0.259055
772000 60.2096 180.504 55.7714 0.38595 0.210386
772200 60.2096 180.517 55.7714 0.38605 0.124783
772400 60.2096 180.53 55.7714 0.38615 0.0635778
772600 60.2096 180.543 55.7714 0.38625 0.0116837
772800 60.2096 180.556 55.7714 0.38635 -0.0666443
773000 60.2096 180.569 55.7714 0.38645 -0.105008
773200 60.2096 180.582 55.7714 0.38655 -0.184289
773400 60.2096 180.595 55.7714 0.38665 -0.201873
773600 60.2096 180.608 55.7714 0.38675 -0.252221
773800 60.2096 180.621 55.7714 0.38685 -0.253105
774000 60.2096 180.634 55.7714 0.38695 -0.191594
774200 60.2096 180.647 55.7714 0.38705 -0.102464
774400 60.2096 180.66 55.7714 0.38715 -0.068711
774600 60.2096 180.673 55.7714 0.38725 0.00999004
774800 60.2096 180.686 55.7714 0.38735 0.0545429
775000 60.2096 180.699 55.7714 0.38745 0.112137
775200 60.2096 180.712 55.7714 0.38755 0.19693
775400 60.2096 180.725 55.7714 0.38765 0.22867
775600 60.2096 180.738 55.7714 0.38775 0.255824
775800 60.2096 180.751 55.7714 0.38785 0.246057
776000 60.2096 180.764 55.7714 0.38795 0.197391
776200 60.2096 180.777 55.7714 0.38805 0.105587
776400 60.2096 180.79 55.7714 0.38815 0.0429178
776600 60.2096 180.803 55.7714 0.38825 -0.0165442
776800 60.2096 180.816 55.7714 0.38835 -0.0712606
777000 60.2096 180.829 55.7714 0.38845 -0.142786
777200 60.2096 180.842 55.7714 0.38855 -0.171604
777400 60.2096 180.855 55.7714 0.38865 -0.227007
777600 60.2096 180.869 55.7714 0.38875 -0.238105
777800 60.2096 180.882 55.7714 0.38885 -0.230971
778000 60.2096 180.895 55.7714 0.38895 -0.185079
778200 60.2096 180.908 55.7714 0.38905 -0.121592
778400 60.2096 180.921 55.7714 0.38915 -0.0499982
778600 60.2096 180.934 55.7714 0.38925 0.0349386
778800 60.2096 180.947 55.7714 0.38935 0.103186
779000 60.2096 180.96 55.7714 0.38945 0.132063
779200 60.2096 180.973 55.7714 0.38955 0.217005
779400 60.2096 180.986 55.7714 0.38965 0.228256
779600 60.2096 180.999 55.7714 0.38975 0.246166
779800 60.2096 181.012 55.7714 0.38985 0.236917
780000 60.2096 181.025 55.7714 0.38995 0.174269
780200 60.2096 181.038 55.7714 0.39005 0.104975
780400 60.2096 181.051 55.7714 0.39015 0.0557085
780600 60.2096 181.064 55.7714 0.39025 -0.0520178
780800 60.2096 181.077 55.7714 0.39035 -0.0962056
781000 60.2096 181.09 55.7714 0.39045 -0.174022
781200 60.2096 181.103 55.7714 0.39055 -0.214296
781400 60.2096 181.116 55.7714 0.39065 -0.217813
781600 60.2096 181.129 55.7714 0.39075 -0.231604
781800 60.2096 181.142 55.7714 0.39085 -0.181126
782000 60.2096 181.155 55.7714 0.39095 -0.179213
782200 60.2096 181.168 55.7714 0.39105 -0.134459
782400 60.2096 181.181 55.7714 0.39115 -0.0377778
782600 60.2096 181.194 55.7714 0.39125 0.0299315
782800 60.2096 181.207 55.7714 0.39135 0.148161
783000 60.2096 181.22 55.7714 0.39145 0.157045
783200 60.2096 181.233 55.7714 0.39155 0.234358
783400 60.2096 181.246 55.7714 0.39165 0.253386
783600 60.2096 181.259 55.7714 0.39175 0.200784
783800 60.2096 181.272 55.7714 0.39185 0.204535
784000 60.2096 181.285 55.7714 0.39195 0.161492
784200 60.2096 181.298 55.7714 0.39205 0.0977146
784400 60.2096 181.311 55.7714 0.39215 0.0299318
784600 60.2096 181.324 55.7714 0.39225 -0.033044
784800 60.2096 181.337 55.7714 0.39235 -0.117999
785000 60.2096 181.35 55.7714 0.39245 -0.199148
785200 60.2096 181.363 55.7714 0.39255 -0.187934
785400 60.2096 181.376 55.7714 0.39265 -0.2154
785600 60.2096 181.389 55.7714 0.39275 -0.231674
785800 60.2096 181.402 55.7714 0.39285 -0.205222
786000 60.2096 181.416 55.7714 0.39295 -0.147587
786200 60.2096 181.429 55.7714 0.39305 -0.104138
786400 60.2096 181.442 55.7714 0.39315 -0.0162984
786600 60.2096 181.455 55.7714 0.39325 0.0583585
786800 60.2096 181.468 55.7714 0.39335 0.124129
787000 60.2096 181.481 55.7714 0.39345 0.167783
787200 60.2096 181.494 55.7714 0.39355 0.237003
787400 60.2096 181.507 55.7714 0.39365 0.224494
787600 60.2096 181.52 55.7714 0.39375 0.24632
787800 60.2096 181.533 55.7714 0.39385 0.188475
788000 60.2096 181.546 55.7714 0.39395 0.153205
788200 60.2096 181.559 55.7714 0.39405 0.0731969
788400 60.2096 181.572 55.7714 0.39415 0.0049595
788600 60.2096 181.585 55.7714 0.39425 -0.0781657
788800 60.2096 181.598 55.7714 0.39435 -0.105029
789000 60.2096 181.611 55.7714 0.39445 -0.181449
789200 60.2096 181.624 55.7714 0.39455 -0.214785
789400 60.2096 181.637 55.7714 0.39465 -0.237052
789600 60.2096 181.65 55.7714 0.39475 -0.215132
789800 60.2096 181.663 55.7714 0.39485 -0.20135
790000 60.2096 181.676 55.7714 0.39495 -0.142443
790200 60.2096 181.689 55.7714 0.39505 -0.0660972
790400 60.2096 181.702 55.7714 0.39515 0.0193607
790600 60.2096 181.715 55.7714 0.39525 0.0573434
790800 60.2096 181.728 55.7714 0.39535 0.144099
791000 60.2096 181.741 55.7714 0.39545 0.186236
791200 60.2096 181.754 55.7714 0.39555 0.218201
791400 60.2096 181.767 55.7714 0.39565 0.246026
791600 60.2096 181.78 55.7714 0.39575 0.241308
791800 60.2096 181.793 55.7714 0.39585 0.184973
792000 60.2096 181.806 55.7714 0.39595 0.136302
792200 60.2096 181.819 55.7714 0.39605 0.0511288
792400 60.2096 181.832 55.7714 0.39615 -0.020814
792600 60.2096 181.845 55.7714 0.39625 -0.102622
792800 60.2096 181.858 55.7714 0.39635 -0.131303
793000 60.2096 181.871 55.7714 0.39645 -0.187284
793200 60.2096 181.884 55.7714 0.39655 -0.230065
793400 60.2096 181.897 55.7714 0.39665 -0.218035
793600 60.2096 181.91 55.7714 0.39675 -0.205678
793800 60.2096 181.923 55.7714 0.39685 -0.183308
794000 60.2096 181.936 55.7714 0.39695 -0.120846
794200 60.2096 181.949 55.7714 0.39705 -0.0380796
794400 60.2096 181.963 55.7714 0.39715 0.0431041
794600 60.2096 181.976 55.7714 0.39725 0.090094
794800 60.2096 181.989 55.7714 0.39735 0.133557
795000 60.2096 182.002 55.7714 0.39745 0.189331
795200 60.2096 182.015 55.7714 0.39755 0.209079
795400 60.2096 182.028 55.7714 0.39765 0.250659
795600 60.2096 182.041 55.7714 0.39775 0.201144
795800 60.2096 182.054 55.7714 0.39785 0.192915
796000 60.2096 182.067 55.7714 0.39795 0.108322
796200 60.2096 182.08 55.7714 0.39805 0.0189046
796400 60.2096 182.093 55.7714 0.39815 -0.0339886
796600 60.2096 182.106 55.7714 0.39825 -0.0874834
796800 60.2096 182.119 55.7714 0.39835 -0.135051
797000 60.2096 182.132 55.7714 0.39845 -0.191216
797200 60.2096 182.145 55.7714 0.39855 -0.21641
797400 60.2096 182.158 55.7714 0.39865 -0.218043
797600 60.2096 182.171 55.7714 0.39875 -0.213609
797800 60.2096 182.184 55.7714 0.39885 -0.159942
798000 60.2096 182.197 55.7714 0.39895 -0.115957
798200 60.2096 182.21 55.7714 0.39905 -0.0273054
798400 60.2096 182.223 55.7714 0.39915 0.0395505
798600 60.2096 182.236 55.7714 0.39925 0.0839419
798800 60.2096 182.249 55.7714 0.39935 0.163542
799000 60.2096 182.262 55.7714 0.39945 0.210392
799200 60.2096 182.275 55.7714 0.39955 0.218613
799400 60.2096 182.288 55.7714 0.39965 0.213538
799600 60.2096 182.301 55.7714 0.39975 0.203338
799800 60.2096 182.314 55.7714 0.39985 0.173877
800000 60.2096 182.327 55.7714 0.39995 0.108419
800200 60.2096 182.34 55.7714 0.40005 0.0425056
800400 60.2096 182.353 55.7714 0.40015 -0.0449166
800600 60.2096 182.366 55.7714 0.40025 -0.135969
800800 60.2096 182.379 55.7714 0.40035 -0.162122
801000 60.2096 182.392 55.7714 0.40045 -0.192235
801200 60.2096 182.405 55.7714 0.40055 -0.213297
801400 60.2096 182.418 55.7714 0.40065 -0.221574
801600 60.2096 182.431 55.7714 0.40075 -0.186741
801800 60.2096 182.444 55.7714 0.40085 -0.146544
802000 60.2096 182.457 55.7714 0.40095 -0.095744
802200 60.2096 182.47 55.7714 0.40105 -0.026683
802400 60.2096 182.483 55.7714 0.40115 0.0476629
802600 60.2096 182.496 55.7714 0.40125 0.105399
802800 60.2096 182.51 55.7714 0.40135 0.194897
803000 60.2096 182.523 55.7714 0.40145 0.209147
803200 60.2096 182.536 55.7714 0.40155 0.215102
803400 60.2096 182.549 55.7714 0.40165 0.218777
803600 60.2096 182.562 55.7714 0.40175 0.186477
803800 60.2096 182.575 55.7714 0.40185 0.141089
804000 60.2096 182.588 55.7714 0.40195 0.0771648
804200 60.2096 182.601 55.7714 0.40205 0.0455663
804400 60.2096 182.614 55.7714 0.40215 -0.0697385
804600 60.2096 182.627 55.7714 0.40225 -0.114258
804800 60.2096 182.64 55.7714 0.40235 -0.167738
805000 60.2096 182.653 55.7714 0.40245 -0.193107
805200 60.2096 182.666 55.7714 0.40255 -0.235205
805400 60.2096 182.679 55.7714 0.40265 -0.203012
805600 60.2096 182.692 55.7714 0.40275 -0.186026
805800 60.2096 182.705 55.7714 0.40285 -0.135733
806000 60.2096 182.718 55.7714 0.40295 -0.0767311
806200 60.2096 182.731 55.7714 0.40305 -0.0171826
806400 60.2096 182.744 55.7714 0.40315 0.0503577
806600 60.2096 182.757 55.7714 0.40325 0.14893
806800 60.2096 182.77 55.7714 0.40335 0.171497
807000 60.2096 182.783 55.7714 0.40345 0.212271
807200 60.2096 182.796 55.7714 0.40355 0.211807
807400 60.2096 182.809 55.7714 0.40365 0.232452
807600 60.2096 182.822 55.7714 0.40375 0.194379
807800 60.2096 182.835 55.7714 0.40385 0.110126
808000 60.2096 182.848 55.7714 0.40395 0.0871487
808200 60.2096 182.861 55.7714 0.40405 -0.02646
808400 60.2096 182.874 55.7714 0.40415 -0.063056
808600 60.2096 182.887 55.7714 0.40425 -0.144181
808800 60.2096 182.9 55.7714 0.40435 -0.154486
809000 60.2096 182.913 55.7714 0.40445 -0.215542
809200 60.2096 182.926 55.7714 0.40455 -0.215757
809400 60.2096 182.939 55.7714 0.40465 -0.210067
809600 60.2096 182.952 55.7714 0.40475 -0.152683
809800 60.2096 182.965 55.7714 0.40485 -0.141064
810000 60.2096 182.978 55.7714 0.40495 -0.0571179
810200 60.2096 182.991 55.7714 0.40505 0.0123462
810400 60.2096 183.004 55.7714 0.40515 0.0826955
810600 60.2096 183.017 55.7714 0.40525 0.138678
810800 60.2096 183.03 55.7714 0.40535 0.21014
811000 60.2096 183.043 55.7714 0.40545 0.191932
811200 60.2096 183.057 55.7714 0.40555 0.201767
811400 60.2096 183.07 55.7714 0.40565 0.206743
811600 60.2096 183.083 55.7714 0.40575 0.188743
811800 60.2096 183.096 55.7714 0.40585 0.127012
812000 60.2096 183.109 55.7714 0.40595 0.0442723
812200 60.2096 183.122 55.7714 0.40605 -0.041423
812400 60.2096 183.135 55.7714 0.40615 -0.0705065
812600 60.2096 183.148 55.7714 0.40625 -0.134268
812800 60.2096 183.161 55.7714 0.40635 -0.179002
813000 60.2096 183.174 55.7714 0.40645 -0.190831
813200 60.2096 183.187 55.7714 0.40655 -0.227631
813400 60.2096 183.2 55.7714 0.40665 -0.194387
813600 60.2096 183.213 55.7714 0.40675 -0.154074
813800 60.2096 183.226 55.7714 0.40685 -0.128589
814000 60.2096 183.239 55.7714 0.40695 -0.0552855
814200 60.2096 183.252 55.7714 0.40705 0.0259647
814400 60.2096 183.265 55.7714 0.40715 0.0993302
814600 60.2096 183.278 55.7714 0.40725 0.138688
814800 60.2096 183.291 55.7714 0.40735 0.203828
815000 60.2096 183.304 55.7714 0.40745 0.199418
815200 60.2096 183.317 55.7714 0.40755 0.205293
815400 60.2096 183.33 55.7714 0.40765 0.206899
815600 60.2096 183.343 55.7714 0.40775 0.169547
815800 60.2096 183.356 55.7714 0.40785 0.115018
816000 60.2096 183.369 55.7714 0.40795 0.0371395
816200 60.2096 183.382 55.7714 0.40805 -0.0251558
816400 60.2096 183.395 55.7714 0.40815 -0.105618
816600 60.2096 183.408 55.7714 0.40825 -0.171385
816800 60.2096 183.421 55.7714 0.40835 -0.179647
817000 60.2096 183.434 55.7714 0.40845 -0.200108
817200 60.2096 183.447 55.7714 0.40855 -0.194115
817400 60.2096 183.46 55.7714 0.40865 -0.189251
817600 60.2096 183.473 55.7714 0.40875 -0.166436
817800 60.2096 183.486 55.7714 0.40885 -0.0941949
818000 60.2096 183.499 55.7714 0.40895 -0.045623
818200 60.2096 183.512 55.7714 0.40905 0.0616545
818400 60.2096 183.525 55.7714 0.40915 0.104656
818600 60.2096 183.538 55.7714 0.40925 0.176077
818800 60.2096 183.551 55.7714 0.40935 0.191606
819000 60.2096 183.564 55.7714 0.40945 0.185175
819200 60.2096 183.577 55.7714 0.40955 0.213566
819400 60.2096 183.591 55.7714 0.40965 0.206845
819600 60.2096 183.604 55.7714 0.40975 0.139324
819800 60.2096 183.617 55.7714 0.40985 0.104288
820000 60.2096 183.63 55.7714 0.40995 0.0368031
820200 60.2096 183.643 55.7714 0.41005 -0.0595215
820400 60.2096 183.656 55.7714 0.41015 -0.135249
820600 60.2096 183.669 55.7714 0.41025 -0.170503
820800 60.2096 183.682 55.7714 0.41035 -0.200436
821000 60.2096 183.695 55.7714 0.41045 -0.19644
821200 60.2096 183.708 55.7714 0.41055 -0.198647
821400 60.2096 183.721 55.7714 0.41065 -0.169683
821600 60.2096 183.734 55.7714 0.41075 -0.125655
821800 60.2096 183.747 55.7714 0.41085 -0.0841652
822000 60.2096 183.76 55.7714 0.41095 -0.0355824
822200 60.2096 183.773 55.7714 0.41105 0.0646929
822400 60.2096 183.786 55.7714 0.41115 0.113682
822600 60.2096 183.799 55.7714 0.41125 0.175093
822800 60.2096 183.812 55.7714 0.41135 0.212872
823000 60.2096 183.825 55.7714 0.41145 0.224494
823200 60.2096 183.838 55.7714 0.41155 0.194823
823400 60.2096 183.851 55.7714 0.41165 0.167972
823600 60.2096 183.864 55.7714 0.41175 0.136737
823800 60.2096 183.877 55.7714 0.41185 0.0656564
824000 60.2096 183.89 55.7714 0.41195 -0.00461089
824200 60.2096 183.903 55.7714 0.41205 -0.0584313
824400 60.2096 183.916 55.7714 0.41215 -0.0932036
824600 60.2096 183.929 55.7714 0.41225 -0.180606
824800 60.2096 183.942 55.7714 0.41235 -0.207657
825000 60.2096 183.955 55.7714 0.41245 -0.201138
825200 60.2096 183.968 55.7714 0.41255 -0.19231
825400 60.2096 183.981 55.7714 0.41265 -0.165932
825600 60.2096 183.994 55.7714 0.41275 -0.114124
825800 60.2096 184.007 55.7714 0.41285 -0.0637704
826000 60.2096 184.02 55.7714 0.41295 -0.00347345
826200 60.2096 184.033 55.7714 0.41305 0.0622199
826400 60.2096 184.046 55.7714 0.41315 0.100349
826600 60.2096 184.059 55.7714 0.41325 0.171902
826800 60.2096 184.072 55.7714 0.41335 0.21907
827000 60.2096 184.085 55.7714 0.41345 0.223036
827200 60.2096 184.098 55.7714 0.41355 0.197593
827400 60.2096 184.111 55.7714 0.41365 0.176505
827600 60.2096 184.124 55.7714 0.41375 0.11397
827800 60.2096 184.138 55.7714 0.41385 0.0574833
828000 60.2096 184.151 55.7714 0.41395 -0.0138487
828200 60.2096 184.164 55.7714 0.41405 -0.0566492
828400 60.2096 184.177 55.7714 0.41415 -0.146191
828600 60.2096 184.19 55.7714 0.41425 -0.174745
828800 60.2096 184.203 55.7714 0.41435 -0.174385
829000 60.2096 184.216 55.7714 0.41445 -0.200134
829200 60.2096 184.229 55.7714 0.41455 -0.21673
829400 60.2096 184.242 55.7714 0.41465 -0.173613
829600 60.2096 184.255 55.7714 0.41475 -0.113366
829800 60.2096 184.268 55.7714 0.41485 -0.044893
830000 60.2096 184.281 55.7714 0.41495 0.0246943
830200 60.2096 184.294 55.7714 0.41505 0.0694564
830400 60.2096 184.307 55.7714 0.41515 0.156472
830600 60.2096 184.32 55.7714 0.41525 0.164724
830800 60.2096 184.333 55.7714 0.41535 0.217156
831000 60.2096 184.346 55.7714 0.41545 0.20505
831200 60.2096 184.359 55.7714 0.41555 0.202864
831400 60.2096 184.372 55.7714 0.41565 0.148595
831600 60.2096 184.385 55.7714 0.41575 0.115827
831800 60.2096 184.398 55.7714 0.41585 0.0392524
832000 60.2096 184.411 55.7714 0.41595 -0.0247198
832200 60.2096 184.424 55.7714 0.41605 -0.0794165
832400 60.2096 184.437 55.7714 0.41615 -0.147075
832600 60.2096 184.45 55.7714 0.41625 -0.178195
832800 60.2096 184.463 55.7714 0.41635 -0.201857
833000 60.2096 184.476 55.7714 0.41645 -0.203568
833200 60.2096 184.489 55.7714 0.41655 -0.204691
833400 60.2096 184.502 55.7714 0.41665 -0.122444
833600 60.2096 184.515 55.7714 0.41675 -0.0947531
833800 60.2096 184.528 55.7714 0.41685 -0.0302274
834000 60.2096 184.541 55.7714 0.41695 0.00930132
834200 60.2096 184.554 55.7714 0.41705 0.100772
834400 60.2096 184.567 55.7714 0.41715 0.153863
834600 60.2096 184.58 55.7714 0.41725 0.16468
834800 60.2096 184.593 55.7714 0.41735 0.236165
835000 60.2096 184.606 55.7714 0.41745 0.196296
835200 60.2096 184.619 55.7714 0.41755 0.175253
835400 60.2096 184.632 55.7714 0.41765 0.142256
835600 60.2096 184.645 55.7714 0.41775 0.0932849
835800 60.2096 184.658 55.7714 0.41785 0.0256165
836000 60.2096 184.671 55.7714 0.41795 -0.018627
836200 60.2096 184.685 55.7714 0.41805 -0.105505
836400 60.2096 184.698 55.7714 0.41815 -0.143882
836600 60.2096 184.711 55.7714 0.41825 -0.182367
836800 60.2096 184.724 55.7714 0.41835 -0.191265
837000 60.2096 184.737 55.7714 0.41845 -0.212577
837200 60.2096 184.75 55.7714 0.41855 -0.187887
837400 60.2096 184.763 55.7714 0.41865 -0.125529
837600 60.2096 184.776 55.7714 0.41875 -0.0573699
837800 60.2096 184.789 55.7714 0.41885 -0.0316854
838000 60.2096 184.802 55.7714 0.41895 0.048156
838200 60.2096 184.815 55.7714 0.41905 0.0861283
838400 60.2096 184.828 55.7714 0.41915 0.140311
838600 60.2096 184.841 55.7714 0.41925 0.204801
838800 60.2096 184.854 55.7714 0.41935 0.205794
839000 60.2096 184.867 55.7714 0.41945 0.201515
839200 60.2096 184.88 55.7714 0.41955 0.181379
839400 60.2096 184.893 55.7714 0.41965 0.131832
839600 60.2096 184.906 55.7714 0.41975 0.0599538
839800 60.2096 184.919 55.7714 0.41985 0.016981
840000 60.2096 184.932 55.7714 0.41995 -0.0551139
840200 60.2096 184.945 55.7714 0.42005 -0.0905993
840400 60.2096 184.958 55.7714 0.42015 -0.157542
840600 60.2096 184.971 55.7714 0.42025 -0.17418
840800 60.2096 184.984 55.7714 0.42035 -0.188809
841000 60.2096 184.997 55.7714 0.42045 -0.190555
841200 60.2096 185.01 55.7714 0.42055 -0.183069
841400 60.2096 185.023 55.7714 0.42065 -0.134715
841600 60.2096 185.036 55.7714 0.42075 -0.0525004
841800 60.2096 185.049 55.7714 0.42085 -0.0187321
842000 60.2096 185.062 55.7714 0.42095 0.0760828
842200 60.2096 185.075 55.7714 0.42105 0.10945
842400 60.2096 185.088 55.7714 0.42115 0.132383
842600 60.2096 185.101 55.7714 0.42125 0.192047
842800 60.2096 185.114 55.7714 0.42135 0.200901
843000 60.2096 185.127 55.7714 0.42145 0.201544
843200 60.2096 185.14 55.7714 0.42155 0.165338
843400 60.2096 185.153 55.7714 0.42165 0.128382
843600 60.2096 185.166 55.7714 0.42175 0.0623104
843800 60.2096 185.179 55.7714 0.42185 0.00859562
844000 60.2096 185.192 55.7714 0.42195 -0.0773989
844200 60.2096 185.205 55.7714 0.42205 -0.122294
844400 60.2096 185.218 55.7714 0.42215 -0.14317
844600 60.2096 185.232 55.7714 0.42225 -0.169903
844800 60.2096 185.245 55.7714 0.42235 -0.195727
845000 60.2096 185.258 55.7714 0.42245 -0.193273
845200 60.2096 185.271 55.7714 0.42255 -0.164975
845400 60.2096 185.284 55.7714 0.42265 -0.114912
845600 60.2096 185.297 55.7714 0.42275 -0.0517936
845800 60.2096 185.31 55.7714 0.42285 0.00633421
846000 60.2096 185.323 55.7714 0.42295 0.0739013
846200 60.2096 185.336 55.7714 0.42305 0.118511
846400 60.2096 185.349 55.7714 0.42315 0.154332
846600 60.2096 185.362 55.7714 0.42325 0.191208
846800 60.2096 185.375 55.7714 0.42335 0.204499
847000 60.2096 185.388 55.7714 0.42345 0.191231
847200 60.2096 185.401 55.7714 0.42355 0.149947
847400 60.2096 185.414 55.7714 0.42365 0.107945
847600 60.2096 185.427 55.7714 0.42375 0.0521825
847800 60.2096 185.44 55.7714 0.42385 -0.0146233
848000 60.2096 185.453 55.7714 0.42395 -0.058624
848200 60.2096 185.466 55.7714 0.42405 -0.129407
848400 60.2096 185.479 55.7714 0.42415 -0.172033
848600 60.2096 185.492 55.7714 0.42425 -0.196111
848800 60.2096 185.505 55.7714 0.42435 -0.194653
849000 60.2096 185.518 55.7714 0.42445 -0.167715
849200 60.2096 185.531 55.7714 0.42455 -0.136422
849400 60.2096 185.544 55.7714 0.42465 -0.0925243
849600 60.2096 185.557 55.7714 0.42475 -0.0395035
849800 60.2096 185.57 55.7714 0.42485 0.0199979
850000 60.2096 185.583 55.7714 0.42495 0.0640877
850200 60.2096 185.596 55.7714 0.42505 0.137749
850400 60.2096 185.609 55.7714 0.42515 0.173802
850600 60.2096 185.622 55.7714 0.42525 0.190195
850800 60.2096 185.635 55.7714 0.42535 0.197201
851000 60.2096 185.648 55.7714 0.42545 0.183822
851200 60.2096 185.661 55.7714 0.42555 0.137768
851400 60.2096 185.674 55.7714 0.42565 0.0806566
851600 60.2096 185.687 55.7714 0.42575 0.0274112
851800 60.2096 185.7 55.7714 0.42585 -0.0358328
852000 60.2096 185.713 55.7714 0.42595 -0.0729076
852200 60.2096 185.726 55.7714 0.42605 -0.129774
852400 60.2096 185.739 55.7714 0.42615 -0.155688
852600 60.2096 185.752 55.7714 0.42625 -0.190725
852800 60.2096 185.765 55.7714 0.42635 -0.180808
853000 60.2096 185.779 55.7714 0.42645 -0.158898
853200 60.2096 185.792 55.7714 0.42655 -0.128961
853400 60.2096 185.805 55.7714 0.42665 -0.0864573
853600 60.2096 185.818 55.7714 0.42675 -0.0275367
853800 60.2096 185.831 55.7714 0.42685 0.0381222
854000 60.2096 185.844 55.7714 0.42695 0.0825955
854200 60.2096 185.857 55.7714 0.42705 0.137679
854400 60.2096 185.87 55.7714 0.42715 0.169078
854600 60.2096 185.883 55.7714 0.42725 0.185898
854800 60.2096 185.896 55.7714 0.42735 0.191583
855000 60.2096 185.909 55.7714 0.42745 0.159141
855200 60.2096 185.922 55.7714 0.42755 0.122975
855400 60.2096 185.935 55.7714 0.42765 0.0880782
855600 60.2096 185.948 55.7714 0.42775 -0.00293089
855800 60.2096 185.961 55.7714 0.42785 -0.0429988
856000 60.2096 185.974 55.7714 0.42795 -0.0817682
856200 60.2096 185.987 55.7714 0.42805 -0.136826
856400 60.2096 186 55.7714 0.42815 -0.161037
856600 60.2096 186.013 55.7714 0.42825 -0.172458
856800 60.2096 186.026 55.7714 0.42835 -0.17827
857000 60.2096 186.039 55.7714 0.42845 -0.161206
857200 60.2096 186.052 55.7714 0.42855 -0.111078
857400 60.2096 186.065 55.7714 0.42865 -0.063585
857600 60.2096 186.078 55.7714 0.42875 -0.00906492
857800 60.2096 186.091 55.7714 0.42885 0.0582054
858000 60.2096 186.104 55.7714 0.42895 0.0939963
858200 60.2096 186.117 55.7714 0.42905 0.139002
858400 60.2096 186.13 55.7714 0.42915 0.156771
858600 60.2096 186.143 55.7714 0.42925 0.186889
858800 60.2096 186.156 55.7714 0.42935 0.183817
859000 60.2096 186.169 55.7714 0.42945 0.153131
859200 60.2096 186.182 55.7714 0.42955 0.106809
859400 60.2096 186.195 55.7714 0.42965 0.0577684
859600 60.2096 186.208 55.7714 0.42975 0.00304447
859800 60.2096 186.221 55.7714 0.42985 -0.0384804
860000 60.2096 186.234 55.7714 0.42995 -0.12038
860200 60.2096 186.247 55.7714 0.43005 -0.142761
860400 60.2096 186.26 55.7714 0.43015 -0.167027
860600 60.2096 186.273 55.7714 0.43025 -0.165204
860800 60.2096 186.286 55.7714 0.43035 -0.15471
861000 60.2096 186.299 55.7714 0.43045 -0.139019
861200 60.2096 186.312 55.7714 0.43055 -0.105558
861400 60.2096 186.326 55.7714 0.43065 -0.0481814
861600 60.2096 186.339 55.7714 0.43075 0.00204054
861800 60.2096 186.352 55.7714 0.43085 0.0459983
862000 60.2096 186.365 55.7714 0.43095 0.0931251
862200 60.2096 186.378 55.7714 0.43105 0.162816
862400 60.2096 186.391 55.7714 0.43115 0.164335
862600 60.2096 186.404 55.7714 0.43125 0.172695
862800 60.2096 186.417 55.7714 0.43135 0.157768
863000 60.2096 186.43 55.7714 0.43145 0.140152
863200 60.2096 186.443 55.7714 0.43155 0.10555
863400 60.2096 186.456 55.7714 0.43165 0.0687683
863600 60.2096 186.469 55.7714 0.43175 -0.00961194
863800 60.2096 186.482 55.7714 0.43185 -0.0553414
864000 60.2096 186.495 55.7714 0.43195 -0.100982
864200 60.2096 186.508 55.7714 0.43205 -0.137171
864400 60.2096 186.521 55.7714 0.43215 -0.204077
864600 60.2096 186.534 55.7714 0.43225 -0.168111
864800 60.2096 186.547 55.7714 0.43235 -0.133953
865000 60.2096 186.56 55.7714 0.43245 -0.135908
865200 60.2096 186.573 55.7714 0.43255 -0.0856581
865400 60.2096 186.586 55.7714 0.43265 -0.0568705
865600 60.2096 186.599 55.7714 0.43275 -0.00493455
865800 60.2096 186.612 55.7714 0.43285 0.0733533
866000 60.2096 186.625 55.7714 0.43295 0.112453
866200 60.2096 186.638 55.7714 0.43305 0.155508
866400 60.2096 186.651 55.7714 0.43315 0.188591
866600 60.2096 186.664 55.7714 0.43325 0.17947
866800 60.2096 186.677 55.7714 0.43335 0.153967
867000 60.2096 186.69 55.7714 0.43345 0.129764
867200 60.2096 186.703 55.7714 0.43355 0.106647
867400 60.2096 186.716 55.7714 0.43365 0.0340833
867600 60.2096 186.729 55.7714 0.43375 -0.0191167
867800 60.2096 186.742 55.7714 0.43385 -0.060352
868000 60.2096 186.755 55.7714 0.43395 -0.129192
868200 60.2096 186.768 55.7714 0.43405 -0.134762
868400 60.2096 186.781 55.7714 0.43415 -0.183303
868600 60.2096 186.794 55.7714 0.43425 -0.18957
868800 60.2096 186.807 55.7714 0.43435 -0.17606
869000 60.2096 186.82 55.7714 0.43445 -0.121458
869200 60.2096 186.833 55.7714 0.43455 -0.0815408
869400 60.2096 186.846 55.7714 0.43465 -0.00935261
869600 60.2096 186.859 55.7714 0.43475 0.0305295
869800 60.2096 186.873 55.7714 0.43485 0.0627975
870000 60.2096 186.886 55.7714 0.43495 0.110978
870200 60.2096 186.899 55.7714 0.43505 0.174577
870400 60.2096 186.912 55.7714 0.43515 0.179946
870600 60.2096 186.925 55.7714 0.43525 0.190676
870800 60.2096 186.938 55.7714 0.43535 0.168168
871000 60.2096 186.951 55.7714 0.43545 0.15495
871200 60.2096 186.964 55.7714 0.43555 0.073835
871400 60.2096 186.977 55.7714 0.43565 -0.00496327
871600 60.2096 186.99 55.7714 0.43575 -0.0445105
871800 60.2096 187.003 55.7714 0.43585 -0.0903329
872000 60.2096 187.016 55.7714 0.43595 -0.129174
872200 60.2096 187.029 55.7714 0.43605 -0.146796
872400 60.2096 187.042 55.7714 0.43615 -0.151896
872600 60.2096 187.055 55.7714 0.43625 -0.183087
872800 60.2096 187.068 55.7714 0.43635 -0.179003
873000 60.2096 187.081 55.7714 0.43645 -0.11274
873200 60.2096 187.094 55.7714 0.43655 -0.0720208
873400 60.2096 187.107 55.7714 0.43665 -0.00361849
873600 60.2096 187.12 55.7714 0.43675 0.0346825
873800 60.2096 187.133 55.7714 0.43685 0.0917411
874000 60.2096 187.146 55.7714 0.43695 0.132901
874200 60.2096 187.159 55.7714 0.43705 0.163474
874400 60.2096 187.172 55.7714 0.43715 0.194162
874600 60.2096 187.185 55.7714 0.43725 0.149167
874800 60.2096 187.198 55.7714 0.43735 0.163852
875000 60.2096 187.211 55.7714 0.43745 0.125704
875200 60.2096 187.224 55.7714 0.43755 0.0801481
875400 60.2096 187.237 55.7714 0.43765 0.0049576
875600 60.2096 187.25 55.7714 0.43775 -0.0431744
875800 60.2096 187.263 55.7714 0.43785 -0.106329
876000 60.2096 187.276 55.7714 0.43795 -0.151536
876200 60.2096 187.289 55.7714 0.43805 -0.155511
876400 60.2096 187.302 55.7714 0.43815 -0.16021
876600 60.2096 187.315 55.7714 0.43825 -0.155884
876800 60.2096 187.328 55.7714 0.43835 -0.14122
877000 60.2096 187.341 55.7714 0.43845 -0.112658
877200 60.2096 187.354 55.7714 0.43855 -0.0782579
877400 60.2096 187.367 55.7714 0.43865 -0.024386
877600 60.2096 187.38 55.7714 0.43875 0.0559702
877800 60.2096 187.393 55.7714 0.43885 0.111267
878000 60.2096 187.406 55.7714 0.43895 0.142175
878200 60.2096 187.42 55.7714 0.43905 0.196808
878400 60.2096 187.433 55.7714 0.43915 0.171042
878600 60.2096 187.446 55.7714 0.43925 0.170557
878800 60.2096 187.459 55.7714 0.43935 0.144987
879000 60.2096 187.472 55.7714 0.43945 0.0878393
879200 60.2096 187.485 55.7714 0.43955 0.0842423
879400 60.2096 187.498 55.7714 0.43965 -0.0021723
879600 60.2096 187.511 55.7714 0.43975 -0.0498018
879800 60.2096 187.524 55.7714 0.43985 -0.12678
880000 60.2096 187.537 55.7714 0.43995 -0.15496
880200 60.2096 187.55 55.7714 0.44005 -0.181802
880400 60.2096 187.563 55.7714 0.44015 -0.15331
880600 60.2096 187.576 55.7714 0.44025 -0.154922
880800 60.2096 187.589 55.7714 0.44035 -0.133437
881000 60.2096 187.602 55.7714 0.44045 -0.0916511
881200 60.2096 187.615 55.7714 0.44055 -0.0452639
881400 60.2096 187.628 55.7714 0.44065 -0.00719561
881600 60.2096 187.641 55.7714 0.44075 0.0564561
881800 60.2096 187.654 55.7714 0.44085 0.126982
882000 60.2096 187.667 55.7714 0.44095 0.150134
882200 60.2096 187.68 55.7714 0.44105 0.186743
882400 60.2096 187.693 55.7714 0.44115 0.171515
882600 60.2096 187.706 55.7714 0.44125 0.167349
882800 60.2096 187.719 55.7714 0.44135 0.120558
883000 60.2096 187.732 55.7714 0.44145 0.0863132
883200 60.2096 187.745 55.7714 0.44155 0.0353732
883400 60.2096 187.758 55.7714 0.44165 -0.00367922
883600 60.2096 187.771 55.7714 0.44175 -0.049611
883800 60.2096 187.784 55.7714 0.44185 -0.108299
884000 60.2096 187.797 55.7714 0.44195 -0.157611
884200 60.2096 187.81 55.7714 0.44205 -0.174574
884400 60.2096 187.823 55.7714 0.44215 -0.180793
884600 60.2096 187.836 55.7714 0.44225 -0.146547
884800 60.2096 187.849 55.7714 0.44235 -0.120216
885000 60.2096 187.862 55.7714 0.44245 -0.0933244
885200 60.2096 187.875 55.7714 0.44255 -0.0189748
885400 60.2096 187.888 55.7714 0.44265 0.0154263
885600 60.2096 187.901 55.7714 0.44275 0.0542047
885800 60.2096 187.914 55.7714 0.44285 0.127451
886000 60.2096 187.927 55.7714 0.44295 0.160983
886200 60.2096 187.94 55.7714 0.44305 0.155119
886400 60.2096 187.953 55.7714 0.44315 0.18902
886600 60.2096 187.967 55.7714 0.44325 0.160377
886800 60.2096 187.98 55.7714 0.44335 0.124268
887000 60.2096 187.993 55.7714 0.44345 0.0835669
887200 60.2096 188.006 55.7714 0.44355 0.0372927
887400 60.2096 188.019 55.7714 0.44365 -0.0395912
887600 60.2096 188.032 55.7714 0.44375 -0.0834874
887800 60.2096 188.045 55.7714 0.44385 -0.0986437
888000 60.2096 188.058 55.7714 0.44395 -0.153802
888200 60.2096 188.071 55.7714 0.44405 -0.168846
888400 60.2096 188.084 55.7714 0.44415 -0.186083
888600 60.2096 188.097 55.7714 0.44425 -0.149141
888800 60.2096 188.11 55.7714 0.44435 -0.12611
889000 60.2096 188.123 55.7714 0.44445 -0.0660987
889200 60.2096 188.136 55.7714 0.44455 -0.0239863
889400 60.2096 188.149 55.7714 0.44465 0.0417315
889600 60.2096 188.162 55.7714 0.44475 0.0775728
889800 60.2096 188.175 55.7714 0.44485 0.113369
890000 60.2096 188.188 55.7714 0.44495 0.168025
890200 60.2096 188.201 55.7714 0.44505 0.165038
890400 60.2096 188.214 55.7714 0.44515 0.179418
890600 60.2096 188.227 55.7714 0.44525 0.182988
890800 60.2096 188.24 55.7714 0.44535 0.0974947
891000 60.2096 188.253 55.7714 0.44545 0.0947837
891200 60.2096 188.266 55.7714 0.44555 -0.00225252
891400 60.2096 188.279 55.7714 0.44565 -0.0502362
891600 60.2096 188.292 55.7714 0.44575 -0.0848132
891800 60.2096 188.305 55.7714 0.44585 -0.125281
892000 60.2096 188.318 55.7714 0.44595 -0.126863
892200 60.2096 188.331 55.7714 0.44605 -0.165402
892400 60.2096 188.344 55.7714 0.44615 -0.178729
892600 60.2096 188.357 55.7714 0.44625 -0.166719
892800 60.2096 188.37 55.7714 0.44635 -0.111607
893000 60.2096 188.383 55.7714 0.44645 -0.0653568
893200 60.2096 188.396 55.7714 0.44655 0.00153079
893400 60.2096 188.409 55.7714 0.44665 0.0578917
893600 60.2096 188.422 55.7714 0.44675 0.0830998
893800 60.2096 188.435 55.7714 0.44685 0.116874
894000 60.2096 188.448 55.7714 0.44695 0.167196
894200 60.2096 188.461 55.7714 0.44705 0.174847
894400 60.2096 188.474 55.7714 0.44715 0.188062
894600 60.2096 188.487 55.7714 0.44725 0.157196
894800 60.2096 188.5 55.7714 0.44735 0.0977954
895000 60.2096 188.514 55.7714 0.44745 0.0641792
895200 60.2096 188.527 55.7714 0.44755 -0.00211648
895400 60.2096 188.54 55.7714 0.44765 -0.0630363
895600 60.2096 188.553 55.7714 0.44775 -0.102838
895800 60.2096 188.566 55.7714 0.44785 -0.122642
896000 60.2096 188.579 55.7714 0.44795 -0.150721
896200 60.2096 188.592 55.7714 0.44805 -0.158827
896400 60.2096 188.605 55.7714 0.44815 -0.16228
896600 60.2096 188.618 55.7714 0.44825 -0.17522
896800 60.2096 188.631 55.7714 0.44835 -0.0961713
897000 60.2096 188.644 55.7714 0.44845 -0.0488861
897200 60.2096 188.657 55.7714 0.44855 0.0152024
897400 60.2096 188.67 55.7714 0.44865 0.050879
897600 60.2096 188.683 55.7714 0.44875 0.111568
897800 60.2096 188.696 55.7714 0.44885 0.130749
898000 60.2096 188.709 55.7714 0.44895 0.193791
898200 60.2096 188.722 55.7714 0.44905 0.143032
898400 60.2096 188.735 55.7714 0.44915 0.169247
898600 60.2096 188.748 55.7714 0.44925 0.144935
898800 60.2096 188.761 55.7714 0.44935 0.105712
899000 60.2096 188.774 55.7714 0.44945 0.0558146
899200 60.2096 188.787 55.7714 0.44955 -0.0173654
899400 60.2096 188.8 55.7714 0.44965 -0.0777071
899600 60.2096 188.813 55.7714 0.44975 -0.112926
899800 60.2096 188.826 55.7714 0.44985 -0.133049
900000 60.2096 188.839 55.7714 0.44995 -0.136281
900200 60.2096 188.852 55.7714 0.45005 -0.164799
900400 60.2096 188.865 55.7714 0.45015 -0.152074
900600 60.2096 188.878 55.7714 0.45025 -0.108509
900800 60.2096 188.891 55.7714 0.45035 -0.121622
901000 60.2096 188.904 55.7714 0.45045 -0.0489525
901200 60.2096 188.917 55.7714 0.45055 0.0131441
901400 60.2096 188.93 55.7714 0.45065 0.0691057
901600 60.2096 188.943 55.7714 0.45075 0.135288
901800 60.2096 188.956 55.7714 0.45085 0.137014
902000 60.2096 188.969 55.7714 0.45095 0.149993
902200 60.2096 188.982 55.7714 0.45105 0.153191
902400 60.2096 188.995 55.7714 0.45115 0.159045
902600 60.2096 189.008 55.7714 0.45125 0.122042
902800 60.2096 189.021 55.7714 0.45135 0.076328
903000 60.2096 189.034 55.7714 0.45145 0.0569095
903200 60.2096 189.047 55.7714 0.45155 -0.00494811
903400 60.2096 189.061 55.7714 0.45165 -0.0697025
903600 60.2096 189.074 55.7714 0.45175 -0.135064
903800 60.2096 189.087 55.7714 0.45185 -0.147052
904000 60.2096 189.1 55.7714 0.45195 -0.15823
904200 60.2096 189.113 55.7714 0.45205 -0.147216
904400 60.2096 189.126 55.7714 0.45215 -0.120008
904600 60.2096 189.139 55.7714 0.45225 -0.102744
904800 60.2096 189.152 55.7714 0.45235 -0.0791406
905000 60.2096 189.165 55.7714 0.45245 -0.0301094
905200 60.2096 189.178 55.7714 0.45255 0.0155436
905400 60.2096 189.191 55.7714 0.45265 0.0718638
905600 60.2096 189.204 55.7714 0.45275 0.104058
905800 60.2096 189.217 55.7714 0.45285 0.160858
906000 60.2096 189.23 55.7714 0.45295 0.154931
906200 60.2096 189.243 55.7714 0.45305 0.174577
906400 60.2096 189.256 55.7714 0.45315 0.114826
906600 60.2096 189.269 55.7714 0.45325 0.109009
906800 60.2096 189.282 55.7714 0.45335 0.0815496
907000 60.2096 189.295 55.7714 0.45345 0.012059
907200 60.2096 189.308 55.7714 0.45355 -0.0206421
907400 60.2096 189.321 55.7714 0.45365 -0.0747255
907600 60.2096 189.334 55.7714 0.45375 -0.102884
907800 60.2096 189.347 55.7714 0.45385 -0.140872
908000 60.2096 189.36 55.7714 0.45395 -0.160809
908200 60.2096 189.373 55.7714 0.45405 -0.156769
908400 60.2096 189.386 55.7714 0.45415 -0.133041
908600 60.2096 189.399 55.7714 0.45425 -0.0982101
908800 60.2096 189.412 55.7714 0.45435 -0.0472402
909000 60.2096 189.425 55.7714 0.45445 -0.0218756
909200 60.2096 189.438 55.7714 0.45455 0.0251163
909400 60.2096 189.451 55.7714 0.45465 0.0765132
909600 60.2096 189.464 55.7714 0.45475 0.108517
909800 60.2096 189.477 55.7714 0.45485 0.162958
910000 60.2096 189.49 55.7714 0.45495 0.160575
910200 60.2096 189.503 55.7714 0.45505 0.159181
910400 60.2096 189.516 55.7714 0.45515 0.125556
910600 60.2096 189.529 55.7714 0.45525 0.105682
910800 60.2096 189.542 55.7714 0.45535 0.0501534
911000 60.2096 189.555 55.7714 0.45545 0.0194298
911200 60.2096 189.568 55.7714 0.45555 -0.032331
911400 60.2096 189.581 55.7714 0.45565 -0.0799447
911600 60.2096 189.594 55.7714 0.45575 -0.116997
911800 60.2096 189.608 55.7714 0.45585 -0.140737
912000 60.2096 189.621 55.7714 0.45595 -0.178606
912200 60.2096 189.634 55.7714 0.45605 -0.148678
912400 60.2096 189.647 55.7714 0.45615 -0.130134
912600 60.2096 189.66 55.7714 0.45625 -0.0838701
912800 60.2096 189.673 55.7714 0.45635 -0.0609564
913000 60.2096 189.686 55.7714 0.45645 0.0098892
913200 60.2096 189.699 55.7714 0.45655 0.0436018
913400 60.2096 189.712 55.7714 0.45665 0.0798634
913600 60.2096 189.725 55.7714 0.45675 0.129265
913800 60.2096 189.738 55.7714 0.45685 0.160051
914000 60.2096 189.751 55.7714 0.45695 0.170925
914200 60.2096 189.764 55.7714 0.45705 0.149567
914400 60.2096 189.777 55.7714 0.45715 0.124654
914600 60.2096 189.79 55.7714 0.45725 0.0831276
914800 60.2096 189.803 55.7714 0.45735 0.0368027
915000 60.2096 189.816 55.7714 0.45745 0.00138503
915200 60.2096 189.829 55.7714 0.45755 -0.0468154
915400 60.2096 189.842 55.7714 0.45765 -0.0783597
915600 60.2096 189.855 55.7714 0.45775 -0.139498
915800 60.2096 189.868 55.7714 0.45785 -0.143019
916000 60.2096 189.881 55.7714 0.45795 -0.163883
916200 60.2096 189.894 55.7714 0.45805 -0.132991
916400 60.2096 189.907 55.7714 0.45815 -0.120887
916600 60.2096 189.92 55.7714 0.45825 -0.0793049
916800 60.2096 189.933 55.7714 0.45835 -0.0365784
917000 60.2096 189.946 55.7714 0.45845 0.0126558
917200 60.2096 189.959 55.7714 0.45855 0.0375271
917400 60.2096 189.972 55.7714 0.45865 0.117204
917600 60.2096 189.985 55.7714 0.45875 0.125666
917800 60.2096 189.998 55.7714 0.45885 0.150873
918000 60.2096 190.011 55.7714 0.45895 0.165971
918200 60.2096 190.024 55.7714 0.45905 0.158647
918400 60.2096 190.037 55.7714 0.45915 0.114583
918600 60.2096 190.05 55.7714 0.45925 0.0518022
918800 60.2096 190.063 55.7714 0.45935 0.0296697
919000 60.2096 190.076 55.7714 0.45945 -0.00947887
919200 60.2096 190.089 55.7714 0.45955 -0.0541226
919400 60.2096 190.102 55.7714 0.45965 -0.106042
919600 60.2096 190.115 55.7714 0.45975 -0.101972
919800 60.2096 190.128 55.7714 0.45985 -0.164074
920000 60.2096 190.141 55.7714 0.45995 -0.161768
920200 60.2096 190.155 55.7714 0.46005 -0.128096
920400 60.2096 190.168 55.7714 0.46015 -0.112799
920600 60.2096 190.181 55.7714 0.46025 -0.0700223
920800 60.2096 190.194 55.7714 0.46035 -0.0187111
921000 60.2096 190.207 55.7714 0.46045 0.0326715
921200 60.2096 190.22 55.7714 0.46055 0.0468589
921400 60.2096 190.233 55.7714 0.46065 0.0950234
921600 60.2096 190.246 55.7714 0.46075 0.14004
921800 60.2096 190.259 55.7714 0.46085 0.154034
922000 60.2096 190.272 55.7714 0.46095 0.167019
922200 60.2096 190.285 55.7714 0.46105 0.151595
922400 60.2096 190.298 55.7714 0.46115 0.103553
922600 60.2096 190.311 55.7714 0.46125 0.0696364
922800 60.2096 190.324 55.7714 0.46135 0.0293562
923000 60.2096 190.337 55.7714 0.46145 -0.0468447
923200 60.2096 190.35 55.7714 0.46155 -0.066347
923400 60.2096 190.363 55.7714 0.46165 -0.110729
923600 60.2096 190.376 55.7714 0.46175 -0.117006
923800 60.2096 190.389 55.7714 0.46185 -0.13085
924000 60.2096 190.402 55.7714 0.46195 -0.143786
924200 60.2096 190.415 55.7714 0.46205 -0.151442
924400 60.2096 190.428 55.7714 0.46215 -0.119327
924600 60.2096 190.441 55.7714 0.46225 -0.0714495
924800 60.2096 190.454 55.7714 0.46235 -0.0051512
925000 60.2096 190.467 55.7714 0.46245 0.04097
925200 60.2096 190.48 55.7714 0.46255 0.0747924
925400 60.2096 190.493 55.7714 0.46265 0.114076
925600 60.2096 190.506 55.7714 0.46275 0.130508
925800 60.2096 190.519 55.7714 0.46285 0.152146
926000 60.2096 190.532 55.7714 0.46295 0.147897
926200 60.2096 190.545 55.7714 0.46305 0.128125
926400 60.2096 190.558 55.7714 0.46315 0.108527
926600 60.2096 190.571 55.7714 0.46325 0.0789526
926800 60.2096 190.584 55.7714 0.46335 0.0132276
927000 60.2096 190.597 55.7714 0.46345 -0.0398557
927200 60.2096 190.61 55.7714 0.46355 -0.0907681
927400 60.2096 190.623 55.7714 0.46365 -0.105581
927600 60.2096 190.636 55.7714 0.46375 -0.139919
927800 60.2096 190.649 55.7714 0.46385 -0.109558
928000 60.2096 190.662 55.7714 0.46395 -0.14285
928200 60.2096 190.675 55.7714 0.46405 -0.12064
928400 60.2096 190.688 55.7714 0.46415 -0.121571
928600 60.2096 190.702 55.7714 0.46425 -0.0511568
928800 60.2096 190.715 55.7714 0.46435 -0.0165594
929000 60.2096 190.728 55.7714 0.46445 0.0434799
929200 60.2096 190.741 55.7714 0.46455 0.0718476
929400 60.2096 190.754 55.7714 0.46465 0.114603
929600 60.2096 190.767 55.7714 0.46475 0.143347
929800 60.2096 190.78 55.7714 0.46485 0.138931
930000 60.2096 190.793 55.7714 0.46495 0.1404
930200 60.2096 190.806 55.7714 0.46505 0.112961
930400 60.2096 190.819 55.7714 0.46515 0.114301
930600 60.2096 190.832 55.7714 0.46525 0.0539031
930800 60.2096 190.845 55.7714 0.46535 0.00680447
931000 60.2096 190.858 55.7714 0.46545 -0.0212674
931200 60.2096 190.871 55.7714 0.46555 -0.0860127
931400 60.2096 190.884 55.7714 0.46565 -0.103592
931600 60.2096 190.897 55.7714 0.46575 -0.138213
931800 60.2096 190.91 55.7714 0.46585 -0.147835
932000 60.2096 190.923 55.7714 0.46595 -0.129958
932200 60.2096 190.936 55.7714 0.46605 -0.103215
932400 60.2096 190.949 55.7714 0.46615 -0.0862313
932600 60.2096 190.962 55.7714 0.46625 -0.067045
932800 60.2096 190.975 55.7714 0.46635 0.000196092
933000 60.2096 190.988 55.7714 0.46645 0.0396789
933200 60.2096 191.001 55.7714 0.46655 0.0783995
933400 60.2096 191.014 55.7714 0.46665 0.122669
933600 60.2096 191.027 55.7714 0.46675 0.13102
933800 60.2096 191.04 55.7714 0.46685 0.130775
934000 60.2096 191.053 55.7714 0.46695 0.145093
934200 60.2096 191.066 55.7714 0.46705 0.120776
934400 60.2096 191.079 55.7714 0.46715 0.0926226
934600 60.2096 191.092 55.7714 0.46725 0.0416914
934800 60.2096 191.105 55.7714 0.46735 0.0148992
935000 60.2096 191.118 55.7714 0.46745 -0.0476684
935200 60.2096 191.131 55.7714 0.46755 -0.0818346
935400 60.2096 191.144 55.7714 0.46765 -0.110045
935600 60.2096 191.157 55.7714 0.46775 -0.13733
935800 60.2096 191.17 55.7714 0.46785 -0.139724
936000 60.2096 191.183 55.7714 0.46795 -0.123283
936200 60.2096 191.196 55.7714 0.46805 -0.110433
936400 60.2096 191.209 55.7714 0.46815 -0.0834997
936600 60.2096 191.222 55.7714 0.46825 -0.0450693
936800 60.2096 191.235 55.7714 0.46835 0.0093636
937000 60.2096 191.249 55.7714 0.46845 0.0416495
937200 60.2096 191.262 55.7714 0.46855 0.0919231
937400 60.2096 191.275 55.7714 0.46865 0.113384
937600 60.2096 191.288 55.7714 0.46875 0.139625
937800 60.2096 191.301 55.7714 0.46885 0.130449
938000 60.2096 191.314 55.7714 0.46895 0.136236
938200 60.2096 191.327 55.7714 0.46905 0.115469
938400 60.2096 191.34 55.7714 0.46915 0.0783515
938600 60.2096 191.353 55.7714 0.46925 0.0473016
938800 60.2096 191.366 55.7714 0.46935 -0.0221838
939000 60.2096 191.379 55.7714 0.46945 -0.0448402
939200 60.2096 191.392 55.7714 0.46955 -0.0765992
939400 60.2096 191.405 55.7714 0.46965 -0.107427
939600 60.2096 191.418 55.7714 0.46975 -0.133703
939800 60.2096 191.431 55.7714 0.46985 -0.140802
940000 60.2096 191.444 55.7714 0.46995 -0.125496
940200 60.2096 191.457 55.7714 0.47005 -0.107289
940400 60.2096 191.47 55.7714 0.47015 -0.068456
940600 60.2096 191.483 55.7714 0.47025 -0.0202587
940800 60.2096 191.496 55.7714 0.47035 0.00309355
941000 60.2096 191.509 55.7714 0.47045 0.061249
941200 60.2096 191.522 55.7714 0.47055 0.101618
941400 60.2096 191.535 55.7714 0.47065 0.120149
941600 60.2096 191.548 55.7714 0.47075 0.116958
941800 60.2096 191.561 55.7714 0.47085 0.132624
942000 60.2096 191.574 55.7714 0.47095 0.132635
942200 60.2096 191.587 55.7714 0.47105 0.103278
942400 60.2096 191.6 55.7714 0.47115 0.0635659
942600 60.2096 191.613 55.7714 0.47125 0.0298809
942800 60.2096 191.626 55.7714 0.47135 -0.0213906
943000 60.2096 191.639 55.7714 0.47145 -0.0666572
943200 60.2096 191.652 55.7714 0.47155 -0.0999242
943400 60.2096 191.665 55.7714 0.47165 -0.110587
943600 60.2096 191.678 55.7714 0.47175 -0.115205
943800 60.2096 191.691 55.7714 0.47185 -0.128276
944000 60.2096 191.704 55.7714 0.47195 -0.105813
944200 60.2096 191.717 55.7714 0.47205 -0.0873058
944400 60.2096 191.73 55.7714 0.47215 -0.0578024
944600 60.2096 191.743 55.7714 0.47225 -0.0116558
944800 60.2096 191.756 55.7714 0.47235 0.0172926
945000 60.2096 191.769 55.7714 0.47245 0.0530659
945200 60.2096 191.782 55.7714 0.47255 0.0998324
945400 60.2096 191.796 55.7714 0.47265 0.113111
945600 60.2096 191.809 55.7714 0.47275 0.135372
945800 60.2096 191.822 55.7714 0.47285 0.132605
946000 60.2096 191.835 55.7714 0.47295 0.107566
946200 60.2096 191.848 55.7714 0.47305 0.0749211
946400 60.2096 191.861 55.7714 0.47315 0.0602106
946600 60.2096 191.874 55.7714 0.47325 0.0253652
946800 60.2096 191.887 55.7714 0.47335 -0.0328547
947000 60.2096 191.9 55.7714 0.47345 -0.0488781
947200 60.2096 191.913 55.7714 0.47355 -0.0931432
947400 60.2096 191.926 55.7714 0.47365 -0.121986
947600 60.2096 191.939 55.7714 0.47375 -0.127281
947800 60.2096 191.952 55.7714 0.47385 -0.110729
948000 60.2096 191.965 55.7714 0.47395 -0.105834
948200 60.2096 191.978 55.7714 0.47405 -0.0825432
948400 60.2096 191.991 55.7714 0.47415 -0.051843
948600 60.2096 192.004 55.7714 0.47425 0.00258818
948800 60.2096 192.017 55.7714 0.47435 0.0205976
949000 60.2096 192.03 55.7714 0.47445 0.0613333
949200 60.2096 192.043 55.7714 0.47455 0.104461
949400 60.2096 192.056 55.7714 0.47465 0.142183
949600 60.2096 192.069 55.7714 0.47475 0.135632
949800 60.2096 192.082 55.7714 0.47485 0.100524
950000 60.2096 192.095 55.7714 0.47495 0.0952843
950200 60.2096 192.108 55.7714 0.47505 0.0768634
950400 60.2096 192.121 55.7714 0.47515 0.0440309
950600 60.2096 192.134 55.7714 0.47525 0.0116506
950800 60.2096 192.147 55.7714 0.47535 -0.0219972
951000 60.2096 192.16 55.7714 0.47545 -0.0781787
951200 60.2096 192.173 55.7714 0.47555 -0.0977302
951400 60.2096 192.186 55.7714 0.47565 -0.135023
951600 60.2096 192.199 55.7714 0.47575 -0.108287
951800 60.2096 192.212 55.7714 0.47585 -0.105782
952000 60.2096 192.225 55.7714 0.47595 -0.0979748
952200 60.2096 192.238 55.7714 0.47605 -0.0638805
952400 60.2096 192.251 55.7714 0.47615 -0.0418327
952600 60.2096 192.264 55.7714 0.47625 -0.0142546
952800 60.2096 192.277 55.7714 0.47635 0.0398242
953000 60.2096 192.29 55.7714 0.47645 0.0707814
953200 60.2096 192.303 55.7714 0.47655 0.10864
953400 60.2096 192.316 55.7714 0.47665 0.127521
953600 60.2096 192.329 55.7714 0.47675 0.120782
953800 60.2096 192.343 55.7714 0.47685 0.123163
954000 60.2096 192.356 55.7714 0.47695 0.10015
954200 60.2096 192.369 55.7714 0.47705 0.0804302
954400 60.2096 192.382 55.7714 0.47715 0.0249957
954600 60.2096 192.395 55.7714 0.47725 0.012039
954800 60.2096 192.408 55.7714 0.47735 -0.0188971
955000 60.2096 192.421 55.7714 0.47745 -0.0885547
955200 60.2096 192.434 55.7714 0.47755 -0.1136
955400 60.2096 192.447 55.7714 0.47765 -0.109894
955600 60.2096 192.46 55.7714 0.47775 -0.141498
955800 60.2096 192.473 55.7714 0.47785 -0.101217
956000 60.2096 192.486 55.7714 0.47795 -0.0928458
956200 60.2096 192.499 55.7714 0.47805 -0.0676454
956400 60.2096 192.512 55.7714 0.47815 -0.0132716
956600 60.2096 192.525 55.7714 0.47825 -0.00783874
956800 60.2096 192.538 55.7714 0.47835 0.0336924
957000 60.2096 192.551 55.7714 0.47845 0.069718
957200 60.2096 192.564 55.7714 0.47855 0.0941269
957400 60.2096 192.577 55.7714 0.47865 0.138294
957600 60.2096 192.59 55.7714 0.47875 0.140395
957800 60.2096 192.603 55.7714 0.47885 0.122958
958000 60.2096 192.616 55.7714 0.47895 0.0984645
958200 60.2096 192.629 55.7714 0.47905 0.0426926
958400 60.2096 192.642 55.7714 0.47915 0.043198
958600 60.2096 192.655 55.7714 0.47925 -0.0294482
958800 60.2096 192.668 55.7714 0.47935 -0.0346438
959000 60.2096 192.681 55.7714 0.47945 -0.0802688
959200 60.2096 192.694 55.7714 0.47955 -0.0670117
959400 60.2096 192.707 55.7714 0.47965 -0.137481
959600 60.2096 192.72 55.7714 0.47975 -0.140936
959800 60.2096 192.733 55.7714 0.47985 -0.112572
960000 60.2096 192.746 55.7714 0.47995 -0.0756572
960200 60.2096 192.759 55.7714 0.48005 -0.060377
960400 60.2096 192.772 55.7714 0.48015 -0.0177242
960600 60.2096 192.785 55.7714 0.48025 0.0238485
960800 60.2096 192.798 55.7714 0.48035 0.0650104
961000 60.2096 192.811 55.7714 0.48045 0.0771811
961200 60.2096 192.824 55.7714 0.48055 0.0933028
961400 60.2096 192.837 55.7714 0.48065 0.137941
961600 60.2096 192.85 55.7714 0.48075 0.135392
961800 60.2096 192.863 55.7714 0.48085 0.102221
962000 60.2096 192.876 55.7714 0.48095 0.0890965
962200 60.2096 192.89 55.7714 0.48105 0.0482755
962400 60.2096 192.903 55.7714 0.48115 0.0110748
962600 60.2096 192.916 55.7714 0.48125 -0.0159246
962800 60.2096 192.929 55.7714 0.48135 -0.0608812
963000 60.2096 192.942 55.7714 0.48145 -0.0732622
963200 60.2096 192.955 55.7714 0.48155 -0.110055
963400 60.2096 192.968 55.7714 0.48165 -0.121211
963600 60.2096 192.981 55.7714 0.48175 -0.117179
963800 60.2096 192.994 55.7714 0.48185 -0.109899
964000 60.2096 193.007 55.7714 0.48195 -0.0752609
964200 60.2096 193.02 55.7714 0.48205 -0.0564305
964400 60.2096 193.033 55.7714 0.48215 0.00271859
964600 60.2096 193.046 55.7714 0.48225 0.0572131
964800 60.2096 193.059 55.7714 0.48235 0.0454554
965000 60.2096 193.072 55.7714 0.48245 0.063099
965200 60.2096 193.085 55.7714 0.48255 0.126806
965400 60.2096 193.098 55.7714 0.48265 0.0988322
965600 60.2096 193.111 55.7714 0.48275 0.139625
965800 60.2096 193.124 55.7714 0.48285 0.108548
966000 60.2096 193.137 55.7714 0.48295 0.0824551
966200 60.2096 193.15 55.7714 0.48305 0.0388987
966400 60.2096 193.163 55.7714 0.48315 0.0219727
966600 60.2096 193.176 55.7714 0.48325 -0.0536189
966800 60.2096 193.189 55.7714 0.48335 -0.0608752
967000 60.2096 193.202 55.7714 0.48345 -0.0757591
967200 60.2096 193.215 55.7714 0.48355 -0.0823872
967400 60.2096 193.228 55.7714 0.48365 -0.127978
967600 60.2096 193.241 55.7714 0.48375 -0.13063
967800 60.2096 193.254 55.7714 0.48385 -0.10527
968000 60.2096 193.267 55.7714 0.48395 -0.0537552
968200 60.2096 193.28 55.7714 0.48405 -0.0527275
968400 60.2096 193.293 55.7714 0.48415 0.0158236
968600 60.2096 193.306 55.7714 0.48425 0.0360666
968800 60.2096 193.319 55.7714 0.48435 0.0564353
969000 60.2096 193.332 55.7714 0.48445 0.0654024
969200 60.2096 193.345 55.7714 0.48455 0.134582
969400 60.2096 193.358 55.7714 0.48465 0.108103
969600 60.2096 193.371 55.7714 0.48475 0.108002
969800 60.2096 193.384 55.7714 0.48485 0.111581
970000 60.2096 193.397 55.7714 0.48495 0.0964939
970200 60.2096 193.41 55.7714 0.48505 0.0358248
970400 60.2096 193.423 55.7714 0.48515 -0.0205173
970600 60.2096 193.437 55.7714 0.48525 -0.0235976
970800 60.2096 193.45 55.7714 0.48535 -0.0663655
971000 60.2096 193.463 55.7714 0.48545 -0.0769847
971200 60.2096 193.476 55.7714 0.48555 -0.09697
971400 60.2096 193.489 55.7714 0.48565 -0.115264
971600 60.2096 193.502 55.7714 0.48575 -0.107904
971800 60.2096 193.515 55.7714 0.48585 -0.105167
972000 60.2096 193.528 55.7714 0.48595 -0.0671744
972200 60.2096 193.541 55.7714 0.48605 -0.0290996
972400 60.2096 193.554 55.7714 0.48615 -0.00922403
972600 60.2096 193.567 55.7714 0.48625 0.0445805
972800 60.2096 193.58 55.7714 0.48635 0.0691099
973000 60.2096 193.593 55.7714 0.48645 0.0892088
973200 60.2096 193.606 55.7714 0.48655 0.104234
973400 60.2096 193.619 55.7714 0.48665 0.124457
973600 60.2096 193.632 55.7714 0.48675 0.102024
973800 60.2096 193.645 55.7714 0.48685 0.0939982
974000 60.2096 193.658 55.7714 0.48695 0.0787878
974200 60.2096 193.671 55.7714 0.48705 0.0368567
974400 60.2096 193.684 55.7714 0.48715 -0.00164369
974600 60.2096 193.697 55.7714 0.48725 -0.0261271
974800 60.2096 193.71 55.7714 0.48735 -0.0823494
975000 60.2096 193.723 55.7714 0.48745 -0.0999504
975200 60.2096 193.736 55.7714 0.48755 -0.0960817
975400 60.2096 193.749 55.7714 0.48765 -0.10215
975600 60.2096 193.762 55.7714 0.48775 -0.108795
975800 60.2096 193.775 55.7714 0.48785 -0.0882888
976000 60.2096 193.788 55.7714 0.48795 -0.0743275
976200 60.2096 193.801 55.7714 0.48805 -0.0333081
976400 60.2096 193.814 55.7714 0.48815 0.0100554
976600 60.2096 193.827 55.7714 0.48825 0.0419838
976800 60.2096 193.84 55.7714 0.48835 0.084844
977000 60.2096 193.853 55.7714 0.48845 0.10376
977200 60.2096 193.866 55.7714 0.48855 0.114332
977400 60.2096 193.879 55.7714 0.48865 0.115558
977600 60.2096 193.892 55.7714 0.48875 0.0943039
977800 60.2096 193.905 55.7714 0.48885 0.0900392
978000 60.2096 193.918 55.7714 0.48895 0.0707429
978200 60.2096 193.931 55.7714 0.48905 0.0301875
978400 60.2096 193.944 55.7714 0.48915 0.00575213
978600 60.2096 193.957 55.7714 0.48925 -0.0550365
978800 60.2096 193.97 55.7714 0.48935 -0.0661419
979000 60.2096 193.984 55.7714 0.48945 -0.107498
979200 60.2096 193.997 55.7714 0.48955 -0.113994
979400 60.2096 194.01 55.7714 0.48965 -0.109957
979600 60.2096 194.023 55.7714 0.48975 -0.0999334
979800 60.2096 194.036 55.7714 0.48985 -0.080215
980000 60.2096 194.049 55.7714 0.48995 -0.0595769
980200 60.2096 194.062 55.7714 0.49005 -0.0113216
980400 60.2096 194.075 55.7714 0.49015 0.0196462
980600 60.2096 194.088 55.7714 0.49025 0.0390835
980800 60.2096 194.101 55.7714 0.49035 0.0833305
981000 60.2096 194.114 55.7714 0.49045 0.100269
981200 60.2096 194.127 55.7714 0.49055 0.115658
981400 60.2096 194.14 55.7714 0.49065 0.10221
981600 60.2096 194.153 55.7714 0.49075 0.115155
981800 60.2096 194.166 55.7714 0.49085 0.0738691
982000 60.2096 194.179 55.7714 0.49095 0.0638366
982200 60.2096 194.192 55.7714 0.49105 0.0259464
982400 60.2096 194.205 55.7714 0.49115 -0.012701
982600 60.2096 194.218 55.7714 0.49125 -0.0578556
982800 60.2096 194.231 55.7714 0.49135 -0.0885507
983000 60.2096 194.244 55.7714 0.49145 -0.10851
983200 60.2096 194.257 55.7714 0.49155 -0.110174
983400 60.2096 194.27 55.7714 0.49165 -0.100345
983600 60.2096 194.283 55.7714 0.49175 -0.0810579
983800 60.2096 194.296 55.7714 0.49185 -0.0882713
984000 60.2096 194.309 55.7714 0.49195 -0.0535122
984200 60.2096 194.322 55.7714 0.49205 -0.0325286
984400 60.2096 194.335 55.7714 0.49215 0.0278675
984600 60.2096 194.348 55.7714 0.49225 0.094876
984800 60.2096 194.361 55.7714 0.49235 0.0774363
985000 60.2096 194.374 55.7714 0.49245 0.104053
985200 60.2096 194.387 55.7714 0.49255 0.122436
985400 60.2096 194.4 55.7714 0.49265 0.100952
985600 60.2096 194.413 55.7714 0.49275 0.110357
985800 60.2096 194.426 55.7714 0.49285 0.0684929
986000 60.2096 194.439 55.7714 0.49295 0.0466085
986200 60.2096 194.452 55.7714 0.49305 0.0200008
986400 60.2096 194.465 55.7714 0.49315 -0.0422076
986600 60.2096 194.478 55.7714 0.49325 -0.0671525
986800 60.2096 194.491 55.7714 0.49335 -0.0842465
987000 60.2096 194.504 55.7714 0.49345 -0.0993981
987200 60.2096 194.517 55.7714 0.49355 -0.0960585
987400 60.2096 194.531 55.7714 0.49365 -0.105953
987600 60.2096 194.544 55.7714 0.49375 -0.084178
987800 60.2096 194.557 55.7714 0.49385 -0.0788088
988000 60.2096 194.57 55.7714 0.49395 -0.0285533
988200 60.2096 194.583 55.7714 0.49405 -0.0268215
988400 60.2096 194.596 55.7714 0.49415 0.0328513
988600 60.2096 194.609 55.7714 0.49425 0.079977
988800 60.2096 194.622 55.7714 0.49435 0.10506
989000 60.2096 194.635 55.7714 0.49445 0.0944073
989200 60.2096 194.648 55.7714 0.49455 0.114988
989400 60.2096 194.661 55.7714 0.49465 0.0938682
989600 60.2096 194.674 55.7714 0.49475 0.0885589
989800 60.2096 194.687 55.7714 0.49485 0.0681046
990000 60.2096 194.7 55.7714 0.49495 0.0432472
990200 60.2096 194.713 55.7714 0.49505 0.0145139
990400 60.2096 194.726 55.7714 0.49515 -0.0348189
990600 60.2096 194.739 55.7714 0.49525 -0.0708464
990800 60.2096 194.752 55.7714 0.49535 -0.100322
991000 60.2096 194.765 55.7714 0.49545 -0.0963574
991200 60.2096 194.778 55.7714 0.49555 -0.094791
991400 60.2096 194.791 55.7714 0.49565 -0.0853412
991600 60.2096 194.804 55.7714 0.49575 -0.0797332
991800 60.2096 194.817 55.7714 0.49585 -0.0738408
992000 60.2096 194.83 55.7714 0.49595 -0.0413875
992200 60.2096 194.843 55.7714 0.49605 0.00630562
992400 60.2096 194.856 55.7714 0.49615 0.00404012
992600 60.2096 194.869 55.7714 0.49625 0.0847575
992800 60.2096 194.882 55.7714 0.49635 0.106148
993000 60.2096 194.895 55.7714 0.49645 0.117051
993200 60.2096 194.908 55.7714 0.49655 0.115857
993400 60.2096 194.921 55.7714 0.49665 0.0813684
993600 60.2096 194.934 55.7714 0.49675 0.0707775
993800 60.2096 194.947 55.7714 0.49685 0.071226
994000 60.2096 194.96 55.7714 0.49695 0.0329226
994200 60.2096 194.973 55.7714 0.49705 0.00709211
994400 60.2096 194.986 55.7714 0.49715 -0.025936
994600 60.2096 194.999 55.7714 0.49725 -0.0621887
994800 60.2096 195.012 55.7714 0.49735 -0.0907525
995000 60.2096 195.025 55.7714 0.49745 -0.121071
995200 60.2096 195.038 55.7714 0.49755 -0.109098
995400 60.2096 195.051 55.7714 0.49765 -0.0974333
995600 60.2096 195.064 55.7714 0.49775 -0.0626229
995800 60.2096 195.078 55.7714 0.49785 -0.0435373
996000 60.2096 195.091 55.7714 0.49795 -0.0272305
996200 60.2096 195.104 55.7714 0.49805 0.000195155
996400 60.2096 195.117 55.7714 0.49815 0.0356967
996600 60.2096 195.13 55.7714 0.49825 0.0615248
996800 60.2096 195.143 55.7714 0.49835 0.109601
997000 60.2096 195.156 55.7714 0.49845 0.109026
997200 60.2096 195.169 55.7714 0.49855 0.124668
997400 60.2096 195.182 55.7714 0.49865 0.0840776
997600 60.2096 195.195 55.7714 0.49875 0.0864549
997800 60.2096 195.208 55.7714 0.49885 0.0421744
998000 60.2096 195.221 55.7714 0.49895 0.0179843
998200 60.2096 195.234 55.7714 0.49905 -0.00505992
998400 60.2096 195.247 55.7714 0.49915 -0.0324894
998600 60.2096 195.26 55.7714 0.49925 -0.0642726
998800 60.2096 195.273 55.7714 0.49935 -0.100484
999000 60.2096 195.286 55.7714 0.49945 -0.11293
999200 60.2096 195.299 55.7714 0.49955 -0.107658
999400 60.2096 195.312 55.7714 0.49965 -0.108414
999600 60.2096 195.325 55.7714 0.49975 -0.0613734
999800 60.2096 195.338 55.7714 0.49985 -0.042425
1000000 60.2096 195.351 55.7714 0.49995 -0.0115388
1000200 60.2096 195.364 55.7714 0.50005 0.0105929
1000400 60.2096 195.377 55.7714 0.50015 0.0567194
1000600 60.2096 195.39 55.7714 0.50025 0.0761492
1000800 60.2096 195.403 55.7714 0.50035 0.116148
1001000 60.2096 195.416 55.7714 0.50045 0.102009
1001200 60.2096 195.429 55.7714 0.50055 0.103452
1001400 60.2096 195.442 55.7714 0.50065 0.112166
1001600 60.2096 195.455 55.7714 0.50075 0.0868031
1001800 60.2096 195.468 55.7714 0.50085 0.0265158
1002000 60.2096 195.481 55.7714 0.50095 0.0126966
1002200 60.2096 195.494 55.7714 0.50105 -0.0231367
1002400 60.2096 195.507 55.7714 0.50115 -0.0763419
1002600 60.2096 195.52 55.7714 0.50125 -0.0705076
1002800 60.2096 195.533 55.7714 0.50135 -0.111692
1003000 60.2096 195.546 55.7714 0.50145 -0.0790599
1003200 60.2096 195.559 55.7714 0.50155 -0.0938964
1003400 60.2096 195.572 55.7714 0.50165 -0.0965345
1003600 60.2096 195.585 55.7714 0.50175 -0.0641051
1003800 60.2096 195.598 55.7714 0.50185 -0.0498295
1004000 60.2096 195.611 55.7714 0.50195 -0.0116359
1004200 60.2096 195.625 55.7714 0.50205 0.0315966
1004400 60.2096 195.638 55.7714 0.50215 0.0858008
1004600 60.2096 195.651 55.7714 0.50225 0.0930834
1004800 60.2096 195.664 55.7714 0.50235 0.104882
1005000 60.2096 195.677 55.7714 0.50245 0.0975408
1005200 60.2096 195.69 55.7714 0.50255 0.106198
1005400 60.2096 195.703 55.7714 0.50265 0.0788075
1005600 60.2096 195.716 55.7714 0.50275 0.0476259
1005800 60.2096 195.729 55.7714 0.50285 0.053827
1006000 60.2096 195.742 55.7714 0.50295 0.00992444
1006200 60.2096 195.755 55.7714 0.50305 -0.0261591
1006400 60.2096 195.768 55.7714 0.50315 -0.0770209
1006600 60.2096 195.781 55.7714 0.50325 -0.0923734
1006800 60.2096 195.794 55.7714 0.50335 -0.0998226
1007000 60.2096 195.807 55.7714 0.50345 -0.106158
1007200 60.2096 195.82 55.7714 0.50355 -0.0753021
1007400 60.2096 195.833 55.7714 0.50365 -0.0804569
1007600 60.2096 195.846 55.7714 0.50375 -0.0584089
1007800 60.2096 195.859 55.7714 0.50385 -0.0321383
1008000 60.2096 195.872 55.7714 0.50395 -0.0122617
1008200 60.2096 195.885 55.7714 0.50405 0.0391864
1008400 60.2096 195.898 55.7714 0.50415 0.07039
1008600 60.2096 195.911 55.7714 0.50425 0.0945886
1008800 60.2096 195.924 55.7714 0.50435 0.112722
1009000 60.2096 195.937 55.7714 0.50445 0.113989
1009200 60.2096 195.95 55.7714 0.50455 0.0762211
1009400 60.2096 195.963 55.7714 0.50465 0.0818713
1009600 60.2096 195.976 55.7714 0.50475 0.0576951
1009800 60.2096 195.989 55.7714 0.50485 0.051491
1010000 60.2096 196.002 55.7714 0.50495 -0.00823261
1010200 60.2096 196.015 55.7714 0.50505 -0.0183146
1010400 60.2096 196.028 55.7714 0.50515 -0.0841936
1010600 60.2096 196.041 55.7714 0.50525 -0.0822916
1010800 60.2096 196.054 55.7714 0.50535 -0.122459
1011000 60.2096 196.067 55.7714 0.50545 -0.108648
1011200 60.2096 196.08 55.7714 0.50555 -0.0748311
1011400 60.2096 196.093 55.7714 0.50565 -0.0700991
1011600 60.2096 196.106 55.7714 0.50575 -0.0507955
1011800 60.2096 196.119 55.7714 0.50585 -0.0326267
1012000 60.2096 196.132 55.7714 0.50595 0.000731345
1012200 60.2096 196.145 55.7714 0.50605 0.0467945
1012400 60.2096 196.158 55.7714 0.50615 0.0788817
1012600 60.2096 196.172 55.7714 0.50625 0.095607
1012800 60.2096 196.185 55.7714 0.50635 0.113773
1013000 60.2096 196.198 55.7714 0.50645 0.11598
1013200 60.2096 196.211 55.7714 0.50655 0.0941556
1013400 60.2096 196.224 55.7714 0.50665 0.0591866
1013600 60.2096 196.237 55.7714 0.50675 0.03827
1013800 60.2096 196.25 55.7714 0.50685 0.012431
1014000 60.2096 196.263 55.7714 0.50695 0.0153051
1014200 60.2096 196.276 55.7714 0.50705 -0.0558895
1014400 60.2096 196.289 55.7714 0.50715 -0.0552148
1014600 60.2096 196.302 55.7714 0.50725 -0.0859263
1014800 60.2096 196.315 55.7714 0.50735 -0.108322
1015000 60.2096 196.328 55.7714 0.50745 -0.105299
1015200 60.2096 196.341 55.7714 0.50755 -0.0856756
1015400 60.2096 196.354 55.7714 0.50765 -0.0624586
1015600 60.2096 196.367 55.7714 0.50775 -0.0316267
1015800 60.2096 196.38 55.7714 0.50785 0.0015976
1016000 60.2096 196.393 55.7714 0.50795 0.00168282
1016200 60.2096 196.406 55.7714 0.50805 0.0193484
1016400 60.2096 196.419 55.7714 0.50815 0.0772686
1016600 60.2096 196.432 55.7714 0.50825 0.0997757
1016800 60.2096 196.445 55.7714 0.50835 0.125456
1017000 60.2096 196.458 55.7714 0.50845 0.0844648
1017200 60.2096 196.471 55.7714 0.50855 0.0979064
1017400 60.2096 196.484 55.7714 0.50865 0.0795929
1017600 60.2096 196.497 55.7714 0.50875 0.0292247
1017800 60.2096 196.51 55.7714 0.50885 -0.00757909
1018000 60.2096 196.523 55.7714 0.50895 -0.0213043
1018200 60.2096 196.536 55.7714 0.50905 -0.0431951
1018400 60.2096 196.549 55.7714 0.50915 -0.0601199
1018600 60.2096 196.562 55.7714 0.50925 -0.0835248
1018800 60.2096 196.575 55.7714 0.50935 -0.0876661
1019000 60.2096 196.588 55.7714 0.50945 -0.103076
1019200 60.2096 196.601 55.7714 0.50955 -0.114925
1019400 60.2096 196.614 55.7714 0.50965 -0.048312
1019600 60.2096 196.627 55.7714 0.50975 -0.0180873
1019800 60.2096 196.64 55.7714 0.50985 -0.00268165
1020000 60.2096 196.653 55.7714 0.50995 0.0331789
1020200 60.2096 196.666 55.7714 0.51005 0.0488793
1020400 60.2096 196.679 55.7714 0.51015 0.0731406
1020600 60.2096 196.692 55.7714 0.51025 0.0893338
1020800 60.2096 196.706 55.7714 0.51035 0.0996475
1021000 60.2096 196.719 55.7714 0.51045 0.113666
1021200 60.2096 196.732 55.7714 0.51055 0.0891398
1021400 60.2096 196.745 55.7714 0.51065 0.0525966
1021600 60.2096 196.758 55.7714 0.51075 0.0400237
1021800 60.2096 196.771 55.7714 0.51085 0.000105218
1022000 60.2096 196.784 55.7714 0.51095 -0.0463543
1022200 60.2096 196.797 55.7714 0.51105 -0.0700243
1022400 60.2096 196.81 55.7714 0.51115 -0.0309363
1022600 60.2096 196.823 55.7714 0.51125 -0.106906
1022800 60.2096 196.836 55.7714 0.51135 -0.095323
1023000 60.2096 196.849 55.7714 0.51145 -0.114516
1023200 60.2096 196.862 55.7714 0.51155 -0.0844858
1023400 60.2096 196.875 55.7714 0.51165 -0.053806
1023600 60.2096 196.888 55.7714 0.51175 -0.0169057
1023800 60.2096 196.901 55.7714 0.51185 0.00973868
1024000 60.2096 196.914 55.7714 0.51195 0.0384163
1024200 60.2096 196.927 55.7714 0.51205 0.0626569
1024400 60.2096 196.94 55.7714 0.51215 0.0937116
1024600 60.2096 196.953 55.7714 0.51225 0.0883111
1024800 60.2096 196.966 55.7714 0.51235 0.0976631
1025000 60.2096 196.979 55.7714 0.51245 0.107498
1025200 60.2096 196.992 55.7714 0.51255 0.0884771
1025400 60.2096 197.005 55.7714 0.51265 0.0641408
1025600 60.2096 197.018 55.7714 0.51275 0.0215551
1025800 60.2096 197.031 55.7714 0.51285 -0.0167677
1026000 60.2096 197.044 55.7714 0.51295 -0.0302364
1026200 60.2096 197.057 55.7714 0.51305 -0.0662078
1026400 60.2096 197.07 55.7714 0.51315 -0.100277
1026600 60.2096 197.083 55.7714 0.51325 -0.0845865
1026800 60.2096 197.096 55.7714 0.51335 -0.0863993
1027000 60.2096 197.109 55.7714 0.51345 -0.0895118
1027200 60.2096 197.122 55.7714 0.51355 -0.0865375
1027400 60.2096 197.135 55.7714 0.51365 -0.0738752
1027600 60.2096 197.148 55.7714 0.51375 -0.0103487
1027800 60.2096 197.161 55.7714 0.51385 0.0135356
1028000 60.2096 197.174 55.7714 0.51395 0.055097
1028200 60.2096 197.187 55.7714 0.51405 0.0722249
1028400 60.2096 197.2 55.7714 0.51415 0.104158
1028600 60.2096 197.213 55.7714 0.51425 0.0836126
1028800 60.2096 197.226 55.7714 0.51435 0.096547
1029000 60.2096 197.239 55.7714 0.51445 0.108674
1029200 60.2096 197.253 55.7714 0.51455 0.0704316
1029400 60.2096 197.266 55.7714 0.51465 0.0591185
1029600 60.2096 197.279 55.7714 0.51475 0.0266381
1029800 60.2096 197.292 55.7714 0.51485 -0.0146657
1030000 60.2096 197.305 55.7714 0.51495 -0.0637215
1030200 60.2096 197.318 55.7714 0.51505 -0.0804074
1030400 60.2096 197.331 55.7714 0.51515 -0.101627
1030600 60.2096 197.344 55.7714 0.51525 -0.109208
1030800 60.2096 197.357 55.7714 0.51535 -0.082877
1031000 60.2096 197.37 55.7714 0.51545 -0.053398
1031200 60.2096 197.383 55.7714 0.51555 -0.0722047
1031400 60.2096 197.396 55.7714 0.51565 -0.033068
1031600 60.2096 197.409 55.7714 0.51575 -0.0114572
1031800 60.2096 197.422 55.7714 0.51585 0.00317285
1032000 60.2096 197.435 55.7714 0.51595 0.0606962
1032200 60.2096 197.448 55.7714 0.51605 0.0911012
1032400 60.2096 197.461 55.7714 0.51615 0.115456
1032600 60.2096 197.474 55.7714 0.51625 0.110187
1032800 60.2096 197.487 55.7714 0.51635 0.0653571
1033000 60.2096 197.5 55.7714 0.51645 0.0893294
1033200 60.2096 197.513 55.7714 0.51655 0.0483656
1033400 60.2096 197.526 55.7714 0.51665 0.0271729
1033600 60.2096 197.539 55.7714 0.51675 0.0216668
1033800 60.2096 197.552 55.7714 0.51685 -0.0269504
1034000 60.2096 197.565 55.7714 0.51695 -0.0466102
1034200 60.2096 197.578 55.7714 0.51705 -0.0900925
1034400 60.2096 197.591 55.7714 0.51715 -0.0939421
1034600 60.2096 197.604 55.7714 0.51725 -0.102997
1034800 60.2096 197.617 55.7714 0.51735 -0.0781925
1035000 60.2096 197.63 55.7714 0.51745 -0.0779231
1035200 60.2096 197.643 55.7714 0.51755 -0.0557827
1035400 60.2096 197.656 55.7714 0.51765 -0.00666842
1035600 60.2096 197.669 55.7714 0.51775 -0.00764814
1035800 60.2096 197.682 55.7714 0.51785 0.0448574
1036000 60.2096 197.695 55.7714 0.51795 0.0538473
1036200 60.2096 197.708 55.7714 0.51805 0.0744614
1036400 60.2096 197.721 55.7714 0.51815 0.107897
1036600 60.2096 197.734 55.7714 0.51825 0.106125
1036800 60.2096 197.747 55.7714 0.51835 0.0800417
1037000 60.2096 197.76 55.7714 0.51845 0.0804366
1037200 60.2096 197.773 55.7714 0.51855 0.0569157
1037400 60.2096 197.786 55.7714 0.51865 0.0375671
1037600 60.2096 197.8 55.7714 0.51875 -0.0308169
1037800 60.2096 197.813 55.7714 0.51885 -0.0301274
1038000 60.2096 197.826 55.7714 0.51895 -0.0798039
1038200 60.2096 197.839 55.7714 0.51905 -0.0625394
1038400 60.2096 197.852 55.7714 0.51915 -0.0869917
1038600 60.2096 197.865 55.7714 0.51925 -0.0840557
1038800 60.2096 197.878 55.7714 0.51935 -0.103165
1039000 60.2096 197.891 55.7714 0.51945 -0.0643146
1039200 60.2096 197.904 55.7714 0.51955 -0.0546097
1039400 60.2096 197.917 55.7714 0.51965 -0.019633
1039600 60.2096 197.93 55.7714 0.51975 0.0194951
1039800 60.2096 197.943 55.7714 0.51985 0.0563444
1040000 60.2096 197.956 55.7714 0.51995 0.0773422
1040200 60.2096 197.969 55.7714 0.52005 0.0801923
1040400 60.2096 197.982 55.7714 0.52015 0.0757151
1040600 60.2096 197.995 55.7714 0.52025 0.0937355
1040800 60.2096 198.008 55.7714 0.52035 0.0910524
1041000 60.2096 198.021 55.7714 0.52045 0.0962477
1041200 60.2096 198.034 55.7714 0.52055 0.0477321
1041400 60.2096 198.047 55.7714 0.52065 0.0131611
1041600 60.2096 198.06 55.7714 0.52075 -0.0356046
1041800 60.2096 198.073 55.7714 0.52085 -0.0526128
1042000 60.2096 198.086 55.7714 0.52095 -0.0702413
1042200 60.2096 198.099 55.7714 0.52105 -0.0779454
1042400 60.2096 198.112 55.7714 0.52115 -0.0823536
1042600 60.2096 198.125 55.7714 0.52125 -0.0777291
1042800 60.2096 198.138 55.7714 0.52135 -0.09115
1043000 60.2096 198.151 55.7714 0.52145 -0.0629661
1043200 60.2096 198.164 55.7714 0.52155 -0.04894
1043400 60.2096 198.177 55.7714 0.52165 -0.0211721
1043600 60.2096 198.19 55.7714 0.52175 0.0436809
1043800 60.2096 198.203 55.7714 0.52185 0.0571346
1044000 60.2096 198.216 55.7714 0.52195 0.100106
1044200 60.2096 198.229 55.7714 0.52205 0.077492
1044400 60.2096 198.242 55.7714 0.52215 0.0790399
1044600 60.2096 198.255 55.7714 0.52225 0.0806075
1044800 60.2096 198.268 55.7714 0.52235 0.0851776
1045000 60.2096 198.281 55.7714 0.52245 0.0665734
1045200 60.2096 198.294 55.7714 0.52255 0.0599827
1045400 60.2096 198.307 55.7714 0.52265 0.00563898
1045600 60.2096 198.32 55.7714 0.52275 -0.00832891
1045800 60.2096 198.333 55.7714 0.52285 -0.075277
1046000 60.2096 198.347 55.7714 0.52295 -0.0894317
1046200 60.2096 198.36 55.7714 0.52305 -0.0714954
1046400 60.2096 198.373 55.7714 0.52315 -0.0893615
1046600 60.2096 198.386 55.7714 0.52325 -0.0817381
1046800 60.2096 198.399 55.7714 0.52335 -0.0738838
1047000 60.2096 198.412 55.7714 0.52345 -0.0458198
1047200 60.2096 198.425 55.7714 0.52355 -0.0521349
1047400 60.2096 198.438 55.7714 0.52365 0.0104547
1047600 60.2096 198.451 55.7714 0.52375 0.0232445
1047800 60.2096 198.464 55.7714 0.52385 0.0602029
1048000 60.2096 198.477 55.7714 0.52395 0.0659517
1048200 60.2096 198.49 55.7714 0.52405 0.0900867
1048400 60.2096 198.503 55.7714 0.52415 0.087698
1048600 60.2096 198.516 55.7714 0.52425 0.088297
1048800 60.2096 198.529 55.7714 0.52435 0.0782519
1049000 60.2096 198.542 55.7714 0.52445 0.0652984
1049200 60.2096 198.555 55.7714 0.52455 0.0375776
1049400 60.2096 198.568 55.7714 0.52465 0.0131731
1049600 60.2096 198.581 55.7714 0.52475 -0.0295191
1049800 60.2096 198.594 55.7714 0.52485 -0.0480262
1050000 60.2096 198.607 55.7714 0.52495 -0.0771701
1050200 60.2096 198.62 55.7714 0.52505 -0.086321
1050400 60.2096 198.633 55.7714 0.52515 -0.0788626
1050600 60.2096 198.646 55.7714 0.52525 -0.0987444
1050800 60.2096 198.659 55.7714 0.52535 -0.0638742
1051000 60.2096 198.672 55.7714 0.52545 -0.0570481
1051200 60.2096 198.685 55.7714 0.52555 -0.0287905
1051400 60.2096 198.698 55.7714 0.52565 -0.0164059
1051600 60.2096 198.711 55.7714 0.52575 0.0293351
1051800 60.2096 198.724 55.7714 0.52585 0.0610069
1052000 60.2096 198.737 55.7714 0.52595 0.0982747
1052200 60.2096 198.75 55.7714 0.52605 0.096343
1052400 60.2096 198.763 55.7714 0.52615 0.0867506
1052600 60.2096 198.776 55.7714 0.52625 0.0843326
1052800 60.2096 198.789 55.7714 0.52635 0.0797544
1053000 60.2096 198.802 55.7714 0.52645 0.0407874
1053200 60.2096 198.815 55.7714 0.52655 0.0432646
1053400 60.2096 198.828 55.7714 0.52665 -0.00370656
1053600 60.2096 198.841 55.7714 0.52675 -0.0305761
1053800 60.2096 198.854 55.7714 0.52685 -0.0590982
1054000 60.2096 198.867 55.7714 0.52695 -0.0631099
1054200 60.2096 198.88 55.7714 0.52705 -0.0874046
1054400 60.2096 198.894 55.7714 0.52715 -0.0974549
1054600 60.2096 198.907 55.7714 0.52725 -0.0670865
1054800 60.2096 198.92 55.7714 0.52735 -0.0810502
1055000 60.2096 198.933 55.7714 0.52745 -0.0493663
1055200 60.2096 198.946 55.7714 0.52755 -0.0357769
1055400 60.2096 198.959 55.7714 0.52765 0.0207234
1055600 60.2096 198.972 55.7714 0.52775 0.0410337
1055800 60.2096 198.985 55.7714 0.52785 0.057291
1056000 60.2096 198.998 55.7714 0.52795 0.0821686
1056200 60.2096 199.011 55.7714 0.52805 0.0901948
1056400 60.2096 199.024 55.7714 0.52815 0.0892073
1056600 60.2096 199.037 55.7714 0.52825 0.0732552
1056800 60.2096 199.05 55.7714 0.52835 0.0813888
1057000 60.2096 199.063 55.7714 0.52845 0.0539523
1057200 60.2096 199.076 55.7714 0.52855 0.0189986
1057400 60.2096 199.089 55.7714 0.52865 0.00737747
1057600 60.2096 199.102 55.7714 0.52875 -0.0388746
1057800 60.2096 199.115 55.7714 0.52885 -0.0567184
1058000 60.2096 199.128 55.7714 0.52895 -0.0789995
1058200 60.2096 199.141 55.7714 0.52905 -0.0927232
1058400 60.2096 199.154 55.7714 0.52915 -0.0832998
1058600 60.2096 199.167 55.7714 0.52925 -0.0679015
1058800 60.2096 199.18 55.7714 0.52935 -0.0846152
1059000 60.2096 199.193 55.7714 0.52945 -0.0338244
1059200 60.2096 199.206 55.7714 0.52955 -0.00663338
1059400 60.2096 199.219 55.7714 0.52965 0.00641667
1059600 60.2096 199.232 55.7714 0.52975 0.0382563
1059800 60.2096 199.245 55.7714 0.52985 0.052836
1060000 60.2096 199.258 55.7714 0.52995 0.079603
1060200 60.2096 199.271 55.7714 0.53005 0.108317
1060400 60.2096 199.284 55.7714 0.53015 0.0927265
1060600 60.2096 199.297 55.7714 0.53025 0.069595
1060800 60.2096 199.31 55.7714 0.53035 0.0793942
1061000 60.2096 199.323 55.7714 0.53045 0.0350884
1061200 60.2096 199.336 55.7714 0.53055 -2.70116e-05
1061400 60.2096 199.349 55.7714 0.53065 -0.00976372
1061600 60.2096 199.362 55.7714 0.53075 -0.00951654
1061800 60.2096 199.375 55.7714 0.53085 -0.0427235
1062000 60.2096 199.388 55.7714 0.53095 -0.0813956
1062200 60.2096 199.401 55.7714 0.53105 -0.107295
1062400 60.2096 199.414 55.7714 0.53115 -0.102589
1062600 60.2096 199.427 55.7714 0.53125 -0.0735696
1062800 60.2096 199.441 55.7714 0.53135 -0.0446415
1063000 60.2096 199.454 55.7714 0.53145 -0.0175991
1063200 60.2096 199.467 55.7714 0.53155 -0.025446
1063400 60.2096 199.48 55.7714 0.53165 0.00743856
1063600 60.2096 199.493 55.7714 0.53175 0.0292131
1063800 60.2096 199.506 55.7714 0.53185 0.0612875
1064000 60.2096 199.519 55.7714 0.53195 0.0905711
1064200 60.2096 199.532 55.7714 0.53205 0.0891913
1064400 60.2096 199.545 55.7714 0.53215 0.119536
1064600 60.2096 199.558 55.7714 0.53225 0.0809969
1064800 60.2096 199.571 55.7714 0.53235 0.0602903
1065000 60.2096 199.584 55.7714 0.53245 0.0360658
1065200 60.2096 199.597 55.7714 0.53255 -0.00743099
1065400 60.2096 199.61 55.7714 0.53265 -0.0160819
1065600 60.2096 199.623 55.7714 0.53275 -0.0333613
1065800 60.2096 199.636 55.7714 0.53285 -0.0493341
1066000 60.2096 199.649 55.7714 0.53295 -0.0861937
1066200 60.2096 199.662 55.7714 0.53305 -0.082793
1066400 60.2096 199.675 55.7714 0.53315 -0.0915144
1066600 60.2096 199.688 55.7714 0.53325 -0.0890776
1066800 60.2096 199.701 55.7714 0.53335 -0.069287
1067000 60.2096 199.714 55.7714 0.53345 -0.024048
1067200 60.2096 199.727 55.7714 0.53355 0.0172305
1067400 60.2096 199.74 55.7714 0.53365 0.0524998
1067600 60.2096 199.753 55.7714 0.53375 0.0210813
1067800 60.2096 199.766 55.7714 0.53385 0.065288
1068000 60.2096 199.779 55.7714 0.53395 0.0925989
1068200 60.2096 199.792 55.7714 0.53405 0.0839882
1068400 60.2096 199.805 55.7714 0.53415 0.0895068
1068600 60.2096 199.818 55.7714 0.53425 0.0888985
1068800 60.2096 199.831 55.7714 0.53435 0.0601166
1069000 60.2096 199.844 55.7714 0.53445 0.0432598
1069200 60.2096 199.857 55.7714 0.53455 -0.011036
1069400 60.2096 199.87 55.7714 0.53465 -0.0373364
1069600 60.2096 199.883 55.7714 0.53475 -0.0716231
1069800 60.2096 199.896 55.7714 0.53485 -0.0626881
1070000 60.2096 199.909 55.7714 0.53495 -0.0451959
1070200 60.2096 199.922 55.7714 0.53505 -0.101641
1070400 60.2096 199.935 55.7714 0.53515 -0.0700757
1070600 60.2096 199.948 55.7714 0.53525 -0.085774
1070800 60.2096 199.961 55.7714 0.53535 -0.06478
1071000 60.2096 199.974 55.7714 0.53545 -0.0052284
1071200 60.2096 199.988 55.7714 0.53555 0.0266681
1071400 60.2096 200.001 55.7714 0.53565 0.0492172
1071600 60.2096 200.014 55.7714 0.53575 0.0438188
1071800 60.2096 200.027 55.7714 0.53585 0.0643982
1072000 60.2096 200.04 55.7714 0.53595 0.078297
1072200 60.2096 200.053 55.7714 0.53605 0.0817612
1072400 60.2096 200.066 55.7714 0.53615 0.081074
1072600 60.2096 200.079 55.7714 0.53625 0.0904963
1072800 60.2096 200.092 55.7714 0.53635 0.0517834
1073000 60.2096 200.105 55.7714 0.53645 0.0166892
1073200 60.2096 200.118 55.7714 0.53655 -0.0394618
1073400 60.2096 200.131 55.7714 0.53665 -0.0206575
1073600 60.2096 200.144 55.7714 0.53675 -0.0456177
1073800 60.2096 200.157 55.7714 0.53685 -0.0629976
1074000 60.2096 200.17 55.7714 0.53695 -0.0648165
1074200 60.2096 200.183 55.7714 0.53705 -0.0696101
1074400 60.2096 200.196 55.7714 0.53715 -0.0843597
1074600 60.2096 200.209 55.7714 0.53725 -0.063262
1074800 60.2096 200.222 55.7714 0.53735 -0.0553608
1075000 60.2096 200.235 55.7714 0.53745 -0.00191473
1075200 60.2096 200.248 55.7714 0.53755 0.00518426
1075400 60.2096 200.261 55.7714 0.53765 0.0336569
1075600 60.2096 200.274 55.7714 0.53775 0.046971
1075800 60.2096 200.287 55.7714 0.53785 0.0692368
1076000 60.2096 200.3 55.7714 0.53795 0.0772716
1076200 60.2096 200.313 55.7714 0.53805 0.0648644
1076400 60.2096 200.326 55.7714 0.53815 0.084318
1076600 60.2096 200.339 55.7714 0.53825 0.0651379
1076800 60.2096 200.352 55.7714 0.53835 0.0543813
1077000 60.2096 200.365 55.7714 0.53845 0.0196009
1077200 60.2096 200.378 55.7714 0.53855 -0.00331649
1077400 60.2096 200.391 55.7714 0.53865 -0.0360742
1077600 60.2096 200.404 55.7714 0.53875 -0.0326888
1077800 60.2096 200.417 55.7714 0.53885 -0.068526
1078000 60.2096 200.43 55.7714 0.53895 -0.0533258
1078200 60.2096 200.443 55.7714 0.53905 -0.0576446
1078400 60.2096 200.456 55.7714 0.53915 -0.061826
1078600 60.2096 200.469 55.7714 0.53925 -0.0638019
1078800 60.2096 200.482 55.7714 0.53935 -0.0542008
1079000 60.2096 200.495 55.7714 0.53945 -0.0282771
1079200 60.2096 200.508 55.7714 0.53955 0.0128567
1079400 60.2096 200.521 55.7714 0.53965 0.0256455
1079600 60.2096 200.535 55.7714 0.53975 0.0531993
1079800 60.2096 200.548 55.7714 0.53985 0.0741311
1080000 60.2096 200.561 55.7714 0.53995 0.0629986
1080200 60.2096 200.574 55.7714 0.54005 0.0645616
1080400 60.2096 200.587 55.7714 0.54015 0.0669202
1080600 60.2096 200.6 55.7714 0.54025 0.0627979
1080800 60.2096 200.613 55.7714 0.54035 0.0497365
1081000 60.2096 200.626 55.7714 0.54045 0.0451448
1081200 60.2096 200.639 55.7714 0.54055 -0.0109838
1081400 60.2096 200.652 55.7714 0.54065 -0.0367793
1081600 60.2096 200.665 55.7714 0.54075 -0.0723034
1081800 60.2096 200.678 55.7714 0.54085 -0.0650797
1082000 60.2096 200.691 55.7714 0.54095 -0.0515851
1082200 60.2096 200.704 55.7714 0.54105 -0.0471865
1082400 60.2096 200.717 55.7714 0.54115 -0.0630704
1082600 60.2096 200.73 55.7714 0.54125 -0.0736543
1082800 60.2096 200.743 55.7714 0.54135 -0.0461537
1083000 60.2096 200.756 55.7714 0.54145 -0.0135715
1083200 60.2096 200.769 55.7714 0.54155 0.0178163
1083400 60.2096 200.782 55.7714 0.54165 0.0519438
1083600 60.2096 200.795 55.7714 0.54175 0.0632943
1083800 60.2096 200.808 55.7714 0.54185 0.0774795
1084000 60.2096 200.821 55.7714 0.54195 0.0775575
1084200 60.2096 200.834 55.7714 0.54205 0.0601546
1084400 60.2096 200.847 55.7714 0.54215 0.0527773
1084600 60.2096 200.86 55.7714 0.54225 0.0624408
1084800 60.2096 200.873 55.7714 0.54235 0.0502174
1085000 60.2096 200.886 55.7714 0.54245 0.0140188
1085200 60.2096 200.899 55.7714 0.54255 -0.0308769
1085400 60.2096 200.912 55.7714 0.54265 -0.0359221
1085600 60.2096 200.925 55.7714 0.54275 -0.0570757
1085800 60.2096 200.938 55.7714 0.54285 -0.0750357
1086000 60.2096 200.951 55.7714 0.54295 -0.0810018
1086200 60.2096 200.964 55.7714 0.54305 -0.0513388
1086400 60.2096 200.977 55.7714 0.54315 -0.0449846
1086600 60.2096 200.99 55.7714 0.54325 -0.0347027
1086800 60.2096 201.003 55.7714 0.54335 -0.0266418
1087000 60.2096 201.016 55.7714 0.54345 -0.0120861
1087200 60.2096 201.029 55.7714 0.54355 0.00966228
1087400 60.2096 201.042 55.7714 0.54365 0.0538371
1087600 60.2096 201.055 55.7714 0.54375 0.0620395
1087800 60.2096 201.068 55.7714 0.54385 0.0708923
1088000 60.2096 201.082 55.7714 0.54395 0.086986
1088200 60.2096 201.095 55.7714 0.54405 0.0609881
1088400 60.2096 201.108 55.7714 0.54415 0.0424416
1088600 60.2096 201.121 55.7714 0.54425 0.0424886
1088800 60.2096 201.134 55.7714 0.54435 0.00596197
1089000 60.2096 201.147 55.7714 0.54445 0.0220534
1089200 60.2096 201.16 55.7714 0.54455 0.00634947
1089400 60.2096 201.173 55.7714 0.54465 -0.0515755
1089600 60.2096 201.186 55.7714 0.54475 -0.065481
1089800 60.2096 201.199 55.7714 0.54485 -0.0600044
1090000 60.2096 201.212 55.7714 0.54495 -0.076193
1090200 60.2096 201.225 55.7714 0.54505 -0.0649151
1090400 60.2096 201.238 55.7714 0.54515 -0.0380969
1090600 60.2096 201.251 55.7714 0.54525 -0.0307208
1090800 60.2096 201.264 55.7714 0.54535 -0.0164042
1091000 60.2096 201.277 55.7714 0.54545 -9.83141e-05
1091200 60.2096 201.29 55.7714 0.54555 0.0228454
1091400 60.2096 201.303 55.7714 0.54565 0.0443065
1091600 60.2096 201.316 55.7714 0.54575 0.0746298
1091800 60.2096 201.329 55.7714 0.54585 0.0605934
1092000 60.2096 201.342 55.7714 0.54595 0.0711871
1092200 60.2096 201.355 55.7714 0.54605 0.0804997
1092400 60.2096 201.368 55.7714 0.54615 0.0313954
1092600 60.2096 201.381 55.7714 0.54625 0.0439768
1092800 60.2096 201.394 55.7714 0.54635 0.0139476
1093000 60.2096 201.407 55.7714 0.54645 0.000129236
1093200 60.2096 201.42 55.7714 0.54655 -0.0192556
1093400 60.2096 201.433 55.7714 0.54665 -0.0455511
1093600 60.2096 201.446 55.7714 0.54675 -0.0619312
1093800 60.2096 201.459 55.7714 0.54685 -0.0736987
1094000 60.2096 201.472 55.7714 0.54695 -0.0565607
1094200 60.2096 201.485 55.7714 0.54705 -0.0679493
1094400 60.2096 201.498 55.7714 0.54715 -0.0425518
1094600 60.2096 201.511 55.7714 0.54725 -0.0160081
1094800 60.2096 201.524 55.7714 0.54735 -0.00613331
1095000 60.2096 201.537 55.7714 0.54745 -0.00107345
1095200 60.2096 201.55 55.7714 0.54755 0.0338539
1095400 60.2096 201.563 55.7714 0.54765 0.0519345
1095600 60.2096 201.576 55.7714 0.54775 0.0617878
1095800 60.2096 201.589 55.7714 0.54785 0.0753091
1096000 60.2096 201.602 55.7714 0.54795 0.0578444
1096200 60.2096 201.615 55.7714 0.54805 0.0599341
1096400 60.2096 201.629 55.7714 0.54815 0.0615432
1096600 60.2096 201.642 55.7714 0.54825 0.0216004
1096800 60.2096 201.655 55.7714 0.54835 0.00680503
1097000 60.2096 201.668 55.7714 0.54845 -0.0176889
1097200 60.2096 201.681 55.7714 0.54855 -0.0323244
1097400 60.2096 201.694 55.7714 0.54865 -0.0274432
1097600 60.2096 201.707 55.7714 0.54875 -0.0592007
1097800 60.2096 201.72 55.7714 0.54885 -0.0662697
1098000 60.2096 201.733 55.7714 0.54895 -0.0487365
1098200 60.2096 201.746 55.7714 0.54905 -0.0456173
1098400 60.2096 201.759 55.7714 0.54915 -0.0565065
1098600 60.2096 201.772 55.7714 0.54925 -0.0157244
1098800 60.2096 201.785 55.7714 0.54935 -0.0127324
1099000 60.2096 201.798 55.7714 0.54945 0.016397
1099200 60.2096 201.811 55.7714 0.54955 0.0206635
1099400 60.2096 201.824 55.7714 0.54965 0.0709057
1099600 60.2096 201.837 55.7714 0.54975 0.0608405
1099800 60.2096 201.85 55.7714 0.54985 0.0534839
1100000 60.2096 201.863 55.7714 0.54995 0.0574994
1100200 60.2096 201.876 55.7714 0.55005 0.0638118
1100400 60.2096 201.889 55.7714 0.55015 0.0562051
1100600 60.2096 201.902 55.7714 0.55025 0.0100128
1100800 60.2096 201.915 55.7714 0.55035 0.0222181
1101000 60.2096 201.928 55.7714 0.55045 -0.00411887
1101200 60.2096 201.941 55.7714 0.55055 -0.0529517
1101400 60.2096 201.954 55.7714 0.55065 -0.0467598
1101600 60.2096 201.967 55.7714 0.55075 -0.0646262
1101800 60.2096 201.98 55.7714 0.55085 -0.0624852
1102000 60.2096 201.993 55.7714 0.55095 -0.0429044
1102200 60.2096 202.006 55.7714 0.55105 -0.038682
1102400 60.2096 202.019 55.7714 0.55115 -0.0361408
1102600 60.2096 202.032 55.7714 0.55125 -0.0231041
1102800 60.2096 202.045 55.7714 0.55135 0.00853202
1103000 60.2096 202.058 55.7714 0.55145 0.0137522
1103200 60.2096 202.071 55.7714 0.55155 0.0273314
1103400 60.2096 202.084 55.7714 0.55165 0.0622534
1103600 60.2096 202.097 55.7714 0.55175 0.0573241
1103800 60.2096 202.11 55.7714 0.55185 0.079351
1104000 60.2096 202.123 55.7714 0.55195 0.0746308
1104200 60.2096 202.136 55.7714 0.55205 0.0266962
1104400 60.2096 202.149 55.7714 0.55215 0.0157963
1104600 60.2096 202.162 55.7714 0.55225 0.0177376
1104800 60.2096 202.176 55.7714 0.55235 0.00390677
1105000 60.2096 202.189 55.7714 0.55245 -0.0141809
1105200 60.2096 202.202 55.7714 0.55255 -0.0229348
1105400 60.2096 202.215 55.7714 0.55265 -0.0476569
1105600 60.2096 202.228 55.7714 0.55275 -0.067887
1105800 60.2096 202.241 55.7714 0.55285 -0.0617759
1106000 60.2096 202.254 55.7714 0.55295 -0.0525717
1106200 60.2096 202.267 55.7714 0.55305 -0.0371962
1106400 60.2096 202.28 55.7714 0.55315 -0.0225872
1106600 60.2096 202.293 55.7714 0.55325 0.00871076
1106800 60.2096 202.306 55.7714 0.55335 0.0101387
1107000 60.2096 202.319 55.7714 0.55345 0.0199598
1107200 60.2096 202.332 55.7714 0.55355 0.0352797
1107400 60.2096 202.345 55.7714 0.55365 0.0481689
1107600 60.2096 202.358 55.7714 0.55375 0.0483092
1107800 60.2096 202.371 55.7714 0.55385 0.0944934
1108000 60.2096 202.384 55.7714 0.55395 0.0411261
1108200 60.2096 202.397 55.7714 0.55405 0.035337
1108400 60.2096 202.41 55.7714 0.55415 0.0375727
1108600 60.2096 202.423 55.7714 0.55425 0.00304235
1108800 60.2096 202.436 55.7714 0.55435 -0.0318679
1109000 60.2096 202.449 55.7714 0.55445 0.00189092
1109200 60.2096 202.462 55.7714 0.55455 -0.0326883
1109400 60.2096 202.475 55.7714 0.55465 -0.0463312
1109600 60.2096 202.488 55.7714 0.55475 -0.0668753
1109800 60.2096 202.501 55.7714 0.55485 -0.0622587
1110000 60.2096 202.514 55.7714 0.55495 -0.0399459
1110200 60.2096 202.527 55.7714 0.55505 -0.0415666
1110400 60.2096 202.54 55.7714 0.55515 -0.0212945
1110600 60.2096 202.553 55.7714 0.55525 -0.00727079
1110800 60.2096 202.566 55.7714 0.55535 0.0211391
1111000 60.2096 202.579 55.7714 0.55545 0.0312812
1111200 60.2096 202.592 55.7714 0.55555 0.0562703
1111400 60.2096 202.605 55.7714 0.55565 0.0421802
1111600 60.2096 202.618 55.7714 0.55575 0.0518765
1111800 60.2096 202.631 55.7714 0.55585 0.0702933
1112000 60.2096 202.644 55.7714 0.55595 0.0566143
1112200 60.2096 202.657 55.7714 0.55605 0.0391721
1112400 60.2096 202.67 55.7714 0.55615 0.0321429
1112600 60.2096 202.683 55.7714 0.55625 0.00578669
1112800 60.2096 202.696 55.7714 0.55635 -0.0136019
1113000 60.2096 202.709 55.7714 0.55645 -0.0352811
1113200 60.2096 202.723 55.7714 0.55655 -0.0418408
1113400 60.2096 202.736 55.7714 0.55665 -0.051079
1113600 60.2096 202.749 55.7714 0.55675 -0.0507046
1113800 60.2096 202.762 55.7714 0.55685 -0.0421178
1114000 60.2096 202.775 55.7714 0.55695 -0.0611783
1114200 60.2096 202.788 55.7714 0.55705 -0.0530808
1114400 60.2096 202.801 55.7714 0.55715 -0.00760011
1114600 60.2096 202.814 55.7714 0.55725 0.00323434
1114800 60.2096 202.827 55.7714 0.55735 0.00979549
1115000 60.2096 202.84 55.7714 0.55745 0.026979
1115200 60.2096 202.853 55.7714 0.55755 0.0501381
1115400 60.2096 202.866 55.7714 0.55765 0.0630531
1115600 60.2096 202.879 55.7714 0.55775 0.0676005
1115800 60.2096 202.892 55.7714 0.55785 0.0607142
1116000 60.2096 202.905 55.7714 0.55795 0.0359308
1116200 60.2096 202.918 55.7714 0.55805 0.0530366
1116400 60.2096 202.931 55.7714 0.55815 0.034075
1116600 60.2096 202.944 55.7714 0.55825 0.00412297
1116800 60.2096 202.957 55.7714 0.55835 -0.0405202
1117000 60.2096 202.97 55.7714 0.55845 -0.0259362
1117200 60.2096 202.983 55.7714 0.55855 -0.0328148
1117400 60.2096 202.996 55.7714 0.55865 -0.0565788
1117600 60.2096 203.009 55.7714 0.55875 -0.0662745
1117800 60.2096 203.022 55.7714 0.55885 -0.041049
1118000 60.2096 203.035 55.7714 0.55895 -0.0425388
1118200 60.2096 203.048 55.7714 0.55905 -0.0248588
1118400 60.2096 203.061 55.7714 0.55915 -0.0132542
1118600 60.2096 203.074 55.7714 0.55925 -0.0174884
1118800 60.2096 203.087 55.7714 0.55935 0.0315681
1119000 60.2096 203.1 55.7714 0.55945 0.0477322
1119200 60.2096 203.113 55.7714 0.55955 0.0447978
1119400 60.2096 203.126 55.7714 0.55965 0.0676141
1119600 60.2096 203.139 55.7714 0.55975 0.0702137
1119800 60.2096 203.152 55.7714 0.55985 0.0625669
1120000 60.2096 203.165 55.7714 0.55995 0.0283881
1120200 60.2096 203.178 55.7714 0.56005 0.0228976
1120400 60.2096 203.191 55.7714 0.56015 0.00880666
1120600 60.2096 203.204 55.7714 0.56025 0.00306504
1120800 60.2096 203.217 55.7714 0.56035 -0.0275265
1121000 60.2096 203.23 55.7714 0.56045 -0.0275267
1121200 60.2096 203.243 55.7714 0.56055 -0.0486065
1121400 60.2096 203.256 55.7714 0.56065 -0.0713954
1121600 60.2096 203.27 55.7714 0.56075 -0.0585873
1121800 60.2096 203.283 55.7714 0.56085 -0.0483447
1122000 60.2096 203.296 55.7714 0.56095 -0.0476233
1122200 60.2096 203.309 55.7714 0.56105 -0.00807176
1122400 60.2096 203.322 55.7714 0.56115 -0.00292472
1122600 60.2096 203.335 55.7714 0.56125 0.0269706
1122800 60.2096 203.348 55.7714 0.56135 0.0124018
1123000 60.2096 203.361 55.7714 0.56145 0.0454044
1123200 60.2096 203.374 55.7714 0.56155 0.0590021
1123400 60.2096 203.387 55.7714 0.56165 0.0648992
1123600 60.2096 203.4 55.7714 0.56175 0.0809986
1123800 60.2096 203.413 55.7714 0.56185 0.0657232
1124000 60.2096 203.426 55.7714 0.56195 0.0223963
1124200 60.2096 203.439 55.7714 0.56205 0.0258595
1124400 60.2096 203.452 55.7714 0.56215 0.00713872
1124600 60.2096 203.465 55.7714 0.56225 -0.0115208
1124800 60.2096 203.478 55.7714 0.56235 -0.0276618
1125000 60.2096 203.491 55.7714 0.56245 -0.0455518
1125200 60.2096 203.504 55.7714 0.56255 -0.0586761
1125400 60.2096 203.517 55.7714 0.56265 -0.0541863
1125600 60.2096 203.53 55.7714 0.56275 -0.0369407
1125800 60.2096 203.543 55.7714 0.56285 -0.0723174
1126000 60.2096 203.556 55.7714 0.56295 -0.0396773
1126200 60.2096 203.569 55.7714 0.56305 -0.0238148
1126400 60.2096 203.582 55.7714 0.56315 -0.0133473
1126600 60.2096 203.595 55.7714 0.56325 0.0118995
1126800 60.2096 203.608 55.7714 0.56335 0.0339746
1127000 60.2096 203.621 55.7714 0.56345 0.0603608
1127200 60.2096 203.634 55.7714 0.56355 0.0677086
1127400 60.2096 203.647 55.7714 0.56365 0.0786205
1127600 60.2096 203.66 55.7714 0.56375 0.0686625
1127800 60.2096 203.673 55.7714 0.56385 0.0519387
1128000 60.2096 203.686 55.7714 0.56395 0.0434841
1128200 60.2096 203.699 55.7714 0.56405 0.0262443
1128400 60.2096 203.712 55.7714 0.56415 0.0129434
1128600 60.2096 203.725 55.7714 0.56425 -0.0232125
1128800 60.2096 203.738 55.7714 0.56435 -0.0380714
1129000 60.2096 203.751 55.7714 0.56445 -0.051208
1129200 60.2096 203.764 55.7714 0.56455 -0.0688295
1129400 60.2096 203.777 55.7714 0.56465 -0.0596341
1129600 60.2096 203.79 55.7714 0.56475 -0.0559278
1129800 60.2096 203.803 55.7714 0.56485 -0.0656002
1130000 60.2096 203.817 55.7714 0.56495 -0.0229829
1130200 60.2096 203.83 55.7714 0.56505 -0.0190399
1130400 60.2096 203.843 55.7714 0.56515 0.00712693
1130600 60.2096 203.856 55.7714 0.56525 0.00763747
1130800 60.2096 203.869 55.7714 0.56535 0.0452894
1131000 60.2096 203.882 55.7714 0.56545 0.0637989
1131200 60.2096 203.895 55.7714 0.56555 0.0870869
1131400 60.2096 203.908 55.7714 0.56565 0.0714226
1131600 60.2096 203.921 55.7714 0.56575 0.0626089
1131800 60.2096 203.934 55.7714 0.56585 0.0312665
1132000 60.2096 203.947 55.7714 0.56595 0.0487292
1132200 60.2096 203.96 55.7714 0.56605 0.023192
1132400 60.2096 203.973 55.7714 0.56615 0.00147217
1132600 60.2096 203.986 55.7714 0.56625 -0.0201522
1132800 60.2096 203.999 55.7714 0.56635 -0.0438183
1133000 60.2096 204.012 55.7714 0.56645 -0.0577145
1133200 60.2096 204.025 55.7714 0.56655 -0.0614912
1133400 60.2096 204.038 55.7714 0.56665 -0.083466
1133600 60.2096 204.051 55.7714 0.56675 -0.0533764
1133800 60.2096 204.064 55.7714 0.56685 -0.0348924
1134000 60.2096 204.077 55.7714 0.56695 -0.0222368
1134200 60.2096 204.09 55.7714 0.56705 -0.00331776
1134400 60.2096 204.103 55.7714 0.56715 -0.0096449
1134600 60.2096 204.116 55.7714 0.56725 0.0338699
1134800 60.2096 204.129 55.7714 0.56735 0.0376738
1135000 60.2096 204.142 55.7714 0.56745 0.0735657
1135200 60.2096 204.155 55.7714 0.56755 0.0542024
1135400 60.2096 204.168 55.7714 0.56765 0.0797791
1135600 60.2096 204.181 55.7714 0.56775 0.0727216
1135800 60.2096 204.194 55.7714 0.56785 0.0437994
1136000 60.2096 204.207 55.7714 0.56795 0.0281022
1136200 60.2096 204.22 55.7714 0.56805 0.00396476
1136400 60.2096 204.233 55.7714 0.56815 -0.0190411
1136600 60.2096 204.246 55.7714 0.56825 -0.0230174
1136800 60.2096 204.259 55.7714 0.56835 -0.0413506
1137000 60.2096 204.272 55.7714 0.56845 -0.0368182
1137200 60.2096 204.285 55.7714 0.56855 -0.0579366
1137400 60.2096 204.298 55.7714 0.56865 -0.0675286
1137600 60.2096 204.311 55.7714 0.56875 -0.0768682
1137800 60.2096 204.324 55.7714 0.56885 -0.0384721
1138000 60.2096 204.337 55.7714 0.56895 -0.0170882
1138200 60.2096 204.35 55.7714 0.56905 0.0194036
1138400 60.2096 204.364 55.7714 0.56915 0.0297635
1138600 60.2096 204.377 55.7714 0.56925 0.0141955
1138800 60.2096 204.39 55.7714 0.56935 0.0406638
1139000 60.2096 204.403 55.7714 0.56945 0.058902
1139200 60.2096 204.416 55.7714 0.56955 0.0625509
1139400 60.2096 204.429 55.7714 0.56965 0.0714602
1139600 60.2096 204.442 55.7714 0.56975 0.0622252
1139800 60.2096 204.455 55.7714 0.56985 0.0370099
1140000 60.2096 204.468 55.7714 0.56995 0.0355236
1140200 60.2096 204.481 55.7714 0.57005 0.00674123
1140400 60.2096 204.494 55.7714 0.57015 -0.0367674
1140600 60.2096 204.507 55.7714 0.57025 -0.0412888
1140800 60.2096 204.52 55.7714 0.57035 -0.0446541
1141000 60.2096 204.533 55.7714 0.57045 -0.04678
1141200 60.2096 204.546 55.7714 0.57055 -0.0482445
1141400 60.2096 204.559 55.7714 0.57065 -0.041802
1141600 60.2096 204.572 55.7714 0.57075 -0.0626187
1141800 60.2096 204.585 55.7714 0.57085 -0.0401171
1142000 60.2096 204.598 55.7714 0.57095 -0.00973803
1142200 60.2096 204.611 55.7714 0.57105 -0.00695094
1142400 60.2096 204.624 55.7714 0.57115 0.0339845
1142600 60.2096 204.637 55.7714 0.57125 0.0434176
1142800 60.2096 204.65 55.7714 0.57135 0.0541278
1143000 60.2096 204.663 55.7714 0.57145 0.0579267
1143200 60.2096 204.676 55.7714 0.57155 0.0666314
1143400 60.2096 204.689 55.7714 0.57165 0.0326729
1143600 60.2096 204.702 55.7714 0.57175 0.0480445
1143800 60.2096 204.715 55.7714 0.57185 0.0565229
1144000 60.2096 204.728 55.7714 0.57195 0.0214242
1144200 60.2096 204.741 55.7714 0.57205 -0.00332617
1144400 60.2096 204.754 55.7714 0.57215 -0.0337647
1144600 60.2096 204.767 55.7714 0.57225 -0.0485936
1144800 60.2096 204.78 55.7714 0.57235 -0.0486843
1145000 60.2096 204.793 55.7714 0.57245 -0.0344676
1145200 60.2096 204.806 55.7714 0.57255 -0.0387865
1145400 60.2096 204.819 55.7714 0.57265 -0.0298007
1145600 60.2096 204.832 55.7714 0.57275 -0.0449804
1145800 60.2096 204.845 55.7714 0.57285 -0.0325625
1146000 60.2096 204.858 55.7714 0.57295 -0.0182033
1146200 60.2096 204.871 55.7714 0.57305 0.00175244
1146400 60.2096 204.884 55.7714 0.57315 0.00857042
1146600 60.2096 204.897 55.7714 0.57325 0.056366
1146800 60.2096 204.911 55.7714 0.57335 0.0656556
1147000 60.2096 204.924 55.7714 0.57345 0.0515378
1147200 60.2096 204.937 55.7714 0.57355 0.0431669
1147400 60.2096 204.95 55.7714 0.57365 0.0412864
1147600 60.2096 204.963 55.7714 0.57375 0.0423261
1147800 60.2096 204.976 55.7714 0.57385 0.0374467
1148000 60.2096 204.989 55.7714 0.57395 0.00218072
1148200 60.2096 205.002 55.7714 0.57405 0.00882029
1148400 60.2096 205.015 55.7714 0.57415 -0.0182591
1148600 60.2096 205.028 55.7714 0.57425 -0.0412927
1148800 60.2096 205.041 55.7714 0.57435 -0.0323441
1149000 60.2096 205.054 55.7714 0.57445 -0.0541097
1149200 60.2096 205.067 55.7714 0.57455 -0.0690204
1149400 60.2096 205.08 55.7714 0.57465 -0.0352635
1149600 60.2096 205.093 55.7714 0.57475 -0.0311965
1149800 60.2096 205.106 55.7714 0.57485 -0.010182
1150000 60.2096 205.119 55.7714 0.57495 -0.00677859
1150200 60.2096 205.132 55.7714 0.57505 0.0195736
1150400 60.2096 205.145 55.7714 0.57515 0.0099151
1150600 60.2096 205.158 55.7714 0.57525 0.0309423
1150800 60.2096 205.171 55.7714 0.57535 0.0592092
1151000 60.2096 205.184 55.7714 0.57545 0.0491463
1151200 60.2096 205.197 55.7714 0.57555 0.071043
1151400 60.2096 205.21 55.7714 0.57565 0.0488725
1151600 60.2096 205.223 55.7714 0.57575 0.0328509
1151800 60.2096 205.236 55.7714 0.57585 0.00932246
1152000 60.2096 205.249 55.7714 0.57595 0.0178809
1152200 60.2096 205.262 55.7714 0.57605 -0.00645241
1152400 60.2096 205.275 55.7714 0.57615 -0.028861
1152600 60.2096 205.288 55.7714 0.57625 -0.0197568
1152800 60.2096 205.301 55.7714 0.57635 -0.0397002
1153000 60.2096 205.314 55.7714 0.57645 -0.0683993
1153200 60.2096 205.327 55.7714 0.57655 -0.0486754
1153400 60.2096 205.34 55.7714 0.57665 -0.0418403
1153600 60.2096 205.353 55.7714 0.57675 -0.0286899
1153800 60.2096 205.366 55.7714 0.57685 -0.0021088
1154000 60.2096 205.379 55.7714 0.57695 -0.00271702
1154200 60.2096 205.392 55.7714 0.57705 0.016555
1154400 60.2096 205.405 55.7714 0.57715 0.0245803
1154600 60.2096 205.418 55.7714 0.57725 0.0394804
1154800 60.2096 205.431 55.7714 0.57735 0.0460097
1155000 60.2096 205.444 55.7714 0.57745 0.0520569
1155200 60.2096 205.458 55.7714 0.57755 0.0510649
1155400 60.2096 205.471 55.7714 0.57765 0.0558273
1155600 60.2096 205.484 55.7714 0.57775 0.0142813
1155800 60.2096 205.497 55.7714 0.57785 0.0158905
1156000 60.2096 205.51 55.7714 0.57795 0.0102125
1156200 60.2096 205.523 55.7714 0.57805 -0.000775022
1156400 60.2096 205.536 55.7714 0.57815 -0.024054
1156600 60.2096 205.549 55.7714 0.57825 -0.0416337
1156800 60.2096 205.562 55.7714 0.57835 -0.0502592
1157000 60.2096 205.575 55.7714 0.57845 -0.0476552
1157200 60.2096 205.588 55.7714 0.57855 -0.0337772
1157400 60.2096 205.601 55.7714 0.57865 -0.0205725
1157600 60.2096 205.614 55.7714 0.57875 -0.0259933
1157800 60.2096 205.627 55.7714 0.57885 -0.0252258
1158000 60.2096 205.64 55.7714 0.57895 0.00149248
1158200 60.2096 205.653 55.7714 0.57905 0.0165881
1158400 60.2096 205.666 55.7714 0.57915 0.0374958
1158600 60.2096 205.679 55.7714 0.57925 0.0289513
1158800 60.2096 205.692 55.7714 0.57935 0.0618891
1159000 60.2096 205.705 55.7714 0.57945 0.0343141
1159200 60.2096 205.718 55.7714 0.57955 0.0444916
1159400 60.2096 205.731 55.7714 0.57965 0.0506904
1159600 60.2096 205.744 55.7714 0.57975 0.0445346
1159800 60.2096 205.757 55.7714 0.57985 0.0244699
1160000 60.2096 205.77 55.7714 0.57995 -0.0206222
1160200 60.2096 205.783 55.7714 0.58005 -0.0213832
1160400 60.2096 205.796 55.7714 0.58015 -0.0353784
1160600 60.2096 205.809 55.7714 0.58025 -0.0302335
1160800 60.2096 205.822 55.7714 0.58035 -0.0288668
1161000 60.2096 205.835 55.7714 0.58045 -0.050575
1161200 60.2096 205.848 55.7714 0.58055 -0.0374358
1161400 60.2096 205.861 55.7714 0.58065 -0.0391497
1161600 60.2096 205.874 55.7714 0.58075 -0.0299549
1161800 60.2096 205.887 55.7714 0.58085 -0.00520864
1162000 60.2096 205.9 55.7714 0.58095 0.00794148
1162200 60.2096 205.913 55.7714 0.58105 0.0326663
1162400 60.2096 205.926 55.7714 0.58115 0.0451194
1162600 60.2096 205.939 55.7714 0.58125 0.0207341
1162800 60.2096 205.952 55.7714 0.58135 0.0403094
1163000 60.2096 205.965 55.7714 0.58145 0.058436
1163200 60.2096 205.978 55.7714 0.58155 0.0606624
1163400 60.2096 205.991 55.7714 0.58165 0.0349931
1163600 60.2096 206.005 55.7714 0.58175 0.0250462
1163800 60.2096 206.018 55.7714 0.58185 0.0122072
1164000 60.2096 206.031 55.7714 0.58195 -0.0206833
1164200 60.2096 206.044 55.7714 0.58205 -0.020588
1164400 60.2096 206.057 55.7714 0.58215 -0.0392774
1164600 60.2096 206.07 55.7714 0.58225 -0.0299602
1164800 60.2096 206.083 55.7714 0.58235 -0.0381977
1165000 60.2096 206.096 55.7714 0.58245 -0.0439342
1165200 60.2096 206.109 55.7714 0.58255 -0.0273089
1165400 60.2096 206.122 55.7714 0.58265 -0.031662
1165600 60.2096 206.135 55.7714 0.58275 -0.0270459
1165800 60.2096 206.148 55.7714 0.58285 -0.000922903
1166000 60.2096 206.161 55.7714 0.58295 0.0270537
1166200 60.2096 206.174 55.7714 0.58305 0.0321284
1166400 60.2096 206.187 55.7714 0.58315 0.0345422
1166600 60.2096 206.2 55.7714 0.58325 0.0447471
1166800 60.2096 206.213 55.7714 0.58335 0.0396692
1167000 60.2096 206.226 55.7714 0.58345 0.0438552
1167200 60.2096 206.239 55.7714 0.58355 0.0341428
1167400 60.2096 206.252 55.7714 0.58365 0.0180852
1167600 60.2096 206.265 55.7714 0.58375 0.0246953
1167800 60.2096 206.278 55.7714 0.58385 0.00555124
1168000 60.2096 206.291 55.7714 0.58395 -0.00521368
1168200 60.2096 206.304 55.7714 0.58405 -0.0137023
1168400 60.2096 206.317 55.7714 0.58415 -0.0337373
1168600 60.2096 206.33 55.7714 0.58425 -0.0373942
1168800 60.2096 206.343 55.7714 0.58435 -0.0593265
1169000 60.2096 206.356 55.7714 0.58445 -0.0198616
1169200 60.2096 206.369 55.7714 0.58455 -0.0133595
1169400 60.2096 206.382 55.7714 0.58465 -0.0226885
1169600 60.2096 206.395 55.7714 0.58475 -0.0245081
1169800 60.2096 206.408 55.7714 0.58485 0.00387721
1170000 60.2096 206.421 55.7714 0.58495 0.0031461
1170200 60.2096 206.434 55.7714 0.58505 0.0200904
1170400 60.2096 206.447 55.7714 0.58515 0.0363784
1170600 60.2096 206.46 55.7714 0.58525 0.0544317
1170800 60.2096 206.473 55.7714 0.58535 0.0467759
1171000 60.2096 206.486 55.7714 0.58545 0.0271767
1171200 60.2096 206.499 55.7714 0.58555 0.0428491
1171400 60.2096 206.512 55.7714 0.58565 0.015248
1171600 60.2096 206.525 55.7714 0.58575 0.0120236
1171800 60.2096 206.538 55.7714 0.58585 0.0212263
1172000 60.2096 206.552 55.7714 0.58595 0.00243269
1172200 60.2096 206.565 55.7714 0.58605 -0.0289861
1172400 60.2096 206.578 55.7714 0.58615 -0.0436753
1172600 60.2096 206.591 55.7714 0.58625 -0.0410528
1172800 60.2096 206.604 55.7714 0.58635 -0.0469309
1173000 60.2096 206.617 55.7714 0.58645 -0.0229159
1173200 60.2096 206.63 55.7714 0.58655 -0.00214288
1173400 60.2096 206.643 55.7714 0.58665 -0.019548
1173600 60.2096 206.656 55.7714 0.58675 -0.0109492
1173800 60.2096 206.669 55.7714 0.58685 -0.00389507
1174000 60.2096 206.682 55.7714 0.58695 0.0152091
1174200 60.2096 206.695 55.7714 0.58705 0.026294
1174400 60.2096 206.708 55.7714 0.58715 0.0421196
1174600 60.2096 206.721 55.7714 0.58725 0.0402444
1174800 60.2096 206.734 55.7714 0.58735 0.0491093
1175000 60.2096 206.747 55.7714 0.58745 0.0354076
1175200 60.2096 206.76 55.7714 0.58755 0.0204955
1175400 60.2096 206.773 55.7714 0.58765 0.00278078
1175600 60.2096 206.786 55.7714 0.58775 0.0186158
1175800 60.2096 206.799 55.7714 0.58785 0.0072098
1176000 60.2096 206.812 55.7714 0.58795 -0.00198602
1176200 60.2096 206.825 55.7714 0.58805 -0.0339579
1176400 60.2096 206.838 55.7714 0.58815 -0.0252018
1176600 60.2096 206.851 55.7714 0.58825 -0.0551261
1176800 60.2096 206.864 55.7714 0.58835 -0.0318086
1177000 60.2096 206.877 55.7714 0.58845 -0.0310667
1177200 60.2096 206.89 55.7714 0.58855 -0.0146977
1177400 60.2096 206.903 55.7714 0.58865 0.00566738
1177600 60.2096 206.916 55.7714 0.58875 0.000781508
1177800 60.2096 206.929 55.7714 0.58885 0.00384296
1178000 60.2096 206.942 55.7714 0.58895 0.00563785
1178200 60.2096 206.955 55.7714 0.58905 0.0301044
1178400 60.2096 206.968 55.7714 0.58915 0.0451733
1178600 60.2096 206.981 55.7714 0.58925 0.0336568
1178800 60.2096 206.994 55.7714 0.58935 0.046079
1179000 60.2096 207.007 55.7714 0.58945 0.0284658
1179200 60.2096 207.02 55.7714 0.58955 0.0252273
1179400 60.2096 207.033 55.7714 0.58965 0.0108129
1179600 60.2096 207.046 55.7714 0.58975 0.00392609
1179800 60.2096 207.059 55.7714 0.58985 -0.00873626
1180000 60.2096 207.072 55.7714 0.58995 -0.0244154
1180200 60.2096 207.085 55.7714 0.59005 -0.0159291
1180400 60.2096 207.099 55.7714 0.59015 -0.0318399
1180600 60.2096 207.112 55.7714 0.59025 -0.0180054
1180800 60.2096 207.125 55.7714 0.59035 -0.0361986
1181000 60.2096 207.138 55.7714 0.59045 -0.0332984
1181200 60.2096 207.151 55.7714 0.59055 -0.00722891
1181400 60.2096 207.164 55.7714 0.59065 -0.0163258
1181600 60.2096 207.177 55.7714 0.59075 0.00674419
1181800 60.2096 207.19 55.7714 0.59085 0.0113369
1182000 60.2096 207.203 55.7714 0.59095 0.0240933
1182200 60.2096 207.216 55.7714 0.59105 0.0275469
1182400 60.2096 207.229 55.7714 0.59115 0.0473256
1182600 60.2096 207.242 55.7714 0.59125 0.00326206
1182800 60.2096 207.255 55.7714 0.59135 0.0507071
1183000 60.2096 207.268 55.7714 0.59145 0.0266146
1183200 60.2096 207.281 55.7714 0.59155 0.0298448
1183400 60.2096 207.294 55.7714 0.59165 0.0304884
1183600 60.2096 207.307 55.7714 0.59175 -0.00724427
1183800 60.2096 207.32 55.7714 0.59185 -0.0185012
1184000 60.2096 207.333 55.7714 0.59195 -0.0231914
1184200 60.2096 207.346 55.7714 0.59205 -0.0247405
1184400 60.2096 207.359 55.7714 0.59215 -0.0195509
1184600 60.2096 207.372 55.7714 0.59225 -0.0249832
1184800 60.2096 207.385 55.7714 0.59235 -0.0359964
1185000 60.2096 207.398 55.7714 0.59245 -0.0254161
1185200 60.2096 207.411 55.7714 0.59255 -0.0122934
1185400 60.2096 207.424 55.7714 0.59265 -0.014699
1185600 60.2096 207.437 55.7714 0.59275 0.00115197
1185800 60.2096 207.45 55.7714 0.59285 0.0415518
1186000 60.2096 207.463 55.7714 0.59295 0.0212331
1186200 60.2096 207.476 55.7714 0.59305 0.0332959
1186400 60.2096 207.489 55.7714 0.59315 0.0308765
1186600 60.2096 207.502 55.7714 0.59325 0.0318852
1186800 60.2096 207.515 55.7714 0.59335 0.0441012
1187000 60.2096 207.528 55.7714 0.59345 0.0129942
1187200 60.2096 207.541 55.7714 0.59355 -0.00495546
1187400 60.2096 207.554 55.7714 0.59365 0.0305407
1187600 60.2096 207.567 55.7714 0.59375 0.00427179
1187800 60.2096 207.58 55.7714 0.59385 -0.0234152
1188000 60.2096 207.593 55.7714 0.59395 -0.0196602
1188200 60.2096 207.606 55.7714 0.59405 -0.0182607
1188400 60.2096 207.619 55.7714 0.59415 -0.025876
1188600 60.2096 207.632 55.7714 0.59425 -0.05117
1188800 60.2096 207.646 55.7714 0.59435 -0.0235668
1189000 60.2096 207.659 55.7714 0.59445 -0.00286258
1189200 60.2096 207.672 55.7714 0.59455 -0.00679776
1189400 60.2096 207.685 55.7714 0.59465 -0.00759192
1189600 60.2096 207.698 55.7714 0.59475 0.018112
1189800 60.2096 207.711 55.7714 0.59485 0.00855324
1190000 60.2096 207.724 55.7714 0.59495 0.0187882
1190200 60.2096 207.737 55.7714 0.59505 0.0225686
1190400 60.2096 207.75 55.7714 0.59515 0.0556902
1190600 60.2096 207.763 55.7714 0.59525 0.0304576
1190800 60.2096 207.776 55.7714 0.59535 0.0479438
1191000 60.2096 207.789 55.7714 0.59545 0.0156866
1191200 60.2096 207.802 55.7714 0.59555 -0.00512063
1191400 60.2096 207.815 55.7714 0.59565 0.0123009
1191600 60.2096 207.828 55.7714 0.59575 2.21523e-05
1191800 60.2096 207.841 55.7714 0.59585 -0.013035
1192000 60.2096 207.854 55.7714 0.59595 -0.00848795
1192200 60.2096 207.867 55.7714 0.59605 -0.0268093
1192400 60.2096 207.88 55.7714 0.59615 -0.0408738
1192600 60.2096 207.893 55.7714 0.59625 -0.0394527
1192800 60.2096 207.906 55.7714 0.59635 -0.0257547
1193000 60.2096 207.919 55.7714 0.59645 -0.00467701
1193200 60.2096 207.932 55.7714 0.59655 0.0106474
1193400 60.2096 207.945 55.7714 0.59665 -0.0111296
1193600 60.2096 207.958 55.7714 0.59675 0.0155082
1193800 60.2096 207.971 55.7714 0.59685 0.0137823
1194000 60.2096 207.984 55.7714 0.59695 0.0195601
1194200 60.2096 207.997 55.7714 0.59705 0.0325692
1194400 60.2096 208.01 55.7714 0.59715 0.0331578
1194600 60.2096 208.023 55.7714 0.59725 0.0233315
1194800 60.2096 208.036 55.7714 0.59735 0.0451158
1195000 60.2096 208.049 55.7714 0.59745 0.0319248
1195200 60.2096 208.062 55.7714 0.59755 0.0030968
1195400 60.2096 208.075 55.7714 0.59765 -0.0160582
1195600 60.2096 208.088 55.7714 0.59775 -0.00840373
1195800 60.2096 208.101 55.7714 0.59785 -0.00855344
1196000 60.2096 208.114 55.7714 0.59795 -0.00648687
1196200 60.2096 208.127 55.7714 0.59805 -0.0187054
1196400 60.2096 208.14 55.7714 0.59815 -0.0282212
1196600 60.2096 208.153 55.7714 0.59825 -0.0168875
1196800 60.2096 208.166 55.7714 0.59835 -0.0286191
1197000 60.2096 208.179 55.7714 0.59845 -0.0272232
1197200 60.2096 208.193 55.7714 0.59855 -0.010497
1197400 60.2096 208.206 55.7714 0.59865 0.0124783
1197600 60.2096 208.219 55.7714 0.59875 -0.00428961
1197800 60.2096 208.232 55.7714 0.59885 0.0171472
1198000 60.2096 208.245 55.7714 0.59895 0.0307545
1198200 60.2096 208.258 55.7714 0.59905 0.0196326
1198400 60.2096 208.271 55.7714 0.59915 0.039774
1198600 60.2096 208.284 55.7714 0.59925 0.029592
1198800 60.2096 208.297 55.7714 0.59935 0.0374743
1199000 60.2096 208.31 55.7714 0.59945 0.0311407
1199200 60.2096 208.323 55.7714 0.59955 0.0157417
1199400 60.2096 208.336 55.7714 0.59965 0.0108423
1199600 60.2096 208.349 55.7714 0.59975 -0.00230347
1199800 60.2096 208.362 55.7714 0.59985 -0.014584
1200000 60.2096 208.375 55.7714 0.59995 -0.0298891
1200200 60.2096 208.388 55.7714 0.60005 -0.0192663
1200400 60.2096 208.401 55.7714 0.60015 -0.028289
1200600 60.2096 208.414 55.7714 0.60025 -0.0345533
1200800 60.2096 208.427 55.7714 0.60035 -0.0256652
1201000 60.2096 208.44 55.7714 0.60045 -0.0115354
1201200 60.2096 208.453 55.7714 0.60055 0.00128681
1201400 60.2096 208.466 55.7714 0.60065 -0.0202852
1201600 60.2096 208.479 55.7714 0.60075 0.00641113
1201800 60.2096 208.492 55.7714 0.60085 0.0209713
1202000 60.2096 208.505 55.7714 0.60095 0.0260117
1202200 60.2096 208.518 55.7714 0.60105 0.0378706
1202400 60.2096 208.531 55.7714 0.60115 0.0300064
1202600 60.2096 208.544 55.7714 0.60125 0.0505578
1202800 60.2096 208.557 55.7714 0.60135 0.0168221
1203000 60.2096 208.57 55.7714 0.60145 0.0204203
1203200 60.2096 208.583 55.7714 0.60155 0.0151875
1203400 60.2096 208.596 55.7714 0.60165 0.00915243
1203600 60.2096 208.609 55.7714 0.60175 -0.0139315
1203800 60.2096 208.622 55.7714 0.60185 0.00429082
1204000 60.2096 208.635 55.7714 0.60195 -0.0227951
1204200 60.2096 208.648 55.7714 0.60205 -0.0277821
1204400 60.2096 208.661 55.7714 0.60215 -0.0268293
1204600 60.2096 208.674 55.7714 0.60225 -0.0350827
1204800 60.2096 208.687 55.7714 0.60235 -0.0252662
1205000 60.2096 208.7 55.7714 0.60245 0.00395386
1205200 60.2096 208.713 55.7714 0.60255 -0.00632471
1205400 60.2096 208.726 55.7714 0.60265 -0.00145618
1205600 60.2096 208.74 55.7714 0.60275 -0.011894
1205800 60.2096 208.753 55.7714 0.60285 0.0321502
1206000 60.2096 208.766 55.7714 0.60295 0.0250474
1206200 60.2096 208.779 55.7714 0.60305 0.0213038
1206400 60.2096 208.792 55.7714 0.60315 0.0321855
1206600 60.2096 208.805 55.7714 0.60325 0.0476965
1206800 60.2096 208.818 55.7714 0.60335 0.0202508
1207000 60.2096 208.831 55.7714 0.60345 0.0277355
1207200 60.2096 208.844 55.7714 0.60355 0.0143593
1207400 60.2096 208.857 55.7714 0.60365 0.00729807
1207600 60.2096 208.87 55.7714 0.60375 -0.00623241
1207800 60.2096 208.883 55.7714 0.60385 -0.01905
1208000 60.2096 208.896 55.7714 0.60395 -0.0220184
1208200 60.2096 208.909 55.7714 0.60405 -0.0161306
1208400 60.2096 208.922 55.7714 0.60415 -0.0308306
1208600 60.2096 208.935 55.7714 0.60425 -0.0366904
1208800 60.2096 208.948 55.7714 0.60435 -0.0266065
1209000 60.2096 208.961 55.7714 0.60445 -0.0259213
1209200 60.2096 208.974 55.7714 0.60455 0.0057476
1209400 60.2096 208.987 55.7714 0.60465 0.00499843
1209600 60.2096 209 55.7714 0.60475 0.0140662
1209800 60.2096 209.013 55.7714 0.60485 0.0335001
1210000 60.2096 209.026 55.7714 0.60495 0.0225029
1210200 60.2096 209.039 55.7714 0.60505 0.0244421
1210400 60.2096 209.052 55.7714 0.60515 0.0323133
1210600 60.2096 209.065 55.7714 0.60525 0.040285
1210800 60.2096 209.078 55.7714 0.60535 0.0335837
1211000 60.2096 209.091 55.7714 0.60545 0.0215453
1211200 60.2096 209.104 55.7714 0.60555 0.0254943
1211400 60.2096 209.117 55.7714 0.60565 -0.00310237
1211600 60.2096 209.13 55.7714 0.60575 0.00206057
1211800 60.2096 209.143 55.7714 0.60585 -0.0422217
1212000 60.2096 209.156 55.7714 0.60595 -0.0299647
1212200 60.2096 209.169 55.7714 0.60605 -0.034477
1212400 60.2096 209.182 55.7714 0.60615 -0.0220546
1212600 60.2096 209.195 55.7714 0.60625 -0.0132364
1212800 60.2096 209.208 55.7714 0.60635 -0.0275217
1213000 60.2096 209.221 55.7714 0.60645 -0.0289125
1213200 60.2096 209.234 55.7714 0.60655 0.00842659
1213400 60.2096 209.247 55.7714 0.60665 -0.00863297
1213600 60.2096 209.26 55.7714 0.60675 0.0167829
1213800 60.2096 209.273 55.7714 0.60685 0.0432863
1214000 60.2096 209.287 55.7714 0.60695 0.0423379
1214200 60.2096 209.3 55.7714 0.60705 0.0366774
1214400 60.2096 209.313 55.7714 0.60715 0.0268838
1214600 60.2096 209.326 55.7714 0.60725 0.0200365
1214800 60.2096 209.339 55.7714 0.60735 0.0193864
1215000 60.2096 209.352 55.7714 0.60745 0.0245717
1215200 60.2096 209.365 55.7714 0.60755 0.0102541
1215400 60.2096 209.378 55.7714 0.60765 0.0102284
1215600 60.2096 209.391 55.7714 0.60775 -0.00549228
1215800 60.2096 209.404 55.7714 0.60785 -0.0289018
1216000 60.2096 209.417 55.7714 0.60795 -0.0258064
1216200 60.2096 209.43 55.7714 0.60805 -0.0329248
1216400 60.2096 209.443 55.7714 0.60815 -0.0339137
1216600 60.2096 209.456 55.7714 0.60825 -0.00765054
1216800 60.2096 209.469 55.7714 0.60835 -0.0270137
1217000 60.2096 209.482 55.7714 0.60845 -0.00972134
1217200 60.2096 209.495 55.7714 0.60855 0.0130623
1217400 60.2096 209.508 55.7714 0.60865 -0.0354565
1217600 60.2096 209.521 55.7714 0.60875 0.0496021
1217800 60.2096 209.534 55.7714 0.60885 0.0131418
1218000 60.2096 209.547 55.7714 0.60895 0.0311536
1218200 60.2096 209.56 55.7714 0.60905 0.0377816
1218400 60.2096 209.573 55.7714 0.60915 0.0365368
1218600 60.2096 209.586 55.7714 0.60925 0.0402786
1218800 60.2096 209.599 55.7714 0.60935 0.0314115
1219000 60.2096 209.612 55.7714 0.60945 -0.001367
1219200 60.2096 209.625 55.7714 0.60955 0.0045805
1219400 60.2096 209.638 55.7714 0.60965 0.0125005
1219600 60.2096 209.651 55.7714 0.60975 -0.00609095
1219800 60.2096 209.664 55.7714 0.60985 -0.0395065
1220000 60.2096 209.677 55.7714 0.60995 -0.00639587
1220200 60.2096 209.69 55.7714 0.61005 -0.0366615
1220400 60.2096 209.703 55.7714 0.61015 -0.026318
1220600 60.2096 209.716 55.7714 0.61025 -0.0285744
1220800 60.2096 209.729 55.7714 0.61035 -0.0361883
1221000 60.2096 209.742 55.7714 0.61045 -0.017572
1221200 60.2096 209.755 55.7714 0.61055 0.0175056
1221400 60.2096 209.768 55.7714 0.61065 0.00291658
1221600 60.2096 209.781 55.7714 0.61075 0.0211351
1221800 60.2096 209.794 55.7714 0.61085 0.0499643
1222000 60.2096 209.807 55.7714 0.61095 0.0310077
1222200 60.2096 209.821 55.7714 0.61105 0.0162789
1222400 60.2096 209.834 55.7714 0.61115 0.0171015
1222600 60.2096 209.847 55.7714 0.61125 0.0306371
1222800 60.2096 209.86 55.7714 0.61135 0.0568096
1223000 60.2096 209.873 55.7714 0.61145 0.0253715
1223200 60.2096 209.886 55.7714 0.61155 0.00132112
1223400 60.2096 209.899 55.7714 0.61165 -0.00895817
1223600 60.2096 209.912 55.7714 0.61175 -0.00903054
1223800 60.2096 209.925 55.7714 0.61185 -0.0415009
1224000 60.2096 209.938 55.7714 0.61195 -0.0310993
1224200 60.2096 209.951 55.7714 0.61205 -0.0210367
1224400 60.2096 209.964 55.7714 0.61215 -0.0077677
1224600 60.2096 209.977 55.7714 0.61225 -0.0230874
1224800 60.2096 209.99 55.7714 0.61235 -0.0280943
1225000 60.2096 210.003 55.7714 0.61245 -0.0167104
1225200 60.2096 210.016 55.7714 0.61255 -0.021647
1225400 60.2096 210.029 55.7714 0.61265 0.0121638
1225600 60.2096 210.042 55.7714 0.61275 0.0420858
1225800 60.2096 210.055 55.7714 0.61285 0.0380525
1226000 60.2096 210.068 55.7714 0.61295 0.046062
1226200 60.2096 210.081 55.7714 0.61305 0.0301388
1226400 60.2096 210.094 55.7714 0.61315 0.0177937
1226600 60.2096 210.107 55.7714 0.61325 0.0252131
1226800 60.2096 210.12 55.7714 0.61335 0.0165013
1227000 60.2096 210.133 55.7714 0.61345 0.00267914
1227200 60.2096 210.146 55.7714 0.61355 0.0198062
1227400 60.2096 210.159 55.7714 0.61365 0.0148162
1227600 60.2096 210.172 55.7714 0.61375 -0.031168
1227800 60.2096 210.185 55.7714 0.61385 -0.0155712
1228000 60.2096 210.198 55.7714 0.61395 -0.0422862
1228200 60.2096 210.211 55.7714 0.61405 -0.0262045
1228400 60.2096 210.224 55.7714 0.61415 -0.0275453
1228600 60.2096 210.237 55.7714 0.61425 -0.0178166
1228800 60.2096 210.25 55.7714 0.61435 -0.00685407
1229000 60.2096 210.263 55.7714 0.61445 -0.00980309
1229200 60.2096 210.276 55.7714 0.61455 0.00211957
1229400 60.2096 210.289 55.7714 0.61465 0.0104476
1229600 60.2096 210.302 55.7714 0.61475 0.0389853
1229800 60.2096 210.315 55.7714 0.61485 0.0126682
1230000 60.2096 210.328 55.7714 0.61495 0.0361927
1230200 60.2096 210.341 55.7714 0.61505 0.0246679
1230400 60.2096 210.354 55.7714 0.61515 0.0478877
1230600 60.2096 210.368 55.7714 0.61525 0.00953962
1230800 60.2096 210.381 55.7714 0.61535 0.0304404
1231000 60.2096 210.394 55.7714 0.61545 0.0196342
1231200 60.2096 210.407 55.7714 0.61555 -0.00441519
1231400 60.2096 210.42 55.7714 0.61565 -0.00684676
1231600 60.2096 210.433 55.7714 0.61575 -0.0229714
1231800 60.2096 210.446 55.7714 0.61585 -0.0219625
1232000 60.2096 210.459 55.7714 0.61595 -0.0152214
1232200 60.2096 210.472 55.7714 0.61605 -0.0288507
1232400 60.2096 210.485 55.7714 0.61615 -0.0400238
1232600 60.2096 210.498 55.7714 0.61625 -0.0280783
1232800 60.2096 210.511 55.7714 0.61635 -0.0121421
1233000 60.2096 210.524 55.7714 0.61645 -0.00219934
1233200 60.2096 210.537 55.7714 0.61655 0.00752453
1233400 60.2096 210.55 55.7714 0.61665 0.0418702
1233600 60.2096 210.563 55.7714 0.61675 0.0135446
1233800 60.2096 210.576 55.7714 0.61685 0.0189917
1234000 60.2096 210.589 55.7714 0.61695 0.0404312
1234200 60.2096 210.602 55.7714 0.61705 0.0324917
1234400 60.2096 210.615 55.7714 0.61715 0.0317542
1234600 60.2096 210.628 55.7714 0.61725 0.0363439
1234800 60.2096 210.641 55.7714 0.61735 0.0295178
1235000 60.2096 210.654 55.7714 0.61745 0.0129505
1235200 60.2096 210.667 55.7714 0.61755 -0.0239536
1235400 60.2096 210.68 55.7714 0.61765 -0.0174775
1235600 60.2096 210.693 55.7714 0.61775 -0.029521
1235800 60.2096 210.706 55.7714 0.61785 -0.0209601
1236000 60.2096 210.719 55.7714 0.61795 -0.00959789
1236200 60.2096 210.732 55.7714 0.61805 -0.0379724
1236400 60.2096 210.745 55.7714 0.61815 -0.0360258
1236600 60.2096 210.758 55.7714 0.61825 -0.0261043
1236800 60.2096 210.771 55.7714 0.61835 -0.0109648
1237000 60.2096 210.784 55.7714 0.61845 -0.000520883
1237200 60.2096 210.797 55.7714 0.61855 0.0237316
1237400 60.2096 210.81 55.7714 0.61865 0.021104
1237600 60.2096 210.823 55.7714 0.61875 0.046595
1237800 60.2096 210.836 55.7714 0.61885 0.0346434
1238000 60.2096 210.849 55.7714 0.61895 0.0182838
1238200 60.2096 210.862 55.7714 0.61905 0.0336935
1238400 60.2096 210.875 55.7714 0.61915 0.0297912
1238600 60.2096 210.888 55.7714 0.61925 0.0361663
1238800 60.2096 210.901 55.7714 0.61935 0.0212151
1239000 60.2096 210.915 55.7714 0.61945 0.00406098
1239200 60.2096 210.928 55.7714 0.61955 -0.0189996
1239400 60.2096 210.941 55.7714 0.61965 -0.0126651
1239600 60.2096 210.954 55.7714 0.61975 -0.029168
1239800 60.2096 210.967 55.7714 0.61985 -0.0592494
1240000 60.2096 210.98 55.7714 0.61995 -0.0181078
1240200 60.2096 210.993 55.7714 0.62005 -0.0111205
1240400 60.2096 211.006 55.7714 0.62015 -0.0285065
1240600 60.2096 211.019 55.7714 0.62025 0.000188251
1240800 60.2096 211.032 55.7714 0.62035 -0.0235748
1241000 60.2096 211.045 55.7714 0.62045 -0.0067749
1241200 60.2096 211.058 55.7714 0.62055 0.026162
1241400 60.2096 211.071 55.7714 0.62065 0.0355547
1241600 60.2096 211.084 55.7714 0.62075 0.0319952
1241800 60.2096 211.097 55.7714 0.62085 0.0395957
1242000 60.2096 211.11 55.7714 0.62095 0.0384683
1242200 60.2096 211.123 55.7714 0.62105 0.0319533
1242400 60.2096 211.136 55.7714 0.62115 0.0316073
1242600 60.2096 211.149 55.7714 0.62125 0.0136506
1242800 60.2096 211.162 55.7714 0.62135 0.00240845
1243000 60.2096 211.175 55.7714 0.62145 0.00760135
1243200 60.2096 211.188 55.7714 0.62155 -0.02148
1243400 60.2096 211.201 55.7714 0.62165 -0.007728
1243600 60.2096 211.214 55.7714 0.62175 -0.0361849
1243800 60.2096 211.227 55.7714 0.62185 -0.0246586
1244000 60.2096 211.24 55.7714 0.62195 -0.0408205
1244200 60.2096 211.253 55.7714 0.62205 -0.0234151
1244400 60.2096 211.266 55.7714 0.62215 -0.0142626
1244600 60.2096 211.279 55.7714 0.62225 -0.021014
1244800 60.2096 211.292 55.7714 0.62235 0.00656704
1245000 60.2096 211.305 55.7714 0.62245 -0.000790754
1245200 60.2096 211.318 55.7714 0.62255 0.0246359
1245400 60.2096 211.331 55.7714 0.62265 0.0189269
1245600 60.2096 211.344 55.7714 0.62275 0.0337067
1245800 60.2096 211.357 55.7714 0.62285 0.0471142
1246000 60.2096 211.37 55.7714 0.62295 0.03073
1246200 60.2096 211.383 55.7714 0.62305 0.0269748
1246400 60.2096 211.396 55.7714 0.62315 0.0202729
1246600 60.2096 211.409 55.7714 0.62325 0.0370582
1246800 60.2096 211.422 55.7714 0.62335 0.0256203
1247000 60.2096 211.435 55.7714 0.62345 0.00235849
1247200 60.2096 211.448 55.7714 0.62355 -0.0364365
1247400 60.2096 211.462 55.7714 0.62365 -0.00938902
1247600 60.2096 211.475 55.7714 0.62375 -0.0248862
1247800 60.2096 211.488 55.7714 0.62385 -0.0380685
1248000 60.2096 211.501 55.7714 0.62395 -0.0315198
1248200 60.2096 211.514 55.7714 0.62405 -0.0325042
1248400 60.2096 211.527 55.7714 0.62415 -0.0315838
1248600 60.2096 211.54 55.7714 0.62425 -0.00500479
1248800 60.2096 211.553 55.7714 0.62435 -0.0165448
1249000 60.2096 211.566 55.7714 0.62445 0.00752645
1249200 60.2096 211.579 55.7714 0.62455 0.025244
1249400 60.2096 211.592 55.7714 0.62465 0.0311458
1249600 60.2096 211.605 55.7714 0.62475 0.0278388
1249800 60.2096 211.618 55.7714 0.62485 0.0382052
1250000 60.2096 211.631 55.7714 0.62495 0.0285083
1250200 60.2096 211.644 55.7714 0.62505 0.0400746
1250400 60.2096 211.657 55.7714 0.62515 0.0480997
1250600 60.2096 211.67 55.7714 0.62525 0.00827269
1250800 60.2096 211.683 55.7714 0.62535 0.0105765
1251000 60.2096 211.696 55.7714 0.62545 0.00015354
1251200 60.2096 211.709 55.7714 0.62555 -0.00563884
1251400 60.2096 211.722 55.7714 0.62565 -0.0177499
1251600 60.2096 211.735 55.7714 0.62575 -0.0320699
1251800 60.2096 211.748 55.7714 0.62585 -0.0265078
1252000 60.2096 211.761 55.7714 0.62595 -0.0437529
1252200 60.2096 211.774 55.7714 0.62605 -0.0217372
1252400 60.2096 211.787 55.7714 0.62615 -0.0125037
1252600 60.2096 211.8 55.7714 0.62625 -0.0257176
1252800 60.2096 211.813 55.7714 0.62635 -0.0140934
1253000 60.2096 211.826 55.7714 0.62645 0.0160142
1253200 60.2096 211.839 55.7714 0.62655 0.0329058
1253400 60.2096 211.852 55.7714 0.62665 0.0117238
1253600 60.2096 211.865 55.7714 0.62675 0.0486259
1253800 60.2096 211.878 55.7714 0.62685 0.0292939
1254000 60.2096 211.891 55.7714 0.62695 0.0299922
1254200 60.2096 211.904 55.7714 0.62705 0.0552696
1254400 60.2096 211.917 55.7714 0.62715 0.0251649
1254600 60.2096 211.93 55.7714 0.62725 0.00986599
1254800 60.2096 211.943 55.7714 0.62735 0.00404818
1255000 60.2096 211.956 55.7714 0.62745 0.000691179
1255200 60.2096 211.969 55.7714 0.62755 -0.0148313
1255400 60.2096 211.982 55.7714 0.62765 -0.0325645
1255600 60.2096 211.995 55.7714 0.62775 -0.0314942
1255800 60.2096 212.009 55.7714 0.62785 -0.0271026
1256000 60.2096 212.022 55.7714 0.62795 -0.0312638
1256200 60.2096 212.035 55.7714 0.62805 -0.0191385
1256400 60.2096 212.048 55.7714 0.62815 -0.0392006
1256600 60.2096 212.061 55.7714 0.62825 -0.00886192
1256800 60.2096 212.074 55.7714 0.62835 -0.001418
1257000 60.2096 212.087 55.7714 0.62845 0.026843
1257200 60.2096 212.1 55.7714 0.62855 0.0224025
1257400 60.2096 212.113 55.7714 0.62865 0.0460057
1257600 60.2096 212.126 55.7714 0.62875 0.0341366
1257800 60.2096 212.139 55.7714 0.62885 0.0278555
1258000 60.2096 212.152 55.7714 0.62895 0.0310877
1258200 60.2096 212.165 55.7714 0.62905 0.0441117
1258400 60.2096 212.178 55.7714 0.62915 0.0325962
1258600 60.2096 212.191 55.7714 0.62925 0.020144
1258800 60.2096 212.204 55.7714 0.62935 -0.00625774
1259000 60.2096 212.217 55.7714 0.62945 -0.0219326
1259200 60.2096 212.23 55.7714 0.62955 -0.00925531
1259400 60.2096 212.243 55.7714 0.62965 -0.0357579
1259600 60.2096 212.256 55.7714 0.62975 -0.0383216
1259800 60.2096 212.269 55.7714 0.62985 -0.0159936
1260000 60.2096 212.282 55.7714 0.62995 -0.0414858
1260200 60.2096 212.295 55.7714 0.63005 -0.0278348
1260400 60.2096 212.308 55.7714 0.63015 -0.012427
1260600 60.2096 212.321 55.7714 0.63025 -0.00238112
1260800 60.2096 212.334 55.7714 0.63035 -0.00217157
1261000 60.2096 212.347 55.7714 0.63045 0.0192387
1261200 60.2096 212.36 55.7714 0.63055 0.0332819
1261400 60.2096 212.373 55.7714 0.63065 0.0309371
1261600 60.2096 212.386 55.7714 0.63075 0.0417814
1261800 60.2096 212.399 55.7714 0.63085 0.0307036
1262000 60.2096 212.412 55.7714 0.63095 0.0433986
1262200 60.2096 212.425 55.7714 0.63105 0.0482901
1262400 60.2096 212.438 55.7714 0.63115 0.0143736
1262600 60.2096 212.451 55.7714 0.63125 0.00323249
1262800 60.2096 212.464 55.7714 0.63135 0.00520756
1263000 60.2096 212.477 55.7714 0.63145 -0.00387847
1263200 60.2096 212.49 55.7714 0.63155 -0.0486787
1263400 60.2096 212.503 55.7714 0.63165 -0.00494244
1263600 60.2096 212.516 55.7714 0.63175 -0.0366616
1263800 60.2096 212.529 55.7714 0.63185 -0.027809
1264000 60.2096 212.542 55.7714 0.63195 -0.0299176
1264200 60.2096 212.556 55.7714 0.63205 -0.044696
1264400 60.2096 212.569 55.7714 0.63215 -0.0174256
1264600 60.2096 212.582 55.7714 0.63225 0.0076765
1264800 60.2096 212.595 55.7714 0.63235 0.0214894
1265000 60.2096 212.608 55.7714 0.63245 0.00946489
1265200 60.2096 212.621 55.7714 0.63255 0.0305456
1265400 60.2096 212.634 55.7714 0.63265 0.0252729
1265600 60.2096 212.647 55.7714 0.63275 0.0334947
1265800 60.2096 212.66 55.7714 0.63285 0.0501841
1266000 60.2096 212.673 55.7714 0.63295 0.0209782
1266200 60.2096 212.686 55.7714 0.63305 0.0482635
1266400 60.2096 212.699 55.7714 0.63315 0.0147797
1266600 60.2096 212.712 55.7714 0.63325 0.0107094
1266800 60.2096 212.725 55.7714 0.63335 -0.00279068
1267000 60.2096 212.738 55.7714 0.63345 -0.00826195
1267200 60.2096 212.751 55.7714 0.63355 -0.0275297
1267400 60.2096 212.764 55.7714 0.63365 -0.0269564
1267600 60.2096 212.777 55.7714 0.63375 -0.039365
1267800 60.2096 212.79 55.7714 0.63385 -0.0171442
1268000 60.2096 212.803 55.7714 0.63395 -0.0216509
1268200 60.2096 212.816 55.7714 0.63405 -0.046083
1268400 60.2096 212.829 55.7714 0.63415 -0.0162125
1268600 60.2096 212.842 55.7714 0.63425 -0.000221978
1268800 60.2096 212.855 55.7714 0.63435 -0.00298321
1269000 60.2096 212.868 55.7714 0.63445 0.0368727
1269200 60.2096 212.881 55.7714 0.63455 0.038509
1269400 60.2096 212.894 55.7714 0.63465 0.0317677
1269600 60.2096 212.907 55.7714 0.63475 0.0430863
1269800 60.2096 212.92 55.7714 0.63485 0.0223082
1270000 60.2096 212.933 55.7714 0.63495 0.0434295
1270200 60.2096 212.946 55.7714 0.63505 0.0450996
1270400 60.2096 212.959 55.7714 0.63515 0.0246969
1270600 60.2096 212.972 55.7714 0.63525 0.00894147
1270800 60.2096 212.985 55.7714 0.63535 -0.00237547
1271000 60.2096 212.998 55.7714 0.63545 -0.0228202
1271200 60.2096 213.011 55.7714 0.63555 -0.0377109
1271400 60.2096 213.024 55.7714 0.63565 -0.022825
1271600 60.2096 213.037 55.7714 0.63575 -0.0237604
1271800 60.2096 213.05 55.7714 0.63585 -0.0238904
1272000 60.2096 213.063 55.7714 0.63595 -0.0449039
1272200 60.2096 213.076 55.7714 0.63605 -0.0366452
1272400 60.2096 213.089 55.7714 0.63615 -0.0136015
1272600 60.2096 213.103 55.7714 0.63625 0.00442514
1272800 60.2096 213.116 55.7714 0.63635 0.0135943
1273000 60.2096 213.129 55.7714 0.63645 0.0187895
1273200 60.2096 213.142 55.7714 0.63655 0.020841
1273400 60.2096 213.155 55.7714 0.63665 0.0287738
1273600 60.2096 213.168 55.7714 0.63675 0.042552
1273800 60.2096 213.181 55.7714 0.63685 0.0473914
1274000 60.2096 213.194 55.7714 0.63695 0.0173271
1274200 60.2096 213.207 55.7714 0.63705 0.0522948
1274400 60.2096 213.22 55.7714 0.63715 0.0359652
1274600 60.2096 213.233 55.7714 0.63725 0.0008827
1274800 60.2096 213.246 55.7714 0.63735 0.000778345
1275000 60.2096 213.259 55.7714 0.63745 -0.018954
1275200 60.2096 213.272 55.7714 0.63755 -0.0236095
1275400 60.2096 213.285 55.7714 0.63765 -0.0211046
1275600 60.2096 213.298 55.7714 0.63775 -0.0328234
1275800 60.2096 213.311 55.7714 0.63785 -0.0258764
1276000 60.2096 213.324 55.7714 0.63795 -0.0409353
1276200 60.2096 213.337 55.7714 0.63805 -0.0268996
1276400 60.2096 213.35 55.7714 0.63815 -0.0186242
1276600 60.2096 213.363 55.7714 0.63825 -0.0138007
1276800 60.2096 213.376 55.7714 0.63835 0.0102564
1277000 60.2096 213.389 55.7714 0.63845 0.0274955
1277200 60.2096 213.402 55.7714 0.63855 0.0397507
1277400 60.2096 213.415 55.7714 0.63865 0.0430173
1277600 60.2096 213.428 55.7714 0.63875 0.0278204
1277800 60.2096 213.441 55.7714 0.63885 0.0335654
1278000 60.2096 213.454 55.7714 0.63895 0.0406053
1278200 60.2096 213.467 55.7714 0.63905 0.0424449
1278400 60.2096 213.48 55.7714 0.63915 0.0352097
1278600 60.2096 213.493 55.7714 0.63925 0.00330908
1278800 60.2096 213.506 55.7714 0.63935 -0.0217187
1279000 60.2096 213.519 55.7714 0.63945 -0.0233394
1279200 60.2096 213.532 55.7714 0.63955 -0.0186234
1279400 60.2096 213.545 55.7714 0.63965 -0.0182157
1279600 60.2096 213.558 55.7714 0.63975 -0.0353493
1279800 60.2096 213.571 55.7714 0.63985 -0.0292682
1280000 60.2096 213.584 55.7714 0.63995 -0.0336087
1280200 60.2096 213.597 55.7714 0.64005 -0.0334089
1280400 60.2096 213.61 55.7714 0.64015 -0.0254966
1280600 60.2096 213.623 55.7714 0.64025 -0.00696444
1280800 60.2096 213.636 55.7714 0.64035 0.0334235
1281000 60.2096 213.65 55.7714 0.64045 0.0414946
1281200 60.2096 213.663 55.7714 0.64055 0.0397206
1281400 60.2096 213.676 55.7714 0.64065 0.0528871
1281600 60.2096 213.689 55.7714 0.64075 0.019397
1281800 60.2096 213.702 55.7714 0.64085 0.0131076
1282000 60.2096 213.715 55.7714 0.64095 0.0535131
1282200 60.2096 213.728 55.7714 0.64105 0.0342724
1282400 60.2096 213.741 55.7714 0.64115 0.0316792
1282600 60.2096 213.754 55.7714 0.64125 -0.00428173
1282800 60.2096 213.767 55.7714 0.64135 -0.0141387
1283000 60.2096 213.78 55.7714 0.64145 -0.0373001
1283200 60.2096 213.793 55.7714 0.64155 -0.0282973
1283400 60.2096 213.806 55.7714 0.64165 -0.0434966
1283600 60.2096 213.819 55.7714 0.64175 -0.0280958
1283800 60.2096 213.832 55.7714 0.64185 -0.00688154
1284000 60.2096 213.845 55.7714 0.64195 -0.0247574
1284200 60.2096 213.858 55.7714 0.64205 -0.0203705
1284400 60.2096 213.871 55.7714 0.64215 -0.021039
1284600 60.2096 213.884 55.7714 0.64225 0.00792107
1284800 60.2096 213.897 55.7714 0.64235 0.0177227
1285000 60.2096 213.91 55.7714 0.64245 0.0343306
1285200 60.2096 213.923 55.7714 0.64255 0.0477026
1285400 60.2096 213.936 55.7714 0.64265 0.0408341
1285600 60.2096 213.949 55.7714 0.64275 0.035032
1285800 60.2096 213.962 55.7714 0.64285 0.0244619
1286000 60.2096 213.975 55.7714 0.64295 0.0316628
1286200 60.2096 213.988 55.7714 0.64305 0.0117075
1286400 60.2096 214.001 55.7714 0.64315 0.0205776
1286600 60.2096 214.014 55.7714 0.64325 0.00714921
1286800 60.2096 214.027 55.7714 0.64335 -0.0221414
1287000 60.2096 214.04 55.7714 0.64345 -0.0120381
1287200 60.2096 214.053 55.7714 0.64355 -0.0319821
1287400 60.2096 214.066 55.7714 0.64365 -0.0327562
1287600 60.2096 214.079 55.7714 0.64375 -0.0324443
1287800 60.2096 214.092 55.7714 0.64385 -0.0232871
1288000 60.2096 214.105 55.7714 0.64395 -0.0137224
1288200 60.2096 214.118 55.7714 0.64405 -0.00867767
1288400 60.2096 214.131 55.7714 0.64415 -0.0107808
1288600 60.2096 214.144 55.7714 0.64425 0.0122945
1288800 60.2096 214.157 55.7714 0.64435 -0.00715645
1289000 60.2096 214.17 55.7714 0.64445 0.0245588
1289200 60.2096 214.183 55.7714 0.64455 0.0445202
1289400 60.2096 214.197 55.7714 0.64465 0.0503073
1289600 60.2096 214.21 55.7714 0.64475 0.0397848
1289800 60.2096 214.223 55.7714 0.64485 0.0250965
1290000 60.2096 214.236 55.7714 0.64495 0.0336185
1290200 60.2096 214.249 55.7714 0.64505 0.00718722
1290400 60.2096 214.262 55.7714 0.64515 0.00933055
1290600 60.2096 214.275 55.7714 0.64525 -0.0175221
1290800 60.2096 214.288 55.7714 0.64535 0.0254449
1291000 60.2096 214.301 55.7714 0.64545 -0.0242713
1291200 60.2096 214.314 55.7714 0.64555 -0.0267397
1291400 60.2096 214.327 55.7714 0.64565 -0.0341301
1291600 60.2096 214.34 55.7714 0.64575 -0.0417262
1291800 60.2096 214.353 55.7714 0.64585 -0.0223873
1292000 60.2096 214.366 55.7714 0.64595 -0.0139075
1292200 60.2096 214.379 55.7714 0.64605 -0.000262808
1292400 60.2096 214.392 55.7714 0.64615 0.00697053
1292600 60.2096 214.405 55.7714 0.64625 0.00948762
1292800 60.2096 214.418 55.7714 0.64635 -0.00295447
1293000 60.2096 214.431 55.7714 0.64645 0.0163237
1293200 60.2096 214.444 55.7714 0.64655 0.0452361
1293400 60.2096 214.457 55.7714 0.64665 0.0459342
1293600 60.2096 214.47 55.7714 0.64675 0.0341438
1293800 60.2096 214.483 55.7714 0.64685 0.034477
1294000 60.2096 214.496 55.7714 0.64695 0.0211672
1294200 60.2096 214.509 55.7714 0.64705 0.0151881
1294400 60.2096 214.522 55.7714 0.64715 0.0131022
1294600 60.2096 214.535 55.7714 0.64725 -0.0118231
1294800 60.2096 214.548 55.7714 0.64735 -0.00641301
1295000 60.2096 214.561 55.7714 0.64745 -0.02705
1295200 60.2096 214.574 55.7714 0.64755 -0.0355618
1295400 60.2096 214.587 55.7714 0.64765 -0.0229815
1295600 60.2096 214.6 55.7714 0.64775 -0.0347296
1295800 60.2096 214.613 55.7714 0.64785 -0.0362658
1296000 60.2096 214.626 55.7714 0.64795 -0.0193621
1296200 60.2096 214.639 55.7714 0.64805 0.00324066
1296400 60.2096 214.652 55.7714 0.64815 0.00765878
1296600 60.2096 214.665 55.7714 0.64825 0.00854556
1296800 60.2096 214.678 55.7714 0.64835 0.0208035
1297000 60.2096 214.691 55.7714 0.64845 0.048559
1297200 60.2096 214.704 55.7714 0.64855 0.0396411
1297400 60.2096 214.717 55.7714 0.64865 0.0432028
1297600 60.2096 214.73 55.7714 0.64875 0.0347599
1297800 60.2096 214.744 55.7714 0.64885 0.0369063
1298000 60.2096 214.757 55.7714 0.64895 0.0222071
1298200 60.2096 214.77 55.7714 0.64905 0.00826568
1298400 60.2096 214.783 55.7714 0.64915 -0.0115197
1298600 60.2096 214.796 55.7714 0.64925 -0.00147587
1298800 60.2096 214.809 55.7714 0.64935 -0.0161701
1299000 60.2096 214.822 55.7714 0.64945 -0.0321846
1299200 60.2096 214.835 55.7714 0.64955 -0.0315536
1299400 60.2096 214.848 55.7714 0.64965 -0.048176
1299600 60.2096 214.861 55.7714 0.64975 -0.0177486
1299800 60.2096 214.874 55.7714 0.64985 -0.0238236
1300000 60.2096 214.887 55.7714 0.64995 -0.0136958
1300200 60.2096 214.9 55.7714 0.65005 -0.0056415
1300400 60.2096 214.913 55.7714 0.65015 0.0118795
1300600 60.2096 214.926 55.7714 0.65025 0.0168355
1300800 60.2096 214.939 55.7714 0.65035 0.0371364
1301000 60.2096 214.952 55.7714 0.65045 0.0280222
1301200 60.2096 214.965 55.7714 0.65055 0.0385085
1301400 60.2096 214.978 55.7714 0.65065 0.0429215
1301600 60.2096 214.991 55.7714 0.65075 0.0411012
1301800 60.2096 215.004 55.7714 0.65085 0.0335644
1302000 60.2096 215.017 55.7714 0.65095 0.0170238
1302200 60.2096 215.03 55.7714 0.65105 0.00199656
1302400 60.2096 215.043 55.7714 0.65115 0.00128753
1302600 60.2096 215.056 55.7714 0.65125 -0.00558178
1302800 60.2096 215.069 55.7714 0.65135 -0.0297004
1303000 60.2096 215.082 55.7714 0.65145 -0.0226781
1303200 60.2096 215.095 55.7714 0.65155 -0.0221311
1303400 60.2096 215.108 55.7714 0.65165 -0.0472745
1303600 60.2096 215.121 55.7714 0.65175 -0.040365
1303800 60.2096 215.134 55.7714 0.65185 -0.0243752
1304000 60.2096 215.147 55.7714 0.65195 -0.00808824
1304200 60.2096 215.16 55.7714 0.65205 -0.00386131
1304400 60.2096 215.173 55.7714 0.65215 0.0145318
1304600 60.2096 215.186 55.7714 0.65225 0.0287841
1304800 60.2096 215.199 55.7714 0.65235 0.0288495
1305000 60.2096 215.212 55.7714 0.65245 0.0503923
1305200 60.2096 215.225 55.7714 0.65255 0.0314149
1305400 60.2096 215.238 55.7714 0.65265 0.0317477
1305600 60.2096 215.251 55.7714 0.65275 0.0350888
1305800 60.2096 215.264 55.7714 0.65285 0.0522091
1306000 60.2096 215.277 55.7714 0.65295 0.0115048
1306200 60.2096 215.291 55.7714 0.65305 0.00471185
1306400 60.2096 215.304 55.7714 0.65315 -0.011975
1306600 60.2096 215.317 55.7714 0.65325 -0.00787877
1306800 60.2096 215.33 55.7714 0.65335 -0.0200331
1307000 60.2096 215.343 55.7714 0.65345 -0.045791
1307200 60.2096 215.356 55.7714 0.65355 -0.0369545
1307400 60.2096 215.369 55.7714 0.65365 -0.0270355
1307600 60.2096 215.382 55.7714 0.65375 -0.0404368
1307800 60.2096 215.395 55.7714 0.65385 -0.0218919
1308000 60.2096 215.408 55.7714 0.65395 -0.00434512
1308200 60.2096 215.421 55.7714 0.65405 0.00371819
1308400 60.2096 215.434 55.7714 0.65415 0.0188257
1308600 60.2096 215.447 55.7714 0.65425 0.0296143
1308800 60.2096 215.46 55.7714 0.65435 0.0323574
1309000 60.2096 215.473 55.7714 0.65445 0.0433457
1309200 60.2096 215.486 55.7714 0.65455 0.0414631
1309400 60.2096 215.499 55.7714 0.65465 0.0430925
1309600 60.2096 215.512 55.7714 0.65475 0.0359619
1309800 60.2096 215.525 55.7714 0.65485 0.019691
1310000 60.2096 215.538 55.7714 0.65495 0.0169284
1310200 60.2096 215.551 55.7714 0.65505 -0.0016009
1310400 60.2096 215.564 55.7714 0.65515 -0.0157177
1310600 60.2096 215.577 55.7714 0.65525 -0.0325871
1310800 60.2096 215.59 55.7714 0.65535 -0.0023013
1311000 60.2096 215.603 55.7714 0.65545 -0.0225955
1311200 60.2096 215.616 55.7714 0.65555 -0.0446932
1311400 60.2096 215.629 55.7714 0.65565 -0.0374459
1311600 60.2096 215.642 55.7714 0.65575 -0.0358764
1311800 60.2096 215.655 55.7714 0.65585 -0.015843
1312000 60.2096 215.668 55.7714 0.65595 0.000109838
1312200 60.2096 215.681 55.7714 0.65605 0.00620341
1312400 60.2096 215.694 55.7714 0.65615 0.0218447
1312600 60.2096 215.707 55.7714 0.65625 0.0263555
1312800 60.2096 215.72 55.7714 0.65635 0.0177999
1313000 60.2096 215.733 55.7714 0.65645 0.0452307
1313200 60.2096 215.746 55.7714 0.65655 0.0554854
1313400 60.2096 215.759 55.7714 0.65665 0.0358649
1313600 60.2096 215.772 55.7714 0.65675 0.0425096
1313800 60.2096 215.785 55.7714 0.65685 0.032412
1314000 60.2096 215.798 55.7714 0.65695 0.0189739
1314200 60.2096 215.811 55.7714 0.65705 -0.020068
1314400 60.2096 215.824 55.7714 0.65715 -0.0197139
1314600 60.2096 215.838 55.7714 0.65725 -0.017197
1314800 60.2096 215.851 55.7714 0.65735 -0.0169987
1315000 60.2096 215.864 55.7714 0.65745 -0.0320768
1315200 60.2096 215.877 55.7714 0.65755 -0.0451951
1315400 60.2096 215.89 55.7714 0.65765 -0.0320208
1315600 60.2096 215.903 55.7714 0.65775 -0.03368
1315800 60.2096 215.916 55.7714 0.65785 -0.013234
1316000 60.2096 215.929 55.7714 0.65795 -0.0151475
1316200 60.2096 215.942 55.7714 0.65805 0.0230499
1316400 60.2096 215.955 55.7714 0.65815 0.00947954
1316600 60.2096 215.968 55.7714 0.65825 0.0428184
1316800 60.2096 215.981 55.7714 0.65835 0.0330333
1317000 60.2096 215.994 55.7714 0.65845 0.0415801
1317200 60.2096 216.007 55.7714 0.65855 0.0315696
1317400 60.2096 216.02 55.7714 0.65865 0.0500103
1317600 60.2096 216.033 55.7714 0.65875 0.0373928
1317800 60.2096 216.046 55.7714 0.65885 0.0203611
1318000 60.2096 216.059 55.7714 0.65895 0.0117691
1318200 60.2096 216.072 55.7714 0.65905 -0.0126001
1318400 60.2096 216.085 55.7714 0.65915 -0.0137095
1318600 60.2096 216.098 55.7714 0.65925 -0.0199849
1318800 60.2096 216.111 55.7714 0.65935 -0.0225124
1319000 60.2096 216.124 55.7714 0.65945 -0.0370031
1319200 60.2096 216.137 55.7714 0.65955 -0.0316664
1319400 60.2096 216.15 55.7714 0.65965 -0.0313327
1319600 60.2096 216.163 55.7714 0.65975 -0.026904
1319800 60.2096 216.176 55.7714 0.65985 -0.0152315
1320000 60.2096 216.189 55.7714 0.65995 -0.00314526
1320200 60.2096 216.202 55.7714 0.66005 0.0245595
1320400 60.2096 216.215 55.7714 0.66015 0.0205739
1320600 60.2096 216.228 55.7714 0.66025 0.0155437
1320800 60.2096 216.241 55.7714 0.66035 0.0329223
1321000 60.2096 216.254 55.7714 0.66045 0.0483694
1321200 60.2096 216.267 55.7714 0.66055 0.0137537
1321400 60.2096 216.28 55.7714 0.66065 0.0601392
1321600 60.2096 216.293 55.7714 0.66075 0.0456183
1321800 60.2096 216.306 55.7714 0.66085 0.011834
1322000 60.2096 216.319 55.7714 0.66095 0.0140705
1322200 60.2096 216.332 55.7714 0.66105 -0.00767709
1322400 60.2096 216.345 55.7714 0.66115 -0.0229845
1322600 60.2096 216.358 55.7714 0.66125 -0.0301639
1322800 60.2096 216.371 55.7714 0.66135 -0.0206219
1323000 60.2096 216.385 55.7714 0.66145 -0.0330382
1323200 60.2096 216.398 55.7714 0.66155 -0.0388122
1323400 60.2096 216.411 55.7714 0.66165 -0.0291288
1323600 60.2096 216.424 55.7714 0.66175 -0.017389
1323800 60.2096 216.437 55.7714 0.66185 -0.03512
1324000 60.2096 216.45 55.7714 0.66195 0.0108597
1324200 60.2096 216.463 55.7714 0.66205 0.0298395
1324400 60.2096 216.476 55.7714 0.66215 0.0235456
1324600 60.2096 216.489 55.7714 0.66225 0.0202649
1324800 60.2096 216.502 55.7714 0.66235 0.0468245
1325000 60.2096 216.515 55.7714 0.66245 0.0414333
1325200 60.2096 216.528 55.7714 0.66255 0.0454653
1325400 60.2096 216.541 55.7714 0.66265 0.0232239
1325600 60.2096 216.554 55.7714 0.66275 0.0368768
1325800 60.2096 216.567 55.7714 0.66285 0.0389881
1326000 60.2096 216.58 55.7714 0.66295 0.00322638
1326200 60.2096 216.593 55.7714 0.66305 -0.00462527
1326400 60.2096 216.606 55.7714 0.66315 -0.0287351
1326600 60.2096 216.619 55.7714 0.66325 -0.0225442
1326800 60.2096 216.632 55.7714 0.66335 -0.0340262
1327000 60.2096 216.645 55.7714 0.66345 -0.0493706
1327200 60.2096 216.658 55.7714 0.66355 -0.0272033
1327400 60.2096 216.671 55.7714 0.66365 -0.0342134
1327600 60.2096 216.684 55.7714 0.66375 -0.0170723
1327800 60.2096 216.697 55.7714 0.66385 -0.00729577
1328000 60.2096 216.71 55.7714 0.66395 -0.0116346
1328200 60.2096 216.723 55.7714 0.66405 0.0260405
1328400 60.2096 216.736 55.7714 0.66415 0.0095836
1328600 60.2096 216.749 55.7714 0.66425 0.0393548
1328800 60.2096 216.762 55.7714 0.66435 0.0519784
1329000 60.2096 216.775 55.7714 0.66445 0.0327456
1329200 60.2096 216.788 55.7714 0.66455 0.0370505
1329400 60.2096 216.801 55.7714 0.66465 0.039883
1329600 60.2096 216.814 55.7714 0.66475 0.0402372
1329800 60.2096 216.827 55.7714 0.66485 -0.00295316
1330000 60.2096 216.84 55.7714 0.66495 0.00930947
1330200 60.2096 216.853 55.7714 0.66505 0.00140856
1330400 60.2096 216.866 55.7714 0.66515 -0.022702
1330600 60.2096 216.879 55.7714 0.66525 -0.0173327
1330800 60.2096 216.892 55.7714 0.66535 -0.0301343
1331000 60.2096 216.905 55.7714 0.66545 -0.0375817
1331200 60.2096 216.918 55.7714 0.66555 -0.0337995
1331400 60.2096 216.932 55.7714 0.66565 -0.0431885
1331600 60.2096 216.945 55.7714 0.66575 -0.0137355
1331800 60.2096 216.958 55.7714 0.66585 -0.012001
1332000 60.2096 216.971 55.7714 0.66595 0.0189804
1332200 60.2096 216.984 55.7714 0.66605 0.00778587
1332400 60.2096 216.997 55.7714 0.66615 0.0271925
1332600 60.2096 217.01 55.7714 0.66625 0.0186991
1332800 60.2096 217.023 55.7714 0.66635 0.0359445
1333000 60.2096 217.036 55.7714 0.66645 0.0449004
1333200 60.2096 217.049 55.7714 0.66655 0.0573578
1333400 60.2096 217.062 55.7714 0.66665 0.0494275
1333600 60.2096 217.075 55.7714 0.66675 0.0108289
1333800 60.2096 217.088 55.7714 0.66685 -0.00968469
1334000 60.2096 217.101 55.7714 0.66695 0.00304373
1334200 60.2096 217.114 55.7714 0.66705 0.000464172
1334400 60.2096 217.127 55.7714 0.66715 -0.00789764
1334600 60.2096 217.14 55.7714 0.66725 -0.011918
1334800 60.2096 217.153 55.7714 0.66735 -0.0276976
1335000 60.2096 217.166 55.7714 0.66745 -0.044909
1335200 60.2096 217.179 55.7714 0.66755 -0.0424234
1335400 60.2096 217.192 55.7714 0.66765 -0.0348092
1335600 60.2096 217.205 55.7714 0.66775 -0.0274341
1335800 60.2096 217.218 55.7714 0.66785 0.0125952
1336000 60.2096 217.231 55.7714 0.66795 0.00273242
1336200 60.2096 217.244 55.7714 0.66805 0.0311373
1336400 60.2096 217.257 55.7714 0.66815 0.0108458
1336600 60.2096 217.27 55.7714 0.66825 0.0203281
1336800 60.2096 217.283 55.7714 0.66835 0.0397866
1337000 60.2096 217.296 55.7714 0.66845 0.0561406
1337200 60.2096 217.309 55.7714 0.66855 0.05062
1337400 60.2096 217.322 55.7714 0.66865 0.0449913
1337600 60.2096 217.335 55.7714 0.66875 0.0183945
1337800 60.2096 217.348 55.7714 0.66885 -0.000373295
1338000 60.2096 217.361 55.7714 0.66895 -0.00290691
1338200 60.2096 217.374 55.7714 0.66905 -0.0234202
1338400 60.2096 217.387 55.7714 0.66915 -0.0128744
1338600 60.2096 217.4 55.7714 0.66925 -0.0215119
1338800 60.2096 217.413 55.7714 0.66935 -0.0363224
1339000 60.2096 217.426 55.7714 0.66945 -0.0228251
1339200 60.2096 217.439 55.7714 0.66955 -0.0567875
1339400 60.2096 217.452 55.7714 0.66965 -0.0268858
1339600 60.2096 217.465 55.7714 0.66975 -0.00108531
1339800 60.2096 217.479 55.7714 0.66985 -0.000323059
1340000 60.2096 217.492 55.7714 0.66995 0.0150772
1340200 60.2096 217.505 55.7714 0.67005 0.0269187
1340400 60.2096 217.518 55.7714 0.67015 0.0318678
1340600 60.2096 217.531 55.7714 0.67025 0.0167575
1340800 60.2096 217.544 55.7714 0.67035 0.0397226
1341000 60.2096 217.557 55.7714 0.67045 0.0467028
1341200 60.2096 217.57 55.7714 0.67055 0.0429529
1341400 60.2096 217.583 55.7714 0.67065 0.0338251
1341600 60.2096 217.596 55.7714 0.67075 0.0158631
1341800 60.2096 217.609 55.7714 0.67085 0.0160047
1342000 60.2096 217.622 55.7714 0.67095 -0.0171499
1342200 60.2096 217.635 55.7714 0.67105 -0.0313044
1342400 60.2096 217.648 55.7714 0.67115 -0.0129414
1342600 60.2096 217.661 55.7714 0.67125 -0.0280644
1342800 60.2096 217.674 55.7714 0.67135 -0.0248427
1343000 60.2096 217.687 55.7714 0.67145 -0.0404967
1343200 60.2096 217.7 55.7714 0.67155 -0.0156332
1343400 60.2096 217.713 55.7714 0.67165 -0.0359919
1343600 60.2096 217.726 55.7714 0.67175 -0.0116373
1343800 60.2096 217.739 55.7714 0.67185 0.00774287
1344000 60.2096 217.752 55.7714 0.67195 0.020089
1344200 60.2096 217.765 55.7714 0.67205 0.0154978
1344400 60.2096 217.778 55.7714 0.67215 0.0250818
1344600 60.2096 217.791 55.7714 0.67225 0.0303983
1344800 60.2096 217.804 55.7714 0.67235 0.0382404
1345000 60.2096 217.817 55.7714 0.67245 0.0594851
1345200 60.2096 217.83 55.7714 0.67255 0.0381484
1345400 60.2096 217.843 55.7714 0.67265 0.0264304
1345600 60.2096 217.856 55.7714 0.67275 0.0220406
1345800 60.2096 217.869 55.7714 0.67285 0.00264249
1346000 60.2096 217.882 55.7714 0.67295 -0.0111553
1346200 60.2096 217.895 55.7714 0.67305 -0.0104392
1346400 60.2096 217.908 55.7714 0.67315 -0.0164831
1346600 60.2096 217.921 55.7714 0.67325 -0.0321555
1346800 60.2096 217.934 55.7714 0.67335 -0.0426047
1347000 60.2096 217.947 55.7714 0.67345 -0.0377592
1347200 60.2096 217.96 55.7714 0.67355 -0.0289372
1347400 60.2096 217.973 55.7714 0.67365 -0.0202326
1347600 60.2096 217.986 55.7714 0.67375 -0.0130711
1347800 60.2096 217.999 55.7714 0.67385 -0.0114246
1348000 60.2096 218.012 55.7714 0.67395 0.0263565
1348200 60.2096 218.026 55.7714 0.67405 0.0238879
1348400 60.2096 218.039 55.7714 0.67415 0.0279373
1348600 60.2096 218.052 55.7714 0.67425 0.0348252
1348800 60.2096 218.065 55.7714 0.67435 0.0455343
1349000 60.2096 218.078 55.7714 0.67445 0.0461259
1349200 60.2096 218.091 55.7714 0.67455 0.0474316
1349400 60.2096 218.104 55.7714 0.67465 0.0250491
1349600 60.2096 218.117 55.7714 0.67475 0.0199133
1349800 60.2096 218.13 55.7714 0.67485 0.00784101
1350000 60.2096 218.143 55.7714 0.67495 -0.00411954
1350200 60.2096 218.156 55.7714 0.67505 -0.0267906
1350400 60.2096 218.169 55.7714 0.67515 -0.022705
1350600 60.2096 218.182 55.7714 0.67525 -0.0384359
1350800 60.2096 218.195 55.7714 0.67535 -0.0345487
1351000 60.2096 218.208 55.7714 0.67545 -0.0426633
1351200 60.2096 218.221 55.7714 0.67555 -0.0335025
1351400 60.2096 218.234 55.7714 0.67565 -0.0245196
1351600 60.2096 218.247 55.7714 0.67575 -0.0133491
1351800 60.2096 218.26 55.7714 0.67585 0.0023914
1352000 60.2096 218.273 55.7714 0.67595 0.0334088
1352200 60.2096 218.286 55.7714 0.67605 0.0358081
1352400 60.2096 218.299 55.7714 0.67615 0.0147508
1352600 60.2096 218.312 55.7714 0.67625 0.0500637
1352800 60.2096 218.325 55.7714 0.67635 0.0592341
1353000 60.2096 218.338 55.7714 0.67645 0.0417537
1353200 60.2096 218.351 55.7714 0.67655 0.0318947
1353400 60.2096 218.364 55.7714 0.67665 0.0315889
1353600 60.2096 218.377 55.7714 0.67675 0.0228254
1353800 60.2096 218.39 55.7714 0.67685 -0.0184104
1354000 60.2096 218.403 55.7714 0.67695 -0.00841581
1354200 60.2096 218.416 55.7714 0.67705 -0.0287267
1354400 60.2096 218.429 55.7714 0.67715 -0.0310176
1354600 60.2096 218.442 55.7714 0.67725 -0.0333986
1354800 60.2096 218.455 55.7714 0.67735 -0.0487615
1355000 60.2096 218.468 55.7714 0.67745 -0.0212615
1355200 60.2096 218.481 55.7714 0.67755 -0.0314409
1355400 60.2096 218.494 55.7714 0.67765 -0.0261314
1355600 60.2096 218.507 55.7714 0.67775 0.00293922
1355800 60.2096 218.52 55.7714 0.67785 0.00384392
1356000 60.2096 218.533 55.7714 0.67795 0.0313454
1356200 60.2096 218.546 55.7714 0.67805 0.0347773
1356400 60.2096 218.559 55.7714 0.67815 0.0402357
1356600 60.2096 218.573 55.7714 0.67825 0.0280934
1356800 60.2096 218.586 55.7714 0.67835 0.0532661
1357000 60.2096 218.599 55.7714 0.67845 0.0452063
1357200 60.2096 218.612 55.7714 0.67855 0.0355193
1357400 60.2096 218.625 55.7714 0.67865 0.0196632
1357600 60.2096 218.638 55.7714 0.67875 0.000115214
1357800 60.2096 218.651 55.7714 0.67885 0.00855863
1358000 60.2096 218.664 55.7714 0.67895 -0.0163503
1358200 60.2096 218.677 55.7714 0.67905 -0.0338551
1358400 60.2096 218.69 55.7714 0.67915 -0.0282758
1358600 60.2096 218.703 55.7714 0.67925 -0.0304562
1358800 60.2096 218.716 55.7714 0.67935 -0.0425809
1359000 60.2096 218.729 55.7714 0.67945 -0.0443933
1359200 60.2096 218.742 55.7714 0.67955 -0.0165596
1359400 60.2096 218.755 55.7714 0.67965 -0.011706
1359600 60.2096 218.768 55.7714 0.67975 -0.0039759
1359800 60.2096 218.781 55.7714 0.67985 0.021004
1360000 60.2096 218.794 55.7714 0.67995 0.0300428
1360200 60.2096 218.807 55.7714 0.68005 0.0345639
1360400 60.2096 218.82 55.7714 0.68015 0.0254171
1360600 60.2096 218.833 55.7714 0.68025 0.053681
1360800 60.2096 218.846 55.7714 0.68035 0.0482665
1361000 60.2096 218.859 55.7714 0.68045 0.0299908
1361200 60.2096 218.872 55.7714 0.68055 0.0329895
1361400 60.2096 218.885 55.7714 0.68065 0.0246347
1361600 60.2096 218.898 55.7714 0.68075 -0.0124126
1361800 60.2096 218.911 55.7714 0.68085 0.00582605
1362000 60.2096 218.924 55.7714 0.68095 -0.0392528
1362200 60.2096 218.937 55.7714 0.68105 -0.0263504
1362400 60.2096 218.95 55.7714 0.68115 -0.034017
1362600 60.2096 218.963 55.7714 0.68125 -0.0233039
1362800 60.2096 218.976 55.7714 0.68135 -0.0204723
1363000 60.2096 218.989 55.7714 0.68145 -0.027512
1363200 60.2096 219.002 55.7714 0.68155 -0.0347561
1363400 60.2096 219.015 55.7714 0.68165 -0.0134495
1363600 60.2096 219.028 55.7714 0.68175 0.0131951
1363800 60.2096 219.041 55.7714 0.68185 0.0179136
1364000 60.2096 219.054 55.7714 0.68195 0.0338753
1364200 60.2096 219.067 55.7714 0.68205 0.0311224
1364400 60.2096 219.08 55.7714 0.68215 0.0265634
1364600 60.2096 219.093 55.7714 0.68225 0.0510054
1364800 60.2096 219.106 55.7714 0.68235 0.0394262
1365000 60.2096 219.12 55.7714 0.68245 0.0133066
1365200 60.2096 219.133 55.7714 0.68255 0.0142313
1365400 60.2096 219.146 55.7714 0.68265 0.0302104
1365600 60.2096 219.159 55.7714 0.68275 0.0198784
1365800 60.2096 219.172 55.7714 0.68285 -0.00256948
1366000 60.2096 219.185 55.7714 0.68295 -0.036524
1366200 60.2096 219.198 55.7714 0.68305 -0.0411995
1366400 60.2096 219.211 55.7714 0.68315 -0.020785
1366600 60.2096 219.224 55.7714 0.68325 -0.0116833
1366800 60.2096 219.237 55.7714 0.68335 -0.0398293
1367000 60.2096 219.25 55.7714 0.68345 -0.0185053
1367200 60.2096 219.263 55.7714 0.68355 -0.0168453
1367400 60.2096 219.276 55.7714 0.68365 0.00066761
1367600 60.2096 219.289 55.7714 0.68375 -0.0113552
1367800 60.2096 219.302 55.7714 0.68385 0.0136169
1368000 60.2096 219.315 55.7714 0.68395 0.0254964
1368200 60.2096 219.328 55.7714 0.68405 0.0437265
1368400 60.2096 219.341 55.7714 0.68415 0.0316156
1368600 60.2096 219.354 55.7714 0.68425 0.0338217
1368800 60.2096 219.367 55.7714 0.68435 0.0398198
1369000 60.2096 219.38 55.7714 0.68445 0.021177
1369200 60.2096 219.393 55.7714 0.68455 0.0160873
1369400 60.2096 219.406 55.7714 0.68465 0.0358022
1369600 60.2096 219.419 55.7714 0.68475 -0.011974
1369800 60.2096 219.432 55.7714 0.68485 0.00410262
1370000 60.2096 219.445 55.7714 0.68495 -0.0180244
1370200 60.2096 219.458 55.7714 0.68505 -0.0363115
1370400 60.2096 219.471 55.7714 0.68515 -0.0252641
1370600 60.2096 219.484 55.7714 0.68525 -0.033943
1370800 60.2096 219.497 55.7714 0.68535 -0.0257133
1371000 60.2096 219.51 55.7714 0.68545 -0.0199901
1371200 60.2096 219.523 55.7714 0.68555 -0.0140734
1371400 60.2096 219.536 55.7714 0.68565 -0.0164503
1371600 60.2096 219.549 55.7714 0.68575 0.0126283
1371800 60.2096 219.562 55.7714 0.68585 0.0219879
1372000 60.2096 219.575 55.7714 0.68595 0.0270801
1372200 60.2096 219.588 55.7714 0.68605 0.022987
1372400 60.2096 219.601 55.7714 0.68615 0.0378547
1372600 60.2096 219.614 55.7714 0.68625 0.042277
1372800 60.2096 219.627 55.7714 0.68635 0.0401945
1373000 60.2096 219.64 55.7714 0.68645 0.036064
1373200 60.2096 219.653 55.7714 0.68655 0.0208921
1373400 60.2096 219.667 55.7714 0.68665 -0.0118168
1373600 60.2096 219.68 55.7714 0.68675 0.0079867
1373800 60.2096 219.693 55.7714 0.68685 0.000520513
1374000 60.2096 219.706 55.7714 0.68695 -0.0299597
1374200 60.2096 219.719 55.7714 0.68705 2.23747e-05
1374400 60.2096 219.732 55.7714 0.68715 -0.0390405
1374600 60.2096 219.745 55.7714 0.68725 -0.030099
1374800 60.2096 219.758 55.7714 0.68735 -0.0340419
1375000 60.2096 219.771 55.7714 0.68745 -0.0306152
1375200 60.2096 219.784 55.7714 0.68755 -0.00970675
1375400 60.2096 219.797 55.7714 0.68765 0.00640484
1375600 60.2096 219.81 55.7714 0.68775 0.00931479
1375800 60.2096 219.823 55.7714 0.68785 0.0110029
1376000 60.2096 219.836 55.7714 0.68795 0.0279743
1376200 60.2096 219.849 55.7714 0.68805 0.031418
1376400 60.2096 219.862 55.7714 0.68815 0.0365782
1376600 60.2096 219.875 55.7714 0.68825 0.0188819
1376800 60.2096 219.888 55.7714 0.68835 0.0400364
1377000 60.2096 219.901 55.7714 0.68845 0.0318357
1377200 60.2096 219.914 55.7714 0.68855 0.0248596
1377400 60.2096 219.927 55.7714 0.68865 0.00328916
1377600 60.2096 219.94 55.7714 0.68875 -0.00817524
1377800 60.2096 219.953 55.7714 0.68885 0.00580518
1378000 60.2096 219.966 55.7714 0.68895 -0.0168473
1378200 60.2096 219.979 55.7714 0.68905 -0.0298298
1378400 60.2096 219.992 55.7714 0.68915 -0.0159825
1378600 60.2096 220.005 55.7714 0.68925 -0.0363779
1378800 60.2096 220.018 55.7714 0.68935 -0.00641347
1379000 60.2096 220.031 55.7714 0.68945 -0.0100953
1379200 60.2096 220.044 55.7714 0.68955 -0.0356742
1379400 60.2096 220.057 55.7714 0.68965 -0.0210337
1379600 60.2096 220.07 55.7714 0.68975 -0.00581059
1379800 60.2096 220.083 55.7714 0.68985 0.0289794
1380000 60.2096 220.096 55.7714 0.68995 0.0315754
1380200 60.2096 220.109 55.7714 0.69005 0.0401427
1380400 60.2096 220.122 55.7714 0.69015 0.0391617
1380600 60.2096 220.135 55.7714 0.69025 0.0230441
1380800 60.2096 220.148 55.7714 0.69035 0.0232958
1381000 60.2096 220.161 55.7714 0.69045 0.0305382
1381200 60.2096 220.174 55.7714 0.69055 0.0288934
1381400 60.2096 220.187 55.7714 0.69065 0.00517493
1381600 60.2096 220.2 55.7714 0.69075 0.0158785
1381800 60.2096 220.214 55.7714 0.69085 0.00178449
1382000 60.2096 220.227 55.7714 0.69095 -0.0258448
1382200 60.2096 220.24 55.7714 0.69105 -0.0328815
1382400 60.2096 220.253 55.7714 0.69115 -0.0396938
1382600 60.2096 220.266 55.7714 0.69125 -0.0223958
1382800 60.2096 220.279 55.7714 0.69135 -0.0162015
1383000 60.2096 220.292 55.7714 0.69145 -0.0194175
1383200 60.2096 220.305 55.7714 0.69155 -0.0207263
1383400 60.2096 220.318 55.7714 0.69165 -0.00165275
1383600 60.2096 220.331 55.7714 0.69175 0.00429278
1383800 60.2096 220.344 55.7714 0.69185 0.024193
1384000 60.2096 220.357 55.7714 0.69195 0.0182215
1384200 60.2096 220.37 55.7714 0.69205 0.0461305
1384400 60.2096 220.383 55.7714 0.69215 0.0328523
1384600 60.2096 220.396 55.7714 0.69225 0.036289
1384800 60.2096 220.409 55.7714 0.69235 0.0246626
1385000 60.2096 220.422 55.7714 0.69245 0.0279654
1385200 60.2096 220.435 55.7714 0.69255 0.0112758
1385400 60.2096 220.448 55.7714 0.69265 0.00927329
1385600 60.2096 220.461 55.7714 0.69275 0.0105758
1385800 60.2096 220.474 55.7714 0.69285 -0.0206235
1386000 60.2096 220.487 55.7714 0.69295 -0.0290784
1386200 60.2096 220.5 55.7714 0.69305 -0.0180516
1386400 60.2096 220.513 55.7714 0.69315 -0.000746624
1386600 60.2096 220.526 55.7714 0.69325 -0.0356
1386800 60.2096 220.539 55.7714 0.69335 -0.0240481
1387000 60.2096 220.552 55.7714 0.69345 -0.0127349
1387200 60.2096 220.565 55.7714 0.69355 -0.0203933
1387400 60.2096 220.578 55.7714 0.69365 -0.00428533
1387600 60.2096 220.591 55.7714 0.69375 0.00558093
1387800 60.2096 220.604 55.7714 0.69385 0.0189991
1388000 60.2096 220.617 55.7714 0.69395 0.0395228
1388200 60.2096 220.63 55.7714 0.69405 0.0333628
1388400 60.2096 220.643 55.7714 0.69415 0.0222773
1388600 60.2096 220.656 55.7714 0.69425 0.0278189
1388800 60.2096 220.669 55.7714 0.69435 0.0244825
1389000 60.2096 220.682 55.7714 0.69445 0.0187926
1389200 60.2096 220.695 55.7714 0.69455 0.0179838
1389400 60.2096 220.708 55.7714 0.69465 0.0216693
1389600 60.2096 220.721 55.7714 0.69475 -0.00487306
1389800 60.2096 220.734 55.7714 0.69485 -0.00658147
1390000 60.2096 220.747 55.7714 0.69495 -0.0309188
1390200 60.2096 220.761 55.7714 0.69505 -0.0299967
1390400 60.2096 220.774 55.7714 0.69515 -0.0170222
1390600 60.2096 220.787 55.7714 0.69525 -0.022592
1390800 60.2096 220.8 55.7714 0.69535 -0.0149525
1391000 60.2096 220.813 55.7714 0.69545 -0.0113543
1391200 60.2096 220.826 55.7714 0.69555 0.00912677
1391400 60.2096 220.839 55.7714 0.69565 -0.00885431
1391600 60.2096 220.852 55.7714 0.69575 0.000939602
1391800 60.2096 220.865 55.7714 0.69585 0.003884
1392000 60.2096 220.878 55.7714 0.69595 0.0484245
1392200 60.2096 220.891 55.7714 0.69605 0.0464495
1392400 60.2096 220.904 55.7714 0.69615 0.02613
1392600 60.2096 220.917 55.7714 0.69625 0.0124744
1392800 60.2096 220.93 55.7714 0.69635 0.02597
1393000 60.2096 220.943 55.7714 0.69645 0.0216226
1393200 60.2096 220.956 55.7714 0.69655 0.0014677
1393400 60.2096 220.969 55.7714 0.69665 0.0185407
1393600 60.2096 220.982 55.7714 0.69675 -0.00600235
1393800 60.2096 220.995 55.7714 0.69685 -0.0168617
1394000 60.2096 221.008 55.7714 0.69695 -0.0146193
1394200 60.2096 221.021 55.7714 0.69705 -0.0196121
1394400 60.2096 221.034 55.7714 0.69715 -0.0276318
1394600 60.2096 221.047 55.7714 0.69725 -0.028866
1394800 60.2096 221.06 55.7714 0.69735 -0.0132857
1395000 60.2096 221.073 55.7714 0.69745 0.00479522
1395200 60.2096 221.086 55.7714 0.69755 -0.0171079
1395400 60.2096 221.099 55.7714 0.69765 -0.00997748
1395600 60.2096 221.112 55.7714 0.69775 0.0145489
1395800 60.2096 221.125 55.7714 0.69785 0.0363003
1396000 60.2096 221.138 55.7714 0.69795 0.0226043
1396200 60.2096 221.151 55.7714 0.69805 0.0198624
1396400 60.2096 221.164 55.7714 0.69815 0.0403617
1396600 60.2096 221.177 55.7714 0.69825 0.0262876
1396800 60.2096 221.19 55.7714 0.69835 0.0309213
1397000 60.2096 221.203 55.7714 0.69845 0.0113237
1397200 60.2096 221.216 55.7714 0.69855 0.0301547
1397400 60.2096 221.229 55.7714 0.69865 -0.00719652
1397600 60.2096 221.242 55.7714 0.69875 -0.00934124
1397800 60.2096 221.255 55.7714 0.69885 -0.0219947
1398000 60.2096 221.268 55.7714 0.69895 -0.0291234
1398200 60.2096 221.281 55.7714 0.69905 -0.0138449
1398400 60.2096 221.294 55.7714 0.69915 -0.0166293
1398600 60.2096 221.308 55.7714 0.69925 -0.0199467
1398800 60.2096 221.321 55.7714 0.69935 -0.0270181
1399000 60.2096 221.334 55.7714 0.69945 -0.00954682
1399200 60.2096 221.347 55.7714 0.69955 -0.009311
1399400 60.2096 221.36 55.7714 0.69965 0.0183176
1399600 60.2096 221.373 55.7714 0.69975 0.0155706
1399800 60.2096 221.386 55.7714 0.69985 0.0103623
1400000 60.2096 221.399 55.7714 0.69995 0.0496423
1400200 60.2096 221.412 55.7714 0.70005 0.0272379
1400400 60.2096 221.425 55.7714 0.70015 0.0361975
1400600 60.2096 221.438 55.7714 0.70025 0.014981
1400800 60.2096 221.451 55.7714 0.70035 0.0342605
1401000 60.2096 221.464 55.7714 0.70045 0.0166048
1401200 60.2096 221.477 55.7714 0.70055 0.00352794
1401400 60.2096 221.49 55.7714 0.70065 0.00041279
1401600 60.2096 221.503 55.7714 0.70075 -0.00599739
1401800 60.2096 221.516 55.7714 0.70085 -0.0211451
1402000 60.2096 221.529 55.7714 0.70095 -0.039151
1402200 60.2096 221.542 55.7714 0.70105 -0.00484294
1402400 60.2096 221.555 55.7714 0.70115 -0.0239568
1402600 60.2096 221.568 55.7714 0.70125 -0.0315636
1402800 60.2096 221.581 55.7714 0.70135 -0.00211503
1403000 60.2096 221.594 55.7714 0.70145 0.00201867
1403200 60.2096 221.607 55.7714 0.70155 -0.0137138
1403400 60.2096 221.62 55.7714 0.70165 0.0106279
1403600 60.2096 221.633 55.7714 0.70175 0.0133444
1403800 60.2096 221.646 55.7714 0.70185 0.0336989
1404000 60.2096 221.659 55.7714 0.70195 0.0144083
1404200 60.2096 221.672 55.7714 0.70205 0.0329207
1404400 60.2096 221.685 55.7714 0.70215 0.0356486
1404600 60.2096 221.698 55.7714 0.70225 0.021367
1404800 60.2096 221.711 55.7714 0.70235 0.00460494
1405000 60.2096 221.724 55.7714 0.70245 0.0353394
1405200 60.2096 221.737 55.7714 0.70255 0.0175004
1405400 60.2096 221.75 55.7714 0.70265 -0.000175369
1405600 60.2096 221.763 55.7714 0.70275 -0.0174296
1405800 60.2096 221.776 55.7714 0.70285 -0.0187745
1406000 60.2096 221.789 55.7714 0.70295 -0.0289532
1406200 60.2096 221.802 55.7714 0.70305 -0.0166102
1406400 60.2096 221.815 55.7714 0.70315 -0.0213822
1406600 60.2096 221.828 55.7714 0.70325 -0.0184466
1406800 60.2096 221.841 55.7714 0.70335 -0.00314347
1407000 60.2096 221.855 55.7714 0.70345 0.000167086
1407200 60.2096 221.868 55.7714 0.70355 -0.00708861
1407400 60.2096 221.881 55.7714 0.70365 0.00812826
1407600 60.2096 221.894 55.7714 0.70375 0.0161458
1407800 60.2096 221.907 55.7714 0.70385 0.0204379
1408000 60.2096 221.92 55.7714 0.70395 0.0301945
1408200 60.2096 221.933 55.7714 0.70405 0.0229108
1408400 60.2096 221.946 55.7714 0.70415 0.0242304
1408600 60.2096 221.959 55.7714 0.70425 0.0161877
1408800 60.2096 221.972 55.7714 0.70435 0.0239419
1409000 60.2096 221.985 55.7714 0.70445 0.0146846
1409200 60.2096 221.998 55.7714 0.70455 0.00339412
1409400 60.2096 222.011 55.7714 0.70465 0.00624271
1409600 60.2096 222.024 55.7714 0.70475 0.00475608
1409800 60.2096 222.037 55.7714 0.70485 -0.020524
1410000 60.2096 222.05 55.7714 0.70495 -0.0104068
1410200 60.2096 222.063 55.7714 0.70505 -0.0218551
1410400 60.2096 222.076 55.7714 0.70515 -0.0254147
1410600 60.2096 222.089 55.7714 0.70525 -0.0079913
1410800 60.2096 222.102 55.7714 0.70535 -0.0185125
1411000 60.2096 222.115 55.7714 0.70545 0.00432153
1411200 60.2096 222.128 55.7714 0.70555 -0.0109419
1411400 60.2096 222.141 55.7714 0.70565 0.0060697
1411600 60.2096 222.154 55.7714 0.70575 0.0132917
1411800 60.2096 222.167 55.7714 0.70585 0.0183539
1412000 60.2096 222.18 55.7714 0.70595 0.0236251
1412200 60.2096 222.193 55.7714 0.70605 0.0303294
1412400 60.2096 222.206 55.7714 0.70615 0.0235232
1412600 60.2096 222.219 55.7714 0.70625 0.0177369
1412800 60.2096 222.232 55.7714 0.70635 0.0339722
1413000 60.2096 222.245 55.7714 0.70645 0.00373414
1413200 60.2096 222.258 55.7714 0.70655 0.00775381
1413400 60.2096 222.271 55.7714 0.70665 -0.0101291
1413600 60.2096 222.284 55.7714 0.70675 0.00918851
1413800 60.2096 222.297 55.7714 0.70685 -0.0105421
1414000 60.2096 222.31 55.7714 0.70695 -0.0166913
1414200 60.2096 222.323 55.7714 0.70705 -0.0282526
1414400 60.2096 222.336 55.7714 0.70715 -0.00774878
1414600 60.2096 222.349 55.7714 0.70725 -0.0172803
1414800 60.2096 222.362 55.7714 0.70735 -0.0203721
1415000 60.2096 222.375 55.7714 0.70745 -0.011762
1415200 60.2096 222.389 55.7714 0.70755 0.0100358
1415400 60.2096 222.402 55.7714 0.70765 0.00740706
1415600 60.2096 222.415 55.7714 0.70775 0.0191881
1415800 60.2096 222.428 55.7714 0.70785 0.017642
1416000 60.2096 222.441 55.7714 0.70795 0.028857
1416200 60.2096 222.454 55.7714 0.70805 0.0120958
1416400 60.2096 222.467 55.7714 0.70815 0.0472634
1416600 60.2096 222.48 55.7714 0.70825 0.0125022
1416800 60.2096 222.493 55.7714 0.70835 0.0134415
1417000 60.2096 222.506 55.7714 0.70845 0.0210881
1417200 60.2096 222.519 55.7714 0.70855 -0.007012
1417400 60.2096 222.532 55.7714 0.70865 -0.0124085
1417600 60.2096 222.545 55.7714 0.70875 0.00489944
1417800 60.2096 222.558 55.7714 0.70885 -0.00228662
1418000 60.2096 222.571 55.7714 0.70895 -0.0212541
1418200 60.2096 222.584 55.7714 0.70905 -0.0242628
1418400 60.2096 222.597 55.7714 0.70915 -0.0148494
1418600 60.2096 222.61 55.7714 0.70925 0.00453208
1418800 60.2096 222.623 55.7714 0.70935 -0.0287953
1419000 60.2096 222.636 55.7714 0.70945 -0.0106005
1419200 60.2096 222.649 55.7714 0.70955 0.00987304
1419400 60.2096 222.662 55.7714 0.70965 0.0207854
1419600 60.2096 222.675 55.7714 0.70975 0.00564251
1419800 60.2096 222.688 55.7714 0.70985 0.0173002
1420000 60.2096 222.701 55.7714 0.70995 0.0353249
1420200 60.2096 222.714 55.7714 0.71005 0.0207028
1420400 60.2096 222.727 55.7714 0.71015 0.0285526
1420600 60.2096 222.74 55.7714 0.71025 0.0179767
1420800 60.2096 222.753 55.7714 0.71035 0.0216789
1421000 60.2096 222.766 55.7714 0.71045 0.00216402
1421200 60.2096 222.779 55.7714 0.71055 0.0127627
1421400 60.2096 222.792 55.7714 0.71065 -0.00661798
1421600 60.2096 222.805 55.7714 0.71075 -0.00104274
1421800 60.2096 222.818 55.7714 0.71085 -0.0106979
1422000 60.2096 222.831 55.7714 0.71095 -0.0175761
1422200 60.2096 222.844 55.7714 0.71105 -0.0355785
1422400 60.2096 222.857 55.7714 0.71115 -0.0118284
1422600 60.2096 222.87 55.7714 0.71125 -0.0182669
1422800 60.2096 222.883 55.7714 0.71135 -0.000469472
1423000 60.2096 222.896 55.7714 0.71145 -0.0189785
1423200 60.2096 222.909 55.7714 0.71155 0.00885244
1423400 60.2096 222.922 55.7714 0.71165 0.0280234
1423600 60.2096 222.936 55.7714 0.71175 0.00988491
1423800 60.2096 222.949 55.7714 0.71185 0.00194142
1424000 60.2096 222.962 55.7714 0.71195 0.0292215
1424200 60.2096 222.975 55.7714 0.71205 0.0393592
1424400 60.2096 222.988 55.7714 0.71215 0.0425372
1424600 60.2096 223.001 55.7714 0.71225 0.0210853
1424800 60.2096 223.014 55.7714 0.71235 0.00904375
1425000 60.2096 223.027 55.7714 0.71245 0.00546432
1425200 60.2096 223.04 55.7714 0.71255 -0.000498237
1425400 60.2096 223.053 55.7714 0.71265 -0.0143047
1425600 60.2096 223.066 55.7714 0.71275 -0.00283133
1425800 60.2096 223.079 55.7714 0.71285 -0.0292656
1426000 60.2096 223.092 55.7714 0.71295 0.00906648
1426200 60.2096 223.105 55.7714 0.71305 -0.025685
1426400 60.2096 223.118 55.7714 0.71315 -0.0321145
1426600 60.2096 223.131 55.7714 0.71325 -0.00860601
1426800 60.2096 223.144 55.7714 0.71335 -0.00530459
1427000 60.2096 223.157 55.7714 0.71345 -0.00517711
1427200 60.2096 223.17 55.7714 0.71355 0.0149776
1427400 60.2096 223.183 55.7714 0.71365 0.0141506
1427600 60.2096 223.196 55.7714 0.71375 0.0237385
1427800 60.2096 223.209 55.7714 0.71385 0.0260549
1428000 60.2096 223.222 55.7714 0.71395 0.0280866
1428200 60.2096 223.235 55.7714 0.71405 0.0204519
1428400 60.2096 223.248 55.7714 0.71415 0.0234376
1428600 60.2096 223.261 55.7714 0.71425 0.0130451
1428800 60.2096 223.274 55.7714 0.71435 0.020237
1429000 60.2096 223.287 55.7714 0.71445 0.00526389
1429200 60.2096 223.3 55.7714 0.71455 0.00169367
1429400 60.2096 223.313 55.7714 0.71465 -0.0118257
1429600 60.2096 223.326 55.7714 0.71475 -0.0168006
1429800 60.2096 223.339 55.7714 0.71485 -0.0155514
1430000 60.2096 223.352 55.7714 0.71495 -0.0274752
1430200 60.2096 223.365 55.7714 0.71505 -0.0169586
1430400 60.2096 223.378 55.7714 0.71515 -0.0260708
1430600 60.2096 223.391 55.7714 0.71525 -0.0171047
1430800 60.2096 223.404 55.7714 0.71535 0.00548922
1431000 60.2096 223.417 55.7714 0.71545 0.00456256
1431200 60.2096 223.43 55.7714 0.71555 0.0197946
1431400 60.2096 223.443 55.7714 0.71565 0.0150763
1431600 60.2096 223.456 55.7714 0.71575 0.0332052
1431800 60.2096 223.469 55.7714 0.71585 0.0245128
1432000 60.2096 223.483 55.7714 0.71595 0.027654
1432200 60.2096 223.496 55.7714 0.71605 0.0343192
1432400 60.2096 223.509 55.7714 0.71615 0.0306156
1432600 60.2096 223.522 55.7714 0.71625 0.0166583
1432800 60.2096 223.535 55.7714 0.71635 0.0198603
1433000 60.2096 223.548 55.7714 0.71645 -0.00639741
1433200 60.2096 223.561 55.7714 0.71655 -0.00481415
1433400 60.2096 223.574 55.7714 0.71665 -0.0264674
1433600 60.2096 223.587 55.7714 0.71675 -0.0184438
1433800 60.2096 223.6 55.7714 0.71685 -0.0368836
1434000 60.2096 223.613 55.7714 0.71695 -0.0196693
1434200 60.2096 223.626 55.7714 0.71705 -0.00226418
1434400 60.2096 223.639 55.7714 0.71715 -0.0224852
1434600 60.2096 223.652 55.7714 0.71725 -0.0202878
1434800 60.2096 223.665 55.7714 0.71735 0.0185641
1435000 60.2096 223.678 55.7714 0.71745 0.0122282
1435200 60.2096 223.691 55.7714 0.71755 0.00310565
1435400 60.2096 223.704 55.7714 0.71765 0.0119313
1435600 60.2096 223.717 55.7714 0.71775 0.0343298
1435800 60.2096 223.73 55.7714 0.71785 0.0320799
1436000 60.2096 223.743 55.7714 0.71795 0.0291876
1436200 60.2096 223.756 55.7714 0.71805 0.0238181
1436400 60.2096 223.769 55.7714 0.71815 0.0252296
1436600 60.2096 223.782 55.7714 0.71825 0.00162684
1436800 60.2096 223.795 55.7714 0.71835 0.0249297
1437000 60.2096 223.808 55.7714 0.71845 -0.0141551
1437200 60.2096 223.821 55.7714 0.71855 0.0103735
1437400 60.2096 223.834 55.7714 0.71865 0.00343044
1437600 60.2096 223.847 55.7714 0.71875 -0.0256463
1437800 60.2096 223.86 55.7714 0.71885 -0.0219868
1438000 60.2096 223.873 55.7714 0.71895 -0.0441261
1438200 60.2096 223.886 55.7714 0.71905 -0.0221507
1438400 60.2096 223.899 55.7714 0.71915 0.000961166
1438600 60.2096 223.912 55.7714 0.71925 -0.0143645
1438800 60.2096 223.925 55.7714 0.71935 0.0124444
1439000 60.2096 223.938 55.7714 0.71945 -0.00519986
1439200 60.2096 223.951 55.7714 0.71955 0.0231122
1439400 60.2096 223.964 55.7714 0.71965 0.0125677
1439600 60.2096 223.977 55.7714 0.71975 0.0311897
1439800 60.2096 223.99 55.7714 0.71985 0.0137115
1440000 60.2096 224.003 55.7714 0.71995 0.0357667
1440200 60.2096 224.016 55.7714 0.72005 0.0337028
1440400 60.2096 224.03 55.7714 0.72015 0.0168864
1440600 60.2096 224.043 55.7714 0.72025 0.0385996
1440800 60.2096 224.056 55.7714 0.72035 -0.0083624
1441000 60.2096 224.069 55.7714 0.72045 -0.0136805
1441200 60.2096 224.082 55.7714 0.72055 -0.00125469
1441400 60.2096 224.095 55.7714 0.72065 -0.0305014
1441600 60.2096 224.108 55.7714 0.72075 0.00100277
1441800 60.2096 224.121 55.7714 0.72085 -0.0162274
1442000 60.2096 224.134 55.7714 0.72095 -0.010921
1442200 60.2096 224.147 55.7714 0.72105 -0.0190716
1442400 60.2096 224.16 55.7714 0.72115 -0.0289247
1442600 60.2096 224.173 55.7714 0.72125 -0.0215152
1442800 60.2096 224.186 55.7714 0.72135 0.0193491
1443000 60.2096 224.199 55.7714 0.72145 -0.000808131
1443200 60.2096 224.212 55.7714 0.72155 0.0151679
1443400 60.2096 224.225 55.7714 0.72165 0.0340761
1443600 60.2096 224.238 55.7714 0.72175 0.0350804
1443800 60.2096 224.251 55.7714 0.72185 0.0220319
1444000 60.2096 224.264 55.7714 0.72195 0.00605922
1444200 60.2096 224.277 55.7714 0.72205 0.043574
1444400 60.2096 224.29 55.7714 0.72215 0.0133852
1444600 60.2096 224.303 55.7714 0.72225 0.0171612
1444800 60.2096 224.316 55.7714 0.72235 0.0134362
1445000 60.2096 224.329 55.7714 0.72245 0.00142313
1445200 60.2096 224.342 55.7714 0.72255 -0.0114667
1445400 60.2096 224.355 55.7714 0.72265 -0.0282412
1445600 60.2096 224.368 55.7714 0.72275 -0.0274393
1445800 60.2096 224.381 55.7714 0.72285 -0.0262091
1446000 60.2096 224.394 55.7714 0.72295 -0.018261
1446200 60.2096 224.407 55.7714 0.72305 -0.00703781
1446400 60.2096 224.42 55.7714 0.72315 0.0107897
1446600 60.2096 224.433 55.7714 0.72325 -0.000228844
1446800 60.2096 224.446 55.7714 0.72335 -0.00350434
1447000 60.2096 224.459 55.7714 0.72345 0.00609916
1447200 60.2096 224.472 55.7714 0.72355 0.00562254
1447400 60.2096 224.485 55.7714 0.72365 0.028917
1447600 60.2096 224.498 55.7714 0.72375 0.0289968
1447800 60.2096 224.511 55.7714 0.72385 0.0487506
1448000 60.2096 224.524 55.7714 0.72395 0.0276434
1448200 60.2096 224.537 55.7714 0.72405 0.0141651
1448400 60.2096 224.55 55.7714 0.72415 -0.00543651
1448600 60.2096 224.563 55.7714 0.72425 -0.00895502
1448800 60.2096 224.577 55.7714 0.72435 0.00754216
1449000 60.2096 224.59 55.7714 0.72445 -0.00209442
1449200 60.2096 224.603 55.7714 0.72455 -0.00695316
1449400 60.2096 224.616 55.7714 0.72465 0.0067028
1449600 60.2096 224.629 55.7714 0.72475 -0.027937
1449800 60.2096 224.642 55.7714 0.72485 -0.0269408
1450000 60.2096 224.655 55.7714 0.72495 -0.0335392
1450200 60.2096 224.668 55.7714 0.72505 -0.000755925
1450400 60.2096 224.681 55.7714 0.72515 -0.00559873
1450600 60.2096 224.694 55.7714 0.72525 0.0229987
1450800 60.2096 224.707 55.7714 0.72535 0.0252371
1451000 60.2096 224.72 55.7714 0.72545 0.0112849
1451200 60.2096 224.733 55.7714 0.72555 -0.00147931
1451400 60.2096 224.746 55.7714 0.72565 0.0330894
1451600 60.2096 224.759 55.7714 0.72575 0.0114001
1451800 60.2096 224.772 55.7714 0.72585 0.0173476
1452000 60.2096 224.785 55.7714 0.72595 0.0299743
1452200 60.2096 224.798 55.7714 0.72605 0.0276475
1452400 60.2096 224.811 55.7714 0.72615 0.0157028
1452600 60.2096 224.824 55.7714 0.72625 -0.012233
1452800 60.2096 224.837 55.7714 0.72635 -0.00961375
1453000 60.2096 224.85 55.7714 0.72645 -0.0206763
1453200 60.2096 224.863 55.7714 0.72655 -0.00882732
1453400 60.2096 224.876 55.7714 0.72665 -0.0142542
1453600 60.2096 224.889 55.7714 0.72675 -0.0078768
1453800 60.2096 224.902 55.7714 0.72685 0.010051
1454000 60.2096 224.915 55.7714 0.72695 -0.0229452
1454200 60.2096 224.928 55.7714 0.72705 -0.0186312
1454400 60.2096 224.941 55.7714 0.72715 -0.00588271
1454600 60.2096 224.954 55.7714 0.72725 0.010879
1454800 60.2096 224.967 55.7714 0.72735 0.0230558
1455000 60.2096 224.98 55.7714 0.72745 0.0243015
1455200 60.2096 224.993 55.7714 0.72755 0.0213555
1455400 60.2096 225.006 55.7714 0.72765 0.0277388
1455600 60.2096 225.019 55.7714 0.72775 0.00821925
1455800 60.2096 225.032 55.7714 0.72785 0.00732284
1456000 60.2096 225.045 55.7714 0.72795 0.0132275
1456200 60.2096 225.058 55.7714 0.72805 0.014509
1456400 60.2096 225.071 55.7714 0.72815 0.013844
1456600 60.2096 225.084 55.7714 0.72825 0.000341679
1456800 60.2096 225.097 55.7714 0.72835 0.000464581
1457000 60.2096 225.11 55.7714 0.72845 -0.0253368
1457200 60.2096 225.124 55.7714 0.72855 -0.0270294
1457400 60.2096 225.137 55.7714 0.72865 0.000612746
1457600 60.2096 225.15 55.7714 0.72875 -0.0220823
1457800 60.2096 225.163 55.7714 0.72885 0.0122428
1458000 60.2096 225.176 55.7714 0.72895 0.00127763
1458200 60.2096 225.189 55.7714 0.72905 -0.000540478
1458400 60.2096 225.202 55.7714 0.72915 9.51827e-05
1458600 60.2096 225.215 55.7714 0.72925 -0.0019104
1458800 60.2096 225.228 55.7714 0.72935 0.00920458
1459000 60.2096 225.241 55.7714 0.72945 0.0225505
1459200 60.2096 225.254 55.7714 0.72955 0.0311355
1459400 60.2096 225.267 55.7714 0.72965 0.0176235
1459600 60.2096 225.28 55.7714 0.72975 0.019005
1459800 60.2096 225.293 55.7714 0.72985 0.00710247
1460000 60.2096 225.306 55.7714 0.72995 0.00677302
1460200 60.2096 225.319 55.7714 0.73005 -0.000594383
1460400 60.2096 225.332 55.7714 0.73015 0.00829467
1460600 60.2096 225.345 55.7714 0.73025 0.00722374
1460800 60.2096 225.358 55.7714 0.73035 -0.00463375
1461000 60.2096 225.371 55.7714 0.73045 -0.0156727
1461200 60.2096 225.384 55.7714 0.73055 -0.0241821
1461400 60.2096 225.397 55.7714 0.73065 -0.016621
1461600 60.2096 225.41 55.7714 0.73075 -0.00048873
1461800 60.2096 225.423 55.7714 0.73085 -0.0130735
1462000 60.2096 225.436 55.7714 0.73095 -0.00154976
1462200 60.2096 225.449 55.7714 0.73105 0.0165886
1462400 60.2096 225.462 55.7714 0.73115 0.0168551
1462600 60.2096 225.475 55.7714 0.73125 0.00111001
1462800 60.2096 225.488 55.7714 0.73135 0.0071194
1463000 60.2096 225.501 55.7714 0.73145 0.0307192
1463200 60.2096 225.514 55.7714 0.73155 0.00965231
1463400 60.2096 225.527 55.7714 0.73165 0.0227843
1463600 60.2096 225.54 55.7714 0.73175 0.0293943
1463800 60.2096 225.553 55.7714 0.73185 0.0197356
1464000 60.2096 225.566 55.7714 0.73195 -0.00063878
1464200 60.2096 225.579 55.7714 0.73205 -0.0169136
1464400 60.2096 225.592 55.7714 0.73215 0.00480714
1464600 60.2096 225.605 55.7714 0.73225 -0.00294843
1464800 60.2096 225.618 55.7714 0.73235 0.00134097
1465000 60.2096 225.631 55.7714 0.73245 -0.00654441
1465200 60.2096 225.644 55.7714 0.73255 -0.0230315
1465400 60.2096 225.657 55.7714 0.73265 -0.0151233
1465600 60.2096 225.671 55.7714 0.73275 -0.0132611
1465800 60.2096 225.684 55.7714 0.73285 -0.0097035
1466000 60.2096 225.697 55.7714 0.73295 0.00128041
1466200 60.2096 225.71 55.7714 0.73305 0.0120314
1466400 60.2096 225.723 55.7714 0.73315 0.0234773
1466600 60.2096 225.736 55.7714 0.73325 0.010843
1466800 60.2096 225.749 55.7714 0.73335 0.01642
1467000 60.2096 225.762 55.7714 0.73345 0.02392
1467200 60.2096 225.775 55.7714 0.73355 0.0242633
1467400 60.2096 225.788 55.7714 0.73365 0.0143923
1467600 60.2096 225.801 55.7714 0.73375 0.0146425
1467800 60.2096 225.814 55.7714 0.73385 0.00374022
1468000 60.2096 225.827 55.7714 0.73395 0.0170114
1468200 60.2096 225.84 55.7714 0.73405 -0.0173739
1468400 60.2096 225.853 55.7714 0.73415 -0.00803123
1468600 60.2096 225.866 55.7714 0.73425 -0.0107886
1468800 60.2096 225.879 55.7714 0.73435 -0.0158667
1469000 60.2096 225.892 55.7714 0.73445 -0.019227
1469200 60.2096 225.905 55.7714 0.73455 -0.0100992
1469400 60.2096 225.918 55.7714 0.73465 -0.00110215
1469600 60.2096 225.931 55.7714 0.73475 -0.0092601
1469800 60.2096 225.944 55.7714 0.73485 0.0107432
1470000 60.2096 225.957 55.7714 0.73495 0.0118412
1470200 60.2096 225.97 55.7714 0.73505 0.0011018
1470400 60.2096 225.983 55.7714 0.73515 0.0129765
1470600 60.2096 225.996 55.7714 0.73525 0.0290888
1470800 60.2096 226.009 55.7714 0.73535 0.0105531
1471000 60.2096 226.022 55.7714 0.73545 0.0334455
1471200 60.2096 226.035 55.7714 0.73555 0.010837
1471400 60.2096 226.048 55.7714 0.73565 0.0142483
1471600 60.2096 226.061 55.7714 0.73575 0.0108345
1471800 60.2096 226.074 55.7714 0.73585 -0.00792563
1472000 60.2096 226.087 55.7714 0.73595 -0.00836481
1472200 60.2096 226.1 55.7714 0.73605 -0.00416097
1472400 60.2096 226.113 55.7714 0.73615 -0.00423034
1472600 60.2096 226.126 55.7714 0.73625 0.00163491
1472800 60.2096 226.139 55.7714 0.73635 -0.0191366
1473000 60.2096 226.152 55.7714 0.73645 -0.0155892
1473200 60.2096 226.165 55.7714 0.73655 -0.00183345
1473400 60.2096 226.178 55.7714 0.73665 0.00391402
1473600 60.2096 226.191 55.7714 0.73675 -0.0100901
1473800 60.2096 226.204 55.7714 0.73685 0.00435331
1474000 60.2096 226.218 55.7714 0.73695 0.00838649
1474200 60.2096 226.231 55.7714 0.73705 0.0252522
1474400 60.2096 226.244 55.7714 0.73715 0.0186896
1474600 60.2096 226.257 55.7714 0.73725 -0.000553777
1474800 60.2096 226.27 55.7714 0.73735 0.0257822
1475000 60.2096 226.283 55.7714 0.73745 0.0245111
1475200 60.2096 226.296 55.7714 0.73755 0.0174418
1475400 60.2096 226.309 55.7714 0.73765 -0.000569332
1475600 60.2096 226.322 55.7714 0.73775 0.00716198
1475800 60.2096 226.335 55.7714 0.73785 0.00828578
1476000 60.2096 226.348 55.7714 0.73795 -0.017813
1476200 60.2096 226.361 55.7714 0.73805 0.00583415
1476400 60.2096 226.374 55.7714 0.73815 -0.0245503
1476600 60.2096 226.387 55.7714 0.73825 0.0107596
1476800 60.2096 226.4 55.7714 0.73835 -0.0216135
1477000 60.2096 226.413 55.7714 0.73845 -0.0110312
1477200 60.2096 226.426 55.7714 0.73855 -0.0129051
1477400 60.2096 226.439 55.7714 0.73865 0.00554638
1477600 60.2096 226.452 55.7714 0.73875 0.0235714
1477800 60.2096 226.465 55.7714 0.73885 0.00111397
1478000 60.2096 226.478 55.7714 0.73895 -0.00123114
1478200 60.2096 226.491 55.7714 0.73905 0.00804419
1478400 60.2096 226.504 55.7714 0.73915 0.0145421
1478600 60.2096 226.517 55.7714 0.73925 0.0238676
1478800 60.2096 226.53 55.7714 0.73935 0.0145358
1479000 60.2096 226.543 55.7714 0.73945 0.0189873
1479200 60.2096 226.556 55.7714 0.73955 0.00230126
1479400 60.2096 226.569 55.7714 0.73965 0.0136706
1479600 60.2096 226.582 55.7714 0.73975 0.0195881
1479800 60.2096 226.595 55.7714 0.73985 -0.0101456
1480000 60.2096 226.608 55.7714 0.73995 -0.0127054
1480200 60.2096 226.621 55.7714 0.74005 -0.00580776
1480400 60.2096 226.634 55.7714 0.74015 -0.0106573
1480600 60.2096 226.647 55.7714 0.74025 -0.00587995
1480800 60.2096 226.66 55.7714 0.74035 -0.0190639
1481000 60.2096 226.673 55.7714 0.74045 -0.00340397
1481200 60.2096 226.686 55.7714 0.74055 0.00169367
1481400 60.2096 226.699 55.7714 0.74065 0.0261676
1481600 60.2096 226.712 55.7714 0.74075 -0.0155006
1481800 60.2096 226.725 55.7714 0.74085 0.0170092
1482000 60.2096 226.738 55.7714 0.74095 0.0168726
1482200 60.2096 226.751 55.7714 0.74105 0.0123313
1482400 60.2096 226.765 55.7714 0.74115 0.0052284
1482600 60.2096 226.778 55.7714 0.74125 0.022303
1482800 60.2096 226.791 55.7714 0.74135 0.00868759
1483000 60.2096 226.804 55.7714 0.74145 0.0213429
1483200 60.2096 226.817 55.7714 0.74155 0.0180159
1483400 60.2096 226.83 55.7714 0.74165 -0.0206435
1483600 60.2096 226.843 55.7714 0.74175 -0.00874006
1483800 60.2096 226.856 55.7714 0.74185 0.00334085
1484000 60.2096 226.869 55.7714 0.74195 0.00311552
1484200 60.2096 226.882 55.7714 0.74205 -0.0121581
1484400 60.2096 226.895 55.7714 0.74215 -0.0175456
1484600 60.2096 226.908 55.7714 0.74225 -0.0141229
1484800 60.2096 226.921 55.7714 0.74235 -0.000597734
1485000 60.2096 226.934 55.7714 0.74245 -0.0020318
1485200 60.2096 226.947 55.7714 0.74255 -0.00287806
1485400 60.2096 226.96 55.7714 0.74265 0.0206374
1485600 60.2096 226.973 55.7714 0.74275 0.0141334
1485800 60.2096 226.986 55.7714 0.74285 0.0253424
1486000 60.2096 226.999 55.7714 0.74295 0.00143862
1486200 60.2096 227.012 55.7714 0.74305 0.0259497
1486400 60.2096 227.025 55.7714 0.74315 -0.00197939
1486600 60.2096 227.038 55.7714 0.74325 0.00885458
1486800 60.2096 227.051 55.7714 0.74335 0.0240866
1487000 60.2096 227.064 55.7714 0.74345 0.0271001
1487200 60.2096 227.077 55.7714 0.74355 -0.00317357
1487400 60.2096 227.09 55.7714 0.74365 -0.00965105
1487600 60.2096 227.103 55.7714 0.74375 -0.0185334
1487800 60.2096 227.116 55.7714 0.74385 -0.0221538
1488000 60.2096 227.129 55.7714 0.74395 0.00468206
1488200 60.2096 227.142 55.7714 0.74405 -0.00645042
1488400 60.2096 227.155 55.7714 0.74415 0.00276669
1488600 60.2096 227.168 55.7714 0.74425 -0.0147851
1488800 60.2096 227.181 55.7714 0.74435 0.00830733
1489000 60.2096 227.194 55.7714 0.74445 -0.0103094
1489200 60.2096 227.207 55.7714 0.74455 0.00431335
1489400 60.2096 227.22 55.7714 0.74465 0.0184457
1489600 60.2096 227.233 55.7714 0.74475 0.0123686
1489800 60.2096 227.246 55.7714 0.74485 0.0159196
1490000 60.2096 227.259 55.7714 0.74495 0.0251109
1490200 60.2096 227.272 55.7714 0.74505 0.017966
1490400 60.2096 227.285 55.7714 0.74515 0.00635743
1490600 60.2096 227.298 55.7714 0.74525 0.000831418
1490800 60.2096 227.312 55.7714 0.74535 0.00757656
1491000 60.2096 227.325 55.7714 0.74545 0.00964578
1491200 60.2096 227.338 55.7714 0.74555 8.33503e-05
1491400 60.2096 227.351 55.7714 0.74565 -0.0076831
1491600 60.2096 227.364 55.7714 0.74575 0.00357173
1491800 60.2096 227.377 55.7714 0.74585 -0.0172179
1492000 60.2096 227.39 55.7714 0.74595 -0.0138216
1492200 60.2096 227.403 55.7714 0.74605 -0.0222904
1492400 60.2096 227.416 55.7714 0.74615 -0.00432964
1492600 60.2096 227.429 55.7714 0.74625 0.0160604
1492800 60.2096 227.442 55.7714 0.74635 0.0273626
1493000 60.2096 227.455 55.7714 0.74645 -0.00144685
1493200 60.2096 227.468 55.7714 0.74655 0.00502374
1493400 60.2096 227.481 55.7714 0.74665 0.00516528
1493600 60.2096 227.494 55.7714 0.74675 0.0148363
1493800 60.2096 227.507 55.7714 0.74685 0.0121342
1494000 60.2096 227.52 55.7714 0.74695 0.0155794
1494200 60.2096 227.533 55.7714 0.74705 0.0226578
1494400 60.2096 227.546 55.7714 0.74715 0.0122615
1494600 60.2096 227.559 55.7714 0.74725 -0.00947483
1494800 60.2096 227.572 55.7714 0.74735 -0.00732626
1495000 60.2096 227.585 55.7714 0.74745 0.00158277
1495200 60.2096 227.598 55.7714 0.74755 -0.00260724
1495400 60.2096 227.611 55.7714 0.74765 0.00633951
1495600 60.2096 227.624 55.7714 0.74775 0.0254963
1495800 60.2096 227.637 55.7714 0.74785 -0.0308189
1496000 60.2096 227.65 55.7714 0.74795 -0.0152162
1496200 60.2096 227.663 55.7714 0.74805 -0.00943856
1496400 60.2096 227.676 55.7714 0.74815 -0.0170877
1496600 60.2096 227.689 55.7714 0.74825 0.0138545
1496800 60.2096 227.702 55.7714 0.74835 0.0134196
1497000 60.2096 227.715 55.7714 0.74845 0.00355827
1497200 60.2096 227.728 55.7714 0.74855 0.0162876
1497400 60.2096 227.741 55.7714 0.74865 0.013213
1497600 60.2096 227.754 55.7714 0.74875 0.00856329
1497800 60.2096 227.767 55.7714 0.74885 0.00783021
1498000 60.2096 227.78 55.7714 0.74895 0.014844
1498200 60.2096 227.793 55.7714 0.74905 0.0208432
1498400 60.2096 227.806 55.7714 0.74915 0.0126744
1498600 60.2096 227.819 55.7714 0.74925 0.0147544
1498800 60.2096 227.832 55.7714 0.74935 -0.00825428
1499000 60.2096 227.845 55.7714 0.74945 0.00431755
1499200 60.2096 227.859 55.7714 0.74955 -0.0162634
1499400 60.2096 227.872 55.7714 0.74965 0.00394209
1499600 60.2096 227.885 55.7714 0.74975 -0.000351785
1499800 60.2096 227.898 55.7714 0.74985 -0.0104129
1500000 60.2096 227.911 55.7714 0.74995 -0.00033865
1500200 60.2096 227.924 55.7714 0.75005 -0.0106495
1500400 60.2096 227.937 55.7714 0.75015 -0.00680824
1500600 60.2096 227.95 55.7714 0.75025 -0.00207
1500800 60.2096 227.963 55.7714 0.75035 -0.00486391
1501000 60.2096 227.976 55.7714 0.75045 0.00723473
1501200 60.2096 227.989 55.7714 0.75055 0.0138681
1501400 60.2096 228.002 55.7714 0.75065 0.0101888
1501600 60.2096 228.015 55.7714 0.75075 0.0197612
1501800 60.2096 228.028 55.7714 0.75085 0.0018466
1502000 60.2096 228.041 55.7714 0.75095 0.00867501
1502200 60.2096 228.054 55.7714 0.75105 0.0111741
1502400 60.2096 228.067 55.7714 0.75115 0.0347119
1502600 60.2096 228.08 55.7714 0.75125 -1.25822e-05
1502800 60.2096 228.093 55.7714 0.75135 0.00611642
1503000 60.2096 228.106 55.7714 0.75145 0.00571261
1503200 60.2096 228.119 55.7714 0.75155 -0.0080958
1503400 60.2096 228.132 55.7714 0.75165 0.00638381
1503600 60.2096 228.145 55.7714 0.75175 -0.0134959
1503800 60.2096 228.158 55.7714 0.75185 -0.00989364
1504000 60.2096 228.171 55.7714 0.75195 0.0035487
1504200 60.2096 228.184 55.7714 0.75205 -0.00842956
1504400 60.2096 228.197 55.7714 0.75215 0.0071371
1504600 60.2096 228.21 55.7714 0.75225 -0.00985532
1504800 60.2096 228.223 55.7714 0.75235 -0.00385094
1505000 60.2096 228.236 55.7714 0.75245 0.0136894
1505200 60.2096 228.249 55.7714 0.75255 -0.00938992
1505400 60.2096 228.262 55.7714 0.75265 0.0152384
1505600 60.2096 228.275 55.7714 0.75275 0.0174731
1505800 60.2096 228.288 55.7714 0.75285 0.0225427
1506000 60.2096 228.301 55.7714 0.75295 0.013716
1506200 60.2096 228.314 55.7714 0.75305 -0.00605783
1506400 60.2096 228.327 55.7714 0.75315 0.00460222
1506600 60.2096 228.34 55.7714 0.75325 -0.00270691
1506800 60.2096 228.353 55.7714 0.75335 0.0172682
1507000 60.2096 228.366 55.7714 0.75345 0.0224513
1507200 60.2096 228.379 55.7714 0.75355 -0.000509169
1507400 60.2096 228.392 55.7714 0.75365 0.00971165
1507600 60.2096 228.406 55.7714 0.75375 -0.0165422
1507800 60.2096 228.419 55.7714 0.75385 -0.0188345
1508000 60.2096 228.432 55.7714 0.75395 0.0046471
1508200 60.2096 228.445 55.7714 0.75405 -0.0207991
1508400 60.2096 228.458 55.7714 0.75415 0.0171769
1508600 60.2096 228.471 55.7714 0.75425 0.00981879
1508800 60.2096 228.484 55.7714 0.75435 -0.0151188
1509000 60.2096 228.497 55.7714 0.75445 0.00605712
1509200 60.2096 228.51 55.7714 0.75455 0.00543922
1509400 60.2096 228.523 55.7714 0.75465 -0.00758273
1509600 60.2096 228.536 55.7714 0.75475 0.01675
1509800 60.2096 228.549 55.7714 0.75485 0.00275296
1510000 60.2096 228.562 55.7714 0.75495 0.0290692
1510200 60.2096 228.575 55.7714 0.75505 0.019546
1510400 60.2096 228.588 55.7714 0.75515 0.00442815
1510600 60.2096 228.601 55.7714 0.75525 -0.00142223
1510800 60.2096 228.614 55.7714 0.75535 0.0171249
1511000 60.2096 228.627 55.7714 0.75545 0.00592054
1511200 60.2096 228.64 55.7714 0.75555 0.00835089
1511400 60.2096 228.653 55.7714 0.75565 -0.00277059
1511600 60.2096 228.666 55.7714 0.75575 -0.00763948
1511800 60.2096 228.679 55.7714 0.75585 -0.00419479
1512000 60.2096 228.692 55.7714 0.75595 -0.0171614
1512200 60.2096 228.705 55.7714 0.75605 -0.0066277
1512400 60.2096 228.718 55.7714 0.75615 0.000990436
1512600 60.2096 228.731 55.7714 0.75625 0.00187934
1512800 60.2096 228.744 55.7714 0.75635 0.0156756
1513000 60.2096 228.757 55.7714 0.75645 -0.00422171
1513200 60.2096 228.77 55.7714 0.75655 0.00985009
1513400 60.2096 228.783 55.7714 0.75665 0.0022811
1513600 60.2096 228.796 55.7714 0.75675 0.00940868
1513800 60.2096 228.809 55.7714 0.75685 0.00269044
1514000 60.2096 228.822 55.7714 0.75695 0.00413065
1514200 60.2096 228.835 55.7714 0.75705 0.0326267
1514400 60.2096 228.848 55.7714 0.75715 -0.00292592
1514600 60.2096 228.861 55.7714 0.75725 0.0169319
1514800 60.2096 228.874 55.7714 0.75735 0.0035901
1515000 60.2096 228.887 55.7714 0.75745 -0.0020671
1515200 60.2096 228.9 55.7714 0.75755 0.00845541
1515400 60.2096 228.913 55.7714 0.75765 -0.0104509
1515600 60.2096 228.926 55.7714 0.75775 0.0058111
1515800 60.2096 228.939 55.7714 0.75785 -0.0103915
1516000 60.2096 228.953 55.7714 0.75795 -0.001874
1516200 60.2096 228.966 55.7714 0.75805 0.00166545
1516400 60.2096 228.979 55.7714 0.75815 -0.00157245
1516600 60.2096 228.992 55.7714 0.75825 -0.00148379
1516800 60.2096 229.005 55.7714 0.75835 0.00862285
1517000 60.2096 229.018 55.7714 0.75845 0.0162006
1517200 60.2096 229.031 55.7714 0.75855 -0.00377666
1517400 60.2096 229.044 55.7714 0.75865 0.00188496
1517600 60.2096 229.057 55.7714 0.75875 -0.00290792
1517800 60.2096 229.07 55.7714 0.75885 0.00884245
1518000 60.2096 229.083 55.7714 0.75895 0.0250288
1518200 60.2096 229.096 55.7714 0.75905 0.00520405
1518400 60.2096 229.109 55.7714 0.75915 0.00466226
1518600 60.2096 229.122 55.7714 0.75925 0.0123232
1518800 60.2096 229.135 55.7714 0.75935 0.00152441
1519000 60.2096 229.148 55.7714 0.75945 -0.00524737
1519200 60.2096 229.161 55.7714 0.75955 0.00197222
1519400 60.2096 229.174 55.7714 0.75965 -0.00211742
1519600 60.2096 229.187 55.7714 0.75975 0.0172923
1519800 60.2096 229.2 55.7714 0.75985 0.0126385
1520000 60.2096 229.213 55.7714 0.75995 -0.0268831
1520200 60.2096 229.226 55.7714 0.76005 0.0110191
1520400 60.2096 229.239 55.7714 0.76015 -0.00708581
1520600 60.2096 229.252 55.7714 0.76025 -0.0151547
1520800 60.2096 229.265 55.7714 0.76035 0.0184992
1521000 60.2096 229.278 55.7714 0.76045 -0.000403755
1521200 60.2096 229.291 55.7714 0.76055 0.0167256
1521400 60.2096 229.304 55.7714 0.76065 -0.00190593
1521600 60.2096 229.317 55.7714 0.76075 -0.00577341
1521800 60.2096 229.33 55.7714 0.76085 0.013384
1522000 60.2096 229.343 55.7714 0.76095 -0.017212
1522200 60.2096 229.356 55.7714 0.76105 0.0158528
1522400 60.2096 229.369 55.7714 0.76115 0.0271847
1522600 60.2096 229.382 55.7714 0.76125 -0.00152529
1522800 60.2096 229.395 55.7714 0.76135 0.00183055
1523000 60.2096 229.408 55.7714 0.76145 0.0118655
1523200 60.2096 229.421 55.7714 0.76155 0.00297032
1523400 60.2096 229.434 55.7714 0.76165 0.0199024
1523600 60.2096 229.447 55.7714 0.76175 0.000175764
1523800 60.2096 229.46 55.7714 0.76185 0.00493997
1524000 60.2096 229.473 55.7714 0.76195 -0.00255659
1524200 60.2096 229.486 55.7714 0.76205 -0.00248928
1524400 60.2096 229.5 55.7714 0.76215 -0.00247373
1524600 60.2096 229.513 55.7714 0.76225 -0.0045285
1524800 60.2096 229.526 55.7714 0.76235 -0.00427152
1525000 60.2096 229.539 55.7714 0.76245 0.00400425
1525200 60.2096 229.552 55.7714 0.76255 -0.00583798
1525400 60.2096 229.565 55.7714 0.76265 -0.00130415
1525600 60.2096 229.578 55.7714 0.76275 0.00348815
1525800 60.2096 229.591 55.7714 0.76285 0.0112026
1526000 60.2096 229.604 55.7714 0.76295 0.012453
1526200 60.2096 229.617 55.7714 0.76305 -0.0070925
1526400 60.2096 229.63 55.7714 0.76315 0.0162299
1526600 60.2096 229.643 55.7714 0.76325 0.0216005
1526800 60.2096 229.656 55.7714 0.76335 0.0243298
1527000 60.2096 229.669 55.7714 0.76345 0.000415858
1527200 60.2096 229.682 55.7714 0.76355 -0.00311836
1527400 60.2096 229.695 55.7714 0.76365 0.00837019
1527600 60.2096 229.708 55.7714 0.76375 0.000700432
1527800 60.2096 229.721 55.7714 0.76385 -0.00545008
1528000 60.2096 229.734 55.7714 0.76395 -0.00996722
1528200 60.2096 229.747 55.7714 0.76405 -0.00292576
1528400 60.2096 229.76 55.7714 0.76415 0.0120187
1528600 60.2096 229.773 55.7714 0.76425 -0.0117795
1528800 60.2096 229.786 55.7714 0.76435 -0.0224626
1529000 60.2096 229.799 55.7714 0.76445 0.00367094
1529200 60.2096 229.812 55.7714 0.76455 -0.011523
1529400 60.2096 229.825 55.7714 0.76465 0.0157847
1529600 60.2096 229.838 55.7714 0.76475 0.0193644
1529800 60.2096 229.851 55.7714 0.76485 0.0127827
1530000 60.2096 229.864 55.7714 0.76495 0.0215586
1530200 60.2096 229.877 55.7714 0.76505 0.00397313
1530400 60.2096 229.89 55.7714 0.76515 0.000736379
1530600 60.2096 229.903 55.7714 0.76525 0.0174618
1530800 60.2096 229.916 55.7714 0.76535 0.0278732
1531000 60.2096 229.929 55.7714 0.76545 0.0108698
1531200 60.2096 229.942 55.7714 0.76555 0.0083793
1531400 60.2096 229.955 55.7714 0.76565 -0.00216054
1531600 60.2096 229.968 55.7714 0.76575 -0.00919717
1531800 60.2096 229.981 55.7714 0.76585 -0.0178198
1532000 60.2096 229.994 55.7714 0.76595 -0.0197588
1532200 60.2096 230.007 55.7714 0.76605 0.00676533
1532400 60.2096 230.02 55.7714 0.76615 -0.000225936
1532600 60.2096 230.033 55.7714 0.76625 0.000118474
1532800 60.2096 230.047 55.7714 0.76635 -0.00945805
1533000 60.2096 230.06 55.7714 0.76645 -0.0193531
1533200 60.2096 230.073 55.7714 0.76655 -0.00573654
1533400 60.2096 230.086 55.7714 0.76665 0.0137923
1533600 60.2096 230.099 55.7714 0.76675 0.028356
1533800 60.2096 230.112 55.7714 0.76685 0.0275066
1534000 60.2096 230.125 55.7714 0.76695 -5.27352e-05
1534200 60.2096 230.138 55.7714 0.76705 0.0203807
1534400 60.2096 230.151 55.7714 0.76715 0.00356988
1534600 60.2096 230.164 55.7714 0.76725 0.00903757
1534800 60.2096 230.177 55.7714 0.76735 0.00914096
1535000 60.2096 230.19 55.7714 0.76745 0.0218351
1535200 60.2096 230.203 55.7714 0.76755 0.00467686
1535400 60.2096 230.216 55.7714 0.76765 -0.00755694
1535600 60.2096 230.229 55.7714 0.76775 -0.00187301
1535800 60.2096 230.242 55.7714 0.76785 -0.0106494
1536000 60.2096 230.255 55.7714 0.76795 -0.0243646
1536200 60.2096 230.268 55.7714 0.76805 -0.00701131
1536400 60.2096 230.281 55.7714 0.76815 -0.00385693
1536600 60.2096 230.294 55.7714 0.76825 5.76629e-05
1536800 60.2096 230.307 55.7714 0.76835 -0.000604233
1537000 60.2096 230.32 55.7714 0.76845 -0.00440186
1537200 60.2096 230.333 55.7714 0.76855 0.0024591
1537400 60.2096 230.346 55.7714 0.76865 0.0213668
1537600 60.2096 230.359 55.7714 0.76875 0.013201
1537800 60.2096 230.372 55.7714 0.76885 0.0137006
1538000 60.2096 230.385 55.7714 0.76895 0.0208968
1538200 60.2096 230.398 55.7714 0.76905 0.00785582
1538400 60.2096 230.411 55.7714 0.76915 0.0221342
1538600 60.2096 230.424 55.7714 0.76925 0.000714578
1538800 60.2096 230.437 55.7714 0.76935 0.00980743
1539000 60.2096 230.45 55.7714 0.76945 0.0110804
1539200 60.2096 230.463 55.7714 0.76955 0.00976651
1539400 60.2096 230.476 55.7714 0.76965 -0.00529183
1539600 60.2096 230.489 55.7714 0.76975 -0.0181625
1539800 60.2096 230.502 55.7714 0.76985 -0.000638613
1540000 60.2096 230.515 55.7714 0.76995 -0.000716044
1540200 60.2096 230.528 55.7714 0.77005 -0.0249382
1540400 60.2096 230.541 55.7714 0.77015 -0.0162345
1540600 60.2096 230.554 55.7714 0.77025 -0.00409586
1540800 60.2096 230.567 55.7714 0.77035 -0.00537585
1541000 60.2096 230.58 55.7714 0.77045 -0.00433531
1541200 60.2096 230.594 55.7714 0.77055 -0.00189992
1541400 60.2096 230.607 55.7714 0.77065 0.0322766
1541600 60.2096 230.62 55.7714 0.77075 0.013291
1541800 60.2096 230.633 55.7714 0.77085 0.0104984
1542000 60.2096 230.646 55.7714 0.77095 0.032432
1542200 60.2096 230.659 55.7714 0.77105 -0.00316913
1542400 60.2096 230.672 55.7714 0.77115 0.0197299
1542600 60.2096 230.685 55.7714 0.77125 0.0203374
1542800 60.2096 230.698 55.7714 0.77135 0.0136719
1543000 60.2096 230.711 55.7714 0.77145 0.00178758
1543200 60.2096 230.724 55.7714 0.77155 -0.0078502
1543400 60.2096 230.737 55.7714 0.77165 -0.00238018
1543600 60.2096 230.75 55.7714 0.77175 -0.00710009
1543800 60.2096 230.763 55.7714 0.77185 -0.0064644
1544000 60.2096 230.776 55.7714 0.77195 -0.0232117
1544200 60.2096 230.789 55.7714 0.77205 -0.0012881
1544400 60.2096 230.802 55.7714 0.77215 -0.00200746
1544600 60.2096 230.815 55.7714 0.77225 -0.00438723
1544800 60.2096 230.828 55.7714 0.77235 0.00699574
1545000 60.2096 230.841 55.7714 0.77245 -0.0207426
1545200 60.2096 230.854 55.7714 0.77255 0.0195411
1545400 60.2096 230.867 55.7714 0.77265 -0.00541264
1545600 60.2096 230.88 55.7714 0.77275 0.019732
1545800 60.2096 230.893 55.7714 0.77285 0.0194488
1546000 60.2096 230.906 55.7714 0.77295 0.00362201
1546200 60.2096 230.919 55.7714 0.77305 0.0240181
1546400 60.2096 230.932 55.7714 0.77315 0.00815481
1546600 60.2096 230.945 55.7714 0.77325 0.0292894
1546800 60.2096 230.958 55.7714 0.77335 0.00535336
1547000 60.2096 230.971 55.7714 0.77345 0.00985188
1547200 60.2096 230.984 55.7714 0.77355 0.000940715
1547400 60.2096 230.997 55.7714 0.77365 -0.0203206
1547600 60.2096 231.01 55.7714 0.77375 0.00626378
1547800 60.2096 231.023 55.7714 0.77385 -0.0112011
1548000 60.2096 231.036 55.7714 0.77395 -0.0094923
1548200 60.2096 231.049 55.7714 0.77405 -0.0248622
1548400 60.2096 231.062 55.7714 0.77415 0.00571861
1548600 60.2096 231.075 55.7714 0.77425 -0.00779494
1548800 60.2096 231.088 55.7714 0.77435 -0.000974092
1549000 60.2096 231.101 55.7714 0.77445 0.010649
1549200 60.2096 231.114 55.7714 0.77455 0.006625
1549400 60.2096 231.127 55.7714 0.77465 0.0143232
1549600 60.2096 231.141 55.7714 0.77475 0.0107881
1549800 60.2096 231.154 55.7714 0.77485 0.0272375
1550000 60.2096 231.167 55.7714 0.77495 -0.00994858
1550200 60.2096 231.18 55.7714 0.77505 0.00687172
1550400 60.2096 231.193 55.7714 0.77515 0.0173279
1550600 60.2096 231.206 55.7714 0.77525 0.0176871
1550800 60.2096 231.219 55.7714 0.77535 0.00764087
1551000 60.2096 231.232 55.7714 0.77545 0.00539885
1551200 60.2096 231.245 55.7714 0.77555 -0.00614489
1551400 60.2096 231.258 55.7714 0.77565 -0.0151103
1551600 60.2096 231.271 55.7714 0.77575 0.0042097
1551800 60.2096 231.284 55.7714 0.77585 -0.0138892
1552000 60.2096 231.297 55.7714 0.77595 -0.0134826
1552200 60.2096 231.31 55.7714 0.77605 0.00416209
1552400 60.2096 231.323 55.7714 0.77615 0.00941505
1552600 60.2096 231.336 55.7714 0.77625 -0.0150002
1552800 60.2096 231.349 55.7714 0.77635 -0.00183447
1553000 60.2096 231.362 55.7714 0.77645 -0.0036929
1553200 60.2096 231.375 55.7714 0.77655 0.020655
1553400 60.2096 231.388 55.7714 0.77665 0.0197776
1553600 60.2096 231.401 55.7714 0.77675 0.0134477
1553800 60.2096 231.414 55.7714 0.77685 0.0184434
1554000 60.2096 231.427 55.7714 0.77695 0.0129318
1554200 60.2096 231.44 55.7714 0.77705 0.000608366
1554400 60.2096 231.453 55.7714 0.77715 0.00727846
1554600 60.2096 231.466 55.7714 0.77725 0.0029731
1554800 60.2096 231.479 55.7714 0.77735 -0.00581819
1555000 60.2096 231.492 55.7714 0.77745 0.00281904
1555200 60.2096 231.505 55.7714 0.77755 -0.000791404
1555400 60.2096 231.518 55.7714 0.77765 -0.0125458
1555600 60.2096 231.531 55.7714 0.77775 0.00321746
1555800 60.2096 231.544 55.7714 0.77785 0.00507877
1556000 60.2096 231.557 55.7714 0.77795 -0.0142734
1556200 60.2096 231.57 55.7714 0.77805 -0.0186349
1556400 60.2096 231.583 55.7714 0.77815 0.00879578
1556600 60.2096 231.596 55.7714 0.77825 0.00558376
1556800 60.2096 231.609 55.7714 0.77835 0.0180305
1557000 60.2096 231.622 55.7714 0.77845 0.00439944
1557200 60.2096 231.635 55.7714 0.77855 0.0156261
1557400 60.2096 231.648 55.7714 0.77865 0.0186663
1557600 60.2096 231.661 55.7714 0.77875 -0.00329071
1557800 60.2096 231.674 55.7714 0.77885 0.0147906
1558000 60.2096 231.688 55.7714 0.77895 -0.00363226
1558200 60.2096 231.701 55.7714 0.77905 0.00550397
1558400 60.2096 231.714 55.7714 0.77915 0.00855285
1558600 60.2096 231.727 55.7714 0.77925 0.00429087
1558800 60.2096 231.74 55.7714 0.77935 -0.00152504
1559000 60.2096 231.753 55.7714 0.77945 -0.000531109
1559200 60.2096 231.766 55.7714 0.77955 -0.0168533
1559400 60.2096 231.779 55.7714 0.77965 0.00400205
1559600 60.2096 231.792 55.7714 0.77975 -0.0034728
1559800 60.2096 231.805 55.7714 0.77985 0.00309781
1560000 60.2096 231.818 55.7714 0.77995 -0.00577916
1560200 60.2096 231.831 55.7714 0.78005 0.0219547
1560400 60.2096 231.844 55.7714 0.78015 -0.00139137
1560600 60.2096 231.857 55.7714 0.78025 0.0123855
1560800 60.2096 231.87 55.7714 0.78035 0.000495391
1561000 60.2096 231.883 55.7714 0.78045 -0.0064574
1561200 60.2096 231.896 55.7714 0.78055 0.00789599
1561400 60.2096 231.909 55.7714 0.78065 0.00994921
1561600 60.2096 231.922 55.7714 0.78075 -0.0088123
1561800 60.2096 231.935 55.7714 0.78085 0.0215904
1562000 60.2096 231.948 55.7714 0.78095 0.00646528
1562200 60.2096 231.961 55.7714 0.78105 -0.00978427
1562400 60.2096 231.974 55.7714 0.78115 0.000680264
1562600 60.2096 231.987 55.7714 0.78125 0.0107823
1562800 60.2096 232 55.7714 0.78135 0.0134632
1563000 60.2096 232.013 55.7714 0.78145 -0.00692088
1563200 60.2096 232.026 55.7714 0.78155 0.00472764
1563400 60.2096 232.039 55.7714 0.78165 0.00950468
1563600 60.2096 232.052 55.7714 0.78175 -0.0102834
1563800 60.2096 232.065 55.7714 0.78185 0.00146239
1564000 60.2096 232.078 55.7714 0.78195 -0.00191961
1564200 60.2096 232.091 55.7714 0.78205 -0.00176454
1564400 60.2096 232.104 55.7714 0.78215 -0.00774363
1564600 60.2096 232.117 55.7714 0.78225 0.0168345
1564800 60.2096 232.13 55.7714 0.78235 0.00762063
1565000 60.2096 232.143 55.7714 0.78245 -0.000661897
1565200 60.2096 232.156 55.7714 0.78255 0.0106855
1565400 60.2096 232.169 55.7714 0.78265 -0.00366043
1565600 60.2096 232.182 55.7714 0.78275 0.0191004
1565800 60.2096 232.195 55.7714 0.78285 0.010369
1566000 60.2096 232.208 55.7714 0.78295 -0.00258679
1566200 60.2096 232.221 55.7714 0.78305 -0.0048982
1566400 60.2096 232.235 55.7714 0.78315 0.0114983
1566600 60.2096 232.248 55.7714 0.78325 0.000240879
1566800 60.2096 232.261 55.7714 0.78335 0.0139245
1567000 60.2096 232.274 55.7714 0.78345 0.00313575
1567200 60.2096 232.287 55.7714 0.78355 -0.0118628
1567400 60.2096 232.3 55.7714 0.78365 0.00127941
1567600 60.2096 232.313 55.7714 0.78375 -0.00531663
1567800 60.2096 232.326 55.7714 0.78385 -0.00313542
1568000 60.2096 232.339 55.7714 0.78395 0.0209122
1568200 60.2096 232.352 55.7714 0.78405 -0.0118917
1568400 60.2096 232.365 55.7714 0.78415 0.0168094
1568600 60.2096 232.378 55.7714 0.78425 -0.00266544
1568800 60.2096 232.391 55.7714 0.78435 0.00140807
1569000 60.2096 232.404 55.7714 0.78445 -0.0198849
1569200 60.2096 232.417 55.7714 0.78455 0.00757442
1569400 60.2096 232.43 55.7714 0.78465 0.0168537
1569600 60.2096 232.443 55.7714 0.78475 0.0128413
1569800 60.2096 232.456 55.7714 0.78485 0.0137311
1570000 60.2096 232.469 55.7714 0.78495 0.000810277
1570200 60.2096 232.482 55.7714 0.78505 -0.00328795
1570400 60.2096 232.495 55.7714 0.78515 -0.0023296
1570600 60.2096 232.508 55.7714 0.78525 0.00018062
1570800 60.2096 232.521 55.7714 0.78535 0.0206738
1571000 60.2096 232.534 55.7714 0.78545 0.016526
1571200 60.2096 232.547 55.7714 0.78555 0.000108784
1571400 60.2096 232.56 55.7714 0.78565 -0.0112145
1571600 60.2096 232.573 55.7714 0.78575 -0.0111309
1571800 60.2096 232.586 55.7714 0.78585 -0.00914908
1572000 60.2096 232.599 55.7714 0.78595 0.00275774
1572200 60.2096 232.612 55.7714 0.78605 0.00794558
1572400 60.2096 232.625 55.7714 0.78615 0.00855827
1572600 60.2096 232.638 55.7714 0.78625 0.0165744
1572800 60.2096 232.651 55.7714 0.78635 0.003139
1573000 60.2096 232.664 55.7714 0.78645 -0.00110956
1573200 60.2096 232.677 55.7714 0.78655 0.000155515
1573400 60.2096 232.69 55.7714 0.78665 0.00475044
1573600 60.2096 232.703 55.7714 0.78675 0.0200359
1573800 60.2096 232.716 55.7714 0.78685 0.0124992
1574000 60.2096 232.729 55.7714 0.78695 0.00671372
1574200 60.2096 232.742 55.7714 0.78705 -0.0080759
1574400 60.2096 232.755 55.7714 0.78715 -0.00549499
1574600 60.2096 232.768 55.7714 0.78725 -0.0068243
1574800 60.2096 232.782 55.7714 0.78735 0.00220808
1575000 60.2096 232.795 55.7714 0.78745 0.00656977
1575200 60.2096 232.808 55.7714 0.78755 -0.00234759
1575400 60.2096 232.821 55.7714 0.78765 0.00674418
1575600 60.2096 232.834 55.7714 0.78775 -0.00333002
1575800 60.2096 232.847 55.7714 0.78785 0.00220672
1576000 60.2096 232.86 55.7714 0.78795 -0.013383
1576200 60.2096 232.873 55.7714 0.78805 0.0127811
1576400 60.2096 232.886 55.7714 0.78815 0.00129574
1576600 60.2096 232.899 55.7714 0.78825 0.0122379
1576800 60.2096 232.912 55.7714 0.78835 0.0170869
1577000 60.2096 232.925 55.7714 0.78845 0.012916
1577200 60.2096 232.938 55.7714 0.78855 0.00409783
1577400 60.2096 232.951 55.7714 0.78865 -0.0066966
1577600 60.2096 232.964 55.7714 0.78875 -0.010936
1577800 60.2096 232.977 55.7714 0.78885 0.00674588
1578000 60.2096 232.99 55.7714 0.78895 0.0190006
1578200 60.2096 233.003 55.7714 0.78905 0.00731605
1578400 60.2096 233.016 55.7714 0.78915 0.00472708
1578600 60.2096 233.029 55.7714 0.78925 -0.0120012
1578800 60.2096 233.042 55.7714 0.78935 -0.00115094
1579000 60.2096 233.055 55.7714 0.78945 -0.00930404
1579200 60.2096 233.068 55.7714 0.78955 -0.00614583
1579400 60.2096 233.081 55.7714 0.78965 0.0210124
1579600 60.2096 233.094 55.7714 0.78975 0.0275112
1579800 60.2096 233.107 55.7714 0.78985 -0.000806318
1580000 60.2096 233.12 55.7714 0.78995 0.00306983
1580200 60.2096 233.133 55.7714 0.79005 -0.000709586
1580400 60.2096 233.146 55.7714 0.79015 -0.0175203
1580600 60.2096 233.159 55.7714 0.79025 -0.00461782
1580800 60.2096 233.172 55.7714 0.79035 0.0164542
1581000 60.2096 233.185 55.7714 0.79045 0.010942
1581200 60.2096 233.198 55.7714 0.79055 0.0185059
1581400 60.2096 233.211 55.7714 0.79065 -0.0113051
1581600 60.2096 233.224 55.7714 0.79075 -0.0188068
1581800 60.2096 233.237 55.7714 0.79085 0.00323474
1582000 60.2096 233.25 55.7714 0.79095 -0.000296839
1582200 60.2096 233.263 55.7714 0.79105 0.0261684
1582400 60.2096 233.276 55.7714 0.79115 0.0156873
1582600 60.2096 233.289 55.7714 0.79125 0.0129769
1582800 60.2096 233.302 55.7714 0.79135 0.00270202
1583000 60.2096 233.315 55.7714 0.79145 -0.00348194
1583200 60.2096 233.329 55.7714 0.79155 -0.00502924
1583400 60.2096 233.342 55.7714 0.79165 0.00975595
1583600 60.2096 233.355 55.7714 0.79175 0.00985017
1583800 60.2096 233.368 55.7714 0.79185 0.00863504
1584000 60.2096 233.381 55.7714 0.79195 0.00369155
1584200 60.2096 233.394 55.7714 0.79205 -0.0127734
1584400 60.2096 233.407 55.7714 0.79215 -0.0148456
1584600 60.2096 233.42 55.7714 0.79225 -0.0188476
1584800 60.2096 233.433 55.7714 0.79235 0.0124314
1585000 60.2096 233.446 55.7714 0.79245 0.000651884
1585200 60.2096 233.459 55.7714 0.79255 0.0279119
1585400 60.2096 233.472 55.7714 0.79265 -0.011497
1585600 60.2096 233.485 55.7714 0.79275 -0.00605578
1585800 60.2096 233.498 55.7714 0.79285 0.012144
1586000 60.2096 233.511 55.7714 0.79295 0.00269125
1586200 60.2096 233.524 55.7714 0.79305 0.00644695
1586400 60.2096 233.537 55.7714 0.79315 0.0251455
1586600 60.2096 233.55 55.7714 0.79325 0.0180004
1586800 60.2096 233.563 55.7714 0.79335 0.0160555
1587000 60.2096 233.576 55.7714 0.79345 -0.0106554
1587200 60.2096 233.589 55.7714 0.79355 0.00208205
1587400 60.2096 233.602 55.7714 0.79365 -0.000125463
1587600 60.2096 233.615 55.7714 0.79375 0.00206927
1587800 60.2096 233.628 55.7714 0.79385 0.00216558
1588000 60.2096 233.641 55.7714 0.79395 0.0167758
1588200 60.2096 233.654 55.7714 0.79405 -0.0136026
1588400 60.2096 233.667 55.7714 0.79415 -0.012578
1588600 60.2096 233.68 55.7714 0.79425 -0.00762797
1588800 60.2096 233.693 55.7714 0.79435 0.000515727
1589000 60.2096 233.706 55.7714 0.79445 0.00564005
1589200 60.2096 233.719 55.7714 0.79455 0.00488446
1589400 60.2096 233.732 55.7714 0.79465 0.00123654
1589600 60.2096 233.745 55.7714 0.79475 0.00624253
1589800 60.2096 233.758 55.7714 0.79485 0.00429655
1590000 60.2096 233.771 55.7714 0.79495 0.00330419
1590200 60.2096 233.784 55.7714 0.79505 0.0137851
1590400 60.2096 233.797 55.7714 0.79515 0.0155919
1590600 60.2096 233.81 55.7714 0.79525 0.0138463
1590800 60.2096 233.823 55.7714 0.79535 0.0132349
1591000 60.2096 233.836 55.7714 0.79545 0.0042546
1591200 60.2096 233.849 55.7714 0.79555 0.00135744
1591400 60.2096 233.862 55.7714 0.79565 0.00454598
1591600 60.2096 233.876 55.7714 0.79575 -0.00227317
1591800 60.2096 233.889 55.7714 0.79585 -0.00378714
1592000 60.2096 233.902 55.7714 0.79595 0.0130281
1592200 60.2096 233.915 55.7714 0.79605 -0.0217976
1592400 60.2096 233.928 55.7714 0.79615 0.00615494
1592600 60.2096 233.941 55.7714 0.79625 -0.00876874
1592800 60.2096 233.954 55.7714 0.79635 0.00340479
1593000 60.2096 233.967 55.7714 0.79645 -0.00629445
1593200 60.2096 233.98 55.7714 0.79655 0.0050387
1593400 60.2096 233.993 55.7714 0.79665 0.00503773
1593600 60.2096 234.006 55.7714 0.79675 0.0127174
1593800 60.2096 234.019 55.7714 0.79685 0.00276177
1594000 60.2096 234.032 55.7714 0.79695 -0.00288967
1594200 60.2096 234.045 55.7714 0.79705 0.0136492
1594400 60.2096 234.058 55.7714 0.79715 0.0141555
1594600 60.2096 234.071 55.7714 0.79725 0.00809884
1594800 60.2096 234.084 55.7714 0.79735 0.00336343
1595000 60.2096 234.097 55.7714 0.79745 0.0132301
1595200 60.2096 234.11 55.7714 0.79755 0.00825862
1595400 60.2096 234.123 55.7714 0.79765 0.000872073
1595600 60.2096 234.136 55.7714 0.79775 0.0112756
1595800 60.2096 234.149 55.7714 0.79785 0.00335251
1596000 60.2096 234.162 55.7714 0.79795 -0.0134435
1596200 60.2096 234.175 55.7714 0.79805 -0.0120817
1596400 60.2096 234.188 55.7714 0.79815 -0.00628858
1596600 60.2096 234.201 55.7714 0.79825 0.0244807
1596800 60.2096 234.214 55.7714 0.79835 -0.0120128
1597000 60.2096 234.227 55.7714 0.79845 0.00350135
1597200 60.2096 234.24 55.7714 0.79855 -0.0332007
1597400 60.2096 234.253 55.7714 0.79865 0.0170333
1597600 60.2096 234.266 55.7714 0.79875 0.016749
1597800 60.2096 234.279 55.7714 0.79885 -0.00193807
1598000 60.2096 234.292 55.7714 0.79895 0.0200674
1598200 60.2096 234.305 55.7714 0.79905 0.0143401
1598400 60.2096 234.318 55.7714 0.79915 0.00460939
1598600 60.2096 234.331 55.7714 0.79925 0.0143586
1598800 60.2096 234.344 55.7714 0.79935 0.0150256
1599000 60.2096 234.357 55.7714 0.79945 0.0164091
1599200 60.2096 234.37 55.7714 0.79955 0.00580499
1599400 60.2096 234.383 55.7714 0.79965 0.0165987
1599600 60.2096 234.396 55.7714 0.79975 -0.00467956
1599800 60.2096 234.409 55.7714 0.79985 -0.0201574
1600000 60.2096 234.423 55.7714 0.79995 -0.00263344
1600200 60.2096 234.436 55.7714 0.80005 -0.00994765
1600400 60.2096 234.449 55.7714 0.80015 0.00423722
1600600 60.2096 234.462 55.7714 0.80025 0.00539731
1600800 60.2096 234.475 55.7714 0.80035 -0.00728988
1601000 60.2096 234.488 55.7714 0.80045 -0.0202594
1601200 60.2096 234.501 55.7714 0.80055 0.00753323
1601400 60.2096 234.514 55.7714 0.80065 -0.0142158
1601600 60.2096 234.527 55.7714 0.80075 0.014114
1601800 60.2096 234.54 55.7714 0.80085 0.016158
1602000 60.2096 234.553 55.7714 0.80095 0.00938535
1602200 60.2096 234.566 55.7714 0.80105 0.0106215
1602400 60.2096 234.579 55.7714 0.80115 0.0231568
1602600 60.2096 234.592 55.7714 0.80125 0.00543013
1602800 60.2096 234.605 55.7714 0.80135 0.0135564
1603000 60.2096 234.618 55.7714 0.80145 0.0128835
1603200 60.2096 234.631 55.7714 0.80155 0.0131339
1603400 60.2096 234.644 55.7714 0.80165 -0.011412
1603600 60.2096 234.657 55.7714 0.80175 0.0177693
1603800 60.2096 234.67 55.7714 0.80185 -0.00928673
1604000 60.2096 234.683 55.7714 0.80195 -0.00544988
1604200 60.2096 234.696 55.7714 0.80205 -0.00694246
1604400 60.2096 234.709 55.7714 0.80215 -0.000819977
1604600 60.2096 234.722 55.7714 0.80225 -0.0113306
1604800 60.2096 234.735 55.7714 0.80235 -0.0028869
1605000 60.2096 234.748 55.7714 0.80245 0.00564023
1605200 60.2096 234.761 55.7714 0.80255 0.000219136
1605400 60.2096 234.774 55.7714 0.80265 -0.00117648
1605600 60.2096 234.787 55.7714 0.80275 0.00305384
1605800 60.2096 234.8 55.7714 0.80285 0.00159571
1606000 60.2096 234.813 55.7714 0.80295 0.0029039
1606200 60.2096 234.826 55.7714 0.80305 0.0276449
1606400 60.2096 234.839 55.7714 0.80315 0.0159684
1606600 60.2096 234.852 55.7714 0.80325 0.025609
1606800 60.2096 234.865 55.7714 0.80335 0.0121607
1607000 60.2096 234.878 55.7714 0.80345 -0.00242758
1607200 60.2096 234.891 55.7714 0.80355 0.00224752
1607400 60.2096 234.904 55.7714 0.80365 0.00539903
1607600 60.2096 234.917 55.7714 0.80375 0.0142859
1607800 60.2096 234.93 55.7714 0.80385 -0.00346303
1608000 60.2096 234.943 55.7714 0.80395 -0.00670609
1608200 60.2096 234.956 55.7714 0.80405 0.0036707
1608400 60.2096 234.97 55.7714 0.80415 -0.0199339
1608600 60.2096 234.983 55.7714 0.80425 -0.0142972
1608800 60.2096 234.996 55.7714 0.80435 -0.00726574
1609000 60.2096 235.009 55.7714 0.80445 0.0181833
1609200 60.2096 235.022 55.7714 0.80455 -0.0113777
1609400 60.2096 235.035 55.7714 0.80465 0.00940831
1609600 60.2096 235.048 55.7714 0.80475 0.0134024
1609800 60.2096 235.061 55.7714 0.80485 -0.00283415
1610000 60.2096 235.074 55.7714 0.80495 0.00753334
1610200 60.2096 235.087 55.7714 0.80505 0.0253859
1610400 60.2096 235.1 55.7714 0.80515 0.0025176
1610600 60.2096 235.113 55.7714 0.80525 0.0223822
1610800 60.2096 235.126 55.7714 0.80535 0.00887594
1611000 60.2096 235.139 55.7714 0.80545 0.0138263
1611200 60.2096 235.152 55.7714 0.80555 0.0135544
1611400 60.2096 235.165 55.7714 0.80565 0.0113286
1611600 60.2096 235.178 55.7714 0.80575 -0.00929023
1611800 60.2096 235.191 55.7714 0.80585 -0.00709287
1612000 60.2096 235.204 55.7714 0.80595 -0.0069258
1612200 60.2096 235.217 55.7714 0.80605 -0.00661279
1612400 60.2096 235.23 55.7714 0.80615 -0.00145099
1612600 60.2096 235.243 55.7714 0.80625 -0.00290696
1612800 60.2096 235.256 55.7714 0.80635 -0.00565323
1613000 60.2096 235.269 55.7714 0.80645 0.00188649
1613200 60.2096 235.282 55.7714 0.80655 0.00355041
1613400 60.2096 235.295 55.7714 0.80665 -0.0124848
1613600 60.2096 235.308 55.7714 0.80675 0.0148301
1613800 60.2096 235.321 55.7714 0.80685 0.00991913
1614000 60.2096 235.334 55.7714 0.80695 0.0219658
1614200 60.2096 235.347 55.7714 0.80705 0.010449
1614400 60.2096 235.36 55.7714 0.80715 0.0212994
1614600 60.2096 235.373 55.7714 0.80725 -0.0100385
1614800 60.2096 235.386 55.7714 0.80735 0.0172468
1615000 60.2096 235.399 55.7714 0.80745 -0.0084279
1615200 60.2096 235.412 55.7714 0.80755 0.00629045
1615400 60.2096 235.425 55.7714 0.80765 0.00572787
1615600 60.2096 235.438 55.7714 0.80775 0.0129317
1615800 60.2096 235.451 55.7714 0.80785 0.00356252
1616000 60.2096 235.464 55.7714 0.80795 -0.0133494
1616200 60.2096 235.477 55.7714 0.80805 -0.0117576
1616400 60.2096 235.49 55.7714 0.80815 0.00422376
1616600 60.2096 235.504 55.7714 0.80825 0.00804047
1616800 60.2096 235.517 55.7714 0.80835 0.0275792
1617000 60.2096 235.53 55.7714 0.80845 -0.0110271
1617200 60.2096 235.543 55.7714 0.80855 0.00547484
1617400 60.2096 235.556 55.7714 0.80865 -0.0102467
1617600 60.2096 235.569 55.7714 0.80875 -0.0186672
1617800 60.2096 235.582 55.7714 0.80885 0.0109458
1618000 60.2096 235.595 55.7714 0.80895 0.0246346
1618200 60.2096 235.608 55.7714 0.80905 0.0183976
1618400 60.2096 235.621 55.7714 0.80915 0.0116849
1618600 60.2096 235.634 55.7714 0.80925 -0.0185295
1618800 60.2096 235.647 55.7714 0.80935 -0.00296192
1619000 60.2096 235.66 55.7714 0.80945 0.0136398
1619200 60.2096 235.673 55.7714 0.80955 0.00813676
1619400 60.2096 235.686 55.7714 0.80965 0.0370114
1619600 60.2096 235.699 55.7714 0.80975 0.0125761
1619800 60.2096 235.712 55.7714 0.80985 0.00330013
1620000 60.2096 235.725 55.7714 0.80995 -0.0088881
1620200 60.2096 235.738 55.7714 0.81005 -0.0182077
1620400 60.2096 235.751 55.7714 0.81015 -0.0112633
1620600 60.2096 235.764 55.7714 0.81025 0.0010988
1620800 60.2096 235.777 55.7714 0.81035 0.0139948
1621000 60.2096 235.79 55.7714 0.81045 0.00194803
1621200 60.2096 235.803 55.7714 0.81055 -0.00615379
1621400 60.2096 235.816 55.7714 0.81065 -0.0259552
1621600 60.2096 235.829 55.7714 0.81075 -0.0154436
1621800 60.2096 235.842 55.7714 0.81085 0.0217584
1622000 60.2096 235.855 55.7714 0.81095 0.00825958
1622200 60.2096 235.868 55.7714 0.81105 0.0278147
1622400 60.2096 235.881 55.7714 0.81115 0.0209057
1622600 60.2096 235.894 55.7714 0.81125 0.0155928
1622800 60.2096 235.907 55.7714 0.81135 0.00695275
1623000 60.2096 235.92 55.7714 0.81145 0.00514693
1623200 60.2096 235.933 55.7714 0.81155 0.00191469
1623400 60.2096 235.946 55.7714 0.81165 0.00738812
1623600 60.2096 235.959 55.7714 0.81175 0.0242289
1623800 60.2096 235.972 55.7714 0.81185 -0.000860402
1624000 60.2096 235.985 55.7714 0.81195 0.0180594
1624200 60.2096 235.998 55.7714 0.81205 -0.0151267
1624400 60.2096 236.011 55.7714 0.81215 0.00208606
1624600 60.2096 236.024 55.7714 0.81225 -0.0167889
1624800 60.2096 236.037 55.7714 0.81235 -0.0200969
1625000 60.2096 236.051 55.7714 0.81245 0.00268237
1625200 60.2096 236.064 55.7714 0.81255 -0.0094075
1625400 60.2096 236.077 55.7714 0.81265 0.00915888
1625600 60.2096 236.09 55.7714 0.81275 -0.00818341
1625800 60.2096 236.103 55.7714 0.81285 0.00887491
1626000 60.2096 236.116 55.7714 0.81295 -0.00220056
1626200 60.2096 236.129 55.7714 0.81305 0.00592994
1626400 60.2096 236.142 55.7714 0.81315 0.0228285
1626600 60.2096 236.155 55.7714 0.81325 0.0109379
1626800 60.2096 236.168 55.7714 0.81335 0.0220798
1627000 60.2096 236.181 55.7714 0.81345 0.0138329
1627200 60.2096 236.194 55.7714 0.81355 0.0203024
1627400 60.2096 236.207 55.7714 0.81365 0.0182646
1627600 60.2096 236.22 55.7714 0.81375 -0.00191437
1627800 60.2096 236.233 55.7714 0.81385 -0.00546303
1628000 60.2096 236.246 55.7714 0.81395 0.00977485
1628200 60.2096 236.259 55.7714 0.81405 0.00354661
1628400 60.2096 236.272 55.7714 0.81415 -0.0167765
1628600 60.2096 236.285 55.7714 0.81425 -0.00481516
1628800 60.2096 236.298 55.7714 0.81435 -0.0209221
1629000 60.2096 236.311 55.7714 0.81445 -0.0144474
1629200 60.2096 236.324 55.7714 0.81455 0.0144528
1629400 60.2096 236.337 55.7714 0.81465 -0.00393453
1629600 60.2096 236.35 55.7714 0.81475 0.00874192
1629800 60.2096 236.363 55.7714 0.81485 -0.00111652
1630000 60.2096 236.376 55.7714 0.81495 -0.011866
1630200 60.2096 236.389 55.7714 0.81505 0.0197652
1630400 60.2096 236.402 55.7714 0.81515 0.0136053
1630600 60.2096 236.415 55.7714 0.81525 0.0162748
1630800 60.2096 236.428 55.7714 0.81535 0.0176151
1631000 60.2096 236.441 55.7714 0.81545 0.015967
1631200 60.2096 236.454 55.7714 0.81555 0.0204951
1631400 60.2096 236.467 55.7714 0.81565 0.0125751
1631600 60.2096 236.48 55.7714 0.81575 0.0025868
1631800 60.2096 236.493 55.7714 0.81585 0.000288135
1632000 60.2096 236.506 55.7714 0.81595 0.0037785
1632200 60.2096 236.519 55.7714 0.81605 -0.0152443
1632400 60.2096 236.532 55.7714 0.81615 0.00708163
1632600 60.2096 236.545 55.7714 0.81625 -0.0134038
1632800 60.2096 236.558 55.7714 0.81635 -0.00316495
1633000 60.2096 236.571 55.7714 0.81645 -0.0185084
1633200 60.2096 236.584 55.7714 0.81655 -0.00832682
1633400 60.2096 236.598 55.7714 0.81665 0.00200424
1633600 60.2096 236.611 55.7714 0.81675 0.00759965
1633800 60.2096 236.624 55.7714 0.81685 -0.0140057
1634000 60.2096 236.637 55.7714 0.81695 0.0171882
1634200 60.2096 236.65 55.7714 0.81705 0.0168051
1634400 60.2096 236.663 55.7714 0.81715 0.0173465
1634600 60.2096 236.676 55.7714 0.81725 0.0172692
1634800 60.2096 236.689 55.7714 0.81735 0.0257482
1635000 60.2096 236.702 55.7714 0.81745 0.0056458
1635200 60.2096 236.715 55.7714 0.81755 0.0179888
1635400 60.2096 236.728 55.7714 0.81765 0.0280469
1635600 60.2096 236.741 55.7714 0.81775 -0.0144883
1635800 60.2096 236.754 55.7714 0.81785 0.0136374
1636000 60.2096 236.767 55.7714 0.81795 -0.0065059
1636200 60.2096 236.78 55.7714 0.81805 -0.00442496
1636400 60.2096 236.793 55.7714 0.81815 -0.0268532
1636600 60.2096 236.806 55.7714 0.81825 0.00665072
1636800 60.2096 236.819 55.7714 0.81835 -0.0233286
1637000 60.2096 236.832 55.7714 0.81845 -0.00880181
1637200 60.2096 236.845 55.7714 0.81855 -0.0175852
1637400 60.2096 236.858 55.7714 0.81865 0.00790204
1637600 60.2096 236.871 55.7714 0.81875 0.00729086
1637800 60.2096 236.884 55.7714 0.81885 0.00647441
1638000 60.2096 236.897 55.7714 0.81895 0.0101162
1638200 60.2096 236.91 55.7714 0.81905 0.013211
1638400 60.2096 236.923 55.7714 0.81915 0.0149343
1638600 60.2096 236.936 55.7714 0.81925 0.0230315
1638800 60.2096 236.949 55.7714 0.81935 0.0272615
1639000 60.2096 236.962 55.7714 0.81945 0.00901218
1639200 60.2096 236.975 55.7714 0.81955 0.0203931
1639400 60.2096 236.988 55.7714 0.81965 0.0108553
1639600 60.2096 237.001 55.7714 0.81975 0.0051354
1639800 60.2096 237.014 55.7714 0.81985 -0.00842692
1640000 60.2096 237.027 55.7714 0.81995 -0.00237315
1640200 60.2096 237.04 55.7714 0.82005 -0.00389615
1640400 60.2096 237.053 55.7714 0.82015 -0.0280584
1640600 60.2096 237.066 55.7714 0.82025 -0.00249808
1640800 60.2096 237.079 55.7714 0.82035 -0.0043096
1641000 60.2096 237.092 55.7714 0.82045 -0.011852
1641200 60.2096 237.105 55.7714 0.82055 -0.00515064
1641400 60.2096 237.118 55.7714 0.82065 -0.00474465
1641600 60.2096 237.131 55.7714 0.82075 0.0143087
1641800 60.2096 237.145 55.7714 0.82085 -0.00894124
1642000 60.2096 237.158 55.7714 0.82095 0.0200503
1642200 60.2096 237.171 55.7714 0.82105 0.000585907
1642400 60.2096 237.184 55.7714 0.82115 0.0292034
1642600 60.2096 237.197 55.7714 0.82125 0.0178041
1642800 60.2096 237.21 55.7714 0.82135 0.0203308
1643000 60.2096 237.223 55.7714 0.82145 -0.000888212
1643200 60.2096 237.236 55.7714 0.82155 0.0270941
1643400 60.2096 237.249 55.7714 0.82165 0.000535984
1643600 60.2096 237.262 55.7714 0.82175 0.00707394
1643800 60.2096 237.275 55.7714 0.82185 0.0147502
1644000 60.2096 237.288 55.7714 0.82195 -0.00579365
1644200 60.2096 237.301 55.7714 0.82205 -0.0131784
1644400 60.2096 237.314 55.7714 0.82215 -0.0134682
1644600 60.2096 237.327 55.7714 0.82225 -0.0187127
1644800 60.2096 237.34 55.7714 0.82235 0.00314739
1645000 60.2096 237.353 55.7714 0.82245 -0.00120364
1645200 60.2096 237.366 55.7714 0.82255 0.0108265
1645400 60.2096 237.379 55.7714 0.82265 0.0014861
1645600 60.2096 237.392 55.7714 0.82275 -0.00678519
1645800 60.2096 237.405 55.7714 0.82285 -0.0122107
1646000 60.2096 237.418 55.7714 0.82295 0.00772695
1646200 60.2096 237.431 55.7714 0.82305 0.00570256
1646400 60.2096 237.444 55.7714 0.82315 0.0366872
1646600 60.2096 237.457 55.7714 0.82325 0.00701035
1646800 60.2096 237.47 55.7714 0.82335 0.0308519
1647000 60.2096 237.483 55.7714 0.82345 0.0015713
1647200 60.2096 237.496 55.7714 0.82355 0.00680661
1647400 60.2096 237.509 55.7714 0.82365 0.00693051
1647600 60.2096 237.522 55.7714 0.82375 -0.00347507
1647800 60.2096 237.535 55.7714 0.82385 0.0131449
1648000 60.2096 237.548 55.7714 0.82395 0.00336354
1648200 60.2096 237.561 55.7714 0.82405 -0.00438087
1648400 60.2096 237.574 55.7714 0.82415 -0.00307627
1648600 60.2096 237.587 55.7714 0.82425 -0.0227497
1648800 60.2096 237.6 55.7714 0.82435 -0.0215379
1649000 60.2096 237.613 55.7714 0.82445 -0.00928559
1649200 60.2096 237.626 55.7714 0.82455 0.0209488
1649400 60.2096 237.639 55.7714 0.82465 0.0123437
1649600 60.2096 237.652 55.7714 0.82475 0.00374166
1649800 60.2096 237.665 55.7714 0.82485 -0.000114016
1650000 60.2096 237.678 55.7714 0.82495 0.00962974
1650200 60.2096 237.692 55.7714 0.82505 -0.00162127
1650400 60.2096 237.705 55.7714 0.82515 0.0079926
1650600 60.2096 237.718 55.7714 0.82525 0.0120734
1650800 60.2096 237.731 55.7714 0.82535 0.0301692
1651000 60.2096 237.744 55.7714 0.82545 0.0146159
1651200 60.2096 237.757 55.7714 0.82555 0.00602786
1651400 60.2096 237.77 55.7714 0.82565 -0.00896831
1651600 60.2096 237.783 55.7714 0.82575 0.00506341
1651800 60.2096 237.796 55.7714 0.82585 -0.00894777
1652000 60.2096 237.809 55.7714 0.82595 0.017366
1652200 60.2096 237.822 55.7714 0.82605 -0.000659667
1652400 60.2096 237.835 55.7714 0.82615 -0.00187702
1652600 60.2096 237.848 55.7714 0.82625 -0.00622142
1652800 60.2096 237.861 55.7714 0.82635 -0.00316464
1653000 60.2096 237.874 55.7714 0.82645 -0.0127823
1653200 60.2096 237.887 55.7714 0.82655 -0.00749177
1653400 60.2096 237.9 55.7714 0.82665 0.0100193
1653600 60.2096 237.913 55.7714 0.82675 0.0126886
1653800 60.2096 237.926 55.7714 0.82685 0.0181845
1654000 60.2096 237.939 55.7714 0.82695 -0.0155383
1654200 60.2096 237.952 55.7714 0.82705 0.0126948
1654400 60.2096 237.965 55.7714 0.82715 0.011904
1654600 60.2096 237.978 55.7714 0.82725 -0.00923471
1654800 60.2096 237.991 55.7714 0.82735 0.0261006
1655000 60.2096 238.004 55.7714 0.82745 0.0230146
1655200 60.2096 238.017 55.7714 0.82755 0.00663915
1655400 60.2096 238.03 55.7714 0.82765 0.000710521
1655600 60.2096 238.043 55.7714 0.82775 -0.0112396
1655800 60.2096 238.056 55.7714 0.82785 0.00103904
1656000 60.2096 238.069 55.7714 0.82795 -0.00454083
1656200 60.2096 238.082 55.7714 0.82805 -0.000708737
1656400 60.2096 238.095 55.7714 0.82815 0.0115331
1656600 60.2096 238.108 55.7714 0.82825 -0.00651563
1656800 60.2096 238.121 55.7714 0.82835 0.0028739
1657000 60.2096 238.134 55.7714 0.82845 -0.00340639
1657200 60.2096 238.147 55.7714 0.82855 -0.00605312
1657400 60.2096 238.16 55.7714 0.82865 -0.00141042
1657600 60.2096 238.173 55.7714 0.82875 0.0056992
1657800 60.2096 238.186 55.7714 0.82885 0.0229852
1658000 60.2096 238.199 55.7714 0.82895 0.0199723
1658200 60.2096 238.212 55.7714 0.82905 -0.0100529
1658400 60.2096 238.225 55.7714 0.82915 -0.00911562
1658600 60.2096 238.239 55.7714 0.82925 0.027797
1658800 60.2096 238.252 55.7714 0.82935 0.00843517
1659000 60.2096 238.265 55.7714 0.82945 -0.00478652
1659200 60.2096 238.278 55.7714 0.82955 0.0109327
1659400 60.2096 238.291 55.7714 0.82965 0.00283254
1659600 60.2096 238.304 55.7714 0.82975 -0.00319336
1659800 60.2096 238.317 55.7714 0.82985 -0.00051284
1660000 60.2096 238.33 55.7714 0.82995 -0.00222245
1660200 60.2096 238.343 55.7714 0.83005 0.0116713
1660400 60.2096 238.356 55.7714 0.83015 0.00372412
1660600 60.2096 238.369 55.7714 0.83025 -0.00926537
1660800 60.2096 238.382 55.7714 0.83035 0.00638657
1661000 60.2096 238.395 55.7714 0.83045 0.00611901
1661200 60.2096 238.408 55.7714 0.83055 -0.00798593
1661400 60.2096 238.421 55.7714 0.83065 0.00745222
1661600 60.2096 238.434 55.7714 0.83075 0.0264599
1661800 60.2096 238.447 55.7714 0.83085 0.0115487
1662000 60.2096 238.46 55.7714 0.83095 -0.0160484
1662200 60.2096 238.473 55.7714 0.83105 -0.00670255
1662400 60.2096 238.486 55.7714 0.83115 0.0134607
1662600 60.2096 238.499 55.7714 0.83125 0.00456724
1662800 60.2096 238.512 55.7714 0.83135 0.000991078
1663000 60.2096 238.525 55.7714 0.83145 0.00249586
1663200 60.2096 238.538 55.7714 0.83155 0.00251865
1663400 60.2096 238.551 55.7714 0.83165 0.000621348
1663600 60.2096 238.564 55.7714 0.83175 -0.00603703
1663800 60.2096 238.577 55.7714 0.83185 0.00910297
1664000 60.2096 238.59 55.7714 0.83195 0.0150215
1664200 60.2096 238.603 55.7714 0.83205 -0.00446022
1664400 60.2096 238.616 55.7714 0.83215 0.00471864
1664600 60.2096 238.629 55.7714 0.83225 0.0129693
1664800 60.2096 238.642 55.7714 0.83235 -0.001363
1665000 60.2096 238.655 55.7714 0.83245 0.00940356
1665200 60.2096 238.668 55.7714 0.83255 -0.00879395
1665400 60.2096 238.681 55.7714 0.83265 0.00716774
1665600 60.2096 238.694 55.7714 0.83275 0.00811145
1665800 60.2096 238.707 55.7714 0.83285 -0.00456237
1666000 60.2096 238.72 55.7714 0.83295 0.0179848
1666200 60.2096 238.733 55.7714 0.83305 0.00693642
1666400 60.2096 238.746 55.7714 0.83315 -0.00922427
1666600 60.2096 238.759 55.7714 0.83325 -0.0152433
1666800 60.2096 238.772 55.7714 0.83335 0.0132157
1667000 60.2096 238.786 55.7714 0.83345 0.00673546
1667200 60.2096 238.799 55.7714 0.83355 0.00755125
1667400 60.2096 238.812 55.7714 0.83365 0.00933486
1667600 60.2096 238.825 55.7714 0.83375 -0.00475999
1667800 60.2096 238.838 55.7714 0.83385 0.00203148
1668000 60.2096 238.851 55.7714 0.83395 0.00035306
1668200 60.2096 238.864 55.7714 0.83405 0.00447518
1668400 60.2096 238.877 55.7714 0.83415 0.0114495
1668600 60.2096 238.89 55.7714 0.83425 0.00766863
1668800 60.2096 238.903 55.7714 0.83435 0.0148844
1669000 60.2096 238.916 55.7714 0.83445 -0.00984212
1669200 60.2096 238.929 55.7714 0.83455 -0.00963307
1669400 60.2096 238.942 55.7714 0.83465 0.00433403
1669600 60.2096 238.955 55.7714 0.83475 0.0174269
1669800 60.2096 238.968 55.7714 0.83485 -0.0105236
1670000 60.2096 238.981 55.7714 0.83495 0.024717
1670200 60.2096 238.994 55.7714 0.83505 0.0013868
1670400 60.2096 239.007 55.7714 0.83515 -0.0129539
1670600 60.2096 239.02 55.7714 0.83525 -0.018532
1670800 60.2096 239.033 55.7714 0.83535 0.0105614
1671000 60.2096 239.046 55.7714 0.83545 0.016416
1671200 60.2096 239.059 55.7714 0.83555 0.0075724
1671400 60.2096 239.072 55.7714 0.83565 0.00140804
1671600 60.2096 239.085 55.7714 0.83575 0.00409196
1671800 60.2096 239.098 55.7714 0.83585 -0.0175541
1672000 60.2096 239.111 55.7714 0.83595 0.00206211
1672200 60.2096 239.124 55.7714 0.83605 0.00911257
1672400 60.2096 239.137 55.7714 0.83615 0.0257764
1672600 60.2096 239.15 55.7714 0.83625 0.0178574
1672800 60.2096 239.163 55.7714 0.83635 0.0137957
1673000 60.2096 239.176 55.7714 0.83645 0.000650535
1673200 60.2096 239.189 55.7714 0.83655 -0.0117025
1673400 60.2096 239.202 55.7714 0.83665 -0.00279783
1673600 60.2096 239.215 55.7714 0.83675 -0.000414141
1673800 60.2096 239.228 55.7714 0.83685 0.0135225
1674000 60.2096 239.241 55.7714 0.83695 0.00169441
1674200 60.2096 239.254 55.7714 0.83705 -0.005046
1674400 60.2096 239.267 55.7714 0.83715 0.00297491
1674600 60.2096 239.28 55.7714 0.83725 0.000872269
1674800 60.2096 239.293 55.7714 0.83735 -0.0168947
1675000 60.2096 239.306 55.7714 0.83745 -0.0101231
1675200 60.2096 239.319 55.7714 0.83755 0.0171381
1675400 60.2096 239.333 55.7714 0.83765 0.0168022
1675600 60.2096 239.346 55.7714 0.83775 0.0135019
1675800 60.2096 239.359 55.7714 0.83785 0.00771267
1676000 60.2096 239.372 55.7714 0.83795 -0.00337862
1676200 60.2096 239.385 55.7714 0.83805 -0.00202884
1676400 60.2096 239.398 55.7714 0.83815 0.0124157
1676600 60.2096 239.411 55.7714 0.83825 0.0111399
1676800 60.2096 239.424 55.7714 0.83835 0.00782826
1677000 60.2096 239.437 55.7714 0.83845 0.0181623
1677200 60.2096 239.45 55.7714 0.83855 -0.001411
1677400 60.2096 239.463 55.7714 0.83865 -0.0175899
1677600 60.2096 239.476 55.7714 0.83875 -0.000882853
1677800 60.2096 239.489 55.7714 0.83885 -0.00599978
1678000 60.2096 239.502 55.7714 0.83895 0.000902007
1678200 60.2096 239.515 55.7714 0.83905 0.0185326
1678400 60.2096 239.528 55.7714 0.83915 0.00180861
1678600 60.2096 239.541 55.7714 0.83925 -0.00145383
1678800 60.2096 239.554 55.7714 0.83935 -0.00215648
1679000 60.2096 239.567 55.7714 0.83945 -0.00797858
1679200 60.2096 239.58 55.7714 0.83955 -3.66306e-05
1679400 60.2096 239.593 55.7714 0.83965 0.0242512
1679600 60.2096 239.606 55.7714 0.83975 0.00331194
1679800 60.2096 239.619 55.7714 0.83985 0.0286491
1680000 60.2096 239.632 55.7714 0.83995 -0.00132818
1680200 60.2096 239.645 55.7714 0.84005 0.00228538
1680400 60.2096 239.658 55.7714 0.84015 -0.00648051
1680600 60.2096 239.671 55.7714 0.84025 -0.00304315
1680800 60.2096 239.684 55.7714 0.84035 0.0115457
1681000 60.2096 239.697 55.7714 0.84045 0.0122183
1681200 60.2096 239.71 55.7714 0.84055 -0.0122801
1681400 60.2096 239.723 55.7714 0.84065 0.000203948
1681600 60.2096 239.736 55.7714 0.84075 -0.0136157
1681800 60.2096 239.749 55.7714 0.84085 0.0044656
1682000 60.2096 239.762 55.7714 0.84095 0.00977564
1682200 60.2096 239.775 55.7714 0.84105 0.00122422
1682400 60.2096 239.788 55.7714 0.84115 0.0146959
1682600 60.2096 239.801 55.7714 0.84125 -0.00435322
1682800 60.2096 239.814 55.7714 0.84135 0.00883766
1683000 60.2096 239.827 55.7714 0.84145 -0.00234534
1683200 60.2096 239.84 55.7714 0.84155 0.0230263
1683400 60.2096 239.853 55.7714 0.84165 -0.00650514
1683600 60.2096 239.866 55.7714 0.84175 0.00626117
1683800 60.2096 239.88 55.7714 0.84185 0.00280758
1684000 60.2096 239.893 55.7714 0.84195 0.0135155
1684200 60.2096 239.906 55.7714 0.84205 0.00354817
1684400 60.2096 239.919 55.7714 0.84215 -0.00375757
1684600 60.2096 239.932 55.7714 0.84225 0.000673932
1684800 60.2096 239.945 55.7714 0.84235 0.00197354
1685000 60.2096 239.958 55.7714 0.84245 0.00562981
1685200 60.2096 239.971 55.7714 0.84255 -0.00222119
1685400 60.2096 239.984 55.7714 0.84265 0.018679
1685600 60.2096 239.997 55.7714 0.84275 -0.0135412
1685800 60.2096 240.01 55.7714 0.84285 -0.0121657
1686000 60.2096 240.023 55.7714 0.84295 0.00992129
1686200 60.2096 240.036 55.7714 0.84305 0.00264057
1686400 60.2096 240.049 55.7714 0.84315 0.0146642
1686600 60.2096 240.062 55.7714 0.84325 0.015578
1686800 60.2096 240.075 55.7714 0.84335 0.0026988
1687000 60.2096 240.088 55.7714 0.84345 0.00750281
1687200 60.2096 240.101 55.7714 0.84355 -0.00930196
1687400 60.2096 240.114 55.7714 0.84365 0.00878675
1687600 60.2096 240.127 55.7714 0.84375 0.00988515
1687800 60.2096 240.14 55.7714 0.84385 0.00848181
1688000 60.2096 240.153 55.7714 0.84395 0.00264563
1688200 60.2096 240.166 55.7714 0.84405 0.00686722
1688400 60.2096 240.179 55.7714 0.84415 0.00877661
1688600 60.2096 240.192 55.7714 0.84425 -0.0240253
1688800 60.2096 240.205 55.7714 0.84435 0.00562148
1689000 60.2096 240.218 55.7714 0.84445 -0.011735
1689200 60.2096 240.231 55.7714 0.84455 0.0024038
1689400 60.2096 240.244 55.7714 0.84465 0.0152847
1689600 60.2096 240.257 55.7714 0.84475 0.00736167
1689800 60.2096 240.27 55.7714 0.84485 -4.28264e-05
1690000 60.2096 240.283 55.7714 0.84495 0.00475123
1690200 60.2096 240.296 55.7714 0.84505 0.00361083
1690400 60.2096 240.309 55.7714 0.84515 0.0141124
1690600 60.2096 240.322 55.7714 0.84525 -0.0022032
1690800 60.2096 240.335 55.7714 0.84535 0.0223142
1691000 60.2096 240.348 55.7714 0.84545 0.00772738
1691200 60.2096 240.361 55.7714 0.84555 -0.00464342
1691400 60.2096 240.374 55.7714 0.84565 -0.0119825
1691600 60.2096 240.387 55.7714 0.84575 -0.0189096
1691800 60.2096 240.4 55.7714 0.84585 0.022433
1692000 60.2096 240.413 55.7714 0.84595 0.00563033
1692200 60.2096 240.427 55.7714 0.84605 0.00943269
1692400 60.2096 240.44 55.7714 0.84615 0.000408173
1692600 60.2096 240.453 55.7714 0.84625 -0.0100922
1692800 60.2096 240.466 55.7714 0.84635 0.0147809
1693000 60.2096 240.479 55.7714 0.84645 -0.0125061
1693200 60.2096 240.492 55.7714 0.84655 0.000680487
1693400 60.2096 240.505 55.7714 0.84665 0.0225156
1693600 60.2096 240.518 55.7714 0.84675 0.018708
1693800 60.2096 240.531 55.7714 0.84685 0.00994791
1694000 60.2096 240.544 55.7714 0.84695 -0.00406233
1694200 60.2096 240.557 55.7714 0.84705 -0.00903248
1694400 60.2096 240.57 55.7714 0.84715 0.00482014
1694600 60.2096 240.583 55.7714 0.84725 -0.00309489
1694800 60.2096 240.596 55.7714 0.84735 0.00691589
1695000 60.2096 240.609 55.7714 0.84745 0.0119625
1695200 60.2096 240.622 55.7714 0.84755 0.00374493
1695400 60.2096 240.635 55.7714 0.84765 -0.00162343
1695600 60.2096 240.648 55.7714 0.84775 -0.0123379
1695800 60.2096 240.661 55.7714 0.84785 0.00129994
1696000 60.2096 240.674 55.7714 0.84795 0.0117678
1696200 60.2096 240.687 55.7714 0.84805 0.00361356
1696400 60.2096 240.7 55.7714 0.84815 -0.012037
1696600 60.2096 240.713 55.7714 0.84825 0.0173854
1696800 60.2096 240.726 55.7714 0.84835 -0.000431958
1697000 60.2096 240.739 55.7714 0.84845 0.00375963
1697200 60.2096 240.752 55.7714 0.84855 0.00991143
1697400 60.2096 240.765 55.7714 0.84865 0.0123612
1697600 60.2096 240.778 55.7714 0.84875 0.00757862
1697800 60.2096 240.791 55.7714 0.84885 -0.00832011
1698000 60.2096 240.804 55.7714 0.84895 0.0195763
1698200 60.2096 240.817 55.7714 0.84905 0.00720882
1698400 60.2096 240.83 55.7714 0.84915 -0.00277636
1698600 60.2096 240.843 55.7714 0.84925 0.00557439
1698800 60.2096 240.856 55.7714 0.84935 -0.00348188
1699000 60.2096 240.869 55.7714 0.84945 0.0113734
1699200 60.2096 240.882 55.7714 0.84955 -0.0117668
1699400 60.2096 240.895 55.7714 0.84965 0.00313597
1699600 60.2096 240.908 55.7714 0.84975 0.000696321
1699800 60.2096 240.921 55.7714 0.84985 0.00300234
1700000 60.2096 240.934 55.7714 0.84995 -0.00380477
1700200 60.2096 240.947 55.7714 0.85005 -0.00494483
1700400 60.2096 240.96 55.7714 0.85015 0.0160986
1700600 60.2096 240.974 55.7714 0.85025 -0.00454239
1700800 60.2096 240.987 55.7714 0.85035 0.0194922
1701000 60.2096 241 55.7714 0.85045 0.00392519
1701200 60.2096 241.013 55.7714 0.85055 0.00704887
1701400 60.2096 241.026 55.7714 0.85065 0.00899659
1701600 60.2096 241.039 55.7714 0.85075 0.00649798
1701800 60.2096 241.052 55.7714 0.85085 -0.000300778
1702000 60.2096 241.065 55.7714 0.85095 0.0106053
1702200 60.2096 241.078 55.7714 0.85105 -0.000438502
1702400 60.2096 241.091 55.7714 0.85115 0.00289981
1702600 60.2096 241.104 55.7714 0.85125 -0.0099374
1702800 60.2096 241.117 55.7714 0.85135 -0.000401792
1703000 60.2096 241.13 55.7714 0.85145 0.0046202
1703200 60.2096 241.143 55.7714 0.85155 0.000319971
1703400 60.2096 241.156 55.7714 0.85165 -0.00927401
1703600 60.2096 241.169 55.7714 0.85175 0.0120176
1703800 60.2096 241.182 55.7714 0.85185 0.0107221
1704000 60.2096 241.195 55.7714 0.85195 0.0120986
1704200 60.2096 241.208 55.7714 0.85205 0.0032688
1704400 60.2096 241.221 55.7714 0.85215 0.00945144
1704600 60.2096 241.234 55.7714 0.85225 0.00189275
1704800 60.2096 241.247 55.7714 0.85235 0.00476088
1705000 60.2096 241.26 55.7714 0.85245 9.84954e-05
1705200 60.2096 241.273 55.7714 0.85255 0.0147661
1705400 60.2096 241.286 55.7714 0.85265 0.0150447
1705600 60.2096 241.299 55.7714 0.85275 5.50173e-05
1705800 60.2096 241.312 55.7714 0.85285 -0.0119545
1706000 60.2096 241.325 55.7714 0.85295 0.012582
1706200 60.2096 241.338 55.7714 0.85305 -0.0150574
1706400 60.2096 241.351 55.7714 0.85315 0.000887422
1706600 60.2096 241.364 55.7714 0.85325 0.000336216
1706800 60.2096 241.377 55.7714 0.85335 -0.00552749
1707000 60.2096 241.39 55.7714 0.85345 -0.000389416
1707200 60.2096 241.403 55.7714 0.85355 -0.00447887
1707400 60.2096 241.416 55.7714 0.85365 0.00506995
1707600 60.2096 241.429 55.7714 0.85375 0.00397141
1707800 60.2096 241.442 55.7714 0.85385 0.0190788
1708000 60.2096 241.455 55.7714 0.85395 0.00950439
1708200 60.2096 241.468 55.7714 0.85405 0.00533681
1708400 60.2096 241.481 55.7714 0.85415 0.026096
1708600 60.2096 241.494 55.7714 0.85425 0.0029429
1708800 60.2096 241.507 55.7714 0.85435 -0.00545908
1709000 60.2096 241.521 55.7714 0.85445 0.0225772
1709200 60.2096 241.534 55.7714 0.85455 0.00298753
1709400 60.2096 241.547 55.7714 0.85465 -0.00307428
1709600 60.2096 241.56 55.7714 0.85475 -0.00222473
1709800 60.2096 241.573 55.7714 0.85485 0.00212592
1710000 60.2096 241.586 55.7714 0.85495 -0.0109821
1710200 60.2096 241.599 55.7714 0.85505 0.00407535
1710400 60.2096 241.612 55.7714 0.85515 8.94965e-05
1710600 60.2096 241.625 55.7714 0.85525 -0.00531462
1710800 60.2096 241.638 55.7714 0.85535 0.00129602
1711000 60.2096 241.651 55.7714 0.85545 -0.00420346
1711200 60.2096 241.664 55.7714 0.85555 0.00644149
1711400 60.2096 241.677 55.7714 0.85565 -0.000383759
1711600 60.2096 241.69 55.7714 0.85575 0.00722759
1711800 60.2096 241.703 55.7714 0.85585 0.016299
1712000 60.2096 241.716 55.7714 0.85595 0.00862547
1712200 60.2096 241.729 55.7714 0.85605 0.0031859
1712400 60.2096 241.742 55.7714 0.85615 0.00740085
1712600 60.2096 241.755 55.7714 0.85625 0.0179304
1712800 60.2096 241.768 55.7714 0.85635 -0.0172335
1713000 60.2096 241.781 55.7714 0.85645 0.0219728
1713200 60.2096 241.794 55.7714 0.85655 0.00241674
1713400 60.2096 241.807 55.7714 0.85665 0.00881135
1713600 60.2096 241.82 55.7714 0.85675 0.00727567
1713800 60.2096 241.833 55.7714 0.85685 -0.00516884
1714000 60.2096 241.846 55.7714 0.85695 0.00135128
1714200 60.2096 241.859 55.7714 0.85705 -0.0118993
1714400 60.2096 241.872 55.7714 0.85715 0.00255488
1714600 60.2096 241.885 55.7714 0.85725 -0.00420245
1714800 60.2096 241.898 55.7714 0.85735 -0.0059154
1715000 60.2096 241.911 55.7714 0.85745 0.0138204
1715200 60.2096 241.924 55.7714 0.85755 -0.00802203
1715400 60.2096 241.937 55.7714 0.85765 0.0196144
1715600 60.2096 241.95 55.7714 0.85775 -0.00336493
1715800 60.2096 241.963 55.7714 0.85785 -0.00293541
1716000 60.2096 241.976 55.7714 0.85795 0.0162773
1716200 60.2096 241.989 55.7714 0.85805 0.00328249
1716400 60.2096 242.002 55.7714 0.85815 0.0125695
1716600 60.2096 242.015 55.7714 0.85825 0.0135466
1716800 60.2096 242.028 55.7714 0.85835 0.00784409
1717000 60.2096 242.041 55.7714 0.85845 0.00720123
1717200 60.2096 242.054 55.7714 0.85855 0.0098302
1717400 60.2096 242.068 55.7714 0.85865 -0.00680524
1717600 60.2096 242.081 55.7714 0.85875 -0.00111897
1717800 60.2096 242.094 55.7714 0.85885 0.00475449
1718000 60.2096 242.107 55.7714 0.85895 0.000993056
1718200 60.2096 242.12 55.7714 0.85905 0.00181036
1718400 60.2096 242.133 55.7714 0.85915 -0.00525145
1718600 60.2096 242.146 55.7714 0.85925 0.000383441
1718800 60.2096 242.159 55.7714 0.85935 -0.0193433
1719000 60.2096 242.172 55.7714 0.85945 0.0145059
1719200 60.2096 242.185 55.7714 0.85955 -0.00121845
1719400 60.2096 242.198 55.7714 0.85965 0.00168441
1719600 60.2096 242.211 55.7714 0.85975 0.0205745
1719800 60.2096 242.224 55.7714 0.85985 -0.00251202
1720000 60.2096 242.237 55.7714 0.85995 0.00403802
1720200 60.2096 242.25 55.7714 0.86005 0.00252498
1720400 60.2096 242.263 55.7714 0.86015 0.0168514
1720600 60.2096 242.276 55.7714 0.86025 0.0113611
1720800 60.2096 242.289 55.7714 0.86035 0.0244755
1721000 60.2096 242.302 55.7714 0.86045 0.00142772
1721200 60.2096 242.315 55.7714 0.86055 -0.000467329
1721400 60.2096 242.328 55.7714 0.86065 0.00437788
1721600 60.2096 242.341 55.7714 0.86075 -0.0222416
1721800 60.2096 242.354 55.7714 0.86085 0.00986081
1722000 60.2096 242.367 55.7714 0.86095 -0.003518
1722200 60.2096 242.38 55.7714 0.86105 0.00488382
1722400 60.2096 242.393 55.7714 0.86115 0.00163562
1722600 60.2096 242.406 55.7714 0.86125 -0.0146069
1722800 60.2096 242.419 55.7714 0.86135 -0.000240095
1723000 60.2096 242.432 55.7714 0.86145 0.00490791
1723200 60.2096 242.445 55.7714 0.86155 -0.00596946
1723400 60.2096 242.458 55.7714 0.86165 0.00196714
1723600 60.2096 242.471 55.7714 0.86175 0.0359563
1723800 60.2096 242.484 55.7714 0.86185 -0.00368604
1724000 60.2096 242.497 55.7714 0.86195 0.00715259
1724200 60.2096 242.51 55.7714 0.86205 0.00552841
1724400 60.2096 242.523 55.7714 0.86215 0.00562184
1724600 60.2096 242.536 55.7714 0.86225 0.012537
1724800 60.2096 242.549 55.7714 0.86235 0.0126211
1725000 60.2096 242.562 55.7714 0.86245 0.00849172
1725200 60.2096 242.575 55.7714 0.86255 0.00366344
1725400 60.2096 242.588 55.7714 0.86265 0.00779127
1725600 60.2096 242.601 55.7714 0.86275 -0.014986
1725800 60.2096 242.615 55.7714 0.86285 0.000380448
1726000 60.2096 242.628 55.7714 0.86295 0.0110604
1726200 60.2096 242.641 55.7714 0.86305 -0.00912533
1726400 60.2096 242.654 55.7714 0.86315 -0.00900001
1726600 60.2096 242.667 55.7714 0.86325 0.00398089
1726800 60.2096 242.68 55.7714 0.86335 -0.00680575
1727000 60.2096 242.693 55.7714 0.86345 -0.0019866
1727200 60.2096 242.706 55.7714 0.86355 -0.00911322
1727400 60.2096 242.719 55.7714 0.86365 0.0124075
1727600 60.2096 242.732 55.7714 0.86375 0.023003
1727800 60.2096 242.745 55.7714 0.86385 -0.00606638
1728000 60.2096 242.758 55.7714 0.86395 0.0165214
1728200 60.2096 242.771 55.7714 0.86405 0.0164963
1728400 60.2096 242.784 55.7714 0.86415 0.00552726
1728600 60.2096 242.797 55.7714 0.86425 0.0100372
1728800 60.2096 242.81 55.7714 0.86435 0.0189503
1729000 60.2096 242.823 55.7714 0.86445 -0.0173371
1729200 60.2096 242.836 55.7714 0.86455 0.0143546
1729400 60.2096 242.849 55.7714 0.86465 -0.0108608
1729600 60.2096 242.862 55.7714 0.86475 0.00850999
1729800 60.2096 242.875 55.7714 0.86485 0.0106984
1730000 60.2096 242.888 55.7714 0.86495 -0.000636908
1730200 60.2096 242.901 55.7714 0.86505 -0.0186131
1730400 60.2096 242.914 55.7714 0.86515 -0.0133296
1730600 60.2096 242.927 55.7714 0.86525 -0.00772474
1730800 60.2096 242.94 55.7714 0.86535 0.0162497
1731000 60.2096 242.953 55.7714 0.86545 -0.00525452
1731200 60.2096 242.966 55.7714 0.86555 0.00932365
1731400 60.2096 242.979 55.7714 0.86565 0.00400141
1731600 60.2096 242.992 55.7714 0.86575 0.00429076
1731800 60.2096 243.005 55.7714 0.86585 0.0135648
1732000 60.2096 243.018 55.7714 0.86595 0.0145095
1732200 60.2096 243.031 55.7714 0.86605 0.00689375
1732400 60.2096 243.044 55.7714 0.86615 0.0123623
1732600 60.2096 243.057 55.7714 0.86625 0.0184713
1732800 60.2096 243.07 55.7714 0.86635 0.00628767
1733000 60.2096 243.083 55.7714 0.86645 -0.00559057
1733200 60.2096 243.096 55.7714 0.86655 -0.00785357
1733400 60.2096 243.109 55.7714 0.86665 0.00907707
1733600 60.2096 243.122 55.7714 0.86675 0.0013435
1733800 60.2096 243.135 55.7714 0.86685 0.00276742
1734000 60.2096 243.148 55.7714 0.86695 0.00666037
1734200 60.2096 243.162 55.7714 0.86705 0.00698699
1734400 60.2096 243.175 55.7714 0.86715 -0.0238546
1734600 60.2096 243.188 55.7714 0.86725 -0.0106002
1734800 60.2096 243.201 55.7714 0.86735 -0.00502275
1735000 60.2096 243.214 55.7714 0.86745 -0.0013279
1735200 60.2096 243.227 55.7714 0.86755 0.0172858
1735400 60.2096 243.24 55.7714 0.86765 0.0141855
1735600 60.2096 243.253 55.7714 0.86775 0.00146783
1735800 60.2096 243.266 55.7714 0.86785 0.00398158
1736000 60.2096 243.279 55.7714 0.86795 -0.0101824
1736200 60.2096 243.292 55.7714 0.86805 0.00756045
1736400 60.2096 243.305 55.7714 0.86815 0.021511
1736600 60.2096 243.318 55.7714 0.86825 0.0239938
1736800 60.2096 243.331 55.7714 0.86835 0.00963689
1737000 60.2096 243.344 55.7714 0.86845 -0.00153211
1737200 60.2096 243.357 55.7714 0.86855 0.000689373
1737400 60.2096 243.37 55.7714 0.86865 -0.000136239
1737600 60.2096 243.383 55.7714 0.86875 -0.00393843
1737800 60.2096 243.396 55.7714 0.86885 0.0168215
1738000 60.2096 243.409 55.7714 0.86895 -0.00985393
1738200 60.2096 243.422 55.7714 0.86905 0.00743598
1738400 60.2096 243.435 55.7714 0.86915 -0.0149488
1738600 60.2096 243.448 55.7714 0.86925 0.00257236
1738800 60.2096 243.461 55.7714 0.86935 -0.00919766
1739000 60.2096 243.474 55.7714 0.86945 -0.00947936
1739200 60.2096 243.487 55.7714 0.86955 0.0266768
1739400 60.2096 243.5 55.7714 0.86965 0.00550285
1739600 60.2096 243.513 55.7714 0.86975 -0.00365131
1739800 60.2096 243.526 55.7714 0.86985 0.00489509
1740000 60.2096 243.539 55.7714 0.86995 -0.00340125
1740200 60.2096 243.552 55.7714 0.87005 0.0124429
1740400 60.2096 243.565 55.7714 0.87015 0.0173281
1740600 60.2096 243.578 55.7714 0.87025 0.00600548
1740800 60.2096 243.591 55.7714 0.87035 0.0208078
1741000 60.2096 243.604 55.7714 0.87045 -0.00288947
1741200 60.2096 243.617 55.7714 0.87055 -0.00449535
1741400 60.2096 243.63 55.7714 0.87065 -0.00524864
1741600 60.2096 243.643 55.7714 0.87075 -0.00251175
1741800 60.2096 243.656 55.7714 0.87085 0.00913663
1742000 60.2096 243.669 55.7714 0.87095 0.00801184
1742200 60.2096 243.682 55.7714 0.87105 0.0115943
1742400 60.2096 243.695 55.7714 0.87115 -0.00295569
1742600 60.2096 243.709 55.7714 0.87125 -0.0161284
1742800 60.2096 243.722 55.7714 0.87135 -0.00205058
1743000 60.2096 243.735 55.7714 0.87145 0.00560963
1743200 60.2096 243.748 55.7714 0.87155 0.00901701
1743400 60.2096 243.761 55.7714 0.87165 -0.00894295
1743600 60.2096 243.774 55.7714 0.87175 0.0045608
1743800 60.2096 243.787 55.7714 0.87185 0.00507177
1744000 60.2096 243.8 55.7714 0.87195 0.00455615
1744200 60.2096 243.813 55.7714 0.87205 -0.00230725
1744400 60.2096 243.826 55.7714 0.87215 -0.00558821
1744600 60.2096 243.839 55.7714 0.87225 0.0219796
1744800 60.2096 243.852 55.7714 0.87235 0.0283698
1745000 60.2096 243.865 55.7714 0.87245 0.00253641
1745200 60.2096 243.878 55.7714 0.87255 0.00377995
1745400 60.2096 243.891 55.7714 0.87265 0.00392262
1745600 60.2096 243.904 55.7714 0.87275 0.0107909
1745800 60.2096 243.917 55.7714 0.87285 -0.0131701
1746000 60.2096 243.93 55.7714 0.87295 0.00769375
1746200 60.2096 243.943 55.7714 0.87305 -0.0155905
1746400 60.2096 243.956 55.7714 0.87315 0.0101328
1746600 60.2096 243.969 55.7714 0.87325 0.004582
1746800 60.2096 243.982 55.7714 0.87335 0.00265312
1747000 60.2096 243.995 55.7714 0.87345 -0.011615
1747200 60.2096 244.008 55.7714 0.87355 0.00869061
1747400 60.2096 244.021 55.7714 0.87365 -0.0088066
1747600 60.2096 244.034 55.7714 0.87375 0.00585366
1747800 60.2096 244.047 55.7714 0.87385 -0.015863
1748000 60.2096 244.06 55.7714 0.87395 0.0252699
1748200 60.2096 244.073 55.7714 0.87405 0.00902829
1748400 60.2096 244.086 55.7714 0.87415 0.00926298
1748600 60.2096 244.099 55.7714 0.87425 0.00503741
1748800 60.2096 244.112 55.7714 0.87435 0.00080362
1749000 60.2096 244.125 55.7714 0.87445 0.0126387
1749200 60.2096 244.138 55.7714 0.87455 0.00483304
1749400 60.2096 244.151 55.7714 0.87465 -0.00482154
1749600 60.2096 244.164 55.7714 0.87475 0.0191019
1749800 60.2096 244.177 55.7714 0.87485 0.00765252
1750000 60.2096 244.19 55.7714 0.87495 -0.00765967
1750200 60.2096 244.203 55.7714 0.87505 -0.00792923
1750400 60.2096 244.216 55.7714 0.87515 -0.00503442
1750600 60.2096 244.229 55.7714 0.87525 -0.0049482
1750800 60.2096 244.242 55.7714 0.87535 0.000229407
1751000 60.2096 244.256 55.7714 0.87545 0.013706
1751200 60.2096 244.269 55.7714 0.87555 0.00617449
1751400 60.2096 244.282 55.7714 0.87565 0.0268501
1751600 60.2096 244.295 55.7714 0.87575 -0.0143609
1751800 60.2096 244.308 55.7714 0.87585 0.00709091
1752000 60.2096 244.321 55.7714 0.87595 -0.0102582
1752200 60.2096 244.334 55.7714 0.87605 0.00321162
1752400 60.2096 244.347 55.7714 0.87615 0.0266504
1752600 60.2096 244.36 55.7714 0.87625 -0.000817837
1752800 60.2096 244.373 55.7714 0.87635 0.0013338
1753000 60.2096 244.386 55.7714 0.87645 -0.0193232
1753200 60.2096 244.399 55.7714 0.87655 0.0110511
1753400 60.2096 244.412 55.7714 0.87665 -0.0112406
1753600 60.2096 244.425 55.7714 0.87675 0.00576252
1753800 60.2096 244.438 55.7714 0.87685 0.00726305
1754000 60.2096 244.451 55.7714 0.87695 0.0145815
1754200 60.2096 244.464 55.7714 0.87705 -0.00852049
1754400 60.2096 244.477 55.7714 0.87715 0.0238014
1754600 60.2096 244.49 55.7714 0.87725 -0.0225428
1754800 60.2096 244.503 55.7714 0.87735 0.00534514
1755000 60.2096 244.516 55.7714 0.87745 0.00925035
1755200 60.2096 244.529 55.7714 0.87755 0.0135143
1755400 60.2096 244.542 55.7714 0.87765 0.0130612
1755600 60.2096 244.555 55.7714 0.87775 0.000540706
1755800 60.2096 244.568 55.7714 0.87785 0.00352625
1756000 60.2096 244.581 55.7714 0.87795 -0.0113528
1756200 60.2096 244.594 55.7714 0.87805 0.00702278
1756400 60.2096 244.607 55.7714 0.87815 -0.00977559
1756600 60.2096 244.62 55.7714 0.87825 0.0105467
1756800 60.2096 244.633 55.7714 0.87835 0.0155824
1757000 60.2096 244.646 55.7714 0.87845 0.00825312
1757200 60.2096 244.659 55.7714 0.87855 -0.00178723
1757400 60.2096 244.672 55.7714 0.87865 -0.00959513
1757600 60.2096 244.685 55.7714 0.87875 0.00459634
1757800 60.2096 244.698 55.7714 0.87885 -0.0125545
1758000 60.2096 244.711 55.7714 0.87895 0.0134585
1758200 60.2096 244.724 55.7714 0.87905 -0.00518363
1758400 60.2096 244.737 55.7714 0.87915 0.0163599
1758600 60.2096 244.75 55.7714 0.87925 0.00662868
1758800 60.2096 244.763 55.7714 0.87935 0.00609164
1759000 60.2096 244.776 55.7714 0.87945 -0.00216488
1759200 60.2096 244.789 55.7714 0.87955 -0.00860943
1759400 60.2096 244.803 55.7714 0.87965 0.0204684
1759600 60.2096 244.816 55.7714 0.87975 0.00969489
1759800 60.2096 244.829 55.7714 0.87985 0.00852361
1760000 60.2096 244.842 55.7714 0.87995 0.00714227
1760200 60.2096 244.855 55.7714 0.88005 -0.0037023
1760400 60.2096 244.868 55.7714 0.88015 -0.00805218
1760600 60.2096 244.881 55.7714 0.88025 0.0136137
1760800 60.2096 244.894 55.7714 0.88035 -0.0159056
1761000 60.2096 244.907 55.7714 0.88045 0.00561323
1761200 60.2096 244.92 55.7714 0.88055 0.00491547
1761400 60.2096 244.933 55.7714 0.88065 0.00158789
1761600 60.2096 244.946 55.7714 0.88075 0.00550071
1761800 60.2096 244.959 55.7714 0.88085 -0.011167
1762000 60.2096 244.972 55.7714 0.88095 -0.00465414
1762200 60.2096 244.985 55.7714 0.88105 -0.00141794
1762400 60.2096 244.998 55.7714 0.88115 0.0183848
1762600 60.2096 245.011 55.7714 0.88125 0.0147085
1762800 60.2096 245.024 55.7714 0.88135 -0.00131249
1763000 60.2096 245.037 55.7714 0.88145 0.00804268
1763200 60.2096 245.05 55.7714 0.88155 -0.00583611
1763400 60.2096 245.063 55.7714 0.88165 0.00286389
1763600 60.2096 245.076 55.7714 0.88175 0.00148294
1763800 60.2096 245.089 55.7714 0.88185 0.017363
1764000 60.2096 245.102 55.7714 0.88195 0.0126261
1764200 60.2096 245.115 55.7714 0.88205 -0.00927621
1764400 60.2096 245.128 55.7714 0.88215 0.00609979
1764600 60.2096 245.141 55.7714 0.88225 0.0021754
1764800 60.2096 245.154 55.7714 0.88235 -0.00927004
1765000 60.2096 245.167 55.7714 0.88245 0.0173545
1765200 60.2096 245.18 55.7714 0.88255 -0.0150241
1765400 60.2096 245.193 55.7714 0.88265 0.00676963
1765600 60.2096 245.206 55.7714 0.88275 0.0120354
1765800 60.2096 245.219 55.7714 0.88285 -0.00560203
1766000 60.2096 245.232 55.7714 0.88295 0.00411009
1766200 60.2096 245.245 55.7714 0.88305 0.0124653
1766400 60.2096 245.258 55.7714 0.88315 -0.00678906
1766600 60.2096 245.271 55.7714 0.88325 0.00459939
1766800 60.2096 245.284 55.7714 0.88335 -0.00216948
1767000 60.2096 245.297 55.7714 0.88345 0.00129553
1767200 60.2096 245.31 55.7714 0.88355 0.00658777
1767400 60.2096 245.323 55.7714 0.88365 -0.00249302
1767600 60.2096 245.336 55.7714 0.88375 0.00479444
1767800 60.2096 245.35 55.7714 0.88385 0.00783268
1768000 60.2096 245.363 55.7714 0.88395 -0.000445307
1768200 60.2096 245.376 55.7714 0.88405 0.00540078
1768400 60.2096 245.389 55.7714 0.88415 0.00868355
1768600 60.2096 245.402 55.7714 0.88425 0.0057436
1768800 60.2096 245.415 55.7714 0.88435 0.00430689
1769000 60.2096 245.428 55.7714 0.88445 0.010133
1769200 60.2096 245.441 55.7714 0.88455 0.00394322
1769400 60.2096 245.454 55.7714 0.88465 0.000916892
1769600 60.2096 245.467 55.7714 0.88475 0.0040035
1769800 60.2096 245.48 55.7714 0.88485 -0.006604
1770000 60.2096 245.493 55.7714 0.88495 0.00795349
1770200 60.2096 245.506 55.7714 0.88505 -0.00735908
1770400 60.2096 245.519 55.7714 0.88515 -0.00983094
1770600 60.2096 245.532 55.7714 0.88525 0.012239
1770800 60.2096 245.545 55.7714 0.88535 -0.00079716
1771000 60.2096 245.558 55.7714 0.88545 -0.00832936
1771200 60.2096 245.571 55.7714 0.88555 0.00536548
1771400 60.2096 245.584 55.7714 0.88565 0.00195803
1771600 60.2096 245.597 55.7714 0.88575 0.000292864
1771800 60.2096 245.61 55.7714 0.88585 0.0174407
1772000 60.2096 245.623 55.7714 0.88595 0.0132578
1772200 60.2096 245.636 55.7714 0.88605 -0.00585874
1772400 60.2096 245.649 55.7714 0.88615 0.0124484
1772600 60.2096 245.662 55.7714 0.88625 0.00220591
1772800 60.2096 245.675 55.7714 0.88635 0.0208047
1773000 60.2096 245.688 55.7714 0.88645 -0.00496412
1773200 60.2096 245.701 55.7714 0.88655 -0.000316868
1773400 60.2096 245.714 55.7714 0.88665 0.00548363
1773600 60.2096 245.727 55.7714 0.88675 -0.00887854
1773800 60.2096 245.74 55.7714 0.88685 0.0178352
1774000 60.2096 245.753 55.7714 0.88695 -0.0278147
1774200 60.2096 245.766 55.7714 0.88705 0.00569983
1774400 60.2096 245.779 55.7714 0.88715 0.00640663
1774600 60.2096 245.792 55.7714 0.88725 0.000663762
1774800 60.2096 245.805 55.7714 0.88735 0.00655302
1775000 60.2096 245.818 55.7714 0.88745 0.00125026
1775200 60.2096 245.831 55.7714 0.88755 -0.00539817
1775400 60.2096 245.844 55.7714 0.88765 0.0131523
1775600 60.2096 245.857 55.7714 0.88775 0.00299917
1775800 60.2096 245.87 55.7714 0.88785 0.0111184
1776000 60.2096 245.883 55.7714 0.88795 0.0191171
1776200 60.2096 245.897 55.7714 0.88805 -0.0065901
1776400 60.2096 245.91 55.7714 0.88815 0.00780881
1776600 60.2096 245.923 55.7714 0.88825 -0.000585557
1776800 60.2096 245.936 55.7714 0.88835 -0.00462798
1777000 60.2096 245.949 55.7714 0.88845 0.00325002
1777200 60.2096 245.962 55.7714 0.88855 0.00116325
1777400 60.2096 245.975 55.7714 0.88865 0.000339321
1777600 60.2096 245.988 55.7714 0.88875 -0.000739995
1777800 60.2096 246.001 55.7714 0.88885 -0.00377301
1778000 60.2096 246.014 55.7714 0.88895 -0.00757872
1778200 60.2096 246.027 55.7714 0.88905 0.0144986
1778400 60.2096 246.04 55.7714 0.88915 -0.0024973
1778600 60.2096 246.053 55.7714 0.88925 0.00296674
1778800 60.2096 246.066 55.7714 0.88935 -0.00167711
1779000 60.2096 246.079 55.7714 0.88945 0.0234598
1779200 60.2096 246.092 55.7714 0.88955 0.00866735
1779400 60.2096 246.105 55.7714 0.88965 0.00328717
1779600 60.2096 246.118 55.7714 0.88975 0.0171386
1779800 60.2096 246.131 55.7714 0.88985 -0.000938335
1780000 60.2096 246.144 55.7714 0.88995 -0.0123764
1780200 60.2096 246.157 55.7714 0.89005 0.00260104
1780400 60.2096 246.17 55.7714 0.89015 0.0127248
1780600 60.2096 246.183 55.7714 0.89025 -0.00362429
1780800 60.2096 246.196 55.7714 0.89035 0.00375754
1781000 60.2096 246.209 55.7714 0.89045 0.0068892
1781200 60.2096 246.222 55.7714 0.89055 -0.014153
1781400 60.2096 246.235 55.7714 0.89065 -0.00321248
1781600 60.2096 246.248 55.7714 0.89075 0.0129942
1781800 60.2096 246.261 55.7714 0.89085 -0.00390051
1782000 60.2096 246.274 55.7714 0.89095 0.00889713
1782200 60.2096 246.287 55.7714 0.89105 -0.00875734
1782400 60.2096 246.3 55.7714 0.89115 0.011941
1782600 60.2096 246.313 55.7714 0.89125 -0.00630727
1782800 60.2096 246.326 55.7714 0.89135 0.00499486
1783000 60.2096 246.339 55.7714 0.89145 0.00141265
1783200 60.2096 246.352 55.7714 0.89155 0.0154617
1783400 60.2096 246.365 55.7714 0.89165 0.00823243
1783600 60.2096 246.378 55.7714 0.89175 0.0130314
1783800 60.2096 246.391 55.7714 0.89185 0.00749267
1784000 60.2096 246.404 55.7714 0.89195 -0.000549139
1784200 60.2096 246.417 55.7714 0.89205 0.000127797
1784400 60.2096 246.43 55.7714 0.89215 -0.00824446
1784600 60.2096 246.444 55.7714 0.89225 0.0109935
1784800 60.2096 246.457 55.7714 0.89235 0.0126153
1785000 60.2096 246.47 55.7714 0.89245 -0.0112251
1785200 60.2096 246.483 55.7714 0.89255 -0.00261627
1785400 60.2096 246.496 55.7714 0.89265 -0.0100395
1785600 60.2096 246.509 55.7714 0.89275 -0.0188561
1785800 60.2096 246.522 55.7714 0.89285 0.0108211
1786000 60.2096 246.535 55.7714 0.89295 0.000676791
1786200 60.2096 246.548 55.7714 0.89305 0.0106226
1786400 60.2096 246.561 55.7714 0.89315 0.0159792
1786600 60.2096 246.574 55.7714 0.89325 0.00692332
1786800 60.2096 246.587 55.7714 0.89335 0.000582548
1787000 60.2096 246.6 55.7714 0.89345 0.0134433
1787200 60.2096 246.613 55.7714 0.89355 0.010375
1787400 60.2096 246.626 55.7714 0.89365 -0.000455698
1787600 60.2096 246.639 55.7714 0.89375 0.0101555
1787800 60.2096 246.652 55.7714 0.89385 0.0118205
1788000 60.2096 246.665 55.7714 0.89395 -0.00212112
1788200 60.2096 246.678 55.7714 0.89405 -0.0146959
1788400 60.2096 246.691 55.7714 0.89415 -0.00022492
1788600 60.2096 246.704 55.7714 0.89425 0.00467656
1788800 60.2096 246.717 55.7714 0.89435 0.0150611
1789000 60.2096 246.73 55.7714 0.89445 -0.0054875
1789200 60.2096 246.743 55.7714 0.89455 -0.0136439
1789400 60.2096 246.756 55.7714 0.89465 -0.00468791
1789600 60.2096 246.769 55.7714 0.89475 -0.00217534
1789800 60.2096 246.782 55.7714 0.89485 0.0192781
1790000 60.2096 246.795 55.7714 0.89495 -0.00477642
1790200 60.2096 246.808 55.7714 0.89505 0.0180233
1790400 60.2096 246.821 55.7714 0.89515 -0.00222637
1790600 60.2096 246.834 55.7714 0.89525 0.0165314
1790800 60.2096 246.847 55.7714 0.89535 -0.0153389
1791000 60.2096 246.86 55.7714 0.89545 0.00967502
1791200 60.2096 246.873 55.7714 0.89555 0.00906379
1791400 60.2096 246.886 55.7714 0.89565 0.00517549
1791600 60.2096 246.899 55.7714 0.89575 0.00710538
1791800 60.2096 246.912 55.7714 0.89585 0.000869998
1792000 60.2096 246.925 55.7714 0.89595 0.00320207
1792200 60.2096 246.938 55.7714 0.89605 -0.0154521
1792400 60.2096 246.951 55.7714 0.89615 -0.00277224
1792600 60.2096 246.964 55.7714 0.89625 0.00610155
1792800 60.2096 246.977 55.7714 0.89635 0.0154
1793000 60.2096 246.991 55.7714 0.89645 -0.00143458
1793200 60.2096 247.004 55.7714 0.89655 0.00861498
1793400 60.2096 247.017 55.7714 0.89665 -0.0032892
1793600 60.2096 247.03 55.7714 0.89675 -0.00416647
1793800 60.2096 247.043 55.7714 0.89685 -0.0139214
1794000 60.2096 247.056 55.7714 0.89695 0.0223654
1794200 60.2096 247.069 55.7714 0.89705 0.0161055
1794400 60.2096 247.082 55.7714 0.89715 0.0181107
1794600 60.2096 247.095 55.7714 0.89725 -0.00230059
1794800 60.2096 247.108 55.7714 0.89735 0.00786948
1795000 60.2096 247.121 55.7714 0.89745 -0.0198563
1795200 60.2096 247.134 55.7714 0.89755 0.00563648
1795400 60.2096 247.147 55.7714 0.89765 0.00640197
1795600 60.2096 247.16 55.7714 0.89775 0.00680692
1795800 60.2096 247.173 55.7714 0.89785 0.0119734
1796000 60.2096 247.186 55.7714 0.89795 0.00300756
1796200 60.2096 247.199 55.7714 0.89805 -0.0224281
1796400 60.2096 247.212 55.7714 0.89815 -0.00524282
1796600 60.2096 247.225 55.7714 0.89825 -0.00707662
1796800 60.2096 247.238 55.7714 0.89835 0.0176663
1797000 60.2096 247.251 55.7714 0.89845 -0.00418408
1797200 60.2096 247.264 55.7714 0.89855 0.00373183
1797400 60.2096 247.277 55.7714 0.89865 0.0176399
1797600 60.2096 247.29 55.7714 0.89875 -0.00736646
1797800 60.2096 247.303 55.7714 0.89885 -0.00409205
1798000 60.2096 247.316 55.7714 0.89895 0.00369345
1798200 60.2096 247.329 55.7714 0.89905 0.0156739
1798400 60.2096 247.342 55.7714 0.89915 0.0180859
1798600 60.2096 247.355 55.7714 0.89925 0.00417221
1798800 60.2096 247.368 55.7714 0.89935 0.00214124
1799000 60.2096 247.381 55.7714 0.89945 -0.00615627
1799200 60.2096 247.394 55.7714 0.89955 0.00986052
1799400 60.2096 247.407 55.7714 0.89965 0.00395449
1799600 60.2096 247.42 55.7714 0.89975 0.0117278
1799800 60.2096 247.433 55.7714 0.89985 -0.00394868
1800000 60.2096 247.446 55.7714 0.89995 0.00527071
1800200 60.2096 247.459 55.7714 0.90005 -0.0134106
1800400 60.2096 247.472 55.7714 0.90015 -0.0106193
1800600 60.2096 247.485 55.7714 0.90025 0.00516953
1800800 60.2096 247.498 55.7714 0.90035 0.000138365
1801000 60.2096 247.511 55.7714 0.90045 0.000605883
1801200 60.2096 247.524 55.7714 0.90055 0.00499807
1801400 60.2096 247.538 55.7714 0.90065 0.00091034
1801600 60.2096 247.551 55.7714 0.90075 -0.00294942
1801800 60.2096 247.564 55.7714 0.90085 -0.00400149
1802000 60.2096 247.577 55.7714 0.90095 0.0342493
1802200 60.2096 247.59 55.7714 0.90105 0.00702675
1802400 60.2096 247.603 55.7714 0.90115 -0.0111294
1802600 60.2096 247.616 55.7714 0.90125 0.0149334
1802800 60.2096 247.629 55.7714 0.90135 0.0101504
1803000 60.2096 247.642 55.7714 0.90145 0.00028148
1803200 60.2096 247.655 55.7714 0.90155 0.0185672
1803400 60.2096 247.668 55.7714 0.90165 -0.00774112
1803600 60.2096 247.681 55.7714 0.90175 0.00436052
1803800 60.2096 247.694 55.7714 0.90185 0.00784443
1804000 60.2096 247.707 55.7714 0.90195 -0.00769535
1804200 60.2096 247.72 55.7714 0.90205 -0.0106894
1804400 60.2096 247.733 55.7714 0.90215 -0.0134168
1804600 60.2096 247.746 55.7714 0.90225 0.00240956
1804800 60.2096 247.759 55.7714 0.90235 0.00763523
1805000 60.2096 247.772 55.7714 0.90245 0.00800444
1805200 60.2096 247.785 55.7714 0.90255 -0.00964507
1805400 60.2096 247.798 55.7714 0.90265 -0.00428187
1805600 60.2096 247.811 55.7714 0.90275 0.0024272
1805800 60.2096 247.824 55.7714 0.90285 0.0111902
1806000 60.2096 247.837 55.7714 0.90295 0.00220886
1806200 60.2096 247.85 55.7714 0.90305 0.0325516
1806400 60.2096 247.863 55.7714 0.90315 0.00125051
1806600 60.2096 247.876 55.7714 0.90325 0.0030398
1806800 60.2096 247.889 55.7714 0.90335 -0.0036303
1807000 60.2096 247.902 55.7714 0.90345 0.0245791
1807200 60.2096 247.915 55.7714 0.90355 0.00171462
1807400 60.2096 247.928 55.7714 0.90365 0.00531823
1807600 60.2096 247.941 55.7714 0.90375 0.000838424
1807800 60.2096 247.954 55.7714 0.90385 0.00952123
1808000 60.2096 247.967 55.7714 0.90395 -0.00144765
1808200 60.2096 247.98 55.7714 0.90405 -0.00314923
1808400 60.2096 247.993 55.7714 0.90415 -0.0109559
1808600 60.2096 248.006 55.7714 0.90425 -0.0171317
1808800 60.2096 248.019 55.7714 0.90435 -0.00462433
1809000 60.2096 248.032 55.7714 0.90445 0.00504847
1809200 60.2096 248.045 55.7714 0.90455 0.000764279
1809400 60.2096 248.058 55.7714 0.90465 -0.0113816
1809600 60.2096 248.071 55.7714 0.90475 0.00859338
1809800 60.2096 248.085 55.7714 0.90485 0.003189
1810000 60.2096 248.098 55.7714 0.90495 -0.00124132
1810200 60.2096 248.111 55.7714 0.90505 0.00338558
1810400 60.2096 248.124 55.7714 0.90515 0.0237787
1810600 60.2096 248.137 55.7714 0.90525 0.0219304
1810800 60.2096 248.15 55.7714 0.90535 0.00662599
1811000 60.2096 248.163 55.7714 0.90545 0.0192862
1811200 60.2096 248.176 55.7714 0.90555 0.000238385
1811400 60.2096 248.189 55.7714 0.90565 0.00652206
1811600 60.2096 248.202 55.7714 0.90575 -0.00812254
1811800 60.2096 248.215 55.7714 0.90585 0.00451805
1812000 60.2096 248.228 55.7714 0.90595 0.00420032
1812200 60.2096 248.241 55.7714 0.90605 0.00728085
1812400 60.2096 248.254 55.7714 0.90615 0.0033342
1812600 60.2096 248.267 55.7714 0.90625 -0.00891657
1812800 60.2096 248.28 55.7714 0.90635 -0.0235502
1813000 60.2096 248.293 55.7714 0.90645 -0.00319843
1813200 60.2096 248.306 55.7714 0.90655 -0.00421927
1813400 60.2096 248.319 55.7714 0.90665 -0.000501612
1813600 60.2096 248.332 55.7714 0.90675 0.0146486
1813800 60.2096 248.345 55.7714 0.90685 -0.010938
1814000 60.2096 248.358 55.7714 0.90695 -0.00527863
1814200 60.2096 248.371 55.7714 0.90705 0.00263007
1814400 60.2096 248.384 55.7714 0.90715 0.0141235
1814600 60.2096 248.397 55.7714 0.90725 0.012504
1814800 60.2096 248.41 55.7714 0.90735 0.0242115
1815000 60.2096 248.423 55.7714 0.90745 0.0134531
1815200 60.2096 248.436 55.7714 0.90755 0.0046444
1815400 60.2096 248.449 55.7714 0.90765 0.00763798
1815600 60.2096 248.462 55.7714 0.90775 0.00161246
1815800 60.2096 248.475 55.7714 0.90785 0.0154342
1816000 60.2096 248.488 55.7714 0.90795 -0.00298736
1816200 60.2096 248.501 55.7714 0.90805 0.00262553
1816400 60.2096 248.514 55.7714 0.90815 -0.0161479
1816600 60.2096 248.527 55.7714 0.90825 -0.00632847
1816800 60.2096 248.54 55.7714 0.90835 -0.00482896
1817000 60.2096 248.553 55.7714 0.90845 -0.00877056
1817200 60.2096 248.566 55.7714 0.90855 -0.00959616
1817400 60.2096 248.579 55.7714 0.90865 0.00473802
1817600 60.2096 248.592 55.7714 0.90875 0.00245621
1817800 60.2096 248.605 55.7714 0.90885 -0.00261105
1818000 60.2096 248.619 55.7714 0.90895 0.00892183
1818200 60.2096 248.632 55.7714 0.90905 -0.000679246
1818400 60.2096 248.645 55.7714 0.90915 0.0164212
1818600 60.2096 248.658 55.7714 0.90925 0.0170987
1818800 60.2096 248.671 55.7714 0.90935 0.0109759
1819000 60.2096 248.684 55.7714 0.90945 0.0117666
1819200 60.2096 248.697 55.7714 0.90955 0.0101759
1819400 60.2096 248.71 55.7714 0.90965 0.000385427
1819600 60.2096 248.723 55.7714 0.90975 0.00157327
1819800 60.2096 248.736 55.7714 0.90985 0.00540427
1820000 60.2096 248.749 55.7714 0.90995 0.00456379
1820200 60.2096 248.762 55.7714 0.91005 -0.00110963
1820400 60.2096 248.775 55.7714 0.91015 -0.0117708
1820600 60.2096 248.788 55.7714 0.91025 -0.000362007
1820800 60.2096 248.801 55.7714 0.91035 -0.00412253
1821000 60.2096 248.814 55.7714 0.91045 -0.0129714
1821200 60.2096 248.827 55.7714 0.91055 -0.00359088
1821400 60.2096 248.84 55.7714 0.91065 0.0132399
1821600 60.2096 248.853 55.7714 0.91075 0.000824794
1821800 60.2096 248.866 55.7714 0.91085 -0.00898391
1822000 60.2096 248.879 55.7714 0.91095 0.00151429
1822200 60.2096 248.892 55.7714 0.91105 0.0115752
1822400 60.2096 248.905 55.7714 0.91115 0.0141591
1822600 60.2096 248.918 55.7714 0.91125 0.0164302
1822800 60.2096 248.931 55.7714 0.91135 0.000774832
1823000 60.2096 248.944 55.7714 0.91145 0.0126232
1823200 60.2096 248.957 55.7714 0.91155 0.00673058
1823400 60.2096 248.97 55.7714 0.91165 -0.00592679
1823600 60.2096 248.983 55.7714 0.91175 0.00522765
1823800 60.2096 248.996 55.7714 0.91185 -0.0065196
1824000 60.2096 249.009 55.7714 0.91195 0.0206834
1824200 60.2096 249.022 55.7714 0.91205 -0.0082256
1824400 60.2096 249.035 55.7714 0.91215 -0.00708441
1824600 60.2096 249.048 55.7714 0.91225 -0.00318731
1824800 60.2096 249.061 55.7714 0.91235 -0.0128962
1825000 60.2096 249.074 55.7714 0.91245 0.00839672
1825200 60.2096 249.087 55.7714 0.91255 0.0165936
1825400 60.2096 249.1 55.7714 0.91265 -0.00214949
1825600 60.2096 249.113 55.7714 0.91275 -0.00144855
1825800 60.2096 249.126 55.7714 0.91285 -0.00689278
1826000 60.2096 249.139 55.7714 0.91295 0.00417757
1826200 60.2096 249.152 55.7714 0.91305 0.00969137
1826400 60.2096 249.166 55.7714 0.91315 -0.00101254
1826600 60.2096 249.179 55.7714 0.91325 0.0165676
1826800 60.2096 249.192 55.7714 0.91335 0.0239841
1827000 60.2096 249.205 55.7714 0.91345 0.00234109
1827200 60.2096 249.218 55.7714 0.91355 -0.00480298
1827400 60.2096 249.231 55.7714 0.91365 0.00156436
1827600 60.2096 249.244 55.7714 0.91375 -0.00445773
1827800 60.2096 249.257 55.7714 0.91385 0.0107806
1828000 60.2096 249.27 55.7714 0.91395 0.00019526
1828200 60.2096 249.283 55.7714 0.91405 0.00173878
1828400 60.2096 249.296 55.7714 0.91415 -0.0109784
1828600 60.2096 249.309 55.7714 0.91425 -0.00215817
1828800 60.2096 249.322 55.7714 0.91435 0.00983973
1829000 60.2096 249.335 55.7714 0.91445 -0.0145094
1829200 60.2096 249.348 55.7714 0.91455 0.0051672
1829400 60.2096 249.361 55.7714 0.91465 -0.003376
1829600 60.2096 249.374 55.7714 0.91475 -0.00297928
1829800 60.2096 249.387 55.7714 0.91485 0.0208897
1830000 60.2096 249.4 55.7714 0.91495 0.0028422
1830200 60.2096 249.413 55.7714 0.91505 0.0029113
1830400 60.2096 249.426 55.7714 0.91515 0.00894684
1830600 60.2096 249.439 55.7714 0.91525 0.00500071
1830800 60.2096 249.452 55.7714 0.91535 0.00586398
1831000 60.2096 249.465 55.7714 0.91545 0.00980193
1831200 60.2096 249.478 55.7714 0.91555 0.0113899
1831400 60.2096 249.491 55.7714 0.91565 0.00351792
1831600 60.2096 249.504 55.7714 0.91575 -0.00282852
1831800 60.2096 249.517 55.7714 0.91585 -0.0145452
1832000 60.2096 249.53 55.7714 0.91595 0.0101442
1832200 60.2096 249.543 55.7714 0.91605 9.37154e-05
1832400 60.2096 249.556 55.7714 0.91615 -0.0184077
1832600 60.2096 249.569 55.7714 0.91625 0.0129341
1832800 60.2096 249.582 55.7714 0.91635 -0.00179087
1833000 60.2096 249.595 55.7714 0.91645 -0.0191412
1833200 60.2096 249.608 55.7714 0.91655 0.0115238
1833400 60.2096 249.621 55.7714 0.91665 -0.00131993
1833600 60.2096 249.634 55.7714 0.91675 0.00863162
1833800 60.2096 249.647 55.7714 0.91685 0.000742739
1834000 60.2096 249.66 55.7714 0.91695 0.0138491
1834200 60.2096 249.673 55.7714 0.91705 0.00402302
1834400 60.2096 249.686 55.7714 0.91715 0.0140665
1834600 60.2096 249.699 55.7714 0.91725 -0.00181583
1834800 60.2096 249.713 55.7714 0.91735 0.00923098
1835000 60.2096 249.726 55.7714 0.91745 0.0111295
1835200 60.2096 249.739 55.7714 0.91755 0.0163066
1835400 60.2096 249.752 55.7714 0.91765 0.00865121
1835600 60.2096 249.765 55.7714 0.91775 -0.0120237
1835800 60.2096 249.778 55.7714 0.91785 -0.00916334
1836000 60.2096 249.791 55.7714 0.91795 -0.00502148
1836200 60.2096 249.804 55.7714 0.91805 -0.00683926
1836400 60.2096 249.817 55.7714 0.91815 -0.00651507
1836600 60.2096 249.83 55.7714 0.91825 0.0113339
1836800 60.2096 249.843 55.7714 0.91835 0.00901854
1837000 60.2096 249.856 55.7714 0.91845 -0.014906
1837200 60.2096 249.869 55.7714 0.91855 -0.00959766
1837400 60.2096 249.882 55.7714 0.91865 0.0029386
1837600 60.2096 249.895 55.7714 0.91875 0.000130134
1837800 60.2096 249.908 55.7714 0.91885 0.0155214
1838000 60.2096 249.921 55.7714 0.91895 0.0166983
1838200 60.2096 249.934 55.7714 0.91905 0.00424299
1838400 60.2096 249.947 55.7714 0.91915 0.0186892
1838600 60.2096 249.96 55.7714 0.91925 0.00058928
1838800 60.2096 249.973 55.7714 0.91935 -0.000247685
1839000 60.2096 249.986 55.7714 0.91945 0.0113976
1839200 60.2096 249.999 55.7714 0.91955 -0.00284369
1839400 60.2096 250.012 55.7714 0.91965 0.02166
1839600 60.2096 250.025 55.7714 0.91975 -0.0163672
1839800 60.2096 250.038 55.7714 0.91985 -0.0161161
1840000 60.2096 250.051 55.7714 0.91995 0.00423981
1840200 60.2096 250.064 55.7714 0.92005 -0.00376091
1840400 60.2096 250.077 55.7714 0.92015 -0.00794454
1840600 60.2096 250.09 55.7714 0.92025 0.0138609
1840800 60.2096 250.103 55.7714 0.92035 -0.00828748
1841000 60.2096 250.116 55.7714 0.92045 0.000960304
1841200 60.2096 250.129 55.7714 0.92055 0.00387481
1841400 60.2096 250.142 55.7714 0.92065 -0.00904091
1841600 60.2096 250.155 55.7714 0.92075 0.0181981
1841800 60.2096 250.168 55.7714 0.92085 -0.007366
1842000 60.2096 250.181 55.7714 0.92095 0.0222449
1842200 60.2096 250.194 55.7714 0.92105 0.00196394
1842400 60.2096 250.207 55.7714 0.92115 0.0207575
1842600 60.2096 250.22 55.7714 0.92125 -0.00593041
1842800 60.2096 250.233 55.7714 0.92135 0.00556469
1843000 60.2096 250.246 55.7714 0.92145 -0.00932651
1843200 60.2096 250.26 55.7714 0.92155 0.0189509
1843400 60.2096 250.273 55.7714 0.92165 0.00119028
1843600 60.2096 250.286 55.7714 0.92175 0.0158025
1843800 60.2096 250.299 55.7714 0.92185 -0.00218482
1844000 60.2096 250.312 55.7714 0.92195 -0.0045335
1844200 60.2096 250.325 55.7714 0.92205 -0.0169952
1844400 60.2096 250.338 55.7714 0.92215 -0.00766663
1844600 60.2096 250.351 55.7714 0.92225 0.010931
1844800 60.2096 250.364 55.7714 0.92235 0.000173702
1845000 60.2096 250.377 55.7714 0.92245 0.00079983
1845200 60.2096 250.39 55.7714 0.92255 -0.00603814
1845400 60.2096 250.403 55.7714 0.92265 -0.0172633
1845600 60.2096 250.416 55.7714 0.92275 3.89881e-05
1845800 60.2096 250.429 55.7714 0.92285 0.00149594
1846000 60.2096 250.442 55.7714 0.92295 0.0140307
1846200 60.2096 250.455 55.7714 0.92305 0.0141635
1846400 60.2096 250.468 55.7714 0.92315 0.00506072
1846600 60.2096 250.481 55.7714 0.92325 0.0133369
1846800 60.2096 250.494 55.7714 0.92335 0.00385971
1847000 60.2096 250.507 55.7714 0.92345 0.0169982
1847200 60.2096 250.52 55.7714 0.92355 0.0063197
1847400 60.2096 250.533 55.7714 0.92365 0.0165975
1847600 60.2096 250.546 55.7714 0.92375 0.00410341
1847800 60.2096 250.559 55.7714 0.92385 -0.00291631
1848000 60.2096 250.572 55.7714 0.92395 -0.00289695
1848200 60.2096 250.585 55.7714 0.92405 -0.0149739
1848400 60.2096 250.598 55.7714 0.92415 -0.0128192
1848600 60.2096 250.611 55.7714 0.92425 -0.00525814
1848800 60.2096 250.624 55.7714 0.92435 -0.00744324
1849000 60.2096 250.637 55.7714 0.92445 -0.0140835
1849200 60.2096 250.65 55.7714 0.92455 -0.000304864
1849400 60.2096 250.663 55.7714 0.92465 0.0142891
1849600 60.2096 250.676 55.7714 0.92475 0.00908807
1849800 60.2096 250.689 55.7714 0.92485 -0.00721939
1850000 60.2096 250.702 55.7714 0.92495 0.0173577
1850200 60.2096 250.715 55.7714 0.92505 0.00794563
1850400 60.2096 250.728 55.7714 0.92515 0.0152442
1850600 60.2096 250.741 55.7714 0.92525 0.0109198
1850800 60.2096 250.754 55.7714 0.92535 -0.00155388
1851000 60.2096 250.767 55.7714 0.92545 0.0220364
1851200 60.2096 250.78 55.7714 0.92555 -0.00278725
1851400 60.2096 250.793 55.7714 0.92565 0.00209728
1851600 60.2096 250.807 55.7714 0.92575 -0.00586769
1851800 60.2096 250.82 55.7714 0.92585 -0.0096783
1852000 60.2096 250.833 55.7714 0.92595 0.00286103
1852200 60.2096 250.846 55.7714 0.92605 -0.00541435
1852400 60.2096 250.859 55.7714 0.92615 0.00712899
1852600 60.2096 250.872 55.7714 0.92625 -0.0138117
1852800 60.2096 250.885 55.7714 0.92635 -0.00733666
1853000 60.2096 250.898 55.7714 0.92645 0.0076312
1853200 60.2096 250.911 55.7714 0.92655 0.00310256
1853400 60.2096 250.924 55.7714 0.92665 -0.00045579
1853600 60.2096 250.937 55.7714 0.92675 0.00817663
1853800 60.2096 250.95 55.7714 0.92685 0.00605231
1854000 60.2096 250.963 55.7714 0.92695 -0.000784343
1854200 60.2096 250.976 55.7714 0.92705 -0.00135662
1854400 60.2096 250.989 55.7714 0.92715 0.0110494
1854600 60.2096 251.002 55.7714 0.92725 0.0173462
1854800 60.2096 251.015 55.7714 0.92735 0.00453145
1855000 60.2096 251.028 55.7714 0.92745 0.00893504
1855200 60.2096 251.041 55.7714 0.92755 -0.00350401
1855400 60.2096 251.054 55.7714 0.92765 0.00877262
1855600 60.2096 251.067 55.7714 0.92775 -0.0116298
1855800 60.2096 251.08 55.7714 0.92785 0.00808872
1856000 60.2096 251.093 55.7714 0.92795 0.0071518
1856200 60.2096 251.106 55.7714 0.92805 -0.00409899
1856400 60.2096 251.119 55.7714 0.92815 -0.00360649
1856600 60.2096 251.132 55.7714 0.92825 -0.0148165
1856800 60.2096 251.145 55.7714 0.92835 -0.00548357
1857000 60.2096 251.158 55.7714 0.92845 0.00157981
1857200 60.2096 251.171 55.7714 0.92855 -0.00798106
1857400 60.2096 251.184 55.7714 0.92865 0.00717871
1857600 60.2096 251.197 55.7714 0.92875 0.00598751
1857800 60.2096 251.21 55.7714 0.92885 0.00972425
1858000 60.2096 251.223 55.7714 0.92895 0.00452933
1858200 60.2096 251.236 55.7714 0.92905 0.00783297
1858400 60.2096 251.249 55.7714 0.92915 0.0132765
1858600 60.2096 251.262 55.7714 0.92925 0.00534439
1858800 60.2096 251.275 55.7714 0.92935 0.00663024
1859000 60.2096 251.288 55.7714 0.92945 0.0167268
1859200 60.2096 251.301 55.7714 0.92955 0.00172968
1859400 60.2096 251.314 55.7714 0.92965 -0.00272535
1859600 60.2096 251.327 55.7714 0.92975 0.000588761
1859800 60.2096 251.34 55.7714 0.92985 -0.00581076
1860000 60.2096 251.354 55.7714 0.92995 -0.0118441
1860200 60.2096 251.367 55.7714 0.93005 -0.015432
1860400 60.2096 251.38 55.7714 0.93015 0.000592669
1860600 60.2096 251.393 55.7714 0.93025 -1.92061e-05
1860800 60.2096 251.406 55.7714 0.93035 0.00677466
1861000 60.2096 251.419 55.7714 0.93045 0.00011736
1861200 60.2096 251.432 55.7714 0.93055 -8.28536e-05
1861400 60.2096 251.445 55.7714 0.93065 0.00475144
1861600 60.2096 251.458 55.7714 0.93075 0.00360967
1861800 60.2096 251.471 55.7714 0.93085 0.0109109
1862000 60.2096 251.484 55.7714 0.93095 0.0108066
1862200 60.2096 251.497 55.7714 0.93105 -0.01646
1862400 60.2096 251.51 55.7714 0.93115 0.0178052
1862600 60.2096 251.523 55.7714 0.93125 0.0150467
1862800 60.2096 251.536 55.7714 0.93135 -0.0110351
1863000 60.2096 251.549 55.7714 0.93145 0.00779872
1863200 60.2096 251.562 55.7714 0.93155 -0.000642517
1863400 60.2096 251.575 55.7714 0.93165 0.0104694
1863600 60.2096 251.588 55.7714 0.93175 0.0159053
1863800 60.2096 251.601 55.7714 0.93185 -0.0111153
1864000 60.2096 251.614 55.7714 0.93195 -0.00715385
1864200 60.2096 251.627 55.7714 0.93205 -0.0164355
1864400 60.2096 251.64 55.7714 0.93215 0.00297305
1864600 60.2096 251.653 55.7714 0.93225 -0.00102223
1864800 60.2096 251.666 55.7714 0.93235 0.000259966
1865000 60.2096 251.679 55.7714 0.93245 0.00326994
1865200 60.2096 251.692 55.7714 0.93255 0.00672452
1865400 60.2096 251.705 55.7714 0.93265 -0.00525859
1865600 60.2096 251.718 55.7714 0.93275 0.00880482
1865800 60.2096 251.731 55.7714 0.93285 -0.000260681
1866000 60.2096 251.744 55.7714 0.93295 0.00844819
1866200 60.2096 251.757 55.7714 0.93305 0.0177416
1866400 60.2096 251.77 55.7714 0.93315 0.00729793
1866600 60.2096 251.783 55.7714 0.93325 0.00414378
1866800 60.2096 251.796 55.7714 0.93335 0.0040576
1867000 60.2096 251.809 55.7714 0.93345 -0.00132545
1867200 60.2096 251.822 55.7714 0.93355 -0.00461066
1867400 60.2096 251.835 55.7714 0.93365 0.00565128
1867600 60.2096 251.848 55.7714 0.93375 -0.00141071
1867800 60.2096 251.861 55.7714 0.93385 -9.63954e-05
1868000 60.2096 251.874 55.7714 0.93395 -0.0057215
1868200 60.2096 251.887 55.7714 0.93405 0.00317904
1868400 60.2096 251.901 55.7714 0.93415 -0.0105314
1868600 60.2096 251.914 55.7714 0.93425 0.00464976
1868800 60.2096 251.927 55.7714 0.93435 -0.0121627
1869000 60.2096 251.94 55.7714 0.93445 -0.00217431
1869200 60.2096 251.953 55.7714 0.93455 0.0132138
1869400 60.2096 251.966 55.7714 0.93465 0.00361431
1869600 60.2096 251.979 55.7714 0.93475 -0.0047754
1869800 60.2096 251.992 55.7714 0.93485 0.00612724
1870000 60.2096 252.005 55.7714 0.93495 0.00105651
1870200 60.2096 252.018 55.7714 0.93505 0.00472848
1870400 60.2096 252.031 55.7714 0.93515 0.0244201
1870600 60.2096 252.044 55.7714 0.93525 0.0183954
1870800 60.2096 252.057 55.7714 0.93535 -0.00106755
1871000 60.2096 252.07 55.7714 0.93545 0.00934761
1871200 60.2096 252.083 55.7714 0.93555 -0.00905801
1871400 60.2096 252.096 55.7714 0.93565 0.00769177
1871600 60.2096 252.109 55.7714 0.93575 -0.0105568
1871800 60.2096 252.122 55.7714 0.93585 0.000146236
1872000 60.2096 252.135 55.7714 0.93595 -0.00213087
1872200 60.2096 252.148 55.7714 0.93605 0.00577592
1872400 60.2096 252.161 55.7714 0.93615 -0.0154425
1872600 60.2096 252.174 55.7714 0.93625 -0.00373538
1872800 60.2096 252.187 55.7714 0.93635 -0.0254033
1873000 60.2096 252.2 55.7714 0.93645 0.00492817
1873200 60.2096 252.213 55.7714 0.93655 -7.04363e-05
1873400 60.2096 252.226 55.7714 0.93665 0.0155928
1873600 60.2096 252.239 55.7714 0.93675 0.00336044
1873800 60.2096 252.252 55.7714 0.93685 0.00943827
1874000 60.2096 252.265 55.7714 0.93695 -0.000645079
1874200 60.2096 252.278 55.7714 0.93705 0.0159534
1874400 60.2096 252.291 55.7714 0.93715 0.00441202
1874600 60.2096 252.304 55.7714 0.93725 0.0129052
1874800 60.2096 252.317 55.7714 0.93735 0.0137426
1875000 60.2096 252.33 55.7714 0.93745 0.0168189
1875200 60.2096 252.343 55.7714 0.93755 0.0012263
1875400 60.2096 252.356 55.7714 0.93765 -0.000312821
1875600 60.2096 252.369 55.7714 0.93775 -0.0109712
1875800 60.2096 252.382 55.7714 0.93785 -0.0070727
1876000 60.2096 252.395 55.7714 0.93795 -0.016906
1876200 60.2096 252.408 55.7714 0.93805 0.00568936
1876400 60.2096 252.421 55.7714 0.93815 -0.00600447
1876600 60.2096 252.434 55.7714 0.93825 -0.00319836
1876800 60.2096 252.448 55.7714 0.93835 -0.018921
1877000 60.2096 252.461 55.7714 0.93845 -0.00452563
1877200 60.2096 252.474 55.7714 0.93855 0.00945783
1877400 60.2096 252.487 55.7714 0.93865 0.000618893
1877600 60.2096 252.5 55.7714 0.93875 0.00844071
1877800 60.2096 252.513 55.7714 0.93885 0.0269266
1878000 60.2096 252.526 55.7714 0.93895 0.0156615
1878200 60.2096 252.539 55.7714 0.93905 -0.00271939
1878400 60.2096 252.552 55.7714 0.93915 0.00857981
1878600 60.2096 252.565 55.7714 0.93925 0.00381143
1878800 60.2096 252.578 55.7714 0.93935 0.0148302
1879000 60.2096 252.591 55.7714 0.93945 0.00776461
1879200 60.2096 252.604 55.7714 0.93955 -0.0115415
1879400 60.2096 252.617 55.7714 0.93965 0.000780438
1879600 60.2096 252.63 55.7714 0.93975 -0.0117726
1879800 60.2096 252.643 55.7714 0.93985 -0.00626792
1880000 60.2096 252.656 55.7714 0.93995 -0.0102102
1880200 60.2096 252.669 55.7714 0.94005 -0.00306171
1880400 60.2096 252.682 55.7714 0.94015 -0.000355356
1880600 60.2096 252.695 55.7714 0.94025 0.00434922
1880800 60.2096 252.708 55.7714 0.94035 -0.0116098
1881000 60.2096 252.721 55.7714 0.94045 0.014392
1881200 60.2096 252.734 55.7714 0.94055 -0.00109698
1881400 60.2096 252.747 55.7714 0.94065 0.00168903
1881600 60.2096 252.76 55.7714 0.94075 0.0171563
1881800 60.2096 252.773 55.7714 0.94085 0.0112006
1882000 60.2096 252.786 55.7714 0.94095 0.0010888
1882200 60.2096 252.799 55.7714 0.94105 0.0144733
1882400 60.2096 252.812 55.7714 0.94115 -0.00252024
1882600 60.2096 252.825 55.7714 0.94125 0.00907036
1882800 60.2096 252.838 55.7714 0.94135 -0.0017169
1883000 60.2096 252.851 55.7714 0.94145 -0.00779779
1883200 60.2096 252.864 55.7714 0.94155 0.0155636
1883400 60.2096 252.877 55.7714 0.94165 -0.000912348
1883600 60.2096 252.89 55.7714 0.94175 -0.00324497
1883800 60.2096 252.903 55.7714 0.94185 -0.0077181
1884000 60.2096 252.916 55.7714 0.94195 -0.0263146
1884200 60.2096 252.929 55.7714 0.94205 0.00862245
1884400 60.2096 252.942 55.7714 0.94215 0.0113079
1884600 60.2096 252.955 55.7714 0.94225 -0.00366072
1884800 60.2096 252.968 55.7714 0.94235 -0.000459155
1885000 60.2096 252.981 55.7714 0.94245 -0.00429439
1885200 60.2096 252.995 55.7714 0.94255 0.000393131
1885400 60.2096 253.008 55.7714 0.94265 0.0089386
1885600 60.2096 253.021 55.7714 0.94275 0.00663725
1885800 60.2096 253.034 55.7714 0.94285 0.00926735
1886000 60.2096 253.047 55.7714 0.94295 0.0123905
1886200 60.2096 253.06 55.7714 0.94305 0.0114737
1886400 60.2096 253.073 55.7714 0.94315 0.00722607
1886600 60.2096 253.086 55.7714 0.94325 -0.00644119
1886800 60.2096 253.099 55.7714 0.94335 -0.0021954
1887000 60.2096 253.112 55.7714 0.94345 -0.00516256
1887200 60.2096 253.125 55.7714 0.94355 0.015503
1887400 60.2096 253.138 55.7714 0.94365 0.00349624
1887600 60.2096 253.151 55.7714 0.94375 -0.00250442
1887800 60.2096 253.164 55.7714 0.94385 -0.00886942
1888000 60.2096 253.177 55.7714 0.94395 -0.0197444
1888200 60.2096 253.19 55.7714 0.94405 0.00296255
1888400 60.2096 253.203 55.7714 0.94415 -0.00272328
1888600 60.2096 253.216 55.7714 0.94425 -8.57392e-05
1888800 60.2096 253.229 55.7714 0.94435 0.0122837
1889000 60.2096 253.242 55.7714 0.94445 0.00957535
1889200 60.2096 253.255 55.7714 0.94455 0.00137708
1889400 60.2096 253.268 55.7714 0.94465 -0.0120589
1889600 60.2096 253.281 55.7714 0.94475 0.015893
1889800 60.2096 253.294 55.7714 0.94485 0.0076617
1890000 60.2096 253.307 55.7714 0.94495 0.0101513
1890200 60.2096 253.32 55.7714 0.94505 0.0029958
1890400 60.2096 253.333 55.7714 0.94515 0.00523602
1890600 60.2096 253.346 55.7714 0.94525 0.00169176
1890800 60.2096 253.359 55.7714 0.94535 0.00369183
1891000 60.2096 253.372 55.7714 0.94545 -0.0110828
1891200 60.2096 253.385 55.7714 0.94555 -0.0130313
1891400 60.2096 253.398 55.7714 0.94565 0.0100468
1891600 60.2096 253.411 55.7714 0.94575 -0.00697584
1891800 60.2096 253.424 55.7714 0.94585 0.00256271
1892000 60.2096 253.437 55.7714 0.94595 0.00416319
1892200 60.2096 253.45 55.7714 0.94605 -0.00390256
1892400 60.2096 253.463 55.7714 0.94615 0.000175114
1892600 60.2096 253.476 55.7714 0.94625 0.00856843
1892800 60.2096 253.489 55.7714 0.94635 0.00993334
1893000 60.2096 253.502 55.7714 0.94645 0.0124402
1893200 60.2096 253.515 55.7714 0.94655 -0.0121368
1893400 60.2096 253.528 55.7714 0.94665 0.0150751
1893600 60.2096 253.542 55.7714 0.94675 -0.00148189
1893800 60.2096 253.555 55.7714 0.94685 0.000731878
1894000 60.2096 253.568 55.7714 0.94695 0.0109137
1894200 60.2096 253.581 55.7714 0.94705 -0.0141242
1894400 60.2096 253.594 55.7714 0.94715 0.0138641
1894600 60.2096 253.607 55.7714 0.94725 -0.00081529
1894800 60.2096 253.62 55.7714 0.94735 -0.0104129
1895000 60.2096 253.633 55.7714 0.94745 -0.00688986
1895200 60.2096 253.646 55.7714 0.94755 0.00901089
1895400 60.2096 253.659 55.7714 0.94765 0.00194065
1895600 60.2096 253.672 55.7714 0.94775 -0.0100557
1895800 60.2096 253.685 55.7714 0.94785 0.00503844
1896000 60.2096 253.698 55.7714 0.94795 0.00315742
1896200 60.2096 253.711 55.7714 0.94805 -0.00298675
1896400 60.2096 253.724 55.7714 0.94815 0.00366222
1896600 60.2096 253.737 55.7714 0.94825 0.00599868
1896800 60.2096 253.75 55.7714 0.94835 0.0156948
1897000 60.2096 253.763 55.7714 0.94845 -0.000671147
1897200 60.2096 253.776 55.7714 0.94855 0.00397555
1897400 60.2096 253.789 55.7714 0.94865 0.0112492
1897600 60.2096 253.802 55.7714 0.94875 -0.0089562
1897800 60.2096 253.815 55.7714 0.94885 0.0183289
1898000 60.2096 253.828 55.7714 0.94895 -0.00582832
1898200 60.2096 253.841 55.7714 0.94905 0.00738482
1898400 60.2096 253.854 55.7714 0.94915 -0.0166802
1898600 60.2096 253.867 55.7714 0.94925 0.00233866
1898800 60.2096 253.88 55.7714 0.94935 -0.0102325
1899000 60.2096 253.893 55.7714 0.94945 -0.00383586
1899200 60.2096 253.906 55.7714 0.94955 0.000206386
1899400 60.2096 253.919 55.7714 0.94965 0.00272398
1899600 60.2096 253.932 55.7714 0.94975 0.0112515
1899800 60.2096 253.945 55.7714 0.94985 0.00159133
1900000 60.2096 253.958 55.7714 0.94995 -0.00379793
1900200 60.2096 253.971 55.7714 0.95005 0.00242496
1900400 60.2096 253.984 55.7714 0.95015 -0.006985
1900600 60.2096 253.997 55.7714 0.95025 0.0250931
1900800 60.2096 254.01 55.7714 0.95035 0.0103113
1901000 60.2096 254.023 55.7714 0.95045 0.0101039
1901200 60.2096 254.036 55.7714 0.95055 0.000852337
1901400 60.2096 254.049 55.7714 0.95065 -0.00546934
1901600 60.2096 254.062 55.7714 0.95075 0.00844457
1901800 60.2096 254.075 55.7714 0.95085 -0.00246906
1902000 60.2096 254.089 55.7714 0.95095 -0.00208124
1902200 60.2096 254.102 55.7714 0.95105 0.00578854
1902400 60.2096 254.115 55.7714 0.95115 -0.0102605
1902600 60.2096 254.128 55.7714 0.95125 -0.00258862
1902800 60.2096 254.141 55.7714 0.95135 -0.00708555
1903000 60.2096 254.154 55.7714 0.95145 -0.0117099
1903200 60.2096 254.167 55.7714 0.95155 0.00334814
1903400 60.2096 254.18 55.7714 0.95165 0.000443274
1903600 60.2096 254.193 55.7714 0.95175 -0.000241178
1903800 60.2096 254.206 55.7714 0.95185 -0.00173254
1904000 60.2096 254.219 55.7714 0.95195 0.00795723
1904200 60.2096 254.232 55.7714 0.95205 0.0115298
1904400 60.2096 254.245 55.7714 0.95215 0.0106384
1904600 60.2096 254.258 55.7714 0.95225 0.00922718
1904800 60.2096 254.271 55.7714 0.95235 0.00234117
1905000 60.2096 254.284 55.7714 0.95245 0.00910497
1905200 60.2096 254.297 55.7714 0.95255 0.00917505
1905400 60.2096 254.31 55.7714 0.95265 0.0054757
1905600 60.2096 254.323 55.7714 0.95275 -0.00579772
1905800 60.2096 254.336 55.7714 0.95285 0.00762244
1906000 60.2096 254.349 55.7714 0.95295 0.00204159
1906200 60.2096 254.362 55.7714 0.95305 0.00344758
1906400 60.2096 254.375 55.7714 0.95315 -0.00439316
1906600 60.2096 254.388 55.7714 0.95325 -0.0134019
1906800 60.2096 254.401 55.7714 0.95335 -0.00707166
1907000 60.2096 254.414 55.7714 0.95345 -0.00621983
1907200 60.2096 254.427 55.7714 0.95355 -0.00100953
1907400 60.2096 254.44 55.7714 0.95365 0.00262414
1907600 60.2096 254.453 55.7714 0.95375 -0.00301652
1907800 60.2096 254.466 55.7714 0.95385 0.00324998
1908000 60.2096 254.479 55.7714 0.95395 -0.00268096
1908200 60.2096 254.492 55.7714 0.95405 0.00283317
1908400 60.2096 254.505 55.7714 0.95415 0.00587638
1908600 60.2096 254.518 55.7714 0.95425 0.00196609
1908800 60.2096 254.531 55.7714 0.95435 0.0304843
1909000 60.2096 254.544 55.7714 0.95445 0.0044109
1909200 60.2096 254.557 55.7714 0.95455 -0.00459651
1909400 60.2096 254.57 55.7714 0.95465 0.00235092
1909600 60.2096 254.583 55.7714 0.95475 0.0066308
1909800 60.2096 254.596 55.7714 0.95485 0.00779097
1910000 60.2096 254.609 55.7714 0.95495 0.000507885
1910200 60.2096 254.622 55.7714 0.95505 0.00835921
1910400 60.2096 254.636 55.7714 0.95515 0.00193416
1910600 60.2096 254.649 55.7714 0.95525 -0.00788993
1910800 60.2096 254.662 55.7714 0.95535 -0.0178195
1911000 60.2096 254.675 55.7714 0.95545 -0.00714745
1911200 60.2096 254.688 55.7714 0.95555 0.00228037
1911400 60.2096 254.701 55.7714 0.95565 -0.00845706
1911600 60.2096 254.714 55.7714 0.95575 0.00859158
1911800 60.2096 254.727 55.7714 0.95585 0.00501755
1912000 60.2096 254.74 55.7714 0.95595 -0.00362586
1912200 60.2096 254.753 55.7714 0.95605 -0.00740755
1912400 60.2096 254.766 55.7714 0.95615 -0.00153271
1912600 60.2096 254.779 55.7714 0.95625 0.0185174
1912800 60.2096 254.792 55.7714 0.95635 0.0201169
1913000 60.2096 254.805 55.7714 0.95645 0.0200055
1913200 60.2096 254.818 55.7714 0.95655 0.00437301
1913400 60.2096 254.831 55.7714 0.95665 -0.0033957
1913600 60.2096 254.844 55.7714 0.95675 -0.00135067
1913800 60.2096 254.857 55.7714 0.95685 -0.00649161
1914000 60.2096 254.87 55.7714 0.95695 0.0103581
1914200 60.2096 254.883 55.7714 0.95705 0.0129449
1914400 60.2096 254.896 55.7714 0.95715 -0.0121768
1914600 60.2096 254.909 55.7714 0.95725 0.00883434
1914800 60.2096 254.922 55.7714 0.95735 -0.0150018
1915000 60.2096 254.935 55.7714 0.95745 -0.0211366
1915200 60.2096 254.948 55.7714 0.95755 -0.00615057
1915400 60.2096 254.961 55.7714 0.95765 0.013293
1915600 60.2096 254.974 55.7714 0.95775 -0.011902
1915800 60.2096 254.987 55.7714 0.95785 0.0127425
1916000 60.2096 255 55.7714 0.95795 -0.00859588
1916200 60.2096 255.013 55.7714 0.95805 0.00673538
1916400 60.2096 255.026 55.7714 0.95815 0.00312397
1916600 60.2096 255.039 55.7714 0.95825 0.00550497
1916800 60.2096 255.052 55.7714 0.95835 0.00576624
1917000 60.2096 255.065 55.7714 0.95845 0.0295354
1917200 60.2096 255.078 55.7714 0.95855 0.00815211
1917400 60.2096 255.091 55.7714 0.95865 -0.00200646
1917600 60.2096 255.104 55.7714 0.95875 0.00365997
1917800 60.2096 255.117 55.7714 0.95885 -0.00169073
1918000 60.2096 255.13 55.7714 0.95895 0.00578548
1918200 60.2096 255.143 55.7714 0.95905 0.00443121
1918400 60.2096 255.156 55.7714 0.95915 0.000146804
1918600 60.2096 255.169 55.7714 0.95925 -0.00775382
1918800 60.2096 255.183 55.7714 0.95935 -0.0100278
1919000 60.2096 255.196 55.7714 0.95945 -0.00981953
1919200 60.2096 255.209 55.7714 0.95955 -0.0155233
1919400 60.2096 255.222 55.7714 0.95965 0.0123059
1919600 60.2096 255.235 55.7714 0.95975 -0.0123205
1919800 60.2096 255.248 55.7714 0.95985 0.0110447
1920000 60.2096 255.261 55.7714 0.95995 0.000808433
1920200 60.2096 255.274 55.7714 0.96005 0.0175375
1920400 60.2096 255.287 55.7714 0.96015 -0.00418073
1920600 60.2096 255.3 55.7714 0.96025 0.0152582
1920800 60.2096 255.313 55.7714 0.96035 0.0150162
1921000 60.2096 255.326 55.7714 0.96045 0.01252
1921200 60.2096 255.339 55.7714 0.96055 0.00316263
1921400 60.2096 255.352 55.7714 0.96065 0.00985572
1921600 60.2096 255.365 55.7714 0.96075 -0.011366
1921800 60.2096 255.378 55.7714 0.96085 -0.00477625
1922000 60.2096 255.391 55.7714 0.96095 -0.00135634
1922200 60.2096 255.404 55.7714 0.96105 -0.00344664
1922400 60.2096 255.417 55.7714 0.96115 -0.0103948
1922600 60.2096 255.43 55.7714 0.96125 0.0171136
1922800 60.2096 255.443 55.7714 0.96135 -0.0172345
1923000 60.2096 255.456 55.7714 0.96145 -0.0191822
1923200 60.2096 255.469 55.7714 0.96155 0.00250986
1923400 60.2096 255.482 55.7714 0.96165 0.000986232
1923600 60.2096 255.495 55.7714 0.96175 0.008264
1923800 60.2096 255.508 55.7714 0.96185 0.0217334
1924000 60.2096 255.521 55.7714 0.96195 0.010706
1924200 60.2096 255.534 55.7714 0.96205 0.00150286
1924400 60.2096 255.547 55.7714 0.96215 -0.00759833
1924600 60.2096 255.56 55.7714 0.96225 0.0110121
1924800 60.2096 255.573 55.7714 0.96235 0.00592975
1925000 60.2096 255.586 55.7714 0.96245 0.00772572
1925200 60.2096 255.599 55.7714 0.96255 0.0152366
1925400 60.2096 255.612 55.7714 0.96265 0.0123748
1925600 60.2096 255.625 55.7714 0.96275 -0.0126687
1925800 60.2096 255.638 55.7714 0.96285 -0.0203075
1926000 60.2096 255.651 55.7714 0.96295 0.00345162
1926200 60.2096 255.664 55.7714 0.96305 0.00596917
1926400 60.2096 255.677 55.7714 0.96315 -0.00471406
1926600 60.2096 255.69 55.7714 0.96325 -0.00357807
1926800 60.2096 255.703 55.7714 0.96335 0.010108
1927000 60.2096 255.716 55.7714 0.96345 -0.00333415
1927200 60.2096 255.73 55.7714 0.96355 -0.016251
1927400 60.2096 255.743 55.7714 0.96365 -0.0161666
1927600 60.2096 255.756 55.7714 0.96375 0.0103132
1927800 60.2096 255.769 55.7714 0.96385 0.0212113
1928000 60.2096 255.782 55.7714 0.96395 0.00287617
1928200 60.2096 255.795 55.7714 0.96405 0.00245954
1928400 60.2096 255.808 55.7714 0.96415 -0.00239591
1928600 60.2096 255.821 55.7714 0.96425 0.00793588
1928800 60.2096 255.834 55.7714 0.96435 -0.0103576
1929000 60.2096 255.847 55.7714 0.96445 0.0255296
1929200 60.2096 255.86 55.7714 0.96455 0.018368
1929400 60.2096 255.873 55.7714 0.96465 0.0102504
1929600 60.2096 255.886 55.7714 0.96475 0.00297166
1929800 60.2096 255.899 55.7714 0.96485 -0.0054923
1930000 60.2096 255.912 55.7714 0.96495 0.00279208
1930200 60.2096 255.925 55.7714 0.96505 -0.0135026
1930400 60.2096 255.938 55.7714 0.96515 -0.00635843
1930600 60.2096 255.951 55.7714 0.96525 -0.00270076
1930800 60.2096 255.964 55.7714 0.96535 0.00812969
1931000 60.2096 255.977 55.7714 0.96545 0.000716632
1931200 60.2096 255.99 55.7714 0.96555 -0.0256884
1931400 60.2096 256.003 55.7714 0.96565 0.0132759
1931600 60.2096 256.016 55.7714 0.96575 -0.00138993
1931800 60.2096 256.029 55.7714 0.96585 0.00643089
1932000 60.2096 256.042 55.7714 0.96595 2.01498e-05
1932200 60.2096 256.055 55.7714 0.96605 0.0236358
1932400 60.2096 256.068 55.7714 0.96615 0.00385321
1932600 60.2096 256.081 55.7714 0.96625 -0.0186501
1932800 60.2096 256.094 55.7714 0.96635 0.0156479
1933000 60.2096 256.107 55.7714 0.96645 0.00626155
1933200 60.2096 256.12 55.7714 0.96655 0.0191901
1933400 60.2096 256.133 55.7714 0.96665 -0.00252997
1933600 60.2096 256.146 55.7714 0.96675 -0.00108667
1933800 60.2096 256.159 55.7714 0.96685 -0.00935852
1934000 60.2096 256.172 55.7714 0.96695 -0.00601119
1934200 60.2096 256.185 55.7714 0.96705 0.00231376
1934400 60.2096 256.198 55.7714 0.96715 0.00565417
1934600 60.2096 256.211 55.7714 0.96725 -0.00603259
1934800 60.2096 256.224 55.7714 0.96735 -0.00489365
1935000 60.2096 256.237 55.7714 0.96745 -0.0092558
1935200 60.2096 256.25 55.7714 0.96755 0.0126903
1935400 60.2096 256.263 55.7714 0.96765 0.00270699
1935600 60.2096 256.277 55.7714 0.96775 -0.00238632
1935800 60.2096 256.29 55.7714 0.96785 0.00824454
1936000 60.2096 256.303 55.7714 0.96795 -0.000733844
1936200 60.2096 256.316 55.7714 0.96805 0.0079402
1936400 60.2096 256.329 55.7714 0.96815 -0.000999137
1936600 60.2096 256.342 55.7714 0.96825 0.0119997
1936800 60.2096 256.355 55.7714 0.96835 0.00821597
1937000 60.2096 256.368 55.7714 0.96845 -0.00269348
1937200 60.2096 256.381 55.7714 0.96855 -0.0056481
1937400 60.2096 256.394 55.7714 0.96865 0.0174815
1937600 60.2096 256.407 55.7714 0.96875 0.00490496
1937800 60.2096 256.42 55.7714 0.96885 -0.0119895
1938000 60.2096 256.433 55.7714 0.96895 4.48269e-05
1938200 60.2096 256.446 55.7714 0.96905 0.00842169
1938400 60.2096 256.459 55.7714 0.96915 -0.000956809
1938600 60.2096 256.472 55.7714 0.96925 -0.00207249
1938800 60.2096 256.485 55.7714 0.96935 0.000814241
1939000 60.2096 256.498 55.7714 0.96945 -0.00486756
1939200 60.2096 256.511 55.7714 0.96955 0.0034467
1939400 60.2096 256.524 55.7714 0.96965 0.00167887
1939600 60.2096 256.537 55.7714 0.96975 0.00574638
1939800 60.2096 256.55 55.7714 0.96985 -0.00539354
1940000 60.2096 256.563 55.7714 0.96995 0.0123597
1940200 60.2096 256.576 55.7714 0.97005 0.0107315
1940400 60.2096 256.589 55.7714 0.97015 -0.000291947
1940600 60.2096 256.602 55.7714 0.97025 -0.00149673
1940800 60.2096 256.615 55.7714 0.97035 0.00699833
1941000 60.2096 256.628 55.7714 0.97045 -0.000631599
1941200 60.2096 256.641 55.7714 0.97055 0.00273495
1941400 60.2096 256.654 55.7714 0.97065 -0.00493508
1941600 60.2096 256.667 55.7714 0.97075 0.0104839
1941800 60.2096 256.68 55.7714 0.97085 -0.00804966
1942000 60.2096 256.693 55.7714 0.97095 0.0131583
1942200 60.2096 256.706 55.7714 0.97105 -0.00448816
1942400 60.2096 256.719 55.7714 0.97115 -0.00577362
1942600 60.2096 256.732 55.7714 0.97125 -0.00676865
1942800 60.2096 256.745 55.7714 0.97135 0.00349003
1943000 60.2096 256.758 55.7714 0.97145 -0.00569607
1943200 60.2096 256.771 55.7714 0.97155 0.0135139
1943400 60.2096 256.784 55.7714 0.97165 -0.0030253
1943600 60.2096 256.797 55.7714 0.97175 -0.00206676
1943800 60.2096 256.81 55.7714 0.97185 0.00876328
1944000 60.2096 256.824 55.7714 0.97195 0.00346889
1944200 60.2096 256.837 55.7714 0.97205 0.00296845
1944400 60.2096 256.85 55.7714 0.97215 0.00398009
1944600 60.2096 256.863 55.7714 0.97225 0.0237092
1944800 60.2096 256.876 55.7714 0.97235 -0.00545177
1945000 60.2096 256.889 55.7714 0.97245 -0.00742336
1945200 60.2096 256.902 55.7714 0.97255 0.0110648
1945400 60.2096 256.915 55.7714 0.97265 0.0091965
1945600 60.2096 256.928 55.7714 0.97275 -0.0108141
1945800 60.2096 256.941 55.7714 0.97285 0.0134854
1946000 60.2096 256.954 55.7714 0.97295 -0.00589011
1946200 60.2096 256.967 55.7714 0.97305 -0.00591759
1946400 60.2096 256.98 55.7714 0.97315 -0.000105153
1946600 60.2096 256.993 55.7714 0.97325 -0.00105304
1946800 60.2096 257.006 55.7714 0.97335 -0.00543879
1947000 60.2096 257.019 55.7714 0.97345 -0.00385275
1947200 60.2096 257.032 55.7714 0.97355 0.00832357
1947400 60.2096 257.045 55.7714 0.97365 -0.00941478
1947600 60.2096 257.058 55.7714 0.97375 0.0161206
1947800 60.2096 257.071 55.7714 0.97385 -0.0155159
1948000 60.2096 257.084 55.7714 0.97395 0.0191954
1948200 60.2096 257.097 55.7714 0.97405 0.00529618
1948400 60.2096 257.11 55.7714 0.97415 -0.000851771
1948600 60.2096 257.123 55.7714 0.97425 0.00394319
1948800 60.2096 257.136 55.7714 0.97435 0.0129155
1949000 60.2096 257.149 55.7714 0.97445 0.00804158
1949200 60.2096 257.162 55.7714 0.97455 0.0092721
1949400 60.2096 257.175 55.7714 0.97465 -0.000132949
1949600 60.2096 257.188 55.7714 0.97475 0.00856104
1949800 60.2096 257.201 55.7714 0.97485 -0.00966586
1950000 60.2096 257.214 55.7714 0.97495 -0.00191717
1950200 60.2096 257.227 55.7714 0.97505 0.000927346
1950400 60.2096 257.24 55.7714 0.97515 0.0142378
1950600 60.2096 257.253 55.7714 0.97525 -0.0124205
1950800 60.2096 257.266 55.7714 0.97535 -0.0151068
1951000 60.2096 257.279 55.7714 0.97545 -0.013965
1951200 60.2096 257.292 55.7714 0.97555 0.00496348
1951400 60.2096 257.305 55.7714 0.97565 0.00509887
1951600 60.2096 257.318 55.7714 0.97575 0.0144767
1951800 60.2096 257.331 55.7714 0.97585 -0.011175
1952000 60.2096 257.344 55.7714 0.97595 0.0111924
1952200 60.2096 257.357 55.7714 0.97605 -0.00517563
1952400 60.2096 257.371 55.7714 0.97615 -0.00234811
1952600 60.2096 257.384 55.7714 0.97625 0.0169757
1952800 60.2096 257.397 55.7714 0.97635 0.0137516
1953000 60.2096 257.41 55.7714 0.97645 0.0137743
1953200 60.2096 257.423 55.7714 0.97655 0.0128158
1953400 60.2096 257.436 55.7714 0.97665 0.0013064
1953600 60.2096 257.449 55.7714 0.97675 -0.00296445
1953800 60.2096 257.462 55.7714 0.97685 -0.0238975
1954000 60.2096 257.475 55.7714 0.97695 0.00318098
1954200 60.2096 257.488 55.7714 0.97705 0.00772504
1954400 60.2096 257.501 55.7714 0.97715 0.00390284
1954600 60.2096 257.514 55.7714 0.97725 0.00575044
1954800 60.2096 257.527 55.7714 0.97735 -0.00616707
1955000 60.2096 257.54 55.7714 0.97745 -0.0191362
1955200 60.2096 257.553 55.7714 0.97755 0.000677615
1955400 60.2096 257.566 55.7714 0.97765 -0.01083
1955600 60.2096 257.579 55.7714 0.97775 0.0225199
1955800 60.2096 257.592 55.7714 0.97785 0.00644386
1956000 60.2096 257.605 55.7714 0.97795 0.00816539
1956200 60.2096 257.618 55.7714 0.97805 0.00624292
1956400 60.2096 257.631 55.7714 0.97815 -0.00318401
1956600 60.2096 257.644 55.7714 0.97825 0.018093
1956800 60.2096 257.657 55.7714 0.97835 -0.0050757
1957000 60.2096 257.67 55.7714 0.97845 0.00536647
1957200 60.2096 257.683 55.7714 0.97855 0.0140909
1957400 60.2096 257.696 55.7714 0.97865 0.0103031
1957600 60.2096 257.709 55.7714 0.97875 -0.000840175
1957800 60.2096 257.722 55.7714 0.97885 -0.00770734
1958000 60.2096 257.735 55.7714 0.97895 -0.00131553
1958200 60.2096 257.748 55.7714 0.97905 -0.0161717
1958400 60.2096 257.761 55.7714 0.97915 -0.00141573
1958600 60.2096 257.774 55.7714 0.97925 0.00557468
1958800 60.2096 257.787 55.7714 0.97935 -0.00460874
1959000 60.2096 257.8 55.7714 0.97945 -0.0096717
1959200 60.2096 257.813 55.7714 0.97955 -0.00601882
1959400 60.2096 257.826 55.7714 0.97965 0.00757118
1959600 60.2096 257.839 55.7714 0.97975 0.00377931
1959800 60.2096 257.852 55.7714 0.97985 -0.00466198
1960000 60.2096 257.865 55.7714 0.97995 0.00663772
1960200 60.2096 257.878 55.7714 0.98005 0.0231166
1960400 60.2096 257.891 55.7714 0.98015 -0.00390071
1960600 60.2096 257.904 55.7714 0.98025 0.021606
1960800 60.2096 257.918 55.7714 0.98035 -0.00583426
1961000 60.2096 257.931 55.7714 0.98045 0.0155537
1961200 60.2096 257.944 55.7714 0.98055 0.0158733
1961400 60.2096 257.957 55.7714 0.98065 0.00690759
1961600 60.2096 257.97 55.7714 0.98075 -0.00998897
1961800 60.2096 257.983 55.7714 0.98085 -0.0101846
1962000 60.2096 257.996 55.7714 0.98095 0.000984654
1962200 60.2096 258.009 55.7714 0.98105 -0.0120764
1962400 60.2096 258.022 55.7714 0.98115 0.000878856
1962600 60.2096 258.035 55.7714 0.98125 0.00527442
1962800 60.2096 258.048 55.7714 0.98135 -0.0234133
1963000 60.2096 258.061 55.7714 0.98145 -0.00378943
1963200 60.2096 258.074 55.7714 0.98155 -0.00482738
1963400 60.2096 258.087 55.7714 0.98165 0.00442501
1963600 60.2096 258.1 55.7714 0.98175 0.00876359
1963800 60.2096 258.113 55.7714 0.98185 0.00943885
1964000 60.2096 258.126 55.7714 0.98195 0.017365
1964200 60.2096 258.139 55.7714 0.98205 0.01567
1964400 60.2096 258.152 55.7714 0.98215 0.00107098
1964600 60.2096 258.165 55.7714 0.98225 0.00907464
1964800 60.2096 258.178 55.7714 0.98235 0.00937662
1965000 60.2096 258.191 55.7714 0.98245 0.0101897
1965200 60.2096 258.204 55.7714 0.98255 0.0157773
1965400 60.2096 258.217 55.7714 0.98265 -0.0123059
1965600 60.2096 258.23 55.7714 0.98275 0.0036609
1965800 60.2096 258.243 55.7714 0.98285 -0.0124852
1966000 60.2096 258.256 55.7714 0.98295 -0.0236264
1966200 60.2096 258.269 55.7714 0.98305 -0.0118601
1966400 60.2096 258.282 55.7714 0.98315 0.0150628
1966600 60.2096 258.295 55.7714 0.98325 0.000105468
1966800 60.2096 258.308 55.7714 0.98335 -0.00996129
1967000 60.2096 258.321 55.7714 0.98345 -0.00708897
1967200 60.2096 258.334 55.7714 0.98355 0.0103671
1967400 60.2096 258.347 55.7714 0.98365 -0.00275683
1967600 60.2096 258.36 55.7714 0.98375 0.00882332
1967800 60.2096 258.373 55.7714 0.98385 0.0137187
1968000 60.2096 258.386 55.7714 0.98395 0.0133621
1968200 60.2096 258.399 55.7714 0.98405 0.00989071
1968400 60.2096 258.412 55.7714 0.98415 0.0010528
1968600 60.2096 258.425 55.7714 0.98425 0.0122043
1968800 60.2096 258.438 55.7714 0.98435 0.00919023
1969000 60.2096 258.451 55.7714 0.98445 -0.00360882
1969200 60.2096 258.465 55.7714 0.98455 -0.00191048
1969400 60.2096 258.478 55.7714 0.98465 -0.00402529
1969600 60.2096 258.491 55.7714 0.98475 0.00369644
1969800 60.2096 258.504 55.7714 0.98485 -0.00286371
1970000 60.2096 258.517 55.7714 0.98495 -0.00408286
1970200 60.2096 258.53 55.7714 0.98505 -0.0127322
1970400 60.2096 258.543 55.7714 0.98515 -0.00068523
1970600 60.2096 258.556 55.7714 0.98525 -0.00567315
1970800 60.2096 258.569 55.7714 0.98535 -0.00433832
1971000 60.2096 258.582 55.7714 0.98545 -0.00309247
1971200 60.2096 258.595 55.7714 0.98555 0.00870844
1971400 60.2096 258.608 55.7714 0.98565 0.0170794
1971600 60.2096 258.621 55.7714 0.98575 -0.00374971
1971800 60.2096 258.634 55.7714 0.98585 0.00505867
1972000 60.2096 258.647 55.7714 0.98595 0.0113906
1972200 60.2096 258.66 55.7714 0.98605 0.0226628
1972400 60.2096 258.673 55.7714 0.98615 0.00848817
1972600 60.2096 258.686 55.7714 0.98625 0.0131764
1972800 60.2096 258.699 55.7714 0.98635 0.00342241
1973000 60.2096 258.712 55.7714 0.98645 0.0122603
1973200 60.2096 258.725 55.7714 0.98655 -0.0162022
1973400 60.2096 258.738 55.7714 0.98665 -0.0171057
1973600 60.2096 258.751 55.7714 0.98675 -0.00319368
1973800 60.2096 258.764 55.7714 0.98685 0.0026865
1974000 60.2096 258.777 55.7714 0.98695 -0.00273233
1974200 60.2096 258.79 55.7714 0.98705 -0.005648
1974400 60.2096 258.803 55.7714 0.98715 -0.0126263
1974600 60.2096 258.816 55.7714 0.98725 -0.0183873
1974800 60.2096 258.829 55.7714 0.98735 0.00933896
1975000 60.2096 258.842 55.7714 0.98745 -0.00424198
1975200 60.2096 258.855 55.7714 0.98755 0.0132798
1975400 60.2096 258.868 55.7714 0.98765 0.0195576
1975600 60.2096 258.881 55.7714 0.98775 0.00178776
1975800 60.2096 258.894 55.7714 0.98785 0.0128524
1976000 60.2096 258.907 55.7714 0.98795 0.0216791
1976200 60.2096 258.92 55.7714 0.98805 0.00339257
1976400 60.2096 258.933 55.7714 0.98815 -0.00304762
1976600 60.2096 258.946 55.7714 0.98825 0.0249494
1976800 60.2096 258.959 55.7714 0.98835 0.0113625
1977000 60.2096 258.972 55.7714 0.98845 0.00453067
1977200 60.2096 258.985 55.7714 0.98855 -0.0265965
1977400 60.2096 258.998 55.7714 0.98865 -0.00580139
1977600 60.2096 259.012 55.7714 0.98875 -0.00941936
1977800 60.2096 259.025 55.7714 0.98885 -0.00862551
1978000 60.2096 259.038 55.7714 0.98895 -0.0117842
1978200 60.2096 259.051 55.7714 0.98905 -0.00587645
1978400 60.2096 259.064 55.7714 0.98915 -0.00244787
1978600 60.2096 259.077 55.7714 0.98925 0.00125482
1978800 60.2096 259.09 55.7714 0.98935 0.000457698
1979000 60.2096 259.103 55.7714 0.98945 -9.20352e-05
1979200 60.2096 259.116 55.7714 0.98955 0.00729621
1979400 60.2096 259.129 55.7714 0.98965 0.0159542
1979600 60.2096 259.142 55.7714 0.98975 0.0182807
1979800 60.2096 259.155 55.7714 0.98985 0.00901894
1980000 60.2096 259.168 55.7714 0.98995 0.0223821
1980200 60.2096 259.181 55.7714 0.99005 -0.0118033
1980400 60.2096 259.194 55.7714 0.99015 0.0137231
1980600 60.2096 259.207 55.7714 0.99025 0.00189923
1980800 60.2096 259.22 55.7714 0.99035 -0.000326027
1981000 60.2096 259.233 55.7714 0.99045 0.00605757
1981200 60.2096 259.246 55.7714 0.99055 0.009302
1981400 60.2096 259.259 55.7714 0.99065 -0.0109256
1981600 60.2096 259.272 55.7714 0.99075 -0.024586
1981800 60.2096 259.285 55.7714 0.99085 -0.0128475
1982000 60.2096 259.298 55.7714 0.99095 0.00955516
1982200 60.2096 259.311 55.7714 0.99105 -0.00632103
1982400 60.2096 259.324 55.7714 0.99115 0.000181756
1982600 60.2096 259.337 55.7714 0.99125 0.000297375
1982800 60.2096 259.35 55.7714 0.99135 -0.000101934
1983000 60.2096 259.363 55.7714 0.99145 -0.0123556
1983200 60.2096 259.376 55.7714 0.99155 0.019875
1983400 60.2096 259.389 55.7714 0.99165 0.0122578
1983600 60.2096 259.402 55.7714 0.99175 0.0072341
1983800 60.2096 259.415 55.7714 0.99185 0.0138537
1984000 60.2096 259.428 55.7714 0.99195 0.00968092
1984200 60.2096 259.441 55.7714 0.99205 0.01037
1984400 60.2096 259.454 55.7714 0.99215 -0.000324361
1984600 60.2096 259.467 55.7714 0.99225 2.33412e-05
1984800 60.2096 259.48 55.7714 0.99235 0.00849235
1985000 60.2096 259.493 55.7714 0.99245 0.000497416
1985200 60.2096 259.506 55.7714 0.99255 0.00503126
1985400 60.2096 259.519 55.7714 0.99265 -0.00755668
1985600 60.2096 259.532 55.7714 0.99275 -0.0135489
1985800 60.2096 259.545 55.7714 0.99285 -0.0103721
1986000 60.2096 259.559 55.7714 0.99295 -0.0109855
1986200 60.2096 259.572 55.7714 0.99305 0.0010591
1986400 60.2096 259.585 55.7714 0.99315 -0.00340966
1986600 60.2096 259.598 55.7714 0.99325 -0.00126305
1986800 60.2096 259.611 55.7714 0.99335 0.0027457
1987000 60.2096 259.624 55.7714 0.99345 0.000784089
1987200 60.2096 259.637 55.7714 0.99355 0.00411144
1987400 60.2096 259.65 55.7714 0.99365 0.0179449
1987600 60.2096 259.663 55.7714 0.99375 0.00699605
1987800 60.2096 259.676 55.7714 0.99385 0.0202132
1988000 60.2096 259.689 55.7714 0.99395 0.014848
1988200 60.2096 259.702 55.7714 0.99405 0.00939761
1988400 60.2096 259.715 55.7714 0.99415 -0.0052828
1988600 60.2096 259.728 55.7714 0.99425 0.00457531
1988800 60.2096 259.741 55.7714 0.99435 -0.000262227
1989000 60.2096 259.754 55.7714 0.99445 0.00162494
1989200 60.2096 259.767 55.7714 0.99455 0.0092816
1989400 60.2096 259.78 55.7714 0.99465 -0.011319
1989600 60.2096 259.793 55.7714 0.99475 -0.0206918
1989800 60.2096 259.806 55.7714 0.99485 -0.00544655
1990000 60.2096 259.819 55.7714 0.99495 -0.00555621
1990200 60.2096 259.832 55.7714 0.99505 0.00360614
1990400 60.2096 259.845 55.7714 0.99515 -0.0111575
1990600 60.2096 259.858 55.7714 0.99525 0.0112064
1990800 60.2096 259.871 55.7714 0.99535 -0.00394826
1991000 60.2096 259.884 55.7714 0.99545 0.00603811
1991200 60.2096 259.897 55.7714 0.99555 -0.00291139
1991400 60.2096 259.91 55.7714 0.99565 -0.00228805
1991600 60.2096 259.923 55.7714 0.99575 0.0124616
1991800 60.2096 259.936 55.7714 0.99585 0.0121547
1992000 60.2096 259.949 55.7714 0.99595 0.0192236
1992200 60.2096 259.962 55.7714 0.99605 0.00313697
1992400 60.2096 259.975 55.7714 0.99615 0.0163957
1992600 60.2096 259.988 55.7714 0.99625 -0.00601599
1992800 60.2096 260.001 55.7714 0.99635 -0.00200833
1993000 60.2096 260.014 55.7714 0.99645 0.0077992
1993200 60.2096 260.027 55.7714 0.99655 0.013492
1993400 60.2096 260.04 55.7714 0.99665 0.0053211
1993600 60.2096 260.053 55.7714 0.99675 -0.0089487
1993800 60.2096 260.066 55.7714 0.99685 -0.0157366
1994000 60.2096 260.079 55.7714 0.99695 -0.0101613
1994200 60.2096 260.092 55.7714 0.99705 0.000884816
1994400 60.2096 260.106 55.7714 0.99715 -0.00809218
1994600 60.2096 260.119 55.7714 0.99725 -0.00355513
1994800 60.2096 260.132 55.7714 0.99735 0.00192874
1995000 60.2096 260.145 55.7714 0.99745 -0.00293048
1995200 60.2096 260.158 55.7714 0.99755 -0.00322198
1995400 60.2096 260.171 55.7714 0.99765 0.00129038
1995600 60.2096 260.184 55.7714 0.99775 0.00394881
1995800 60.2096 260.197 55.7714 0.99785 0.0147468
1996000 60.2096 260.21 55.7714 0.99795 0.0119263
1996200 60.2096 260.223 55.7714 0.99805 0.0282982
1996400 60.2096 260.236 55.7714 0.99815 0.00663688
1996600 60.2096 260.249 55.7714 0.99825 -0.00458682
1996800 60.2096 260.262 55.7714 0.99835 0.00403141
1997000 60.2096 260.275 55.7714 0.99845 0.00956253
1997200 60.2096 260.288 55.7714 0.99855 -0.00648414
1997400 60.2096 260.301 55.7714 0.99865 0.00478766
1997600 60.2096 260.314 55.7714 0.99875 -0.0026099
1997800 60.2096 260.327 55.7714 0.99885 -0.0137975
1998000 60.2096 260.34 55.7714 0.99895 -0.00560399
1998200 60.2096 260.353 55.7714 0.99905 -0.00146334
1998400 60.2096 260.366 55.7714 0.99915 -0.0101981
1998600 60.2096 260.379 55.7714 0.99925 0.00123
1998800 60.2096 260.392 55.7714 0.99935 -0.00984497
1999000 60.2096 260.405 55.7714 0.99945 0.0135996
1999200 60.2096 260.418 55.7714 0.99955 -0.00490744
1999400 60.2096 260.431 55.7714 0.99965 0.0095555
1999600 60.2096 260.444 55.7714 0.99975 -0.00488417
1999800 60.2096 260.457 55.7714 0.99985 0.0184884
2000000 60.2096 260.47 55.7714 0.99995 0.00855115
