# Time-averaged data for fix Re_Primary
Step Lx Ly Lz StrainY StressYY
200 60.2772 130.683 55.8093 5.025e-05 0.00668398
400 60.2772 130.696 55.8093 0.00015025 0.0322233
600 60.2772 130.709 55.8093 0.00025025 0.0323182
800 60.2772 130.722 55.8093 0.00035025 0.0317835
1000 60.2772 130.735 55.8093 0.00045025 0.0603132
1200 60.2772 130.748 55.8093 0.00055025 0.0409185
1400 60.2772 130.762 55.8093 0.00065025 0.0781109
1600 60.2772 130.775 55.8093 0.00075025 0.0648055
1800 60.2772 130.788 55.8093 0.00085025 0.0983607
2000 60.2772 130.801 55.8093 0.00095025 0.0820433
2200 60.2772 130.814 55.8093 0.00105025 0.0888624
2400 60.2772 130.827 55.8093 0.00115025 0.14166
2600 60.2772 130.84 55.8093 0.00125025 0.123378
2800 60.2772 130.853 55.8093 0.00135025 0.152142
3000 60.2772 130.866 55.8093 0.00145025 0.15173
3200 60.2772 130.879 55.8093 0.00155025 0.154131
3400 60.2772 130.892 55.8093 0.00165025 0.184971
3600 60.2772 130.905 55.8093 0.00175025 0.155806
3800 60.2772 130.918 55.8093 0.00185025 0.210122
4000 60.2772 130.931 55.8093 0.00195025 0.187388
4200 60.2772 130.944 55.8093 0.00205025 0.225689
4400 60.2772 130.958 55.8093 0.00215025 0.207332
4600 60.2772 130.971 55.8093 0.00225025 0.227817
4800 60.2772 130.984 55.8093 0.00235025 0.250209
5000 60.2772 130.997 55.8093 0.00245025 0.250015
5200 60.2772 131.01 55.8093 0.00255025 0.271435
5400 60.2772 131.023 55.8093 0.00265025 0.263633
5600 60.2772 131.036 55.8093 0.00275025 0.284098
5800 60.2772 131.049 55.8093 0.00285025 0.293824
6000 60.2772 131.062 55.8093 0.00295025 0.326521
6200 60.2772 131.075 55.8093 0.00305025 0.309838
6400 60.2772 131.088 55.8093 0.00315025 0.336272
6600 60.2772 131.101 55.8093 0.00325025 0.331962
6800 60.2772 131.114 55.8093 0.00335025 0.346165
7000 60.2772 131.127 55.8093 0.00345025 0.353017
7200 60.2772 131.14 55.8093 0.00355025 0.367661
7400 60.2772 131.154 55.8093 0.00365025 0.372204
7600 60.2772 131.167 55.8093 0.00375025 0.403858
7800 60.2772 131.18 55.8093 0.00385025 0.387693
8000 60.2772 131.193 55.8093 0.00395025 0.401648
8200 60.2772 131.206 55.8093 0.00405025 0.434721
8400 60.2772 131.219 55.8093 0.00415025 0.434208
8600 60.2772 131.232 55.8093 0.00425025 0.42846
8800 60.2772 131.245 55.8093 0.00435025 0.456511
9000 60.2772 131.258 55.8093 0.00445025 0.462204
9200 60.2772 131.271 55.8093 0.00455025 0.458665
9400 60.2772 131.284 55.8093 0.00465025 0.46461
9600 60.2772 131.297 55.8093 0.00475025 0.48699
9800 60.2772 131.31 55.8093 0.00485025 0.510878
10000 60.2772 131.323 55.8093 0.00495025 0.502331
10200 60.2772 131.337 55.8093 0.00505025 0.528101
10400 60.2772 131.35 55.8093 0.00515025 0.548685
10600 60.2772 131.363 55.8093 0.00525025 0.522886
10800 60.2772 131.376 55.8093 0.00535025 0.556277
11000 60.2772 131.389 55.8093 0.00545025 0.568297
11200 60.2772 131.402 55.8093 0.00555025 0.562192
11400 60.2772 131.415 55.8093 0.00565025 0.588202
11600 60.2772 131.428 55.8093 0.00575025 0.587289
11800 60.2772 131.441 55.8093 0.00585025 0.625973
12000 60.2772 131.454 55.8093 0.00595025 0.607098
12200 60.2772 131.467 55.8093 0.00605025 0.630118
12400 60.2772 131.48 55.8093 0.00615025 0.647724
12600 60.2772 131.493 55.8093 0.00625025 0.645697
12800 60.2772 131.506 55.8093 0.00635025 0.657691
13000 60.2772 131.519 55.8093 0.00645025 0.656173
13200 60.2772 131.533 55.8093 0.00655025 0.69795
13400 60.2772 131.546 55.8093 0.00665025 0.672735
13600 60.2772 131.559 55.8093 0.00675025 0.692251
13800 60.2772 131.572 55.8093 0.00685025 0.752744
14000 60.2772 131.585 55.8093 0.00695025 0.715087
14200 60.2772 131.598 55.8093 0.00705025 0.719414
14400 60.2772 131.611 55.8093 0.00715025 0.753518
14600 60.2772 131.624 55.8093 0.00725025 0.756732
14800 60.2772 131.637 55.8093 0.00735025 0.760526
15000 60.2772 131.65 55.8093 0.00745025 0.774707
15200 60.2772 131.663 55.8093 0.00755025 0.775987
15400 60.2772 131.676 55.8093 0.00765025 0.781642
15600 60.2772 131.689 55.8093 0.00775025 0.828005
15800 60.2772 131.702 55.8093 0.00785025 0.79369
16000 60.2772 131.715 55.8093 0.00795025 0.840386
16200 60.2772 131.729 55.8093 0.00805025 0.840057
16400 60.2772 131.742 55.8093 0.00815025 0.840683
16600 60.2772 131.755 55.8093 0.00825025 0.864201
16800 60.2772 131.768 55.8093 0.00835025 0.884672
17000 60.2772 131.781 55.8093 0.00845025 0.869606
17200 60.2772 131.794 55.8093 0.00855025 0.896899
17400 60.2772 131.807 55.8093 0.00865025 0.915179
17600 60.2772 131.82 55.8093 0.00875025 0.918084
17800 60.2772 131.833 55.8093 0.00885025 0.933977
18000 60.2772 131.846 55.8093 0.00895025 0.913287
18200 60.2772 131.859 55.8093 0.00905025 0.944119
18400 60.2772 131.872 55.8093 0.00915025 0.962076
18600 60.2772 131.885 55.8093 0.00925025 0.982241
18800 60.2772 131.898 55.8093 0.00935025 0.961597
19000 60.2772 131.911 55.8093 0.00945025 1.01666
19200 60.2772 131.925 55.8093 0.00955025 0.963498
19400 60.2772 131.938 55.8093 0.00965025 1.01764
19600 60.2772 131.951 55.8093 0.00975025 1.02489
19800 60.2772 131.964 55.8093 0.00985025 1.01668
20000 60.2772 131.977 55.8093 0.00995025 1.06663
20200 60.2772 131.99 55.8093 0.0100502 1.04694
20400 60.2772 132.003 55.8093 0.0101502 1.06455
20600 60.2772 132.016 55.8093 0.0102502 1.05623
20800 60.2772 132.029 55.8093 0.0103502 1.08502
21000 60.2772 132.042 55.8093 0.0104502 1.10083
21200 60.2772 132.055 55.8093 0.0105502 1.09954
21400 60.2772 132.068 55.8093 0.0106502 1.13089
21600 60.2772 132.081 55.8093 0.0107502 1.10829
21800 60.2772 132.094 55.8093 0.0108502 1.1671
22000 60.2772 132.107 55.8093 0.0109502 1.13795
22200 60.2772 132.121 55.8093 0.0110502 1.16653
22400 60.2772 132.134 55.8093 0.0111502 1.18568
22600 60.2772 132.147 55.8093 0.0112502 1.17634
22800 60.2772 132.16 55.8093 0.0113502 1.21223
23000 60.2772 132.173 55.8093 0.0114502 1.16636
23200 60.2772 132.186 55.8093 0.0115502 1.22813
23400 60.2772 132.199 55.8093 0.0116502 1.22269
23600 60.2772 132.212 55.8093 0.0117502 1.23745
23800 60.2772 132.225 55.8093 0.0118502 1.25009
24000 60.2772 132.238 55.8093 0.0119502 1.27233
24200 60.2772 132.251 55.8093 0.0120502 1.25032
24400 60.2772 132.264 55.8093 0.0121502 1.27926
24600 60.2772 132.277 55.8093 0.0122502 1.29425
24800 60.2772 132.29 55.8093 0.0123502 1.29915
25000 60.2772 132.304 55.8093 0.0124502 1.31944
25200 60.2772 132.317 55.8093 0.0125502 1.31868
25400 60.2772 132.33 55.8093 0.0126502 1.32042
25600 60.2772 132.343 55.8093 0.0127502 1.351
25800 60.2772 132.356 55.8093 0.0128502 1.35967
26000 60.2772 132.369 55.8093 0.0129502 1.36585
26200 60.2772 132.382 55.8093 0.0130502 1.35935
26400 60.2772 132.395 55.8093 0.0131502 1.386
26600 60.2772 132.408 55.8093 0.0132502 1.40607
26800 60.2772 132.421 55.8093 0.0133502 1.41691
27000 60.2772 132.434 55.8093 0.0134502 1.4208
27200 60.2772 132.447 55.8093 0.0135502 1.41779
27400 60.2772 132.46 55.8093 0.0136502 1.45199
27600 60.2772 132.473 55.8093 0.0137502 1.44553
27800 60.2772 132.486 55.8093 0.0138502 1.46353
28000 60.2772 132.5 55.8093 0.0139502 1.47349
28200 60.2772 132.513 55.8093 0.0140502 1.50904
28400 60.2772 132.526 55.8093 0.0141502 1.47572
28600 60.2772 132.539 55.8093 0.0142502 1.51223
28800 60.2772 132.552 55.8093 0.0143502 1.54391
29000 60.2772 132.565 55.8093 0.0144502 1.50365
29200 60.2772 132.578 55.8093 0.0145502 1.54532
29400 60.2772 132.591 55.8093 0.0146502 1.57493
29600 60.2772 132.604 55.8093 0.0147502 1.53979
29800 60.2772 132.617 55.8093 0.0148502 1.57662
30000 60.2772 132.63 55.8093 0.0149502 1.59585
30200 60.2772 132.643 55.8093 0.0150502 1.5833
30400 60.2772 132.656 55.8093 0.0151502 1.61454
30600 60.2772 132.669 55.8093 0.0152502 1.6264
30800 60.2772 132.682 55.8093 0.0153502 1.61517
31000 60.2772 132.696 55.8093 0.0154502 1.64023
31200 60.2772 132.709 55.8093 0.0155502 1.64976
31400 60.2772 132.722 55.8093 0.0156502 1.64819
31600 60.2772 132.735 55.8093 0.0157502 1.68074
31800 60.2772 132.748 55.8093 0.0158502 1.67361
32000 60.2772 132.761 55.8093 0.0159502 1.70086
32200 60.2772 132.774 55.8093 0.0160502 1.69231
32400 60.2772 132.787 55.8093 0.0161502 1.73834
32600 60.2772 132.8 55.8093 0.0162502 1.71511
32800 60.2772 132.813 55.8093 0.0163502 1.75566
33000 60.2772 132.826 55.8093 0.0164502 1.73211
33200 60.2772 132.839 55.8093 0.0165502 1.74516
33400 60.2772 132.852 55.8093 0.0166502 1.78186
33600 60.2772 132.865 55.8093 0.0167502 1.79084
33800 60.2772 132.878 55.8093 0.0168502 1.79625
34000 60.2772 132.892 55.8093 0.0169502 1.80088
34200 60.2772 132.905 55.8093 0.0170502 1.81803
34400 60.2772 132.918 55.8093 0.0171502 1.84407
34600 60.2772 132.931 55.8093 0.0172502 1.81547
34800 60.2772 132.944 55.8093 0.0173502 1.85097
35000 60.2772 132.957 55.8093 0.0174502 1.86379
35200 60.2772 132.97 55.8093 0.0175502 1.86235
35400 60.2772 132.983 55.8093 0.0176502 1.90674
35600 60.2772 132.996 55.8093 0.0177502 1.88617
35800 60.2772 133.009 55.8093 0.0178502 1.91153
36000 60.2772 133.022 55.8093 0.0179502 1.91518
36200 60.2772 133.035 55.8093 0.0180502 1.92757
36400 60.2772 133.048 55.8093 0.0181502 1.93965
36600 60.2772 133.061 55.8093 0.0182502 1.96333
36800 60.2772 133.075 55.8093 0.0183502 1.94561
37000 60.2772 133.088 55.8093 0.0184502 1.98394
37200 60.2772 133.101 55.8093 0.0185502 1.98427
37400 60.2772 133.114 55.8093 0.0186502 2.00069
37600 60.2772 133.127 55.8093 0.0187502 2.01132
37800 60.2772 133.14 55.8093 0.0188502 2.02039
38000 60.2772 133.153 55.8093 0.0189502 2.02926
38200 60.2772 133.166 55.8093 0.0190502 2.04248
38400 60.2772 133.179 55.8093 0.0191502 2.0433
38600 60.2772 133.192 55.8093 0.0192502 2.07702
38800 60.2772 133.205 55.8093 0.0193502 2.07946
39000 60.2772 133.218 55.8093 0.0194502 2.08041
39200 60.2772 133.231 55.8093 0.0195502 2.09972
39400 60.2772 133.244 55.8093 0.0196502 2.09088
39600 60.2772 133.257 55.8093 0.0197502 2.12897
39800 60.2772 133.271 55.8093 0.0198502 2.13046
40000 60.2772 133.284 55.8093 0.0199502 2.13564
40200 60.2772 133.297 55.8093 0.0200502 2.15716
40400 60.2772 133.31 55.8093 0.0201502 2.14583
40600 60.2772 133.323 55.8093 0.0202502 2.17096
40800 60.2772 133.336 55.8093 0.0203502 2.20468
41000 60.2772 133.349 55.8093 0.0204502 2.18081
41200 60.2772 133.362 55.8093 0.0205502 2.22712
41400 60.2772 133.375 55.8093 0.0206502 2.20022
41600 60.2772 133.388 55.8093 0.0207502 2.22113
41800 60.2772 133.401 55.8093 0.0208502 2.24326
42000 60.2772 133.414 55.8093 0.0209502 2.24719
42200 60.2772 133.427 55.8093 0.0210502 2.28133
42400 60.2772 133.44 55.8093 0.0211502 2.26003
42600 60.2772 133.453 55.8093 0.0212502 2.29958
42800 60.2772 133.467 55.8093 0.0213502 2.26357
43000 60.2772 133.48 55.8093 0.0214502 2.32577
43200 60.2772 133.493 55.8093 0.0215502 2.32055
43400 60.2772 133.506 55.8093 0.0216502 2.33992
43600 60.2772 133.519 55.8093 0.0217502 2.3292
43800 60.2772 133.532 55.8093 0.0218502 2.3785
44000 60.2772 133.545 55.8093 0.0219502 2.34337
44200 60.2772 133.558 55.8093 0.0220502 2.38499
44400 60.2772 133.571 55.8093 0.0221502 2.38932
44600 60.2772 133.584 55.8093 0.0222502 2.4144
44800 60.2772 133.597 55.8093 0.0223502 2.39234
45000 60.2772 133.61 55.8093 0.0224502 2.44016
45200 60.2772 133.623 55.8093 0.0225502 2.44438
45400 60.2772 133.636 55.8093 0.0226502 2.43465
45600 60.2772 133.649 55.8093 0.0227502 2.44539
45800 60.2772 133.663 55.8093 0.0228502 2.47985
46000 60.2772 133.676 55.8093 0.0229502 2.48088
46200 60.2772 133.689 55.8093 0.0230502 2.48926
46400 60.2772 133.702 55.8093 0.0231502 2.48669
46600 60.2772 133.715 55.8093 0.0232502 2.51764
46800 60.2772 133.728 55.8093 0.0233502 2.49727
47000 60.2772 133.741 55.8093 0.0234502 2.53665
47200 60.2772 133.754 55.8093 0.0235502 2.55096
47400 60.2772 133.767 55.8093 0.0236502 2.54742
47600 60.2772 133.78 55.8093 0.0237502 2.55864
47800 60.2772 133.793 55.8093 0.0238502 2.601
48000 60.2772 133.806 55.8093 0.0239502 2.57218
48200 60.2772 133.819 55.8093 0.0240502 2.59503
48400 60.2772 133.832 55.8093 0.0241502 2.63372
48600 60.2772 133.845 55.8093 0.0242502 2.61887
48800 60.2772 133.859 55.8093 0.0243502 2.63099
49000 60.2772 133.872 55.8093 0.0244502 2.63766
49200 60.2772 133.885 55.8093 0.0245502 2.66367
49400 60.2772 133.898 55.8093 0.0246502 2.67211
49600 60.2772 133.911 55.8093 0.0247502 2.67562
49800 60.2772 133.924 55.8093 0.0248502 2.68553
50000 60.2772 133.937 55.8093 0.0249502 2.70237
50200 60.2772 133.95 55.8093 0.0250502 2.71121
50400 60.2772 133.963 55.8093 0.0251502 2.7278
50600 60.2772 133.976 55.8093 0.0252502 2.72681
50800 60.2772 133.989 55.8093 0.0253502 2.76198
51000 60.2772 134.002 55.8093 0.0254502 2.73964
51200 60.2772 134.015 55.8093 0.0255502 2.78675
51400 60.2772 134.028 55.8093 0.0256502 2.78832
51600 60.2772 134.042 55.8093 0.0257502 2.77977
51800 60.2772 134.055 55.8093 0.0258502 2.82667
52000 60.2772 134.068 55.8093 0.0259502 2.81991
52200 60.2772 134.081 55.8093 0.0260502 2.82775
52400 60.2772 134.094 55.8093 0.0261502 2.84499
52600 60.2772 134.107 55.8093 0.0262502 2.84434
52800 60.2772 134.12 55.8093 0.0263502 2.88136
53000 60.2772 134.133 55.8093 0.0264502 2.86931
53200 60.2772 134.146 55.8093 0.0265502 2.88265
53400 60.2772 134.159 55.8093 0.0266502 2.89448
53600 60.2772 134.172 55.8093 0.0267502 2.93034
53800 60.2772 134.185 55.8093 0.0268502 2.91426
54000 60.2772 134.198 55.8093 0.0269502 2.94655
54200 60.2772 134.211 55.8093 0.0270502 2.93955
54400 60.2772 134.224 55.8093 0.0271502 2.96164
54600 60.2772 134.238 55.8093 0.0272502 2.9755
54800 60.2772 134.251 55.8093 0.0273502 2.98791
55000 60.2772 134.264 55.8093 0.0274502 3.00308
55200 60.2772 134.277 55.8093 0.0275502 2.99794
55400 60.2772 134.29 55.8093 0.0276502 3.02744
55600 60.2772 134.303 55.8093 0.0277502 3.03306
55800 60.2772 134.316 55.8093 0.0278502 3.02912
56000 60.2772 134.329 55.8093 0.0279502 3.05051
56200 60.2772 134.342 55.8093 0.0280502 3.09306
56400 60.2772 134.355 55.8093 0.0281502 3.05518
56600 60.2772 134.368 55.8093 0.0282502 3.10588
56800 60.2772 134.381 55.8093 0.0283502 3.08573
57000 60.2772 134.394 55.8093 0.0284502 3.12166
57200 60.2772 134.407 55.8093 0.0285502 3.11897
57400 60.2772 134.42 55.8093 0.0286502 3.12613
57600 60.2772 134.434 55.8093 0.0287502 3.14071
57800 60.2772 134.447 55.8093 0.0288502 3.16339
58000 60.2772 134.46 55.8093 0.0289502 3.16869
58200 60.2772 134.473 55.8093 0.0290502 3.17082
58400 60.2772 134.486 55.8093 0.0291502 3.21089
58600 60.2772 134.499 55.8093 0.0292502 3.18666
58800 60.2772 134.512 55.8093 0.0293502 3.21967
59000 60.2772 134.525 55.8093 0.0294502 3.23556
59200 60.2772 134.538 55.8093 0.0295502 3.23158
59400 60.2772 134.551 55.8093 0.0296502 3.24736
59600 60.2772 134.564 55.8093 0.0297502 3.2626
59800 60.2772 134.577 55.8093 0.0298502 3.28251
60000 60.2772 134.59 55.8093 0.0299502 3.2806
60200 60.2772 134.603 55.8093 0.0300502 3.30038
60400 60.2772 134.616 55.8093 0.0301502 3.31944
60600 60.2772 134.63 55.8093 0.0302502 3.32167
60800 60.2772 134.643 55.8093 0.0303502 3.32922
61000 60.2772 134.656 55.8093 0.0304502 3.35752
61200 60.2772 134.669 55.8093 0.0305502 3.36797
61400 60.2772 134.682 55.8093 0.0306502 3.37565
61600 60.2772 134.695 55.8093 0.0307502 3.38342
61800 60.2772 134.708 55.8093 0.0308502 3.40098
62000 60.2772 134.721 55.8093 0.0309502 3.41099
62200 60.2772 134.734 55.8093 0.0310502 3.42184
62400 60.2772 134.747 55.8093 0.0311502 3.41763
62600 60.2772 134.76 55.8093 0.0312502 3.45715
62800 60.2772 134.773 55.8093 0.0313502 3.43202
63000 60.2772 134.786 55.8093 0.0314502 3.49726
63200 60.2772 134.799 55.8093 0.0315502 3.44968
63400 60.2772 134.812 55.8093 0.0316502 3.49158
63600 60.2772 134.826 55.8093 0.0317502 3.51661
63800 60.2772 134.839 55.8093 0.0318502 3.49252
64000 60.2772 134.852 55.8093 0.0319502 3.52683
64200 60.2772 134.865 55.8093 0.0320502 3.54085
64400 60.2772 134.878 55.8093 0.0321502 3.53399
64600 60.2772 134.891 55.8093 0.0322502 3.57085
64800 60.2772 134.904 55.8093 0.0323502 3.57502
65000 60.2772 134.917 55.8093 0.0324502 3.58477
65200 60.2772 134.93 55.8093 0.0325502 3.58754
65400 60.2772 134.943 55.8093 0.0326502 3.61202
65600 60.2772 134.956 55.8093 0.0327502 3.60525
65800 60.2772 134.969 55.8093 0.0328502 3.63545
66000 60.2772 134.982 55.8093 0.0329502 3.65087
66200 60.2772 134.995 55.8093 0.0330502 3.6294
66400 60.2772 135.009 55.8093 0.0331502 3.68176
66600 60.2772 135.022 55.8093 0.0332502 3.68345
66800 60.2772 135.035 55.8093 0.0333502 3.67842
67000 60.2772 135.048 55.8093 0.0334502 3.69916
67200 60.2772 135.061 55.8093 0.0335502 3.72674
67400 60.2772 135.074 55.8093 0.0336502 3.72151
67600 60.2772 135.087 55.8093 0.0337502 3.75649
67800 60.2772 135.1 55.8093 0.0338502 3.76658
68000 60.2772 135.113 55.8093 0.0339502 3.74818
68200 60.2772 135.126 55.8093 0.0340502 3.76837
68400 60.2772 135.139 55.8093 0.0341502 3.79657
68600 60.2772 135.152 55.8093 0.0342502 3.78881
68800 60.2772 135.165 55.8093 0.0343502 3.80629
69000 60.2772 135.178 55.8093 0.0344502 3.78857
69200 60.2772 135.191 55.8093 0.0345502 3.84835
69400 60.2772 135.205 55.8093 0.0346502 3.84942
69600 60.2772 135.218 55.8093 0.0347502 3.83663
69800 60.2772 135.231 55.8093 0.0348502 3.87462
70000 60.2772 135.244 55.8093 0.0349502 3.8877
70200 60.2772 135.257 55.8093 0.0350502 3.87902
70400 60.2772 135.27 55.8093 0.0351502 3.91396
70600 60.2772 135.283 55.8093 0.0352502 3.91311
70800 60.2772 135.296 55.8093 0.0353502 3.93245
71000 60.2772 135.309 55.8093 0.0354502 3.9238
71200 60.2772 135.322 55.8093 0.0355502 3.94695
71400 60.2772 135.335 55.8093 0.0356502 3.98123
71600 60.2772 135.348 55.8093 0.0357502 3.97103
71800 60.2772 135.361 55.8093 0.0358502 3.973
72000 60.2772 135.374 55.8093 0.0359502 4.00548
72200 60.2772 135.387 55.8093 0.0360502 4.02072
72400 60.2772 135.401 55.8093 0.0361502 4.01504
72600 60.2772 135.414 55.8093 0.0362502 4.05161
72800 60.2772 135.427 55.8093 0.0363502 4.03026
73000 60.2772 135.44 55.8093 0.0364502 4.06059
73200 60.2772 135.453 55.8093 0.0365502 4.08248
73400 60.2772 135.466 55.8093 0.0366502 4.0888
73600 60.2772 135.479 55.8093 0.0367502 4.10847
73800 60.2772 135.492 55.8093 0.0368502 4.07615
74000 60.2772 135.505 55.8093 0.0369502 4.14262
74200 60.2772 135.518 55.8093 0.0370502 4.11467
74400 60.2772 135.531 55.8093 0.0371502 4.13491
74600 60.2772 135.544 55.8093 0.0372502 4.161
74800 60.2772 135.557 55.8093 0.0373502 4.16912
75000 60.2772 135.57 55.8093 0.0374502 4.17709
75200 60.2772 135.583 55.8093 0.0375502 4.18171
75400 60.2772 135.597 55.8093 0.0376502 4.19568
75600 60.2772 135.61 55.8093 0.0377502 4.221
75800 60.2772 135.623 55.8093 0.0378502 4.22694
76000 60.2772 135.636 55.8093 0.0379502 4.24937
76200 60.2772 135.649 55.8093 0.0380502 4.25044
76400 60.2772 135.662 55.8093 0.0381502 4.25365
76600 60.2772 135.675 55.8093 0.0382502 4.27432
76800 60.2772 135.688 55.8093 0.0383502 4.29348
77000 60.2772 135.701 55.8093 0.0384502 4.31058
77200 60.2772 135.714 55.8093 0.0385502 4.31634
77400 60.2772 135.727 55.8093 0.0386502 4.31977
77600 60.2772 135.74 55.8093 0.0387502 4.34259
77800 60.2772 135.753 55.8093 0.0388502 4.33331
78000 60.2772 135.766 55.8093 0.0389502 4.37201
78200 60.2772 135.78 55.8093 0.0390502 4.37269
78400 60.2772 135.793 55.8093 0.0391502 4.3894
78600 60.2772 135.806 55.8093 0.0392502 4.39565
78800 60.2772 135.819 55.8093 0.0393502 4.41042
79000 60.2772 135.832 55.8093 0.0394502 4.43208
79200 60.2772 135.845 55.8093 0.0395502 4.43079
79400 60.2772 135.858 55.8093 0.0396502 4.44503
79600 60.2772 135.871 55.8093 0.0397502 4.45124
79800 60.2772 135.884 55.8093 0.0398502 4.47545
80000 60.2772 135.897 55.8093 0.0399502 4.47682
80200 60.2772 135.91 55.8093 0.0400502 4.48362
80400 60.2772 135.923 55.8093 0.0401502 4.50912
80600 60.2772 135.936 55.8093 0.0402502 4.51959
80800 60.2772 135.949 55.8093 0.0403502 4.52806
81000 60.2772 135.962 55.8093 0.0404502 4.54539
81200 60.2772 135.976 55.8093 0.0405502 4.54664
81400 60.2772 135.989 55.8093 0.0406502 4.56722
81600 60.2772 136.002 55.8093 0.0407502 4.55829
81800 60.2772 136.015 55.8093 0.0408502 4.58723
82000 60.2772 136.028 55.8093 0.0409502 4.59484
82200 60.2772 136.041 55.8093 0.0410502 4.61023
82400 60.2772 136.054 55.8093 0.0411502 4.63294
82600 60.2772 136.067 55.8093 0.0412502 4.62988
82800 60.2772 136.08 55.8093 0.0413502 4.65745
83000 60.2772 136.093 55.8093 0.0414502 4.67199
83200 60.2772 136.106 55.8093 0.0415502 4.65832
83400 60.2772 136.119 55.8093 0.0416502 4.7028
83600 60.2772 136.132 55.8093 0.0417502 4.6891
83800 60.2772 136.145 55.8093 0.0418502 4.70115
84000 60.2772 136.158 55.8093 0.0419502 4.74278
84200 60.2772 136.172 55.8093 0.0420502 4.72588
84400 60.2772 136.185 55.8093 0.0421502 4.75635
84600 60.2772 136.198 55.8093 0.0422502 4.74738
84800 60.2772 136.211 55.8093 0.0423502 4.76186
85000 60.2772 136.224 55.8093 0.0424502 4.77583
85200 60.2772 136.237 55.8093 0.0425502 4.79475
85400 60.2772 136.25 55.8093 0.0426502 4.81261
85600 60.2772 136.263 55.8093 0.0427502 4.81966
85800 60.2772 136.276 55.8093 0.0428502 4.83471
86000 60.2772 136.289 55.8093 0.0429502 4.84452
86200 60.2772 136.302 55.8093 0.0430502 4.84032
86400 60.2772 136.315 55.8093 0.0431502 4.85872
86600 60.2772 136.328 55.8093 0.0432502 4.89375
86800 60.2772 136.341 55.8093 0.0433502 4.89984
87000 60.2772 136.354 55.8093 0.0434502 4.88344
87200 60.2772 136.368 55.8093 0.0435502 4.92929
87400 60.2772 136.381 55.8093 0.0436502 4.93589
87600 60.2772 136.394 55.8093 0.0437502 4.94618
87800 60.2772 136.407 55.8093 0.0438502 4.95171
88000 60.2772 136.42 55.8093 0.0439502 4.96498
88200 60.2772 136.433 55.8093 0.0440502 4.98453
88400 60.2772 136.446 55.8093 0.0441502 5.00284
88600 60.2772 136.459 55.8093 0.0442502 4.99427
88800 60.2772 136.472 55.8093 0.0443502 5.02545
89000 60.2772 136.485 55.8093 0.0444502 5.02404
89200 60.2772 136.498 55.8093 0.0445502 5.03339
89400 60.2772 136.511 55.8093 0.0446502 5.05424
89600 60.2772 136.524 55.8093 0.0447502 5.0795
89800 60.2772 136.537 55.8093 0.0448502 5.08876
90000 60.2772 136.55 55.8093 0.0449502 5.07727
90200 60.2772 136.564 55.8093 0.0450502 5.09916
90400 60.2772 136.577 55.8093 0.0451502 5.11209
90600 60.2772 136.59 55.8093 0.0452502 5.13093
90800 60.2772 136.603 55.8093 0.0453502 5.14846
91000 60.2772 136.616 55.8093 0.0454502 5.1388
91200 60.2772 136.629 55.8093 0.0455502 5.17517
91400 60.2772 136.642 55.8093 0.0456502 5.17797
91600 60.2772 136.655 55.8093 0.0457502 5.19913
91800 60.2772 136.668 55.8093 0.0458502 5.18625
92000 60.2772 136.681 55.8093 0.0459502 5.23925
92200 60.2772 136.694 55.8093 0.0460502 5.2116
92400 60.2772 136.707 55.8093 0.0461502 5.25175
92600 60.2772 136.72 55.8093 0.0462502 5.25581
92800 60.2772 136.733 55.8093 0.0463502 5.2556
93000 60.2772 136.747 55.8093 0.0464502 5.27711
93200 60.2772 136.76 55.8093 0.0465502 5.29867
93400 60.2772 136.773 55.8093 0.0466502 5.31592
93600 60.2772 136.786 55.8093 0.0467502 5.31715
93800 60.2772 136.799 55.8093 0.0468502 5.33078
94000 60.2772 136.812 55.8093 0.0469502 5.31941
94200 60.2772 136.825 55.8093 0.0470502 5.36847
94400 60.2772 136.838 55.8093 0.0471502 5.36419
94600 60.2772 136.851 55.8093 0.0472502 5.37145
94800 60.2772 136.864 55.8093 0.0473502 5.40724
95000 60.2772 136.877 55.8093 0.0474502 5.39474
95200 60.2772 136.89 55.8093 0.0475502 5.42846
95400 60.2772 136.903 55.8093 0.0476502 5.4311
95600 60.2772 136.916 55.8093 0.0477502 5.44058
95800 60.2772 136.929 55.8093 0.0478502 5.46587
96000 60.2772 136.943 55.8093 0.0479502 5.45163
96200 60.2772 136.956 55.8093 0.0480502 5.48322
96400 60.2772 136.969 55.8093 0.0481502 5.5135
96600 60.2772 136.982 55.8093 0.0482502 5.50248
96800 60.2772 136.995 55.8093 0.0483502 5.53137
97000 60.2772 137.008 55.8093 0.0484502 5.5322
97200 60.2772 137.021 55.8093 0.0485502 5.53915
97400 60.2772 137.034 55.8093 0.0486502 5.5676
97600 60.2772 137.047 55.8093 0.0487502 5.57909
97800 60.2772 137.06 55.8093 0.0488502 5.59608
98000 60.2772 137.073 55.8093 0.0489502 5.60128
98200 60.2772 137.086 55.8093 0.0490502 5.6042
98400 60.2772 137.099 55.8093 0.0491502 5.63525
98600 60.2772 137.112 55.8093 0.0492502 5.63653
98800 60.2772 137.125 55.8093 0.0493502 5.67873
99000 60.2772 137.139 55.8093 0.0494502 5.6541
99200 60.2772 137.152 55.8093 0.0495502 5.67786
99400 60.2772 137.165 55.8093 0.0496502 5.67381
99600 60.2772 137.178 55.8093 0.0497502 5.71779
99800 60.2772 137.191 55.8093 0.0498502 5.71339
100000 60.2772 137.204 55.8093 0.0499502 5.71787
100200 60.2772 137.217 55.8093 0.0500502 5.75941
100400 60.2772 137.23 55.8093 0.0501502 5.73788
100600 60.2772 137.243 55.8093 0.0502502 5.76502
100800 60.2772 137.256 55.8093 0.0503502 5.79066
101000 60.2772 137.269 55.8093 0.0504502 5.77547
101200 60.2772 137.282 55.8093 0.0505502 5.8196
101400 60.2772 137.295 55.8093 0.0506502 5.80462
101600 60.2772 137.308 55.8093 0.0507502 5.83601
101800 60.2772 137.321 55.8093 0.0508502 5.83269
102000 60.2772 137.335 55.8093 0.0509502 5.8707
102200 60.2772 137.348 55.8093 0.0510502 5.86843
102400 60.2772 137.361 55.8093 0.0511502 5.86422
102600 60.2772 137.374 55.8093 0.0512502 5.9104
102800 60.2772 137.387 55.8093 0.0513502 5.89725
103000 60.2772 137.4 55.8093 0.0514502 5.92182
103200 60.2772 137.413 55.8093 0.0515502 5.92263
103400 60.2772 137.426 55.8093 0.0516502 5.92228
103600 60.2772 137.439 55.8093 0.0517502 5.95948
103800 60.2772 137.452 55.8093 0.0518502 5.97007
104000 60.2772 137.465 55.8093 0.0519502 5.98899
104200 60.2772 137.478 55.8093 0.0520502 6.00452
104400 60.2772 137.491 55.8093 0.0521502 6.00093
104600 60.2772 137.504 55.8093 0.0522502 6.0149
104800 60.2772 137.518 55.8093 0.0523502 6.01882
105000 60.2772 137.531 55.8093 0.0524502 6.03206
105200 60.2772 137.544 55.8093 0.0525502 6.05709
105400 60.2772 137.557 55.8093 0.0526502 6.06607
105600 60.2772 137.57 55.8093 0.0527502 6.07153
105800 60.2772 137.583 55.8093 0.0528502 6.11729
106000 60.2772 137.596 55.8093 0.0529502 6.09597
106200 60.2772 137.609 55.8093 0.0530502 6.1274
106400 60.2772 137.622 55.8093 0.0531502 6.1223
106600 60.2772 137.635 55.8093 0.0532502 6.14614
106800 60.2772 137.648 55.8093 0.0533502 6.14275
107000 60.2772 137.661 55.8093 0.0534502 6.16391
107200 60.2772 137.674 55.8093 0.0535502 6.15949
107400 60.2772 137.687 55.8093 0.0536502 6.19791
107600 60.2772 137.7 55.8093 0.0537502 6.21107
107800 60.2772 137.714 55.8093 0.0538502 6.19079
108000 60.2772 137.727 55.8093 0.0539502 6.23051
108200 60.2772 137.74 55.8093 0.0540502 6.24163
108400 60.2772 137.753 55.8093 0.0541502 6.25921
108600 60.2772 137.766 55.8093 0.0542502 6.24241
108800 60.2772 137.779 55.8093 0.0543502 6.27671
109000 60.2772 137.792 55.8093 0.0544502 6.28305
109200 60.2772 137.805 55.8093 0.0545502 6.29962
109400 60.2772 137.818 55.8093 0.0546502 6.30841
109600 60.2772 137.831 55.8093 0.0547502 6.3307
109800 60.2772 137.844 55.8093 0.0548502 6.32432
110000 60.2772 137.857 55.8093 0.0549502 6.37112
110200 60.2772 137.87 55.8093 0.0550502 6.35207
110400 60.2772 137.883 55.8093 0.0551502 6.35603
110600 60.2772 137.896 55.8093 0.0552502 6.42134
110800 60.2772 137.91 55.8093 0.0553502 6.39199
111000 60.2772 137.923 55.8093 0.0554502 6.40858
111200 60.2772 137.936 55.8093 0.0555502 6.43169
111400 60.2772 137.949 55.8093 0.0556502 6.43247
111600 60.2772 137.962 55.8093 0.0557502 6.46292
111800 60.2772 137.975 55.8093 0.0558502 6.45724
112000 60.2772 137.988 55.8093 0.0559502 6.48517
112200 60.2772 138.001 55.8093 0.0560502 6.49367
112400 60.2772 138.014 55.8093 0.0561502 6.48828
112600 60.2772 138.027 55.8093 0.0562502 6.52263
112800 60.2772 138.04 55.8093 0.0563502 6.52823
113000 60.2772 138.053 55.8093 0.0564502 6.52188
113200 60.2772 138.066 55.8093 0.0565502 6.56365
113400 60.2772 138.079 55.8093 0.0566502 6.5533
113600 60.2772 138.092 55.8093 0.0567502 6.59611
113800 60.2772 138.106 55.8093 0.0568502 6.57196
114000 60.2772 138.119 55.8093 0.0569502 6.60964
114200 60.2772 138.132 55.8093 0.0570502 6.62259
114400 60.2772 138.145 55.8093 0.0571502 6.62642
114600 60.2772 138.158 55.8093 0.0572502 6.64835
114800 60.2772 138.171 55.8093 0.0573502 6.66212
115000 60.2772 138.184 55.8093 0.0574502 6.66944
115200 60.2772 138.197 55.8093 0.0575502 6.68992
115400 60.2772 138.21 55.8093 0.0576502 6.67783
115600 60.2772 138.223 55.8093 0.0577502 6.71082
115800 60.2772 138.236 55.8093 0.0578502 6.71595
116000 60.2772 138.249 55.8093 0.0579502 6.7343
116200 60.2772 138.262 55.8093 0.0580502 6.75848
116400 60.2772 138.275 55.8093 0.0581502 6.76498
116600 60.2772 138.288 55.8093 0.0582502 6.76899
116800 60.2772 138.302 55.8093 0.0583502 6.77683
117000 60.2772 138.315 55.8093 0.0584502 6.81149
117200 60.2772 138.328 55.8093 0.0585502 6.80824
117400 60.2772 138.341 55.8093 0.0586502 6.84196
117600 60.2772 138.354 55.8093 0.0587502 6.82704
117800 60.2772 138.367 55.8093 0.0588502 6.83413
118000 60.2772 138.38 55.8093 0.0589502 6.8663
118200 60.2772 138.393 55.8093 0.0590502 6.88955
118400 60.2772 138.406 55.8093 0.0591502 6.89104
118600 60.2772 138.419 55.8093 0.0592502 6.89236
118800 60.2772 138.432 55.8093 0.0593502 6.92068
119000 60.2772 138.445 55.8093 0.0594502 6.92546
119200 60.2772 138.458 55.8093 0.0595502 6.93182
119400 60.2772 138.471 55.8093 0.0596502 6.95975
119600 60.2772 138.485 55.8093 0.0597502 6.96005
119800 60.2772 138.498 55.8093 0.0598502 6.98397
120000 60.2772 138.511 55.8093 0.0599502 7.0025
120200 60.2772 138.524 55.8093 0.0600502 6.97522
120400 60.2772 138.537 55.8093 0.0601502 7.03007
120600 60.2772 138.55 55.8093 0.0602502 7.02169
120800 60.2772 138.563 55.8093 0.0603502 7.04245
121000 60.2772 138.576 55.8093 0.0604502 7.07198
121200 60.2772 138.589 55.8093 0.0605502 7.07279
121400 60.2772 138.602 55.8093 0.0606502 7.06612
121600 60.2772 138.615 55.8093 0.0607502 7.0992
121800 60.2772 138.628 55.8093 0.0608502 7.11969
122000 60.2772 138.641 55.8093 0.0609502 7.10628
122200 60.2772 138.654 55.8093 0.0610502 7.14873
122400 60.2772 138.667 55.8093 0.0611502 7.13693
122600 60.2772 138.681 55.8093 0.0612502 7.16664
122800 60.2772 138.694 55.8093 0.0613502 7.17619
123000 60.2772 138.707 55.8093 0.0614502 7.17443
123200 60.2772 138.72 55.8093 0.0615502 7.22349
123400 60.2772 138.733 55.8093 0.0616502 7.18809
123600 60.2772 138.746 55.8093 0.0617502 7.23506
123800 60.2772 138.759 55.8093 0.0618502 7.2211
124000 60.2772 138.772 55.8093 0.0619502 7.2784
124200 60.2772 138.785 55.8093 0.0620502 7.2684
124400 60.2772 138.798 55.8093 0.0621502 7.27118
124600 60.2772 138.811 55.8093 0.0622502 7.28612
124800 60.2772 138.824 55.8093 0.0623502 7.31299
125000 60.2772 138.837 55.8093 0.0624502 7.33204
125200 60.2772 138.85 55.8093 0.0625502 7.34061
125400 60.2772 138.863 55.8093 0.0626502 7.34219
125600 60.2772 138.877 55.8093 0.0627502 7.35633
125800 60.2772 138.89 55.8093 0.0628502 7.3557
126000 60.2772 138.903 55.8093 0.0629502 7.36957
126200 60.2772 138.916 55.8093 0.0630502 7.38877
126400 60.2772 138.929 55.8093 0.0631502 7.38453
126600 60.2772 138.942 55.8093 0.0632502 7.40668
126800 60.2772 138.955 55.8093 0.0633502 7.41552
127000 60.2772 138.968 55.8093 0.0634502 7.42971
127200 60.2772 138.981 55.8093 0.0635502 7.43278
127400 60.2772 138.994 55.8093 0.0636502 7.45078
127600 60.2772 139.007 55.8093 0.0637502 7.45152
127800 60.2772 139.02 55.8093 0.0638502 7.46469
128000 60.2772 139.033 55.8093 0.0639502 7.49266
128200 60.2772 139.046 55.8093 0.0640502 7.5022
128400 60.2772 139.059 55.8093 0.0641502 7.50733
128600 60.2772 139.073 55.8093 0.0642502 7.53456
128800 60.2772 139.086 55.8093 0.0643502 7.53252
129000 60.2772 139.099 55.8093 0.0644502 7.54797
129200 60.2772 139.112 55.8093 0.0645502 7.56465
129400 60.2772 139.125 55.8093 0.0646502 7.58178
129600 60.2772 139.138 55.8093 0.0647502 7.59799
129800 60.2772 139.151 55.8093 0.0648502 7.59628
130000 60.2772 139.164 55.8093 0.0649502 7.61063
130200 60.2772 139.177 55.8093 0.0650502 7.63723
130400 60.2772 139.19 55.8093 0.0651502 7.6488
130600 60.2772 139.203 55.8093 0.0652502 7.65235
130800 60.2772 139.216 55.8093 0.0653502 7.67969
131000 60.2772 139.229 55.8093 0.0654502 7.66619
131200 60.2772 139.242 55.8093 0.0655502 7.71055
131400 60.2772 139.256 55.8093 0.0656502 7.70863
131600 60.2772 139.269 55.8093 0.0657502 7.74425
131800 60.2772 139.282 55.8093 0.0658502 7.75406
132000 60.2772 139.295 55.8093 0.0659502 7.74869
132200 60.2772 139.308 55.8093 0.0660502 7.78687
132400 60.2772 139.321 55.8093 0.0661502 7.77016
132600 60.2772 139.334 55.8093 0.0662502 7.78949
132800 60.2772 139.347 55.8093 0.0663502 7.79595
133000 60.2772 139.36 55.8093 0.0664502 7.82109
133200 60.2772 139.373 55.8093 0.0665502 7.83567
133400 60.2772 139.386 55.8093 0.0666502 7.84643
133600 60.2772 139.399 55.8093 0.0667502 7.84988
133800 60.2772 139.412 55.8093 0.0668502 7.87694
134000 60.2772 139.425 55.8093 0.0669502 7.88679
134200 60.2772 139.438 55.8093 0.0670502 7.89786
134400 60.2772 139.452 55.8093 0.0671502 7.91492
134600 60.2772 139.465 55.8093 0.0672502 7.93139
134800 60.2772 139.478 55.8093 0.0673502 7.94957
135000 60.2772 139.491 55.8093 0.0674502 7.94461
135200 60.2772 139.504 55.8093 0.0675502 7.98206
135400 60.2772 139.517 55.8093 0.0676502 7.97823
135600 60.2772 139.53 55.8093 0.0677502 7.98308
135800 60.2772 139.543 55.8093 0.0678502 8.02166
136000 60.2772 139.556 55.8093 0.0679502 8.01397
136200 60.2772 139.569 55.8093 0.0680502 8.04136
136400 60.2772 139.582 55.8093 0.0681502 8.04281
136600 60.2772 139.595 55.8093 0.0682502 8.06229
136800 60.2772 139.608 55.8093 0.0683502 8.07721
137000 60.2772 139.621 55.8093 0.0684502 8.06192
137200 60.2772 139.634 55.8093 0.0685502 8.12012
137400 60.2772 139.648 55.8093 0.0686502 8.10783
137600 60.2772 139.661 55.8093 0.0687502 8.14239
137800 60.2772 139.674 55.8093 0.0688502 8.14383
138000 60.2772 139.687 55.8093 0.0689502 8.13996
138200 60.2772 139.7 55.8093 0.0690502 8.15729
138400 60.2772 139.713 55.8093 0.0691502 8.19367
138600 60.2772 139.726 55.8093 0.0692502 8.17993
138800 60.2772 139.739 55.8093 0.0693502 8.2124
139000 60.2772 139.752 55.8093 0.0694502 8.22524
139200 60.2772 139.765 55.8093 0.0695502 8.21572
139400 60.2772 139.778 55.8093 0.0696502 8.25299
139600 60.2772 139.791 55.8093 0.0697502 8.25377
139800 60.2772 139.804 55.8093 0.0698502 8.28295
140000 60.2772 139.817 55.8093 0.0699502 8.2797
140200 60.2772 139.83 55.8093 0.0700502 8.28844
140400 60.2772 139.844 55.8093 0.0701502 8.30981
140600 60.2772 139.857 55.8093 0.0702502 8.32498
140800 60.2772 139.87 55.8093 0.0703502 8.35913
141000 60.2772 139.883 55.8093 0.0704502 8.33695
141200 60.2772 139.896 55.8093 0.0705502 8.36934
141400 60.2772 139.909 55.8093 0.0706502 8.38763
141600 60.2772 139.922 55.8093 0.0707502 8.37624
141800 60.2772 139.935 55.8093 0.0708502 8.41273
142000 60.2772 139.948 55.8093 0.0709502 8.42059
142200 60.2772 139.961 55.8093 0.0710502 8.4358
142400 60.2772 139.974 55.8093 0.0711502 8.42444
142600 60.2772 139.987 55.8093 0.0712502 8.45824
142800 60.2772 140 55.8093 0.0713502 8.4782
143000 60.2772 140.013 55.8093 0.0714502 8.46478
143200 60.2772 140.026 55.8093 0.0715502 8.51511
143400 60.2772 140.04 55.8093 0.0716502 8.47896
143600 60.2772 140.053 55.8093 0.0717502 8.53719
143800 60.2772 140.066 55.8093 0.0718502 8.52953
144000 60.2772 140.079 55.8093 0.0719502 8.54739
144200 60.2772 140.092 55.8093 0.0720502 8.56737
144400 60.2772 140.105 55.8093 0.0721502 8.58742
144600 60.2772 140.118 55.8093 0.0722502 8.58228
144800 60.2772 140.131 55.8093 0.0723502 8.60192
145000 60.2772 140.144 55.8093 0.0724502 8.62797
145200 60.2772 140.157 55.8093 0.0725502 8.6238
145400 60.2772 140.17 55.8093 0.0726502 8.6557
145600 60.2772 140.183 55.8093 0.0727502 8.63631
145800 60.2772 140.196 55.8093 0.0728502 8.66617
146000 60.2772 140.209 55.8093 0.0729502 8.6996
146200 60.2772 140.223 55.8093 0.0730502 8.68408
146400 60.2772 140.236 55.8093 0.0731502 8.71639
146600 60.2772 140.249 55.8093 0.0732502 8.70335
146800 60.2772 140.262 55.8093 0.0733502 8.75146
147000 60.2772 140.275 55.8093 0.0734502 8.73689
147200 60.2772 140.288 55.8093 0.0735502 8.77574
147400 60.2772 140.301 55.8093 0.0736502 8.76123
147600 60.2772 140.314 55.8093 0.0737502 8.79827
147800 60.2772 140.327 55.8093 0.0738502 8.80371
148000 60.2772 140.34 55.8093 0.0739502 8.82369
148200 60.2772 140.353 55.8093 0.0740502 8.8158
148400 60.2772 140.366 55.8093 0.0741502 8.84991
148600 60.2772 140.379 55.8093 0.0742502 8.86506
148800 60.2772 140.392 55.8093 0.0743502 8.85589
149000 60.2772 140.405 55.8093 0.0744502 8.87434
149200 60.2772 140.419 55.8093 0.0745502 8.89165
149400 60.2772 140.432 55.8093 0.0746502 8.86419
149600 60.2772 140.445 55.8093 0.0747502 8.89687
149800 60.2772 140.458 55.8093 0.0748502 8.91588
150000 60.2772 140.471 55.8093 0.0749502 8.9261
150200 60.2772 140.484 55.8093 0.0750502 8.92155
150400 60.2772 140.497 55.8093 0.0751502 8.97086
150600 60.2772 140.51 55.8093 0.0752502 8.95877
150800 60.2772 140.523 55.8093 0.0753502 8.97429
151000 60.2772 140.536 55.8093 0.0754502 8.99804
151200 60.2772 140.549 55.8093 0.0755502 8.99604
151400 60.2772 140.562 55.8093 0.0756502 9.02944
151600 60.2772 140.575 55.8093 0.0757502 9.03096
151800 60.2772 140.588 55.8093 0.0758502 9.05147
152000 60.2772 140.601 55.8093 0.0759502 9.06874
152200 60.2772 140.615 55.8093 0.0760502 9.05747
152400 60.2772 140.628 55.8093 0.0761502 9.078
152600 60.2772 140.641 55.8093 0.0762502 9.09946
152800 60.2772 140.654 55.8093 0.0763502 9.10695
153000 60.2772 140.667 55.8093 0.0764502 9.12996
153200 60.2772 140.68 55.8093 0.0765502 9.13004
153400 60.2772 140.693 55.8093 0.0766502 9.13431
153600 60.2772 140.706 55.8093 0.0767502 9.17382
153800 60.2772 140.719 55.8093 0.0768502 9.17157
154000 60.2772 140.732 55.8093 0.0769502 9.18486
154200 60.2772 140.745 55.8093 0.0770502 9.19163
154400 60.2772 140.758 55.8093 0.0771502 9.2194
154600 60.2772 140.771 55.8093 0.0772502 9.2203
154800 60.2772 140.784 55.8093 0.0773502 9.21077
155000 60.2772 140.797 55.8093 0.0774502 9.25338
155200 60.2772 140.811 55.8093 0.0775502 9.26723
155400 60.2772 140.824 55.8093 0.0776502 9.25308
155600 60.2772 140.837 55.8093 0.0777502 9.29225
155800 60.2772 140.85 55.8093 0.0778502 9.31886
156000 60.2772 140.863 55.8093 0.0779502 9.29232
156200 60.2772 140.876 55.8093 0.0780502 9.32712
156400 60.2772 140.889 55.8093 0.0781502 9.33748
156600 60.2772 140.902 55.8093 0.0782502 9.35302
156800 60.2772 140.915 55.8093 0.0783502 9.36258
157000 60.2772 140.928 55.8093 0.0784502 9.36886
157200 60.2772 140.941 55.8093 0.0785502 9.38015
157400 60.2772 140.954 55.8093 0.0786502 9.39275
157600 60.2772 140.967 55.8093 0.0787502 9.41917
157800 60.2772 140.98 55.8093 0.0788502 9.42167
158000 60.2772 140.993 55.8093 0.0789502 9.45996
158200 60.2772 141.007 55.8093 0.0790502 9.43693
158400 60.2772 141.02 55.8093 0.0791502 9.47129
158600 60.2772 141.033 55.8093 0.0792502 9.4783
158800 60.2772 141.046 55.8093 0.0793502 9.47327
159000 60.2772 141.059 55.8093 0.0794502 9.49923
159200 60.2772 141.072 55.8093 0.0795502 9.50422
159400 60.2772 141.085 55.8093 0.0796502 9.52493
159600 60.2772 141.098 55.8093 0.0797502 9.55933
159800 60.2772 141.111 55.8093 0.0798502 9.56077
160000 60.2772 141.124 55.8093 0.0799502 9.56412
160200 60.2772 141.137 55.8093 0.0800502 9.59711
160400 60.2772 141.15 55.8093 0.0801502 9.60475
160600 60.2772 141.163 55.8093 0.0802502 9.60539
160800 60.2772 141.176 55.8093 0.0803502 9.62769
161000 60.2772 141.19 55.8093 0.0804502 9.65061
161200 60.2772 141.203 55.8093 0.0805502 9.66468
161400 60.2772 141.216 55.8093 0.0806502 9.6642
161600 60.2772 141.229 55.8093 0.0807502 9.68909
161800 60.2772 141.242 55.8093 0.0808502 9.70496
162000 60.2772 141.255 55.8093 0.0809502 9.70557
162200 60.2772 141.268 55.8093 0.0810502 9.7243
162400 60.2772 141.281 55.8093 0.0811502 9.7277
162600 60.2772 141.294 55.8093 0.0812502 9.76457
162800 60.2772 141.307 55.8093 0.0813502 9.75379
163000 60.2772 141.32 55.8093 0.0814502 9.77496
163200 60.2772 141.333 55.8093 0.0815502 9.80657
163400 60.2772 141.346 55.8093 0.0816502 9.79229
163600 60.2772 141.359 55.8093 0.0817502 9.8216
163800 60.2772 141.372 55.8093 0.0818502 9.82918
164000 60.2772 141.386 55.8093 0.0819502 9.84417
164200 60.2772 141.399 55.8093 0.0820502 9.85326
164400 60.2772 141.412 55.8093 0.0821502 9.89711
164600 60.2772 141.425 55.8093 0.0822502 9.87394
164800 60.2772 141.438 55.8093 0.0823502 9.91331
165000 60.2772 141.451 55.8093 0.0824502 9.90629
165200 60.2772 141.464 55.8093 0.0825502 9.92
165400 60.2772 141.477 55.8093 0.0826502 9.93101
165600 60.2772 141.49 55.8093 0.0827502 9.93912
165800 60.2772 141.503 55.8093 0.0828502 9.97952
166000 60.2772 141.516 55.8093 0.0829502 9.97987
166200 60.2772 141.529 55.8093 0.0830502 9.98098
166400 60.2772 141.542 55.8093 0.0831502 10.0044
166600 60.2772 141.555 55.8093 0.0832502 10.013
166800 60.2772 141.568 55.8093 0.0833502 10.0371
167000 60.2772 141.582 55.8093 0.0834502 10.0416
167200 60.2772 141.595 55.8093 0.0835502 10.0604
167400 60.2772 141.608 55.8093 0.0836502 10.0605
167600 60.2772 141.621 55.8093 0.0837502 10.0967
167800 60.2772 141.634 55.8093 0.0838502 10.0928
168000 60.2772 141.647 55.8093 0.0839502 10.116
168200 60.2772 141.66 55.8093 0.0840502 10.1238
168400 60.2772 141.673 55.8093 0.0841502 10.1333
168600 60.2772 141.686 55.8093 0.0842502 10.1401
168800 60.2772 141.699 55.8093 0.0843502 10.1665
169000 60.2772 141.712 55.8093 0.0844502 10.1688
169200 60.2772 141.725 55.8093 0.0845502 10.1838
169400 60.2772 141.738 55.8093 0.0846502 10.1997
169600 60.2772 141.751 55.8093 0.0847502 10.2271
169800 60.2772 141.764 55.8093 0.0848502 10.2134
170000 60.2772 141.778 55.8093 0.0849502 10.247
170200 60.2772 141.791 55.8093 0.0850502 10.264
170400 60.2772 141.804 55.8093 0.0851502 10.2609
170600 60.2772 141.817 55.8093 0.0852502 10.2996
170800 60.2772 141.83 55.8093 0.0853502 10.2857
171000 60.2772 141.843 55.8093 0.0854502 10.3217
171200 60.2772 141.856 55.8093 0.0855502 10.3093
171400 60.2772 141.869 55.8093 0.0856502 10.3286
171600 60.2772 141.882 55.8093 0.0857502 10.3656
171800 60.2772 141.895 55.8093 0.0858502 10.3701
172000 60.2772 141.908 55.8093 0.0859502 10.368
172200 60.2772 141.921 55.8093 0.0860502 10.3907
172400 60.2772 141.934 55.8093 0.0861502 10.4021
172600 60.2772 141.947 55.8093 0.0862502 10.4277
172800 60.2772 141.961 55.8093 0.0863502 10.4262
173000 60.2772 141.974 55.8093 0.0864502 10.4358
173200 60.2772 141.987 55.8093 0.0865502 10.4674
173400 60.2772 142 55.8093 0.0866502 10.4792
173600 60.2772 142.013 55.8093 0.0867502 10.5067
173800 60.2772 142.026 55.8093 0.0868502 10.4809
174000 60.2772 142.039 55.8093 0.0869502 10.5095
174200 60.2772 142.052 55.8093 0.0870502 10.4889
174400 60.2772 142.065 55.8093 0.0871502 10.5526
174600 60.2772 142.078 55.8093 0.0872502 10.5362
174800 60.2772 142.091 55.8093 0.0873502 10.5551
175000 60.2772 142.104 55.8093 0.0874502 10.5596
175200 60.2772 142.117 55.8093 0.0875502 10.5845
175400 60.2772 142.13 55.8093 0.0876502 10.6034
175600 60.2772 142.143 55.8093 0.0877502 10.6196
175800 60.2772 142.157 55.8093 0.0878502 10.6348
176000 60.2772 142.17 55.8093 0.0879502 10.6177
176200 60.2772 142.183 55.8093 0.0880502 10.6557
176400 60.2772 142.196 55.8093 0.0881502 10.6598
176600 60.2772 142.209 55.8093 0.0882502 10.6869
176800 60.2772 142.222 55.8093 0.0883502 10.695
177000 60.2772 142.235 55.8093 0.0884502 10.6996
177200 60.2772 142.248 55.8093 0.0885502 10.7244
177400 60.2772 142.261 55.8093 0.0886502 10.7324
177600 60.2772 142.274 55.8093 0.0887502 10.744
177800 60.2772 142.287 55.8093 0.0888502 10.7694
178000 60.2772 142.3 55.8093 0.0889502 10.77
178200 60.2772 142.313 55.8093 0.0890502 10.7925
178400 60.2772 142.326 55.8093 0.0891502 10.7975
178600 60.2772 142.339 55.8093 0.0892502 10.8293
178800 60.2772 142.353 55.8093 0.0893502 10.8187
179000 60.2772 142.366 55.8093 0.0894502 10.8433
179200 60.2772 142.379 55.8093 0.0895502 10.8649
179400 60.2772 142.392 55.8093 0.0896502 10.8706
179600 60.2772 142.405 55.8093 0.0897502 10.8975
179800 60.2772 142.418 55.8093 0.0898502 10.9078
180000 60.2772 142.431 55.8093 0.0899502 10.9072
180200 60.2772 142.444 55.8093 0.0900502 10.9379
180400 60.2772 142.457 55.8093 0.0901502 10.9317
180600 60.2772 142.47 55.8093 0.0902502 10.9479
180800 60.2772 142.483 55.8093 0.0903502 10.9946
181000 60.2772 142.496 55.8093 0.0904502 10.973
181200 60.2772 142.509 55.8093 0.0905502 10.9937
181400 60.2772 142.522 55.8093 0.0906502 11.0225
181600 60.2772 142.535 55.8093 0.0907502 11.0191
181800 60.2772 142.549 55.8093 0.0908502 11.0433
182000 60.2772 142.562 55.8093 0.0909502 11.0528
182200 60.2772 142.575 55.8093 0.0910502 11.0558
182400 60.2772 142.588 55.8093 0.0911502 11.0831
182600 60.2772 142.601 55.8093 0.0912502 11.093
182800 60.2772 142.614 55.8093 0.0913502 11.1106
183000 60.2772 142.627 55.8093 0.0914502 11.1191
183200 60.2772 142.64 55.8093 0.0915502 11.1331
183400 60.2772 142.653 55.8093 0.0916502 11.1497
183600 60.2772 142.666 55.8093 0.0917502 11.1632
183800 60.2772 142.679 55.8093 0.0918502 11.1846
184000 60.2772 142.692 55.8093 0.0919502 11.1883
184200 60.2772 142.705 55.8093 0.0920502 11.2114
184400 60.2772 142.718 55.8093 0.0921502 11.2146
184600 60.2772 142.731 55.8093 0.0922502 11.2361
184800 60.2772 142.745 55.8093 0.0923502 11.2302
185000 60.2772 142.758 55.8093 0.0924502 11.2659
185200 60.2772 142.771 55.8093 0.0925502 11.2698
185400 60.2772 142.784 55.8093 0.0926502 11.2768
185600 60.2772 142.797 55.8093 0.0927502 11.2902
185800 60.2772 142.81 55.8093 0.0928502 11.3347
186000 60.2772 142.823 55.8093 0.0929502 11.3166
186200 60.2772 142.836 55.8093 0.0930502 11.3351
186400 60.2772 142.849 55.8093 0.0931502 11.3493
186600 60.2772 142.862 55.8093 0.0932502 11.3573
186800 60.2772 142.875 55.8093 0.0933502 11.3956
187000 60.2772 142.888 55.8093 0.0934502 11.3905
187200 60.2772 142.901 55.8093 0.0935502 11.4169
187400 60.2772 142.914 55.8093 0.0936502 11.4165
187600 60.2772 142.928 55.8093 0.0937502 11.4285
187800 60.2772 142.941 55.8093 0.0938502 11.4606
188000 60.2772 142.954 55.8093 0.0939502 11.464
188200 60.2772 142.967 55.8093 0.0940502 11.4725
188400 60.2772 142.98 55.8093 0.0941502 11.4935
188600 60.2772 142.993 55.8093 0.0942502 11.5154
188800 60.2772 143.006 55.8093 0.0943502 11.523
189000 60.2772 143.019 55.8093 0.0944502 11.5294
189200 60.2772 143.032 55.8093 0.0945502 11.5502
189400 60.2772 143.045 55.8093 0.0946502 11.5479
189600 60.2772 143.058 55.8093 0.0947502 11.5785
189800 60.2772 143.071 55.8093 0.0948502 11.5814
190000 60.2772 143.084 55.8093 0.0949502 11.5867
190200 60.2772 143.097 55.8093 0.0950502 11.623
190400 60.2772 143.11 55.8093 0.0951502 11.5927
190600 60.2772 143.124 55.8093 0.0952502 11.6484
190800 60.2772 143.137 55.8093 0.0953502 11.6473
191000 60.2772 143.15 55.8093 0.0954502 11.6562
191200 60.2772 143.163 55.8093 0.0955502 11.6624
191400 60.2772 143.176 55.8093 0.0956502 11.6981
191600 60.2772 143.189 55.8093 0.0957502 11.6948
191800 60.2772 143.202 55.8093 0.0958502 11.7167
192000 60.2772 143.215 55.8093 0.0959502 11.739
192200 60.2772 143.228 55.8093 0.0960502 11.7466
192400 60.2772 143.241 55.8093 0.0961502 11.7606
192600 60.2772 143.254 55.8093 0.0962502 11.7572
192800 60.2772 143.267 55.8093 0.0963502 11.8005
193000 60.2772 143.28 55.8093 0.0964502 11.7846
193200 60.2772 143.293 55.8093 0.0965502 11.7969
193400 60.2772 143.306 55.8093 0.0966502 11.816
193600 60.2772 143.32 55.8093 0.0967502 11.8288
193800 60.2772 143.333 55.8093 0.0968502 11.8267
194000 60.2772 143.346 55.8093 0.0969502 11.8579
194200 60.2772 143.359 55.8093 0.0970502 11.8637
194400 60.2772 143.372 55.8093 0.0971502 11.8924
194600 60.2772 143.385 55.8093 0.0972502 11.89
194800 60.2772 143.398 55.8093 0.0973502 11.9056
195000 60.2772 143.411 55.8093 0.0974502 11.9349
195200 60.2772 143.424 55.8093 0.0975502 11.9277
195400 60.2772 143.437 55.8093 0.0976502 11.9389
195600 60.2772 143.45 55.8093 0.0977502 11.9627
195800 60.2772 143.463 55.8093 0.0978502 11.9854
196000 60.2772 143.476 55.8093 0.0979502 11.9852
196200 60.2772 143.489 55.8093 0.0980502 12.0062
196400 60.2772 143.502 55.8093 0.0981502 12.0369
196600 60.2772 143.516 55.8093 0.0982502 12.0263
196800 60.2772 143.529 55.8093 0.0983502 12.035
197000 60.2772 143.542 55.8093 0.0984502 12.0823
197200 60.2772 143.555 55.8093 0.0985502 12.0794
197400 60.2772 143.568 55.8093 0.0986502 12.0943
197600 60.2772 143.581 55.8093 0.0987502 12.0966
197800 60.2772 143.594 55.8093 0.0988502 12.1241
198000 60.2772 143.607 55.8093 0.0989502 12.1399
198200 60.2772 143.62 55.8093 0.0990502 12.1439
198400 60.2772 143.633 55.8093 0.0991502 12.1578
198600 60.2772 143.646 55.8093 0.0992502 12.1718
198800 60.2772 143.659 55.8093 0.0993502 12.1808
199000 60.2772 143.672 55.8093 0.0994502 12.2134
199200 60.2772 143.685 55.8093 0.0995502 12.2021
199400 60.2772 143.699 55.8093 0.0996502 12.2258
199600 60.2772 143.712 55.8093 0.0997502 12.2445
199800 60.2772 143.725 55.8093 0.0998502 12.2586
200000 60.2772 143.738 55.8093 0.0999502 12.2755
200200 60.2772 143.751 55.8093 0.10005 12.2741
200400 60.2772 143.764 55.8093 0.10015 12.3146
200600 60.2772 143.777 55.8093 0.10025 12.2975
200800 60.2772 143.79 55.8093 0.10035 12.3426
201000 60.2772 143.803 55.8093 0.10045 12.3232
201200 60.2772 143.816 55.8093 0.10055 12.3582
201400 60.2772 143.829 55.8093 0.10065 12.3681
201600 60.2772 143.842 55.8093 0.10075 12.3643
201800 60.2772 143.855 55.8093 0.10085 12.4022
202000 60.2772 143.868 55.8093 0.10095 12.3905
202200 60.2772 143.881 55.8093 0.10105 12.4159
202400 60.2772 143.895 55.8093 0.10115 12.4324
202600 60.2772 143.908 55.8093 0.10125 12.4412
202800 60.2772 143.921 55.8093 0.10135 12.4591
203000 60.2772 143.934 55.8093 0.10145 12.4662
203200 60.2772 143.947 55.8093 0.10155 12.4853
203400 60.2772 143.96 55.8093 0.10165 12.4911
203600 60.2772 143.973 55.8093 0.10175 12.4731
203800 60.2772 143.986 55.8093 0.10185 12.5052
204000 60.2772 143.999 55.8093 0.10195 12.5086
204200 60.2772 144.012 55.8093 0.10205 12.5087
204400 60.2772 144.025 55.8093 0.10215 12.5271
204600 60.2772 144.038 55.8093 0.10225 12.5311
204800 60.2772 144.051 55.8093 0.10235 12.5607
205000 60.2772 144.064 55.8093 0.10245 12.5616
205200 60.2772 144.077 55.8093 0.10255 12.5576
205400 60.2772 144.091 55.8093 0.10265 12.5718
205600 60.2772 144.104 55.8093 0.10275 12.5813
205800 60.2772 144.117 55.8093 0.10285 12.5766
206000 60.2772 144.13 55.8093 0.10295 12.591
206200 60.2772 144.143 55.8093 0.10305 12.6323
206400 60.2772 144.156 55.8093 0.10315 12.6058
206600 60.2772 144.169 55.8093 0.10325 12.6453
206800 60.2772 144.182 55.8093 0.10335 12.6537
207000 60.2772 144.195 55.8093 0.10345 12.6819
207200 60.2772 144.208 55.8093 0.10355 12.6657
207400 60.2772 144.221 55.8093 0.10365 12.7141
207600 60.2772 144.234 55.8093 0.10375 12.7028
207800 60.2772 144.247 55.8093 0.10385 12.7265
208000 60.2772 144.26 55.8093 0.10395 12.7386
208200 60.2772 144.273 55.8093 0.10405 12.7537
208400 60.2772 144.287 55.8093 0.10415 12.7693
208600 60.2772 144.3 55.8093 0.10425 12.7757
208800 60.2772 144.313 55.8093 0.10435 12.7903
209000 60.2772 144.326 55.8093 0.10445 12.8175
209200 60.2772 144.339 55.8093 0.10455 12.8175
209400 60.2772 144.352 55.8093 0.10465 12.8324
209600 60.2772 144.365 55.8093 0.10475 12.8513
209800 60.2772 144.378 55.8093 0.10485 12.853
210000 60.2772 144.391 55.8093 0.10495 12.8741
210200 60.2772 144.404 55.8093 0.10505 12.8573
210400 60.2772 144.417 55.8093 0.10515 12.8622
210600 60.2772 144.43 55.8093 0.10525 12.8519
210800 60.2772 144.443 55.8093 0.10535 12.8988
211000 60.2772 144.456 55.8093 0.10545 12.8803
211200 60.2772 144.469 55.8093 0.10555 12.9145
211400 60.2772 144.483 55.8093 0.10565 12.9114
211600 60.2772 144.496 55.8093 0.10575 12.9319
211800 60.2772 144.509 55.8093 0.10585 12.9168
212000 60.2772 144.522 55.8093 0.10595 12.9552
212200 60.2772 144.535 55.8093 0.10605 12.9518
212400 60.2772 144.548 55.8093 0.10615 12.9835
212600 60.2772 144.561 55.8093 0.10625 12.9851
212800 60.2772 144.574 55.8093 0.10635 13.0046
213000 60.2772 144.587 55.8093 0.10645 13.0097
213200 60.2772 144.6 55.8093 0.10655 13.0372
213400 60.2772 144.613 55.8093 0.10665 13.0391
213600 60.2772 144.626 55.8093 0.10675 13.0505
213800 60.2772 144.639 55.8093 0.10685 13.0672
214000 60.2772 144.652 55.8093 0.10695 13.0809
214200 60.2772 144.666 55.8093 0.10705 13.0984
214400 60.2772 144.679 55.8093 0.10715 13.1058
214600 60.2772 144.692 55.8093 0.10725 13.1124
214800 60.2772 144.705 55.8093 0.10735 13.1271
215000 60.2772 144.718 55.8093 0.10745 13.161
215200 60.2772 144.731 55.8093 0.10755 13.1439
215400 60.2772 144.744 55.8093 0.10765 13.1549
215600 60.2772 144.757 55.8093 0.10775 13.1524
215800 60.2772 144.77 55.8093 0.10785 13.1465
216000 60.2772 144.783 55.8093 0.10795 13.1642
216200 60.2772 144.796 55.8093 0.10805 13.1834
216400 60.2772 144.809 55.8093 0.10815 13.1766
216600 60.2772 144.822 55.8093 0.10825 13.2058
216800 60.2772 144.835 55.8093 0.10835 13.2144
217000 60.2772 144.848 55.8093 0.10845 13.2327
217200 60.2772 144.862 55.8093 0.10855 13.2235
217400 60.2772 144.875 55.8093 0.10865 13.2103
217600 60.2772 144.888 55.8093 0.10875 13.2024
217800 60.2772 144.901 55.8093 0.10885 13.1923
218000 60.2772 144.914 55.8093 0.10895 13.208
218200 60.2772 144.927 55.8093 0.10905 13.2356
218400 60.2772 144.94 55.8093 0.10915 13.2301
218600 60.2772 144.953 55.8093 0.10925 13.2486
218800 60.2772 144.966 55.8093 0.10935 13.2662
219000 60.2772 144.979 55.8093 0.10945 13.2848
219200 60.2772 144.992 55.8093 0.10955 13.2966
219400 60.2772 145.005 55.8093 0.10965 13.3028
219600 60.2772 145.018 55.8093 0.10975 13.3191
219800 60.2772 145.031 55.8093 0.10985 13.3298
220000 60.2772 145.044 55.8093 0.10995 13.3362
220200 60.2772 145.058 55.8093 0.11005 13.3373
220400 60.2772 145.071 55.8093 0.11015 13.3393
220600 60.2772 145.084 55.8093 0.11025 13.3542
220800 60.2772 145.097 55.8093 0.11035 13.386
221000 60.2772 145.11 55.8093 0.11045 13.3627
221200 60.2772 145.123 55.8093 0.11055 13.4083
221400 60.2772 145.136 55.8093 0.11065 13.4106
221600 60.2772 145.149 55.8093 0.11075 13.4294
221800 60.2772 145.162 55.8093 0.11085 13.4309
222000 60.2772 145.175 55.8093 0.11095 13.4556
222200 60.2772 145.188 55.8093 0.11105 13.4727
222400 60.2772 145.201 55.8093 0.11115 13.4741
222600 60.2772 145.214 55.8093 0.11125 13.4976
222800 60.2772 145.227 55.8093 0.11135 13.4986
223000 60.2772 145.24 55.8093 0.11145 13.532
223200 60.2772 145.254 55.8093 0.11155 13.5284
223400 60.2772 145.267 55.8093 0.11165 13.5468
223600 60.2772 145.28 55.8093 0.11175 13.5401
223800 60.2772 145.293 55.8093 0.11185 13.5679
224000 60.2772 145.306 55.8093 0.11195 13.5826
224200 60.2772 145.319 55.8093 0.11205 13.5832
224400 60.2772 145.332 55.8093 0.11215 13.5981
224600 60.2772 145.345 55.8093 0.11225 13.6214
224800 60.2772 145.358 55.8093 0.11235 13.6138
225000 60.2772 145.371 55.8093 0.11245 13.6294
225200 60.2772 145.384 55.8093 0.11255 13.6424
225400 60.2772 145.397 55.8093 0.11265 13.6494
225600 60.2772 145.41 55.8093 0.11275 13.6781
225800 60.2772 145.423 55.8093 0.11285 13.6768
226000 60.2772 145.437 55.8093 0.11295 13.6743
226200 60.2772 145.45 55.8093 0.11305 13.6714
226400 60.2772 145.463 55.8093 0.11315 13.7104
226600 60.2772 145.476 55.8093 0.11325 13.6968
226800 60.2772 145.489 55.8093 0.11335 13.7202
227000 60.2772 145.502 55.8093 0.11345 13.7294
227200 60.2772 145.515 55.8093 0.11355 13.7328
227400 60.2772 145.528 55.8093 0.11365 13.7375
227600 60.2772 145.541 55.8093 0.11375 13.7538
227800 60.2772 145.554 55.8093 0.11385 13.7629
228000 60.2772 145.567 55.8093 0.11395 13.77
228200 60.2772 145.58 55.8093 0.11405 13.7714
228400 60.2772 145.593 55.8093 0.11415 13.7871
228600 60.2772 145.606 55.8093 0.11425 13.804
228800 60.2772 145.619 55.8093 0.11435 13.8048
229000 60.2772 145.633 55.8093 0.11445 13.813
229200 60.2772 145.646 55.8093 0.11455 13.8511
229400 60.2772 145.659 55.8093 0.11465 13.8439
229600 60.2772 145.672 55.8093 0.11475 13.8648
229800 60.2772 145.685 55.8093 0.11485 13.8763
230000 60.2772 145.698 55.8093 0.11495 13.8848
230200 60.2772 145.711 55.8093 0.11505 13.9018
230400 60.2772 145.724 55.8093 0.11515 13.9157
230600 60.2772 145.737 55.8093 0.11525 13.9162
230800 60.2772 145.75 55.8093 0.11535 13.9273
231000 60.2772 145.763 55.8093 0.11545 13.9532
231200 60.2772 145.776 55.8093 0.11555 13.9543
231400 60.2772 145.789 55.8093 0.11565 13.9555
231600 60.2772 145.802 55.8093 0.11575 13.9725
231800 60.2772 145.815 55.8093 0.11585 13.9924
232000 60.2772 145.829 55.8093 0.11595 14.0051
232200 60.2772 145.842 55.8093 0.11605 14.0154
232400 60.2772 145.855 55.8093 0.11615 14.019
232600 60.2772 145.868 55.8093 0.11625 14.0552
232800 60.2772 145.881 55.8093 0.11635 14.0531
233000 60.2772 145.894 55.8093 0.11645 14.0705
233200 60.2772 145.907 55.8093 0.11655 14.0741
233400 60.2772 145.92 55.8093 0.11665 14.1045
233600 60.2772 145.933 55.8093 0.11675 14.0945
233800 60.2772 145.946 55.8093 0.11685 14.0865
234000 60.2772 145.959 55.8093 0.11695 14.1137
234200 60.2772 145.972 55.8093 0.11705 14.1214
234400 60.2772 145.985 55.8093 0.11715 14.1201
234600 60.2772 145.998 55.8093 0.11725 14.1433
234800 60.2772 146.011 55.8093 0.11735 14.1325
235000 60.2772 146.025 55.8093 0.11745 14.1652
235200 60.2772 146.038 55.8093 0.11755 14.1682
235400 60.2772 146.051 55.8093 0.11765 14.1773
235600 60.2772 146.064 55.8093 0.11775 14.1991
235800 60.2772 146.077 55.8093 0.11785 14.2159
236000 60.2772 146.09 55.8093 0.11795 14.2071
236200 60.2772 146.103 55.8093 0.11805 14.2394
236400 60.2772 146.116 55.8093 0.11815 14.2428
236600 60.2772 146.129 55.8093 0.11825 14.2659
236800 60.2772 146.142 55.8093 0.11835 14.2724
237000 60.2772 146.155 55.8093 0.11845 14.279
237200 60.2772 146.168 55.8093 0.11855 14.2997
237400 60.2772 146.181 55.8093 0.11865 14.3181
237600 60.2772 146.194 55.8093 0.11875 14.3256
237800 60.2772 146.207 55.8093 0.11885 14.3536
238000 60.2772 146.221 55.8093 0.11895 14.3343
238200 60.2772 146.234 55.8093 0.11905 14.3569
238400 60.2772 146.247 55.8093 0.11915 14.3664
238600 60.2772 146.26 55.8093 0.11925 14.3904
238800 60.2772 146.273 55.8093 0.11935 14.3977
239000 60.2772 146.286 55.8093 0.11945 14.3925
239200 60.2772 146.299 55.8093 0.11955 14.3996
239400 60.2772 146.312 55.8093 0.11965 14.4069
239600 60.2772 146.325 55.8093 0.11975 14.4216
239800 60.2772 146.338 55.8093 0.11985 14.4251
240000 60.2772 146.351 55.8093 0.11995 14.4383
240200 60.2772 146.364 55.8093 0.12005 14.4057
240400 60.2772 146.377 55.8093 0.12015 14.4509
240600 60.2772 146.39 55.8093 0.12025 14.4403
240800 60.2772 146.404 55.8093 0.12035 14.4587
241000 60.2772 146.417 55.8093 0.12045 14.4703
241200 60.2772 146.43 55.8093 0.12055 14.4822
241400 60.2772 146.443 55.8093 0.12065 14.4983
241600 60.2772 146.456 55.8093 0.12075 14.4987
241800 60.2772 146.469 55.8093 0.12085 14.5095
242000 60.2772 146.482 55.8093 0.12095 14.5222
242200 60.2772 146.495 55.8093 0.12105 14.5417
242400 60.2772 146.508 55.8093 0.12115 14.5652
242600 60.2772 146.521 55.8093 0.12125 14.5336
242800 60.2772 146.534 55.8093 0.12135 14.6146
243000 60.2772 146.547 55.8093 0.12145 14.572
243200 60.2772 146.56 55.8093 0.12155 14.6099
243400 60.2772 146.573 55.8093 0.12165 14.6212
243600 60.2772 146.586 55.8093 0.12175 14.6349
243800 60.2772 146.6 55.8093 0.12185 14.6387
244000 60.2772 146.613 55.8093 0.12195 14.67
244200 60.2772 146.626 55.8093 0.12205 14.6783
244400 60.2772 146.639 55.8093 0.12215 14.6722
244600 60.2772 146.652 55.8093 0.12225 14.6947
244800 60.2772 146.665 55.8093 0.12235 14.7073
245000 60.2772 146.678 55.8093 0.12245 14.7191
245200 60.2772 146.691 55.8093 0.12255 14.7405
245400 60.2772 146.704 55.8093 0.12265 14.7417
245600 60.2772 146.717 55.8093 0.12275 14.7709
245800 60.2772 146.73 55.8093 0.12285 14.7619
246000 60.2772 146.743 55.8093 0.12295 14.7683
246200 60.2772 146.756 55.8093 0.12305 14.7818
246400 60.2772 146.769 55.8093 0.12315 14.8106
246600 60.2772 146.782 55.8093 0.12325 14.7897
246800 60.2772 146.796 55.8093 0.12335 14.8358
247000 60.2772 146.809 55.8093 0.12345 14.8205
247200 60.2772 146.822 55.8093 0.12355 14.8035
247400 60.2772 146.835 55.8093 0.12365 14.8063
247600 60.2772 146.848 55.8093 0.12375 14.825
247800 60.2772 146.861 55.8093 0.12385 14.8271
248000 60.2772 146.874 55.8093 0.12395 14.8421
248200 60.2772 146.887 55.8093 0.12405 14.8573
248400 60.2772 146.9 55.8093 0.12415 14.8655
248600 60.2772 146.913 55.8093 0.12425 14.8889
248800 60.2772 146.926 55.8093 0.12435 14.9076
249000 60.2772 146.939 55.8093 0.12445 14.9216
249200 60.2772 146.952 55.8093 0.12455 14.9221
249400 60.2772 146.965 55.8093 0.12465 14.933
249600 60.2772 146.978 55.8093 0.12475 14.9442
249800 60.2772 146.992 55.8093 0.12485 14.9554
250000 60.2772 147.005 55.8093 0.12495 14.953
250200 60.2772 147.018 55.8093 0.12505 14.9579
250400 60.2772 147.031 55.8093 0.12515 14.9359
250600 60.2772 147.044 55.8093 0.12525 14.9711
250800 60.2772 147.057 55.8093 0.12535 14.9661
251000 60.2772 147.07 55.8093 0.12545 14.9613
251200 60.2772 147.083 55.8093 0.12555 14.9889
251400 60.2772 147.096 55.8093 0.12565 14.9947
251600 60.2772 147.109 55.8093 0.12575 15.0041
251800 60.2772 147.122 55.8093 0.12585 15.0279
252000 60.2772 147.135 55.8093 0.12595 15.0273
252200 60.2772 147.148 55.8093 0.12605 15.0371
252400 60.2772 147.161 55.8093 0.12615 15.0525
252600 60.2772 147.175 55.8093 0.12625 15.0515
252800 60.2772 147.188 55.8093 0.12635 15.0854
253000 60.2772 147.201 55.8093 0.12645 15.0784
253200 60.2772 147.214 55.8093 0.12655 15.0933
253400 60.2772 147.227 55.8093 0.12665 15.1066
253600 60.2772 147.24 55.8093 0.12675 15.0974
253800 60.2772 147.253 55.8093 0.12685 15.0769
254000 60.2772 147.266 55.8093 0.12695 15.0856
254200 60.2772 147.279 55.8093 0.12705 15.0513
254400 60.2772 147.292 55.8093 0.12715 15.0602
254600 60.2772 147.305 55.8093 0.12725 15.0702
254800 60.2772 147.318 55.8093 0.12735 15.0864
255000 60.2772 147.331 55.8093 0.12745 15.0768
255200 60.2772 147.344 55.8093 0.12755 15.0759
255400 60.2772 147.357 55.8093 0.12765 15.1164
255600 60.2772 147.371 55.8093 0.12775 15.0998
255800 60.2772 147.384 55.8093 0.12785 15.1286
256000 60.2772 147.397 55.8093 0.12795 15.1487
256200 60.2772 147.41 55.8093 0.12805 15.161
256400 60.2772 147.423 55.8093 0.12815 15.1671
256600 60.2772 147.436 55.8093 0.12825 15.1705
256800 60.2772 147.449 55.8093 0.12835 15.1836
257000 60.2772 147.462 55.8093 0.12845 15.2067
257200 60.2772 147.475 55.8093 0.12855 15.2018
257400 60.2772 147.488 55.8093 0.12865 15.2229
257600 60.2772 147.501 55.8093 0.12875 15.2264
257800 60.2772 147.514 55.8093 0.12885 15.236
258000 60.2772 147.527 55.8093 0.12895 15.2449
258200 60.2772 147.54 55.8093 0.12905 15.2379
258400 60.2772 147.553 55.8093 0.12915 15.2432
258600 60.2772 147.567 55.8093 0.12925 15.2987
258800 60.2772 147.58 55.8093 0.12935 15.2723
259000 60.2772 147.593 55.8093 0.12945 15.2938
259200 60.2772 147.606 55.8093 0.12955 15.2991
259400 60.2772 147.619 55.8093 0.12965 15.2817
259600 60.2772 147.632 55.8093 0.12975 15.2963
259800 60.2772 147.645 55.8093 0.12985 15.3032
260000 60.2772 147.658 55.8093 0.12995 15.3353
260200 60.2772 147.671 55.8093 0.13005 15.3154
260400 60.2772 147.684 55.8093 0.13015 15.3528
260600 60.2772 147.697 55.8093 0.13025 15.3641
260800 60.2772 147.71 55.8093 0.13035 15.363
261000 60.2772 147.723 55.8093 0.13045 15.3686
261200 60.2772 147.736 55.8093 0.13055 15.3808
261400 60.2772 147.749 55.8093 0.13065 15.3948
261600 60.2772 147.763 55.8093 0.13075 15.4098
261800 60.2772 147.776 55.8093 0.13085 15.427
262000 60.2772 147.789 55.8093 0.13095 15.4223
262200 60.2772 147.802 55.8093 0.13105 15.4292
262400 60.2772 147.815 55.8093 0.13115 15.4398
262600 60.2772 147.828 55.8093 0.13125 15.4716
262800 60.2772 147.841 55.8093 0.13135 15.4843
263000 60.2772 147.854 55.8093 0.13145 15.4878
263200 60.2772 147.867 55.8093 0.13155 15.5044
263400 60.2772 147.88 55.8093 0.13165 15.5082
263600 60.2772 147.893 55.8093 0.13175 15.5373
263800 60.2772 147.906 55.8093 0.13185 15.5259
264000 60.2772 147.919 55.8093 0.13195 15.5524
264200 60.2772 147.932 55.8093 0.13205 15.5647
264400 60.2772 147.945 55.8093 0.13215 15.5658
264600 60.2772 147.959 55.8093 0.13225 15.5716
264800 60.2772 147.972 55.8093 0.13235 15.581
265000 60.2772 147.985 55.8093 0.13245 15.6042
265200 60.2772 147.998 55.8093 0.13255 15.5952
265400 60.2772 148.011 55.8093 0.13265 15.6066
265600 60.2772 148.024 55.8093 0.13275 15.6267
265800 60.2772 148.037 55.8093 0.13285 15.639
266000 60.2772 148.05 55.8093 0.13295 15.6181
266200 60.2772 148.063 55.8093 0.13305 15.6501
266400 60.2772 148.076 55.8093 0.13315 15.6411
266600 60.2772 148.089 55.8093 0.13325 15.6676
266800 60.2772 148.102 55.8093 0.13335 15.6593
267000 60.2772 148.115 55.8093 0.13345 15.6896
267200 60.2772 148.128 55.8093 0.13355 15.671
267400 60.2772 148.142 55.8093 0.13365 15.6968
267600 60.2772 148.155 55.8093 0.13375 15.7062
267800 60.2772 148.168 55.8093 0.13385 15.7251
268000 60.2772 148.181 55.8093 0.13395 15.7304
268200 60.2772 148.194 55.8093 0.13405 15.7238
268400 60.2772 148.207 55.8093 0.13415 15.7698
268600 60.2772 148.22 55.8093 0.13425 15.7706
268800 60.2772 148.233 55.8093 0.13435 15.7695
269000 60.2772 148.246 55.8093 0.13445 15.7972
269200 60.2772 148.259 55.8093 0.13455 15.8027
269400 60.2772 148.272 55.8093 0.13465 15.7877
269600 60.2772 148.285 55.8093 0.13475 15.8097
269800 60.2772 148.298 55.8093 0.13485 15.8162
270000 60.2772 148.311 55.8093 0.13495 15.8367
270200 60.2772 148.324 55.8093 0.13505 15.8135
270400 60.2772 148.338 55.8093 0.13515 15.8512
270600 60.2772 148.351 55.8093 0.13525 15.8545
270800 60.2772 148.364 55.8093 0.13535 15.8793
271000 60.2772 148.377 55.8093 0.13545 15.8693
271200 60.2772 148.39 55.8093 0.13555 15.8976
271400 60.2772 148.403 55.8093 0.13565 15.8642
271600 60.2772 148.416 55.8093 0.13575 15.8904
271800 60.2772 148.429 55.8093 0.13585 15.9036
272000 60.2772 148.442 55.8093 0.13595 15.9076
272200 60.2772 148.455 55.8093 0.13605 15.91
272400 60.2772 148.468 55.8093 0.13615 15.9075
272600 60.2772 148.481 55.8093 0.13625 15.9031
272800 60.2772 148.494 55.8093 0.13635 15.8781
273000 60.2772 148.507 55.8093 0.13645 15.8788
273200 60.2772 148.52 55.8093 0.13655 15.8369
273400 60.2772 148.534 55.8093 0.13665 15.8313
273600 60.2772 148.547 55.8093 0.13675 15.8005
273800 60.2772 148.56 55.8093 0.13685 15.8059
274000 60.2772 148.573 55.8093 0.13695 15.8343
274200 60.2772 148.586 55.8093 0.13705 15.8349
274400 60.2772 148.599 55.8093 0.13715 15.8468
274600 60.2772 148.612 55.8093 0.13725 15.8797
274800 60.2772 148.625 55.8093 0.13735 15.8813
275000 60.2772 148.638 55.8093 0.13745 15.8992
275200 60.2772 148.651 55.8093 0.13755 15.8892
275400 60.2772 148.664 55.8093 0.13765 15.9012
275600 60.2772 148.677 55.8093 0.13775 15.9073
275800 60.2772 148.69 55.8093 0.13785 15.933
276000 60.2772 148.703 55.8093 0.13795 15.8962
276200 60.2772 148.716 55.8093 0.13805 15.8865
276400 60.2772 148.73 55.8093 0.13815 15.8738
276600 60.2772 148.743 55.8093 0.13825 15.9038
276800 60.2772 148.756 55.8093 0.13835 15.8471
277000 60.2772 148.769 55.8093 0.13845 15.9029
277200 60.2772 148.782 55.8093 0.13855 15.8948
277400 60.2772 148.795 55.8093 0.13865 15.8918
277600 60.2772 148.808 55.8093 0.13875 15.9084
277800 60.2772 148.821 55.8093 0.13885 15.8871
278000 60.2772 148.834 55.8093 0.13895 15.9036
278200 60.2772 148.847 55.8093 0.13905 15.8812
278400 60.2772 148.86 55.8093 0.13915 15.8759
278600 60.2772 148.873 55.8093 0.13925 15.877
278800 60.2772 148.886 55.8093 0.13935 15.8549
279000 60.2772 148.899 55.8093 0.13945 15.8924
279200 60.2772 148.912 55.8093 0.13955 15.8973
279400 60.2772 148.926 55.8093 0.13965 15.9249
279600 60.2772 148.939 55.8093 0.13975 15.9151
279800 60.2772 148.952 55.8093 0.13985 15.9344
280000 60.2772 148.965 55.8093 0.13995 15.9361
280200 60.2772 148.978 55.8093 0.14005 15.9313
280400 60.2772 148.991 55.8093 0.14015 15.9728
280600 60.2772 149.004 55.8093 0.14025 15.9618
280800 60.2772 149.017 55.8093 0.14035 15.9643
281000 60.2772 149.03 55.8093 0.14045 15.9906
281200 60.2772 149.043 55.8093 0.14055 16.0367
281400 60.2772 149.056 55.8093 0.14065 15.9953
281600 60.2772 149.069 55.8093 0.14075 16.0465
281800 60.2772 149.082 55.8093 0.14085 16.0346
282000 60.2772 149.095 55.8093 0.14095 16.0732
282200 60.2772 149.109 55.8093 0.14105 16.0715
282400 60.2772 149.122 55.8093 0.14115 16.0807
282600 60.2772 149.135 55.8093 0.14125 16.0972
282800 60.2772 149.148 55.8093 0.14135 16.1098
283000 60.2772 149.161 55.8093 0.14145 16.1201
283200 60.2772 149.174 55.8093 0.14155 16.1213
283400 60.2772 149.187 55.8093 0.14165 16.1222
283600 60.2772 149.2 55.8093 0.14175 16.1536
283800 60.2772 149.213 55.8093 0.14185 16.1685
284000 60.2772 149.226 55.8093 0.14195 16.1652
284200 60.2772 149.239 55.8093 0.14205 16.146
284400 60.2772 149.252 55.8093 0.14215 16.1421
284600 60.2772 149.265 55.8093 0.14225 16.1534
284800 60.2772 149.278 55.8093 0.14235 16.1532
285000 60.2772 149.291 55.8093 0.14245 16.1836
285200 60.2772 149.305 55.8093 0.14255 16.1885
285400 60.2772 149.318 55.8093 0.14265 16.1993
285600 60.2772 149.331 55.8093 0.14275 16.2181
285800 60.2772 149.344 55.8093 0.14285 16.2134
286000 60.2772 149.357 55.8093 0.14295 16.2418
286200 60.2772 149.37 55.8093 0.14305 16.2559
286400 60.2772 149.383 55.8093 0.14315 16.2493
286600 60.2772 149.396 55.8093 0.14325 16.2731
286800 60.2772 149.409 55.8093 0.14335 16.275
287000 60.2772 149.422 55.8093 0.14345 16.2968
287200 60.2772 149.435 55.8093 0.14355 16.2807
287400 60.2772 149.448 55.8093 0.14365 16.3165
287600 60.2772 149.461 55.8093 0.14375 16.2861
287800 60.2772 149.474 55.8093 0.14385 16.2588
288000 60.2772 149.487 55.8093 0.14395 16.2205
288200 60.2772 149.501 55.8093 0.14405 16.2245
288400 60.2772 149.514 55.8093 0.14415 16.2181
288600 60.2772 149.527 55.8093 0.14425 16.2133
288800 60.2772 149.54 55.8093 0.14435 16.2275
289000 60.2772 149.553 55.8093 0.14445 16.2442
289200 60.2772 149.566 55.8093 0.14455 16.2541
289400 60.2772 149.579 55.8093 0.14465 16.266
289600 60.2772 149.592 55.8093 0.14475 16.2721
289800 60.2772 149.605 55.8093 0.14485 16.2956
290000 60.2772 149.618 55.8093 0.14495 16.2834
290200 60.2772 149.631 55.8093 0.14505 16.3141
290400 60.2772 149.644 55.8093 0.14515 16.2836
290600 60.2772 149.657 55.8093 0.14525 16.3059
290800 60.2772 149.67 55.8093 0.14535 16.2933
291000 60.2772 149.683 55.8093 0.14545 16.3306
291200 60.2772 149.697 55.8093 0.14555 16.3352
291400 60.2772 149.71 55.8093 0.14565 16.3384
291600 60.2772 149.723 55.8093 0.14575 16.3634
291800 60.2772 149.736 55.8093 0.14585 16.3571
292000 60.2772 149.749 55.8093 0.14595 16.364
292200 60.2772 149.762 55.8093 0.14605 16.3818
292400 60.2772 149.775 55.8093 0.14615 16.3932
292600 60.2772 149.788 55.8093 0.14625 16.3878
292800 60.2772 149.801 55.8093 0.14635 16.4195
293000 60.2772 149.814 55.8093 0.14645 16.424
293200 60.2772 149.827 55.8093 0.14655 16.4033
293400 60.2772 149.84 55.8093 0.14665 16.4077
293600 60.2772 149.853 55.8093 0.14675 16.3939
293800 60.2772 149.866 55.8093 0.14685 16.3756
294000 60.2772 149.88 55.8093 0.14695 16.3688
294200 60.2772 149.893 55.8093 0.14705 16.321
294400 60.2772 149.906 55.8093 0.14715 16.3497
294600 60.2772 149.919 55.8093 0.14725 16.3349
294800 60.2772 149.932 55.8093 0.14735 16.3192
295000 60.2772 149.945 55.8093 0.14745 16.3255
295200 60.2772 149.958 55.8093 0.14755 16.3397
295400 60.2772 149.971 55.8093 0.14765 16.2921
295600 60.2772 149.984 55.8093 0.14775 16.2644
295800 60.2772 149.997 55.8093 0.14785 16.247
296000 60.2772 150.01 55.8093 0.14795 16.241
296200 60.2772 150.023 55.8093 0.14805 16.2446
296400 60.2772 150.036 55.8093 0.14815 16.2599
296600 60.2772 150.049 55.8093 0.14825 16.2669
296800 60.2772 150.062 55.8093 0.14835 16.2577
297000 60.2772 150.076 55.8093 0.14845 16.2861
297200 60.2772 150.089 55.8093 0.14855 16.2821
297400 60.2772 150.102 55.8093 0.14865 16.2394
297600 60.2772 150.115 55.8093 0.14875 16.2652
297800 60.2772 150.128 55.8093 0.14885 16.2669
298000 60.2772 150.141 55.8093 0.14895 16.2553
298200 60.2772 150.154 55.8093 0.14905 16.2998
298400 60.2772 150.167 55.8093 0.14915 16.2708
298600 60.2772 150.18 55.8093 0.14925 16.299
298800 60.2772 150.193 55.8093 0.14935 16.3118
299000 60.2772 150.206 55.8093 0.14945 16.302
299200 60.2772 150.219 55.8093 0.14955 16.2919
299400 60.2772 150.232 55.8093 0.14965 16.3101
299600 60.2772 150.245 55.8093 0.14975 16.3045
299800 60.2772 150.258 55.8093 0.14985 16.3201
300000 60.2772 150.272 55.8093 0.14995 16.3164
300200 60.2772 150.285 55.8093 0.15005 16.3237
300400 60.2772 150.298 55.8093 0.15015 16.337
300600 60.2772 150.311 55.8093 0.15025 16.3268
300800 60.2772 150.324 55.8093 0.15035 16.37
301000 60.2772 150.337 55.8093 0.15045 16.3485
301200 60.2772 150.35 55.8093 0.15055 16.361
301400 60.2772 150.363 55.8093 0.15065 16.3692
301600 60.2772 150.376 55.8093 0.15075 16.3562
301800 60.2772 150.389 55.8093 0.15085 16.3731
302000 60.2772 150.402 55.8093 0.15095 16.399
302200 60.2772 150.415 55.8093 0.15105 16.3756
302400 60.2772 150.428 55.8093 0.15115 16.3228
302600 60.2772 150.441 55.8093 0.15125 16.3457
302800 60.2772 150.454 55.8093 0.15135 16.3498
303000 60.2772 150.468 55.8093 0.15145 16.3274
303200 60.2772 150.481 55.8093 0.15155 16.3786
303400 60.2772 150.494 55.8093 0.15165 16.3897
303600 60.2772 150.507 55.8093 0.15175 16.3797
303800 60.2772 150.52 55.8093 0.15185 16.3826
304000 60.2772 150.533 55.8093 0.15195 16.4047
304200 60.2772 150.546 55.8093 0.15205 16.4149
304400 60.2772 150.559 55.8093 0.15215 16.4097
304600 60.2772 150.572 55.8093 0.15225 16.414
304800 60.2772 150.585 55.8093 0.15235 16.4395
305000 60.2772 150.598 55.8093 0.15245 16.4187
305200 60.2772 150.611 55.8093 0.15255 16.4051
305400 60.2772 150.624 55.8093 0.15265 16.4306
305600 60.2772 150.637 55.8093 0.15275 16.4317
305800 60.2772 150.65 55.8093 0.15285 16.4392
306000 60.2772 150.664 55.8093 0.15295 16.4565
306200 60.2772 150.677 55.8093 0.15305 16.4579
306400 60.2772 150.69 55.8093 0.15315 16.4773
306600 60.2772 150.703 55.8093 0.15325 16.4713
306800 60.2772 150.716 55.8093 0.15335 16.5132
307000 60.2772 150.729 55.8093 0.15345 16.4917
307200 60.2772 150.742 55.8093 0.15355 16.4879
307400 60.2772 150.755 55.8093 0.15365 16.5029
307600 60.2772 150.768 55.8093 0.15375 16.5057
307800 60.2772 150.781 55.8093 0.15385 16.5058
308000 60.2772 150.794 55.8093 0.15395 16.5322
308200 60.2772 150.807 55.8093 0.15405 16.4874
308400 60.2772 150.82 55.8093 0.15415 16.4948
308600 60.2772 150.833 55.8093 0.15425 16.4647
308800 60.2772 150.847 55.8093 0.15435 16.4856
309000 60.2772 150.86 55.8093 0.15445 16.4881
309200 60.2772 150.873 55.8093 0.15455 16.4972
309400 60.2772 150.886 55.8093 0.15465 16.512
309600 60.2772 150.899 55.8093 0.15475 16.4508
309800 60.2772 150.912 55.8093 0.15485 16.4442
310000 60.2772 150.925 55.8093 0.15495 16.479
310200 60.2772 150.938 55.8093 0.15505 16.4462
310400 60.2772 150.951 55.8093 0.15515 16.4618
310600 60.2772 150.964 55.8093 0.15525 16.4884
310800 60.2772 150.977 55.8093 0.15535 16.474
311000 60.2772 150.99 55.8093 0.15545 16.4975
311200 60.2772 151.003 55.8093 0.15555 16.5129
311400 60.2772 151.016 55.8093 0.15565 16.4982
311600 60.2772 151.029 55.8093 0.15575 16.5484
311800 60.2772 151.043 55.8093 0.15585 16.5416
312000 60.2772 151.056 55.8093 0.15595 16.5542
312200 60.2772 151.069 55.8093 0.15605 16.5646
312400 60.2772 151.082 55.8093 0.15615 16.5881
312600 60.2772 151.095 55.8093 0.15625 16.5483
312800 60.2772 151.108 55.8093 0.15635 16.5598
313000 60.2772 151.121 55.8093 0.15645 16.5816
313200 60.2772 151.134 55.8093 0.15655 16.584
313400 60.2772 151.147 55.8093 0.15665 16.6013
313600 60.2772 151.16 55.8093 0.15675 16.6147
313800 60.2772 151.173 55.8093 0.15685 16.6082
314000 60.2772 151.186 55.8093 0.15695 16.6124
314200 60.2772 151.199 55.8093 0.15705 16.6158
314400 60.2772 151.212 55.8093 0.15715 16.616
314600 60.2772 151.225 55.8093 0.15725 16.6261
314800 60.2772 151.239 55.8093 0.15735 16.6465
315000 60.2772 151.252 55.8093 0.15745 16.6425
315200 60.2772 151.265 55.8093 0.15755 16.6761
315400 60.2772 151.278 55.8093 0.15765 16.6371
315600 60.2772 151.291 55.8093 0.15775 16.6513
315800 60.2772 151.304 55.8093 0.15785 16.6631
316000 60.2772 151.317 55.8093 0.15795 16.6765
316200 60.2772 151.33 55.8093 0.15805 16.6374
316400 60.2772 151.343 55.8093 0.15815 16.6721
316600 60.2772 151.356 55.8093 0.15825 16.6341
316800 60.2772 151.369 55.8093 0.15835 16.6697
317000 60.2772 151.382 55.8093 0.15845 16.6751
317200 60.2772 151.395 55.8093 0.15855 16.6467
317400 60.2772 151.408 55.8093 0.15865 16.6569
317600 60.2772 151.421 55.8093 0.15875 16.6733
317800 60.2772 151.435 55.8093 0.15885 16.6741
318000 60.2772 151.448 55.8093 0.15895 16.6783
318200 60.2772 151.461 55.8093 0.15905 16.6965
318400 60.2772 151.474 55.8093 0.15915 16.6594
318600 60.2772 151.487 55.8093 0.15925 16.6404
318800 60.2772 151.5 55.8093 0.15935 16.6163
319000 60.2772 151.513 55.8093 0.15945 16.5435
319200 60.2772 151.526 55.8093 0.15955 16.4999
319400 60.2772 151.539 55.8093 0.15965 16.5035
319600 60.2772 151.552 55.8093 0.15975 16.4752
319800 60.2772 151.565 55.8093 0.15985 16.4572
320000 60.2772 151.578 55.8093 0.15995 16.4314
320200 60.2772 151.591 55.8093 0.16005 16.4142
320400 60.2772 151.604 55.8093 0.16015 16.3986
320600 60.2772 151.618 55.8093 0.16025 16.4116
320800 60.2772 151.631 55.8093 0.16035 16.4346
321000 60.2772 151.644 55.8093 0.16045 16.4402
321200 60.2772 151.657 55.8093 0.16055 16.4402
321400 60.2772 151.67 55.8093 0.16065 16.4442
321600 60.2772 151.683 55.8093 0.16075 16.4333
321800 60.2772 151.696 55.8093 0.16085 16.4707
322000 60.2772 151.709 55.8093 0.16095 16.4602
322200 60.2772 151.722 55.8093 0.16105 16.4701
322400 60.2772 151.735 55.8093 0.16115 16.4889
322600 60.2772 151.748 55.8093 0.16125 16.4961
322800 60.2772 151.761 55.8093 0.16135 16.4946
323000 60.2772 151.774 55.8093 0.16145 16.4929
323200 60.2772 151.787 55.8093 0.16155 16.5194
323400 60.2772 151.8 55.8093 0.16165 16.4688
323600 60.2772 151.814 55.8093 0.16175 16.4395
323800 60.2772 151.827 55.8093 0.16185 16.4368
324000 60.2772 151.84 55.8093 0.16195 16.4668
324200 60.2772 151.853 55.8093 0.16205 16.4417
324400 60.2772 151.866 55.8093 0.16215 16.4361
324600 60.2772 151.879 55.8093 0.16225 16.4392
324800 60.2772 151.892 55.8093 0.16235 16.4315
325000 60.2772 151.905 55.8093 0.16245 16.4434
325200 60.2772 151.918 55.8093 0.16255 16.4517
325400 60.2772 151.931 55.8093 0.16265 16.4585
325600 60.2772 151.944 55.8093 0.16275 16.4737
325800 60.2772 151.957 55.8093 0.16285 16.4651
326000 60.2772 151.97 55.8093 0.16295 16.499
326200 60.2772 151.983 55.8093 0.16305 16.4984
326400 60.2772 151.996 55.8093 0.16315 16.4679
326600 60.2772 152.01 55.8093 0.16325 16.5036
326800 60.2772 152.023 55.8093 0.16335 16.4846
327000 60.2772 152.036 55.8093 0.16345 16.4956
327200 60.2772 152.049 55.8093 0.16355 16.4998
327400 60.2772 152.062 55.8093 0.16365 16.5085
327600 60.2772 152.075 55.8093 0.16375 16.5055
327800 60.2772 152.088 55.8093 0.16385 16.501
328000 60.2772 152.101 55.8093 0.16395 16.5045
328200 60.2772 152.114 55.8093 0.16405 16.4991
328400 60.2772 152.127 55.8093 0.16415 16.502
328600 60.2772 152.14 55.8093 0.16425 16.5205
328800 60.2772 152.153 55.8093 0.16435 16.5119
329000 60.2772 152.166 55.8093 0.16445 16.5256
329200 60.2772 152.179 55.8093 0.16455 16.4908
329400 60.2772 152.192 55.8093 0.16465 16.476
329600 60.2772 152.206 55.8093 0.16475 16.5
329800 60.2772 152.219 55.8093 0.16485 16.46
330000 60.2772 152.232 55.8093 0.16495 16.416
330200 60.2772 152.245 55.8093 0.16505 16.452
330400 60.2772 152.258 55.8093 0.16515 16.4482
330600 60.2772 152.271 55.8093 0.16525 16.4786
330800 60.2772 152.284 55.8093 0.16535 16.4705
331000 60.2772 152.297 55.8093 0.16545 16.4681
331200 60.2772 152.31 55.8093 0.16555 16.5112
331400 60.2772 152.323 55.8093 0.16565 16.5064
331600 60.2772 152.336 55.8093 0.16575 16.5311
331800 60.2772 152.349 55.8093 0.16585 16.5091
332000 60.2772 152.362 55.8093 0.16595 16.4845
332200 60.2772 152.375 55.8093 0.16605 16.4826
332400 60.2772 152.388 55.8093 0.16615 16.4453
332600 60.2772 152.402 55.8093 0.16625 16.411
332800 60.2772 152.415 55.8093 0.16635 16.4033
333000 60.2772 152.428 55.8093 0.16645 16.3971
333200 60.2772 152.441 55.8093 0.16655 16.3803
333400 60.2772 152.454 55.8093 0.16665 16.3896
333600 60.2772 152.467 55.8093 0.16675 16.3989
333800 60.2772 152.48 55.8093 0.16685 16.4112
334000 60.2772 152.493 55.8093 0.16695 16.4395
334200 60.2772 152.506 55.8093 0.16705 16.4086
334400 60.2772 152.519 55.8093 0.16715 16.4157
334600 60.2772 152.532 55.8093 0.16725 16.3992
334800 60.2772 152.545 55.8093 0.16735 16.4117
335000 60.2772 152.558 55.8093 0.16745 16.4118
335200 60.2772 152.571 55.8093 0.16755 16.4256
335400 60.2772 152.585 55.8093 0.16765 16.4041
335600 60.2772 152.598 55.8093 0.16775 16.3881
335800 60.2772 152.611 55.8093 0.16785 16.4002
336000 60.2772 152.624 55.8093 0.16795 16.3534
336200 60.2772 152.637 55.8093 0.16805 16.3673
336400 60.2772 152.65 55.8093 0.16815 16.3613
336600 60.2772 152.663 55.8093 0.16825 16.3588
336800 60.2772 152.676 55.8093 0.16835 16.3483
337000 60.2772 152.689 55.8093 0.16845 16.3053
337200 60.2772 152.702 55.8093 0.16855 16.2365
337400 60.2772 152.715 55.8093 0.16865 16.2741
337600 60.2772 152.728 55.8093 0.16875 16.2227
337800 60.2772 152.741 55.8093 0.16885 16.229
338000 60.2772 152.754 55.8093 0.16895 16.271
338200 60.2772 152.767 55.8093 0.16905 16.2363
338400 60.2772 152.781 55.8093 0.16915 16.2652
338600 60.2772 152.794 55.8093 0.16925 16.236
338800 60.2772 152.807 55.8093 0.16935 16.2104
339000 60.2772 152.82 55.8093 0.16945 16.1703
339200 60.2772 152.833 55.8093 0.16955 16.23
339400 60.2772 152.846 55.8093 0.16965 16.1668
339600 60.2772 152.859 55.8093 0.16975 16.1861
339800 60.2772 152.872 55.8093 0.16985 16.1863
340000 60.2772 152.885 55.8093 0.16995 16.1989
340200 60.2772 152.898 55.8093 0.17005 16.2069
340400 60.2772 152.911 55.8093 0.17015 16.2263
340600 60.2772 152.924 55.8093 0.17025 16.2197
340800 60.2772 152.937 55.8093 0.17035 16.239
341000 60.2772 152.95 55.8093 0.17045 16.2461
341200 60.2772 152.963 55.8093 0.17055 16.2586
341400 60.2772 152.977 55.8093 0.17065 16.2283
341600 60.2772 152.99 55.8093 0.17075 16.2255
341800 60.2772 153.003 55.8093 0.17085 16.2462
342000 60.2772 153.016 55.8093 0.17095 16.2333
342200 60.2772 153.029 55.8093 0.17105 16.2023
342400 60.2772 153.042 55.8093 0.17115 16.2174
342600 60.2772 153.055 55.8093 0.17125 16.2317
342800 60.2772 153.068 55.8093 0.17135 16.2296
343000 60.2772 153.081 55.8093 0.17145 16.1987
343200 60.2772 153.094 55.8093 0.17155 16.1328
343400 60.2772 153.107 55.8093 0.17165 16.1078
343600 60.2772 153.12 55.8093 0.17175 16.0322
343800 60.2772 153.133 55.8093 0.17185 15.9765
344000 60.2772 153.146 55.8093 0.17195 15.9488
344200 60.2772 153.159 55.8093 0.17205 15.9699
344400 60.2772 153.173 55.8093 0.17215 15.907
344600 60.2772 153.186 55.8093 0.17225 15.8181
344800 60.2772 153.199 55.8093 0.17235 15.7101
345000 60.2772 153.212 55.8093 0.17245 15.6523
345200 60.2772 153.225 55.8093 0.17255 15.5634
345400 60.2772 153.238 55.8093 0.17265 15.4711
345600 60.2772 153.251 55.8093 0.17275 15.2781
345800 60.2772 153.264 55.8093 0.17285 15.0538
346000 60.2772 153.277 55.8093 0.17295 14.7952
346200 60.2772 153.29 55.8093 0.17305 14.4504
346400 60.2772 153.303 55.8093 0.17315 14.0012
346600 60.2772 153.316 55.8093 0.17325 13.2552
346800 60.2772 153.329 55.8093 0.17335 12.2753
347000 60.2772 153.342 55.8093 0.17345 10.9672
347200 60.2772 153.356 55.8093 0.17355 9.31402
347400 60.2772 153.369 55.8093 0.17365 7.38933
347600 60.2772 153.382 55.8093 0.17375 5.46906
347800 60.2772 153.395 55.8093 0.17385 3.68761
348000 60.2772 153.408 55.8093 0.17395 2.11928
348200 60.2772 153.421 55.8093 0.17405 0.899748
348400 60.2772 153.434 55.8093 0.17415 -0.106788
348600 60.2772 153.447 55.8093 0.17425 -1.00172
348800 60.2772 153.46 55.8093 0.17435 -1.71766
349000 60.2772 153.473 55.8093 0.17445 -2.22228
349200 60.2772 153.486 55.8093 0.17455 -2.61274
349400 60.2772 153.499 55.8093 0.17465 -2.67102
349600 60.2772 153.512 55.8093 0.17475 -2.49444
349800 60.2772 153.525 55.8093 0.17485 -2.29443
350000 60.2772 153.538 55.8093 0.17495 -1.85064
350200 60.2772 153.552 55.8093 0.17505 -1.38614
350400 60.2772 153.565 55.8093 0.17515 -0.724717
350600 60.2772 153.578 55.8093 0.17525 0.0852434
350800 60.2772 153.591 55.8093 0.17535 0.981207
351000 60.2772 153.604 55.8093 0.17545 1.85741
351200 60.2772 153.617 55.8093 0.17555 2.7247
351400 60.2772 153.63 55.8093 0.17565 3.2345
351600 60.2772 153.643 55.8093 0.17575 3.34617
351800 60.2772 153.656 55.8093 0.17585 3.01934
352000 60.2772 153.669 55.8093 0.17595 2.37611
352200 60.2772 153.682 55.8093 0.17605 1.54723
352400 60.2772 153.695 55.8093 0.17615 0.647837
352600 60.2772 153.708 55.8093 0.17625 -0.182761
352800 60.2772 153.721 55.8093 0.17635 -0.897687
353000 60.2772 153.734 55.8093 0.17645 -1.38358
353200 60.2772 153.748 55.8093 0.17655 -1.76601
353400 60.2772 153.761 55.8093 0.17665 -1.99052
353600 60.2772 153.774 55.8093 0.17675 -2.08341
353800 60.2772 153.787 55.8093 0.17685 -1.98094
354000 60.2772 153.8 55.8093 0.17695 -1.76578
354200 60.2772 153.813 55.8093 0.17705 -1.41956
354400 60.2772 153.826 55.8093 0.17715 -0.878311
354600 60.2772 153.839 55.8093 0.17725 -0.275107
354800 60.2772 153.852 55.8093 0.17735 0.485169
355000 60.2772 153.865 55.8093 0.17745 1.25361
355200 60.2772 153.878 55.8093 0.17755 1.95586
355400 60.2772 153.891 55.8093 0.17765 2.46963
355600 60.2772 153.904 55.8093 0.17775 2.69846
355800 60.2772 153.917 55.8093 0.17785 2.58486
356000 60.2772 153.93 55.8093 0.17795 2.2276
356200 60.2772 153.944 55.8093 0.17805 1.58498
356400 60.2772 153.957 55.8093 0.17815 0.846295
356600 60.2772 153.97 55.8093 0.17825 0.124443
356800 60.2772 153.983 55.8093 0.17835 -0.519154
357000 60.2772 153.996 55.8093 0.17845 -1.01422
357200 60.2772 154.009 55.8093 0.17855 -1.38053
357400 60.2772 154.022 55.8093 0.17865 -1.5996
357600 60.2772 154.035 55.8093 0.17875 -1.6618
357800 60.2772 154.048 55.8093 0.17885 -1.59577
358000 60.2772 154.061 55.8093 0.17895 -1.4946
358200 60.2772 154.074 55.8093 0.17905 -1.19486
358400 60.2772 154.087 55.8093 0.17915 -0.774708
358600 60.2772 154.1 55.8093 0.17925 -0.187069
358800 60.2772 154.113 55.8093 0.17935 0.47578
359000 60.2772 154.126 55.8093 0.17945 1.11211
359200 60.2772 154.14 55.8093 0.17955 1.70314
359400 60.2772 154.153 55.8093 0.17965 2.10634
359600 60.2772 154.166 55.8093 0.17975 2.25318
359800 60.2772 154.179 55.8093 0.17985 2.17736
360000 60.2772 154.192 55.8093 0.17995 1.85432
360200 60.2772 154.205 55.8093 0.18005 1.31438
360400 60.2772 154.218 55.8093 0.18015 0.70296
360600 60.2772 154.231 55.8093 0.18025 0.0202058
360800 60.2772 154.244 55.8093 0.18035 -0.533441
361000 60.2772 154.257 55.8093 0.18045 -0.990401
361200 60.2772 154.27 55.8093 0.18055 -1.28952
361400 60.2772 154.283 55.8093 0.18065 -1.41439
361600 60.2772 154.296 55.8093 0.18075 -1.4131
361800 60.2772 154.309 55.8093 0.18085 -1.34729
362000 60.2772 154.323 55.8093 0.18095 -1.16586
362200 60.2772 154.336 55.8093 0.18105 -0.905863
362400 60.2772 154.349 55.8093 0.18115 -0.420614
362600 60.2772 154.362 55.8093 0.18125 0.1279
362800 60.2772 154.375 55.8093 0.18135 0.704642
363000 60.2772 154.388 55.8093 0.18145 1.34794
363200 60.2772 154.401 55.8093 0.18155 1.81268
363400 60.2772 154.414 55.8093 0.18165 2.12121
363600 60.2772 154.427 55.8093 0.18175 2.14765
363800 60.2772 154.44 55.8093 0.18185 1.95831
364000 60.2772 154.453 55.8093 0.18195 1.53966
364200 60.2772 154.466 55.8093 0.18205 0.985709
364400 60.2772 154.479 55.8093 0.18215 0.405891
364600 60.2772 154.492 55.8093 0.18225 -0.148111
364800 60.2772 154.505 55.8093 0.18235 -0.680981
365000 60.2772 154.519 55.8093 0.18245 -1.03594
365200 60.2772 154.532 55.8093 0.18255 -1.27486
365400 60.2772 154.545 55.8093 0.18265 -1.36708
365600 60.2772 154.558 55.8093 0.18275 -1.37
365800 60.2772 154.571 55.8093 0.18285 -1.18564
366000 60.2772 154.584 55.8093 0.18295 -0.96454
366200 60.2772 154.597 55.8093 0.18305 -0.605992
366400 60.2772 154.61 55.8093 0.18315 -0.1713
366600 60.2772 154.623 55.8093 0.18325 0.373468
366800 60.2772 154.636 55.8093 0.18335 0.947568
367000 60.2772 154.649 55.8093 0.18345 1.47897
367200 60.2772 154.662 55.8093 0.18355 1.87421
367400 60.2772 154.675 55.8093 0.18365 2.07654
367600 60.2772 154.688 55.8093 0.18375 1.94634
367800 60.2772 154.701 55.8093 0.18385 1.63571
368000 60.2772 154.715 55.8093 0.18395 1.20199
368200 60.2772 154.728 55.8093 0.18405 0.677577
368400 60.2772 154.741 55.8093 0.18415 0.0990899
368600 60.2772 154.754 55.8093 0.18425 -0.354486
368800 60.2772 154.767 55.8093 0.18435 -0.738743
369000 60.2772 154.78 55.8093 0.18445 -1.03379
369200 60.2772 154.793 55.8093 0.18455 -1.19633
369400 60.2772 154.806 55.8093 0.18465 -1.27189
369600 60.2772 154.819 55.8093 0.18475 -1.19074
369800 60.2772 154.832 55.8093 0.18485 -1.0221
370000 60.2772 154.845 55.8093 0.18495 -0.68977
370200 60.2772 154.858 55.8093 0.18505 -0.32102
370400 60.2772 154.871 55.8093 0.18515 0.133546
370600 60.2772 154.884 55.8093 0.18525 0.6363
370800 60.2772 154.897 55.8093 0.18535 1.11069
371000 60.2772 154.911 55.8093 0.18545 1.49346
371200 60.2772 154.924 55.8093 0.18555 1.74485
371400 60.2772 154.937 55.8093 0.18565 1.78126
371600 60.2772 154.95 55.8093 0.18575 1.60268
371800 60.2772 154.963 55.8093 0.18585 1.28055
372000 60.2772 154.976 55.8093 0.18595 0.847281
372200 60.2772 154.989 55.8093 0.18605 0.345841
372400 60.2772 155.002 55.8093 0.18615 -0.0918961
372600 60.2772 155.015 55.8093 0.18625 -0.464572
372800 60.2772 155.028 55.8093 0.18635 -0.805971
373000 60.2772 155.041 55.8093 0.18645 -0.977725
373200 60.2772 155.054 55.8093 0.18655 -1.03874
373400 60.2772 155.067 55.8093 0.18665 -1.02402
373600 60.2772 155.08 55.8093 0.18675 -0.90589
373800 60.2772 155.094 55.8093 0.18685 -0.750669
374000 60.2772 155.107 55.8093 0.18695 -0.392521
374200 60.2772 155.12 55.8093 0.18705 -0.000563186
374400 60.2772 155.133 55.8093 0.18715 0.444514
374600 60.2772 155.146 55.8093 0.18725 0.892403
374800 60.2772 155.159 55.8093 0.18735 1.2743
375000 60.2772 155.172 55.8093 0.18745 1.5608
375200 60.2772 155.185 55.8093 0.18755 1.58398
375400 60.2772 155.198 55.8093 0.18765 1.48328
375600 60.2772 155.211 55.8093 0.18775 1.26164
375800 60.2772 155.224 55.8093 0.18785 0.909589
376000 60.2772 155.237 55.8093 0.18795 0.521802
376200 60.2772 155.25 55.8093 0.18805 0.131886
376400 60.2772 155.263 55.8093 0.18815 -0.269399
376600 60.2772 155.276 55.8093 0.18825 -0.558664
376800 60.2772 155.29 55.8093 0.18835 -0.778349
377000 60.2772 155.303 55.8093 0.18845 -0.887156
377200 60.2772 155.316 55.8093 0.18855 -0.908699
377400 60.2772 155.329 55.8093 0.18865 -0.799632
377600 60.2772 155.342 55.8093 0.18875 -0.631317
377800 60.2772 155.355 55.8093 0.18885 -0.379562
378000 60.2772 155.368 55.8093 0.18895 -0.0417282
378200 60.2772 155.381 55.8093 0.18905 0.296692
378400 60.2772 155.394 55.8093 0.18915 0.677225
378600 60.2772 155.407 55.8093 0.18925 1.02785
378800 60.2772 155.42 55.8093 0.18935 1.27484
379000 60.2772 155.433 55.8093 0.18945 1.39362
379200 60.2772 155.446 55.8093 0.18955 1.35881
379400 60.2772 155.459 55.8093 0.18965 1.19617
379600 60.2772 155.472 55.8093 0.18975 0.928117
379800 60.2772 155.486 55.8093 0.18985 0.612271
380000 60.2772 155.499 55.8093 0.18995 0.263834
380200 60.2772 155.512 55.8093 0.19005 -0.0805444
380400 60.2772 155.525 55.8093 0.19015 -0.358885
380600 60.2772 155.538 55.8093 0.19025 -0.588942
380800 60.2772 155.551 55.8093 0.19035 -0.713618
381000 60.2772 155.564 55.8093 0.19045 -0.735805
381200 60.2772 155.577 55.8093 0.19055 -0.669083
381400 60.2772 155.59 55.8093 0.19065 -0.544405
381600 60.2772 155.603 55.8093 0.19075 -0.32633
381800 60.2772 155.616 55.8093 0.19085 -0.0500044
382000 60.2772 155.629 55.8093 0.19095 0.247486
382200 60.2772 155.642 55.8093 0.19105 0.575473
382400 60.2772 155.655 55.8093 0.19115 0.872795
382600 60.2772 155.668 55.8093 0.19125 1.10991
382800 60.2772 155.682 55.8093 0.19135 1.22994
383000 60.2772 155.695 55.8093 0.19145 1.21239
383200 60.2772 155.708 55.8093 0.19155 1.08824
383400 60.2772 155.721 55.8093 0.19165 0.866263
383600 60.2772 155.734 55.8093 0.19175 0.593348
383800 60.2772 155.747 55.8093 0.19185 0.304555
384000 60.2772 155.76 55.8093 0.19195 0.0266803
384200 60.2772 155.773 55.8093 0.19205 -0.231795
384400 60.2772 155.786 55.8093 0.19215 -0.401677
384600 60.2772 155.799 55.8093 0.19225 -0.540266
384800 60.2772 155.812 55.8093 0.19235 -0.58404
385000 60.2772 155.825 55.8093 0.19245 -0.523014
385200 60.2772 155.838 55.8093 0.19255 -0.366744
385400 60.2772 155.851 55.8093 0.19265 -0.17701
385600 60.2772 155.864 55.8093 0.19275 0.0636359
385800 60.2772 155.878 55.8093 0.19285 0.338526
386000 60.2772 155.891 55.8093 0.19295 0.642295
386200 60.2772 155.904 55.8093 0.19305 0.84652
386400 60.2772 155.917 55.8093 0.19315 1.07967
386600 60.2772 155.93 55.8093 0.19325 1.16702
386800 60.2772 155.943 55.8093 0.19335 1.17982
387000 60.2772 155.956 55.8093 0.19345 1.04929
387200 60.2772 155.969 55.8093 0.19355 0.814966
387400 60.2772 155.982 55.8093 0.19365 0.573342
387600 60.2772 155.995 55.8093 0.19375 0.277423
387800 60.2772 156.008 55.8093 0.19385 0.0758869
388000 60.2772 156.021 55.8093 0.19395 -0.18697
388200 60.2772 156.034 55.8093 0.19405 -0.370963
388400 60.2772 156.047 55.8093 0.19415 -0.470319
388600 60.2772 156.061 55.8093 0.19425 -0.490055
388800 60.2772 156.074 55.8093 0.19435 -0.455969
389000 60.2772 156.087 55.8093 0.19445 -0.299959
389200 60.2772 156.1 55.8093 0.19455 -0.147182
389400 60.2772 156.113 55.8093 0.19465 0.126387
389600 60.2772 156.126 55.8093 0.19475 0.383
389800 60.2772 156.139 55.8093 0.19485 0.624915
390000 60.2772 156.152 55.8093 0.19495 0.874129
390200 60.2772 156.165 55.8093 0.19505 1.01827
390400 60.2772 156.178 55.8093 0.19515 1.12171
390600 60.2772 156.191 55.8093 0.19525 1.12624
390800 60.2772 156.204 55.8093 0.19535 0.991789
391000 60.2772 156.217 55.8093 0.19545 0.767667
391200 60.2772 156.23 55.8093 0.19555 0.524483
391400 60.2772 156.243 55.8093 0.19565 0.293918
391600 60.2772 156.257 55.8093 0.19575 0.0306483
391800 60.2772 156.27 55.8093 0.19585 -0.182932
392000 60.2772 156.283 55.8093 0.19595 -0.351584
392200 60.2772 156.296 55.8093 0.19605 -0.394796
392400 60.2772 156.309 55.8093 0.19615 -0.472848
392600 60.2772 156.322 55.8093 0.19625 -0.421087
392800 60.2772 156.335 55.8093 0.19635 -0.28553
393000 60.2772 156.348 55.8093 0.19645 -0.118509
393200 60.2772 156.361 55.8093 0.19655 0.121419
393400 60.2772 156.374 55.8093 0.19665 0.366689
393600 60.2772 156.387 55.8093 0.19675 0.609586
393800 60.2772 156.4 55.8093 0.19685 0.850412
394000 60.2772 156.413 55.8093 0.19695 1.03197
394200 60.2772 156.426 55.8093 0.19705 1.09308
394400 60.2772 156.439 55.8093 0.19715 1.04979
394600 60.2772 156.453 55.8093 0.19725 0.967287
394800 60.2772 156.466 55.8093 0.19735 0.775402
395000 60.2772 156.479 55.8093 0.19745 0.560227
395200 60.2772 156.492 55.8093 0.19755 0.295266
395400 60.2772 156.505 55.8093 0.19765 0.0456466
395600 60.2772 156.518 55.8093 0.19775 -0.141362
395800 60.2772 156.531 55.8093 0.19785 -0.288819
396000 60.2772 156.544 55.8093 0.19795 -0.380257
396200 60.2772 156.557 55.8093 0.19805 -0.413065
396400 60.2772 156.57 55.8093 0.19815 -0.329814
396600 60.2772 156.583 55.8093 0.19825 -0.200026
396800 60.2772 156.596 55.8093 0.19835 -0.0617995
397000 60.2772 156.609 55.8093 0.19845 0.150281
397200 60.2772 156.622 55.8093 0.19855 0.36884
397400 60.2772 156.635 55.8093 0.19865 0.579303
397600 60.2772 156.649 55.8093 0.19875 0.832853
397800 60.2772 156.662 55.8093 0.19885 0.961249
398000 60.2772 156.675 55.8093 0.19895 0.999597
398200 60.2772 156.688 55.8093 0.19905 0.968437
398400 60.2772 156.701 55.8093 0.19915 0.818549
398600 60.2772 156.714 55.8093 0.19925 0.6376
398800 60.2772 156.727 55.8093 0.19935 0.434669
399000 60.2772 156.74 55.8093 0.19945 0.205831
399200 60.2772 156.753 55.8093 0.19955 0.0199947
399400 60.2772 156.766 55.8093 0.19965 -0.175387
399600 60.2772 156.779 55.8093 0.19975 -0.320244
399800 60.2772 156.792 55.8093 0.19985 -0.400521
400000 60.2772 156.805 55.8093 0.19995 -0.400299
400200 60.2772 156.818 55.8093 0.20005 -0.310685
400400 60.2772 156.831 55.8093 0.20015 -0.160265
400600 60.2772 156.845 55.8093 0.20025 -0.00678338
400800 60.2772 156.858 55.8093 0.20035 0.210488
401000 60.2772 156.871 55.8093 0.20045 0.417731
401200 60.2772 156.884 55.8093 0.20055 0.624216
401400 60.2772 156.897 55.8093 0.20065 0.833222
401600 60.2772 156.91 55.8093 0.20075 0.950844
401800 60.2772 156.923 55.8093 0.20085 1.00275
402000 60.2772 156.936 55.8093 0.20095 0.976965
402200 60.2772 156.949 55.8093 0.20105 0.827371
402400 60.2772 156.962 55.8093 0.20115 0.664833
402600 60.2772 156.975 55.8093 0.20125 0.422327
402800 60.2772 156.988 55.8093 0.20135 0.246355
403000 60.2772 157.001 55.8093 0.20145 0.0272202
403200 60.2772 157.014 55.8093 0.20155 -0.161534
403400 60.2772 157.028 55.8093 0.20165 -0.261082
403600 60.2772 157.041 55.8093 0.20175 -0.31243
403800 60.2772 157.054 55.8093 0.20185 -0.334336
404000 60.2772 157.067 55.8093 0.20195 -0.273206
404200 60.2772 157.08 55.8093 0.20205 -0.138994
404400 60.2772 157.093 55.8093 0.20215 0.0273945
404600 60.2772 157.106 55.8093 0.20225 0.244181
404800 60.2772 157.119 55.8093 0.20235 0.446367
405000 60.2772 157.132 55.8093 0.20245 0.628248
405200 60.2772 157.145 55.8093 0.20255 0.811776
405400 60.2772 157.158 55.8093 0.20265 0.965811
405600 60.2772 157.171 55.8093 0.20275 0.986368
405800 60.2772 157.184 55.8093 0.20285 0.927065
406000 60.2772 157.197 55.8093 0.20295 0.796151
406200 60.2772 157.21 55.8093 0.20305 0.663817
406400 60.2772 157.224 55.8093 0.20315 0.413431
406600 60.2772 157.237 55.8093 0.20325 0.203865
406800 60.2772 157.25 55.8093 0.20335 0.0346975
407000 60.2772 157.263 55.8093 0.20345 -0.118975
407200 60.2772 157.276 55.8093 0.20355 -0.235489
407400 60.2772 157.289 55.8093 0.20365 -0.264741
407600 60.2772 157.302 55.8093 0.20375 -0.274921
407800 60.2772 157.315 55.8093 0.20385 -0.208561
408000 60.2772 157.328 55.8093 0.20395 -0.0964323
408200 60.2772 157.341 55.8093 0.20405 0.0939018
408400 60.2772 157.354 55.8093 0.20415 0.312696
408600 60.2772 157.367 55.8093 0.20425 0.492543
408800 60.2772 157.38 55.8093 0.20435 0.696414
409000 60.2772 157.393 55.8093 0.20445 0.854095
409200 60.2772 157.406 55.8093 0.20455 0.979253
409400 60.2772 157.42 55.8093 0.20465 1.00652
409600 60.2772 157.433 55.8093 0.20475 0.923921
409800 60.2772 157.446 55.8093 0.20485 0.823776
410000 60.2772 157.459 55.8093 0.20495 0.615652
410200 60.2772 157.472 55.8093 0.20505 0.427989
410400 60.2772 157.485 55.8093 0.20515 0.210005
410600 60.2772 157.498 55.8093 0.20525 0.046194
410800 60.2772 157.511 55.8093 0.20535 -0.144307
411000 60.2772 157.524 55.8093 0.20545 -0.206545
411200 60.2772 157.537 55.8093 0.20555 -0.251166
411400 60.2772 157.55 55.8093 0.20565 -0.272255
411600 60.2772 157.563 55.8093 0.20575 -0.189832
411800 60.2772 157.576 55.8093 0.20585 -0.044773
412000 60.2772 157.589 55.8093 0.20595 0.147603
412200 60.2772 157.602 55.8093 0.20605 0.320671
412400 60.2772 157.616 55.8093 0.20615 0.533704
412600 60.2772 157.629 55.8093 0.20625 0.732475
412800 60.2772 157.642 55.8093 0.20635 0.89843
413000 60.2772 157.655 55.8093 0.20645 0.980056
413200 60.2772 157.668 55.8093 0.20655 0.997325
413400 60.2772 157.681 55.8093 0.20665 0.921863
413600 60.2772 157.694 55.8093 0.20675 0.810153
413800 60.2772 157.707 55.8093 0.20685 0.605689
414000 60.2772 157.72 55.8093 0.20695 0.426447
414200 60.2772 157.733 55.8093 0.20705 0.214804
414400 60.2772 157.746 55.8093 0.20715 0.0279351
414600 60.2772 157.759 55.8093 0.20725 -0.0964244
414800 60.2772 157.772 55.8093 0.20735 -0.19974
415000 60.2772 157.785 55.8093 0.20745 -0.207139
415200 60.2772 157.799 55.8093 0.20755 -0.202152
415400 60.2772 157.812 55.8093 0.20765 -0.121562
415600 60.2772 157.825 55.8093 0.20775 0.0222443
415800 60.2772 157.838 55.8093 0.20785 0.226015
416000 60.2772 157.851 55.8093 0.20795 0.396086
416200 60.2772 157.864 55.8093 0.20805 0.631547
416400 60.2772 157.877 55.8093 0.20815 0.771411
416600 60.2772 157.89 55.8093 0.20825 0.936578
416800 60.2772 157.903 55.8093 0.20835 0.980606
417000 60.2772 157.916 55.8093 0.20845 0.980461
417200 60.2772 157.929 55.8093 0.20855 0.912667
417400 60.2772 157.942 55.8093 0.20865 0.777175
417600 60.2772 157.955 55.8093 0.20875 0.566052
417800 60.2772 157.968 55.8093 0.20885 0.372087
418000 60.2772 157.981 55.8093 0.20895 0.187422
418200 60.2772 157.995 55.8093 0.20905 -0.00861167
418400 60.2772 158.008 55.8093 0.20915 -0.123114
418600 60.2772 158.021 55.8093 0.20925 -0.186572
418800 60.2772 158.034 55.8093 0.20935 -0.192197
419000 60.2772 158.047 55.8093 0.20945 -0.147821
419200 60.2772 158.06 55.8093 0.20955 -0.0525381
419400 60.2772 158.073 55.8093 0.20965 0.064664
419600 60.2772 158.086 55.8093 0.20975 0.280807
419800 60.2772 158.099 55.8093 0.20985 0.471844
420000 60.2772 158.112 55.8093 0.20995 0.699542
420200 60.2772 158.125 55.8093 0.21005 0.829548
420400 60.2772 158.138 55.8093 0.21015 0.954359
420600 60.2772 158.151 55.8093 0.21025 1.04713
420800 60.2772 158.164 55.8093 0.21035 1.00735
421000 60.2772 158.177 55.8093 0.21045 0.893022
421200 60.2772 158.191 55.8093 0.21055 0.749602
421400 60.2772 158.204 55.8093 0.21065 0.5804
421600 60.2772 158.217 55.8093 0.21075 0.349382
421800 60.2772 158.23 55.8093 0.21085 0.162747
422000 60.2772 158.243 55.8093 0.21095 -0.000818611
422200 60.2772 158.256 55.8093 0.21105 -0.0895548
422400 60.2772 158.269 55.8093 0.21115 -0.150435
422600 60.2772 158.282 55.8093 0.21125 -0.155026
422800 60.2772 158.295 55.8093 0.21135 -0.101789
423000 60.2772 158.308 55.8093 0.21145 0.00652028
423200 60.2772 158.321 55.8093 0.21155 0.149489
423400 60.2772 158.334 55.8093 0.21165 0.348584
423600 60.2772 158.347 55.8093 0.21175 0.517635
423800 60.2772 158.36 55.8093 0.21185 0.705466
424000 60.2772 158.373 55.8093 0.21195 0.871773
424200 60.2772 158.387 55.8093 0.21205 0.963101
424400 60.2772 158.4 55.8093 0.21215 0.993566
424600 60.2772 158.413 55.8093 0.21225 0.940851
424800 60.2772 158.426 55.8093 0.21235 0.834431
425000 60.2772 158.439 55.8093 0.21245 0.686623
425200 60.2772 158.452 55.8093 0.21255 0.480477
425400 60.2772 158.465 55.8093 0.21265 0.331717
425600 60.2772 158.478 55.8093 0.21275 0.139642
425800 60.2772 158.491 55.8093 0.21285 -0.0214706
426000 60.2772 158.504 55.8093 0.21295 -0.0751349
426200 60.2772 158.517 55.8093 0.21305 -0.162373
426400 60.2772 158.53 55.8093 0.21315 -0.110022
426600 60.2772 158.543 55.8093 0.21325 -0.047933
426800 60.2772 158.556 55.8093 0.21335 0.118695
427000 60.2772 158.569 55.8093 0.21345 0.23436
427200 60.2772 158.583 55.8093 0.21355 0.423852
427400 60.2772 158.596 55.8093 0.21365 0.606063
427600 60.2772 158.609 55.8093 0.21375 0.79087
427800 60.2772 158.622 55.8093 0.21385 0.903027
428000 60.2772 158.635 55.8093 0.21395 0.995629
428200 60.2772 158.648 55.8093 0.21405 1.01531
428400 60.2772 158.661 55.8093 0.21415 0.957086
428600 60.2772 158.674 55.8093 0.21425 0.809263
428800 60.2772 158.687 55.8093 0.21435 0.637326
429000 60.2772 158.7 55.8093 0.21445 0.456404
429200 60.2772 158.713 55.8093 0.21455 0.269816
429400 60.2772 158.726 55.8093 0.21465 0.116591
429600 60.2772 158.739 55.8093 0.21475 -0.0155735
429800 60.2772 158.752 55.8093 0.21485 -0.0668083
430000 60.2772 158.766 55.8093 0.21495 -0.105613
430200 60.2772 158.779 55.8093 0.21505 -0.0781169
430400 60.2772 158.792 55.8093 0.21515 -0.0213616
430600 60.2772 158.805 55.8093 0.21525 0.132595
430800 60.2772 158.818 55.8093 0.21535 0.300416
431000 60.2772 158.831 55.8093 0.21545 0.487856
431200 60.2772 158.844 55.8093 0.21555 0.669356
431400 60.2772 158.857 55.8093 0.21565 0.833722
431600 60.2772 158.87 55.8093 0.21575 0.925731
431800 60.2772 158.883 55.8093 0.21585 0.984648
432000 60.2772 158.896 55.8093 0.21595 0.989177
432200 60.2772 158.909 55.8093 0.21605 0.937046
432400 60.2772 158.922 55.8093 0.21615 0.802082
432600 60.2772 158.935 55.8093 0.21625 0.599629
432800 60.2772 158.948 55.8093 0.21635 0.464274
433000 60.2772 158.962 55.8093 0.21645 0.268667
433200 60.2772 158.975 55.8093 0.21655 0.125084
433400 60.2772 158.988 55.8093 0.21665 0.00941617
433600 60.2772 159.001 55.8093 0.21675 -0.0335315
433800 60.2772 159.014 55.8093 0.21685 -0.0603644
434000 60.2772 159.027 55.8093 0.21695 -0.0193724
434200 60.2772 159.04 55.8093 0.21705 0.0823933
434400 60.2772 159.053 55.8093 0.21715 0.225862
434600 60.2772 159.066 55.8093 0.21725 0.380193
434800 60.2772 159.079 55.8093 0.21735 0.552776
435000 60.2772 159.092 55.8093 0.21745 0.752386
435200 60.2772 159.105 55.8093 0.21755 0.886855
435400 60.2772 159.118 55.8093 0.21765 0.949385
435600 60.2772 159.131 55.8093 0.21775 1.00951
435800 60.2772 159.144 55.8093 0.21785 0.99147
436000 60.2772 159.158 55.8093 0.21795 0.901664
436200 60.2772 159.171 55.8093 0.21805 0.752888
436400 60.2772 159.184 55.8093 0.21815 0.581461
436600 60.2772 159.197 55.8093 0.21825 0.384085
436800 60.2772 159.21 55.8093 0.21835 0.21907
437000 60.2772 159.223 55.8093 0.21845 0.111813
437200 60.2772 159.236 55.8093 0.21855 0.00916483
437400 60.2772 159.249 55.8093 0.21865 -0.0315903
437600 60.2772 159.262 55.8093 0.21875 -0.0280686
437800 60.2772 159.275 55.8093 0.21885 -0.00809875
438000 60.2772 159.288 55.8093 0.21895 0.171187
438200 60.2772 159.301 55.8093 0.21905 0.259864
438400 60.2772 159.314 55.8093 0.21915 0.457363
438600 60.2772 159.327 55.8093 0.21925 0.645733
438800 60.2772 159.34 55.8093 0.21935 0.804007
439000 60.2772 159.354 55.8093 0.21945 0.934598
439200 60.2772 159.367 55.8093 0.21955 1.00675
439400 60.2772 159.38 55.8093 0.21965 1.0352
439600 60.2772 159.393 55.8093 0.21975 0.998824
439800 60.2772 159.406 55.8093 0.21985 0.896322
440000 60.2772 159.419 55.8093 0.21995 0.726287
440200 60.2772 159.432 55.8093 0.22005 0.547521
440400 60.2772 159.445 55.8093 0.22015 0.38793
440600 60.2772 159.458 55.8093 0.22025 0.247804
440800 60.2772 159.471 55.8093 0.22035 0.126007
441000 60.2772 159.484 55.8093 0.22045 0.0119987
441200 60.2772 159.497 55.8093 0.22055 0.00885477
441400 60.2772 159.51 55.8093 0.22065 0.00973339
441600 60.2772 159.523 55.8093 0.22075 0.0890077
441800 60.2772 159.537 55.8093 0.22085 0.184079
442000 60.2772 159.55 55.8093 0.22095 0.300095
442200 60.2772 159.563 55.8093 0.22105 0.478489
442400 60.2772 159.576 55.8093 0.22115 0.664805
442600 60.2772 159.589 55.8093 0.22125 0.773617
442800 60.2772 159.602 55.8093 0.22135 0.907166
443000 60.2772 159.615 55.8093 0.22145 0.938578
443200 60.2772 159.628 55.8093 0.22155 0.896456
443400 60.2772 159.641 55.8093 0.22165 0.854491
443600 60.2772 159.654 55.8093 0.22175 0.727164
443800 60.2772 159.667 55.8093 0.22185 0.578367
444000 60.2772 159.68 55.8093 0.22195 0.456381
444200 60.2772 159.693 55.8093 0.22205 0.280865
444400 60.2772 159.706 55.8093 0.22215 0.121465
444600 60.2772 159.719 55.8093 0.22225 0.0279664
444800 60.2772 159.733 55.8093 0.22235 0.00164706
445000 60.2772 159.746 55.8093 0.22245 -0.0045776
445200 60.2772 159.759 55.8093 0.22255 0.0252435
445400 60.2772 159.772 55.8093 0.22265 0.134081
445600 60.2772 159.785 55.8093 0.22275 0.254847
445800 60.2772 159.798 55.8093 0.22285 0.404007
446000 60.2772 159.811 55.8093 0.22295 0.547222
446200 60.2772 159.824 55.8093 0.22305 0.715732
446400 60.2772 159.837 55.8093 0.22315 0.856809
446600 60.2772 159.85 55.8093 0.22325 0.945072
446800 60.2772 159.863 55.8093 0.22335 0.975043
447000 60.2772 159.876 55.8093 0.22345 0.942369
447200 60.2772 159.889 55.8093 0.22355 0.845004
447400 60.2772 159.902 55.8093 0.22365 0.683584
447600 60.2772 159.915 55.8093 0.22375 0.563072
447800 60.2772 159.929 55.8093 0.22385 0.418425
448000 60.2772 159.942 55.8093 0.22395 0.268335
448200 60.2772 159.955 55.8093 0.22405 0.132331
448400 60.2772 159.968 55.8093 0.22415 0.0318147
448600 60.2772 159.981 55.8093 0.22425 -0.00451287
448800 60.2772 159.994 55.8093 0.22435 0.00518076
449000 60.2772 160.007 55.8093 0.22445 0.039624
449200 60.2772 160.02 55.8093 0.22455 0.176163
449400 60.2772 160.033 55.8093 0.22465 0.300469
449600 60.2772 160.046 55.8093 0.22475 0.443562
449800 60.2772 160.059 55.8093 0.22485 0.577423
450000 60.2772 160.072 55.8093 0.22495 0.721563
450200 60.2772 160.085 55.8093 0.22505 0.880341
450400 60.2772 160.098 55.8093 0.22515 0.945844
450600 60.2772 160.111 55.8093 0.22525 0.963661
450800 60.2772 160.125 55.8093 0.22535 0.936945
451000 60.2772 160.138 55.8093 0.22545 0.835041
451200 60.2772 160.151 55.8093 0.22555 0.704771
451400 60.2772 160.164 55.8093 0.22565 0.52822
451600 60.2772 160.177 55.8093 0.22575 0.410441
451800 60.2772 160.19 55.8093 0.22585 0.25135
452000 60.2772 160.203 55.8093 0.22595 0.173096
452200 60.2772 160.216 55.8093 0.22605 0.0854151
452400 60.2772 160.229 55.8093 0.22615 0.027259
452600 60.2772 160.242 55.8093 0.22625 0.0651422
452800 60.2772 160.255 55.8093 0.22635 0.108231
453000 60.2772 160.268 55.8093 0.22645 0.235622
453200 60.2772 160.281 55.8093 0.22655 0.364443
453400 60.2772 160.294 55.8093 0.22665 0.510324
453600 60.2772 160.307 55.8093 0.22675 0.658005
453800 60.2772 160.321 55.8093 0.22685 0.815006
454000 60.2772 160.334 55.8093 0.22695 0.916731
454200 60.2772 160.347 55.8093 0.22705 0.965787
454400 60.2772 160.36 55.8093 0.22715 0.939521
454600 60.2772 160.373 55.8093 0.22725 0.918164
454800 60.2772 160.386 55.8093 0.22735 0.789538
455000 60.2772 160.399 55.8093 0.22745 0.679577
455200 60.2772 160.412 55.8093 0.22755 0.515441
455400 60.2772 160.425 55.8093 0.22765 0.366542
455600 60.2772 160.438 55.8093 0.22775 0.253697
455800 60.2772 160.451 55.8093 0.22785 0.118205
456000 60.2772 160.464 55.8093 0.22795 0.0629832
456200 60.2772 160.477 55.8093 0.22805 0.0603093
456400 60.2772 160.49 55.8093 0.22815 0.0751288
456600 60.2772 160.504 55.8093 0.22825 0.186853
456800 60.2772 160.517 55.8093 0.22835 0.264464
457000 60.2772 160.53 55.8093 0.22845 0.429506
457200 60.2772 160.543 55.8093 0.22855 0.569361
457400 60.2772 160.556 55.8093 0.22865 0.723402
457600 60.2772 160.569 55.8093 0.22875 0.848381
457800 60.2772 160.582 55.8093 0.22885 0.960598
458000 60.2772 160.595 55.8093 0.22895 0.990605
458200 60.2772 160.608 55.8093 0.22905 0.96827
458400 60.2772 160.621 55.8093 0.22915 0.923473
458600 60.2772 160.634 55.8093 0.22925 0.792408
458800 60.2772 160.647 55.8093 0.22935 0.647369
459000 60.2772 160.66 55.8093 0.22945 0.504955
459200 60.2772 160.673 55.8093 0.22955 0.366433
459400 60.2772 160.686 55.8093 0.22965 0.259904
459600 60.2772 160.7 55.8093 0.22975 0.157097
459800 60.2772 160.713 55.8093 0.22985 0.0711986
460000 60.2772 160.726 55.8093 0.22995 0.0706987
460200 60.2772 160.739 55.8093 0.23005 0.0948695
460400 60.2772 160.752 55.8093 0.23015 0.18581
460600 60.2772 160.765 55.8093 0.23025 0.259961
460800 60.2772 160.778 55.8093 0.23035 0.41499
461000 60.2772 160.791 55.8093 0.23045 0.557641
461200 60.2772 160.804 55.8093 0.23055 0.677704
461400 60.2772 160.817 55.8093 0.23065 0.786806
461600 60.2772 160.83 55.8093 0.23075 0.840056
461800 60.2772 160.843 55.8093 0.23085 0.860531
462000 60.2772 160.856 55.8093 0.23095 0.874238
462200 60.2772 160.869 55.8093 0.23105 0.794099
462400 60.2772 160.882 55.8093 0.23115 0.713255
462600 60.2772 160.896 55.8093 0.23125 0.548994
462800 60.2772 160.909 55.8093 0.23135 0.451994
463000 60.2772 160.922 55.8093 0.23145 0.294407
463200 60.2772 160.935 55.8093 0.23155 0.207955
463400 60.2772 160.948 55.8093 0.23165 0.164868
463600 60.2772 160.961 55.8093 0.23175 0.106388
463800 60.2772 160.974 55.8093 0.23185 0.139022
464000 60.2772 160.987 55.8093 0.23195 0.159384
464200 60.2772 161 55.8093 0.23205 0.222957
464400 60.2772 161.013 55.8093 0.23215 0.336429
464600 60.2772 161.026 55.8093 0.23225 0.480899
464800 60.2772 161.039 55.8093 0.23235 0.6091
465000 60.2772 161.052 55.8093 0.23245 0.74257
465200 60.2772 161.065 55.8093 0.23255 0.804176
465400 60.2772 161.078 55.8093 0.23265 0.88543
465600 60.2772 161.092 55.8093 0.23275 0.87853
465800 60.2772 161.105 55.8093 0.23285 0.8437
466000 60.2772 161.118 55.8093 0.23295 0.794626
466200 60.2772 161.131 55.8093 0.23305 0.701499
466400 60.2772 161.144 55.8093 0.23315 0.559159
466600 60.2772 161.157 55.8093 0.23325 0.428817
466800 60.2772 161.17 55.8093 0.23335 0.345385
467000 60.2772 161.183 55.8093 0.23345 0.215708
467200 60.2772 161.196 55.8093 0.23355 0.128347
467400 60.2772 161.209 55.8093 0.23365 0.133246
467600 60.2772 161.222 55.8093 0.23375 0.131008
467800 60.2772 161.235 55.8093 0.23385 0.209982
468000 60.2772 161.248 55.8093 0.23395 0.301314
468200 60.2772 161.261 55.8093 0.23405 0.397302
468400 60.2772 161.275 55.8093 0.23415 0.518628
468600 60.2772 161.288 55.8093 0.23425 0.613323
468800 60.2772 161.301 55.8093 0.23435 0.755689
469000 60.2772 161.314 55.8093 0.23445 0.847408
469200 60.2772 161.327 55.8093 0.23455 0.907543
469400 60.2772 161.34 55.8093 0.23465 0.892679
469600 60.2772 161.353 55.8093 0.23475 0.875363
469800 60.2772 161.366 55.8093 0.23485 0.781413
470000 60.2772 161.379 55.8093 0.23495 0.660452
470200 60.2772 161.392 55.8093 0.23505 0.554497
470400 60.2772 161.405 55.8093 0.23515 0.427167
470600 60.2772 161.418 55.8093 0.23525 0.3351
470800 60.2772 161.431 55.8093 0.23535 0.24213
471000 60.2772 161.444 55.8093 0.23545 0.189031
471200 60.2772 161.457 55.8093 0.23555 0.179207
471400 60.2772 161.471 55.8093 0.23565 0.19617
471600 60.2772 161.484 55.8093 0.23575 0.255127
471800 60.2772 161.497 55.8093 0.23585 0.341674
472000 60.2772 161.51 55.8093 0.23595 0.447948
472200 60.2772 161.523 55.8093 0.23605 0.588514
472400 60.2772 161.536 55.8093 0.23615 0.680883
472600 60.2772 161.549 55.8093 0.23625 0.800466
472800 60.2772 161.562 55.8093 0.23635 0.868839
473000 60.2772 161.575 55.8093 0.23645 0.914065
473200 60.2772 161.588 55.8093 0.23655 0.90977
473400 60.2772 161.601 55.8093 0.23665 0.826795
473600 60.2772 161.614 55.8093 0.23675 0.764575
473800 60.2772 161.627 55.8093 0.23685 0.64482
474000 60.2772 161.64 55.8093 0.23695 0.525539
474200 60.2772 161.653 55.8093 0.23705 0.39968
474400 60.2772 161.667 55.8093 0.23715 0.319314
474600 60.2772 161.68 55.8093 0.23725 0.241598
474800 60.2772 161.693 55.8093 0.23735 0.196314
475000 60.2772 161.706 55.8093 0.23745 0.191371
475200 60.2772 161.719 55.8093 0.23755 0.242852
475400 60.2772 161.732 55.8093 0.23765 0.279133
475600 60.2772 161.745 55.8093 0.23775 0.396118
475800 60.2772 161.758 55.8093 0.23785 0.508461
476000 60.2772 161.771 55.8093 0.23795 0.659245
476200 60.2772 161.784 55.8093 0.23805 0.752041
476400 60.2772 161.797 55.8093 0.23815 0.840833
476600 60.2772 161.81 55.8093 0.23825 0.919422
476800 60.2772 161.823 55.8093 0.23835 0.932574
477000 60.2772 161.836 55.8093 0.23845 0.905388
477200 60.2772 161.849 55.8093 0.23855 0.849954
477400 60.2772 161.863 55.8093 0.23865 0.757878
477600 60.2772 161.876 55.8093 0.23875 0.642264
477800 60.2772 161.889 55.8093 0.23885 0.523933
478000 60.2772 161.902 55.8093 0.23895 0.407995
478200 60.2772 161.915 55.8093 0.23905 0.292798
478400 60.2772 161.928 55.8093 0.23915 0.258858
478600 60.2772 161.941 55.8093 0.23925 0.232999
478800 60.2772 161.954 55.8093 0.23935 0.226284
479000 60.2772 161.967 55.8093 0.23945 0.283883
479200 60.2772 161.98 55.8093 0.23955 0.349061
479400 60.2772 161.993 55.8093 0.23965 0.461248
479600 60.2772 162.006 55.8093 0.23975 0.548339
479800 60.2772 162.019 55.8093 0.23985 0.679781
480000 60.2772 162.032 55.8093 0.23995 0.788753
480200 60.2772 162.045 55.8093 0.24005 0.869551
480400 60.2772 162.059 55.8093 0.24015 0.936368
480600 60.2772 162.072 55.8093 0.24025 0.946176
480800 60.2772 162.085 55.8093 0.24035 0.89033
481000 60.2772 162.098 55.8093 0.24045 0.829304
481200 60.2772 162.111 55.8093 0.24055 0.707866
481400 60.2772 162.124 55.8093 0.24065 0.606821
481600 60.2772 162.137 55.8093 0.24075 0.492013
481800 60.2772 162.15 55.8093 0.24085 0.432608
482000 60.2772 162.163 55.8093 0.24095 0.338184
482200 60.2772 162.176 55.8093 0.24105 0.269473
482400 60.2772 162.189 55.8093 0.24115 0.219302
482600 60.2772 162.202 55.8093 0.24125 0.184076
482800 60.2772 162.215 55.8093 0.24135 0.18347
483000 60.2772 162.228 55.8093 0.24145 0.195671
483200 60.2772 162.242 55.8093 0.24155 0.240901
483400 60.2772 162.255 55.8093 0.24165 0.294975
483600 60.2772 162.268 55.8093 0.24175 0.359084
483800 60.2772 162.281 55.8093 0.24185 0.408899
484000 60.2772 162.294 55.8093 0.24195 0.404911
484200 60.2772 162.307 55.8093 0.24205 0.393592
484400 60.2772 162.32 55.8093 0.24215 0.374175
484600 60.2772 162.333 55.8093 0.24225 0.329142
484800 60.2772 162.346 55.8093 0.24235 0.327726
485000 60.2772 162.359 55.8093 0.24245 0.274132
485200 60.2772 162.372 55.8093 0.24255 0.234628
485400 60.2772 162.385 55.8093 0.24265 0.208139
485600 60.2772 162.398 55.8093 0.24275 0.16222
485800 60.2772 162.411 55.8093 0.24285 0.126536
486000 60.2772 162.424 55.8093 0.24295 0.112221
486200 60.2772 162.438 55.8093 0.24305 0.123506
486400 60.2772 162.451 55.8093 0.24315 0.154708
486600 60.2772 162.464 55.8093 0.24325 0.200099
486800 60.2772 162.477 55.8093 0.24335 0.223811
487000 60.2772 162.49 55.8093 0.24345 0.245655
487200 60.2772 162.503 55.8093 0.24355 0.288365
487400 60.2772 162.516 55.8093 0.24365 0.327131
487600 60.2772 162.529 55.8093 0.24375 0.392359
487800 60.2772 162.542 55.8093 0.24385 0.390186
488000 60.2772 162.555 55.8093 0.24395 0.417873
488200 60.2772 162.568 55.8093 0.24405 0.355913
488400 60.2772 162.581 55.8093 0.24415 0.36567
488600 60.2772 162.594 55.8093 0.24425 0.305322
488800 60.2772 162.607 55.8093 0.24435 0.280335
489000 60.2772 162.62 55.8093 0.24445 0.2552
489200 60.2772 162.634 55.8093 0.24455 0.192943
489400 60.2772 162.647 55.8093 0.24465 0.176204
489600 60.2772 162.66 55.8093 0.24475 0.184255
489800 60.2772 162.673 55.8093 0.24485 0.12916
490000 60.2772 162.686 55.8093 0.24495 0.145285
490200 60.2772 162.699 55.8093 0.24505 0.153877
490400 60.2772 162.712 55.8093 0.24515 0.163554
490600 60.2772 162.725 55.8093 0.24525 0.228402
490800 60.2772 162.738 55.8093 0.24535 0.283464
491000 60.2772 162.751 55.8093 0.24545 0.335641
491200 60.2772 162.764 55.8093 0.24555 0.347605
491400 60.2772 162.777 55.8093 0.24565 0.390141
491600 60.2772 162.79 55.8093 0.24575 0.393369
491800 60.2772 162.803 55.8093 0.24585 0.381686
492000 60.2772 162.816 55.8093 0.24595 0.419665
492200 60.2772 162.83 55.8093 0.24605 0.409772
492400 60.2772 162.843 55.8093 0.24615 0.368228
492600 60.2772 162.856 55.8093 0.24625 0.318973
492800 60.2772 162.869 55.8093 0.24635 0.266427
493000 60.2772 162.882 55.8093 0.24645 0.221886
493200 60.2772 162.895 55.8093 0.24655 0.178403
493400 60.2772 162.908 55.8093 0.24665 0.181638
493600 60.2772 162.921 55.8093 0.24675 0.163108
493800 60.2772 162.934 55.8093 0.24685 0.158366
494000 60.2772 162.947 55.8093 0.24695 0.176544
494200 60.2772 162.96 55.8093 0.24705 0.179934
494400 60.2772 162.973 55.8093 0.24715 0.20158
494600 60.2772 162.986 55.8093 0.24725 0.257887
494800 60.2772 162.999 55.8093 0.24735 0.328747
495000 60.2772 163.012 55.8093 0.24745 0.346449
495200 60.2772 163.026 55.8093 0.24755 0.394261
495400 60.2772 163.039 55.8093 0.24765 0.401876
495600 60.2772 163.052 55.8093 0.24775 0.411558
495800 60.2772 163.065 55.8093 0.24785 0.414062
496000 60.2772 163.078 55.8093 0.24795 0.399579
496200 60.2772 163.091 55.8093 0.24805 0.39818
496400 60.2772 163.104 55.8093 0.24815 0.343356
496600 60.2772 163.117 55.8093 0.24825 0.303255
496800 60.2772 163.13 55.8093 0.24835 0.256522
497000 60.2772 163.143 55.8093 0.24845 0.199678
497200 60.2772 163.156 55.8093 0.24855 0.183742
497400 60.2772 163.169 55.8093 0.24865 0.154676
497600 60.2772 163.182 55.8093 0.24875 0.204527
497800 60.2772 163.195 55.8093 0.24885 0.188278
498000 60.2772 163.209 55.8093 0.24895 0.211933
498200 60.2772 163.222 55.8093 0.24905 0.242696
498400 60.2772 163.235 55.8093 0.24915 0.263882
498600 60.2772 163.248 55.8093 0.24925 0.327643
498800 60.2772 163.261 55.8093 0.24935 0.372938
499000 60.2772 163.274 55.8093 0.24945 0.394466
499200 60.2772 163.287 55.8093 0.24955 0.448306
499400 60.2772 163.3 55.8093 0.24965 0.423203
499600 60.2772 163.313 55.8093 0.24975 0.446443
499800 60.2772 163.326 55.8093 0.24985 0.41324
500000 60.2772 163.339 55.8093 0.24995 0.387012
500200 60.2772 163.352 55.8093 0.25005 0.355624
500400 60.2772 163.365 55.8093 0.25015 0.323523
500600 60.2772 163.378 55.8093 0.25025 0.275651
500800 60.2772 163.391 55.8093 0.25035 0.210947
501000 60.2772 163.405 55.8093 0.25045 0.212058
501200 60.2772 163.418 55.8093 0.25055 0.167638
501400 60.2772 163.431 55.8093 0.25065 0.171794
501600 60.2772 163.444 55.8093 0.25075 0.229267
501800 60.2772 163.457 55.8093 0.25085 0.227056
502000 60.2772 163.47 55.8093 0.25095 0.242746
502200 60.2772 163.483 55.8093 0.25105 0.261691
502400 60.2772 163.496 55.8093 0.25115 0.320099
502600 60.2772 163.509 55.8093 0.25125 0.343967
502800 60.2772 163.522 55.8093 0.25135 0.409964
503000 60.2772 163.535 55.8093 0.25145 0.430975
503200 60.2772 163.548 55.8093 0.25155 0.448269
503400 60.2772 163.561 55.8093 0.25165 0.466489
503600 60.2772 163.574 55.8093 0.25175 0.435858
503800 60.2772 163.587 55.8093 0.25185 0.399362
504000 60.2772 163.601 55.8093 0.25195 0.345695
504200 60.2772 163.614 55.8093 0.25205 0.3543
504400 60.2772 163.627 55.8093 0.25215 0.34162
504600 60.2772 163.64 55.8093 0.25225 0.269868
504800 60.2772 163.653 55.8093 0.25235 0.239055
505000 60.2772 163.666 55.8093 0.25245 0.216162
505200 60.2772 163.679 55.8093 0.25255 0.184986
505400 60.2772 163.692 55.8093 0.25265 0.222835
505600 60.2772 163.705 55.8093 0.25275 0.214491
505800 60.2772 163.718 55.8093 0.25285 0.288864
506000 60.2772 163.731 55.8093 0.25295 0.307235
506200 60.2772 163.744 55.8093 0.25305 0.327411
506400 60.2772 163.757 55.8093 0.25315 0.374636
506600 60.2772 163.77 55.8093 0.25325 0.397434
506800 60.2772 163.783 55.8093 0.25335 0.412623
507000 60.2772 163.797 55.8093 0.25345 0.444289
507200 60.2772 163.81 55.8093 0.25355 0.474961
507400 60.2772 163.823 55.8093 0.25365 0.469467
507600 60.2772 163.836 55.8093 0.25375 0.396908
507800 60.2772 163.849 55.8093 0.25385 0.36603
508000 60.2772 163.862 55.8093 0.25395 0.357958
508200 60.2772 163.875 55.8093 0.25405 0.303062
508400 60.2772 163.888 55.8093 0.25415 0.294579
508600 60.2772 163.901 55.8093 0.25425 0.273822
508800 60.2772 163.914 55.8093 0.25435 0.229948
509000 60.2772 163.927 55.8093 0.25445 0.233004
509200 60.2772 163.94 55.8093 0.25455 0.212255
509400 60.2772 163.953 55.8093 0.25465 0.244994
509600 60.2772 163.966 55.8093 0.25475 0.259495
509800 60.2772 163.98 55.8093 0.25485 0.332128
510000 60.2772 163.993 55.8093 0.25495 0.359911
510200 60.2772 164.006 55.8093 0.25505 0.393698
510400 60.2772 164.019 55.8093 0.25515 0.390003
510600 60.2772 164.032 55.8093 0.25525 0.457195
510800 60.2772 164.045 55.8093 0.25535 0.458726
511000 60.2772 164.058 55.8093 0.25545 0.440079
511200 60.2772 164.071 55.8093 0.25555 0.473407
511400 60.2772 164.084 55.8093 0.25565 0.456978
511600 60.2772 164.097 55.8093 0.25575 0.40514
511800 60.2772 164.11 55.8093 0.25585 0.366829
512000 60.2772 164.123 55.8093 0.25595 0.349578
512200 60.2772 164.136 55.8093 0.25605 0.301921
512400 60.2772 164.149 55.8093 0.25615 0.267375
512600 60.2772 164.162 55.8093 0.25625 0.280261
512800 60.2772 164.176 55.8093 0.25635 0.257191
513000 60.2772 164.189 55.8093 0.25645 0.248996
513200 60.2772 164.202 55.8093 0.25655 0.266524
513400 60.2772 164.215 55.8093 0.25665 0.263053
513600 60.2772 164.228 55.8093 0.25675 0.293325
513800 60.2772 164.241 55.8093 0.25685 0.334172
514000 60.2772 164.254 55.8093 0.25695 0.384313
514200 60.2772 164.267 55.8093 0.25705 0.425283
514400 60.2772 164.28 55.8093 0.25715 0.438661
514600 60.2772 164.293 55.8093 0.25725 0.45741
514800 60.2772 164.306 55.8093 0.25735 0.452145
515000 60.2772 164.319 55.8093 0.25745 0.428661
515200 60.2772 164.332 55.8093 0.25755 0.42759
515400 60.2772 164.345 55.8093 0.25765 0.418451
515600 60.2772 164.358 55.8093 0.25775 0.397529
515800 60.2772 164.372 55.8093 0.25785 0.347218
516000 60.2772 164.385 55.8093 0.25795 0.315335
516200 60.2772 164.398 55.8093 0.25805 0.284004
516400 60.2772 164.411 55.8093 0.25815 0.232683
516600 60.2772 164.424 55.8093 0.25825 0.204451
516800 60.2772 164.437 55.8093 0.25835 0.201653
517000 60.2772 164.45 55.8093 0.25845 0.169673
517200 60.2772 164.463 55.8093 0.25855 0.160734
517400 60.2772 164.476 55.8093 0.25865 0.1447
517600 60.2772 164.489 55.8093 0.25875 0.124085
517800 60.2772 164.502 55.8093 0.25885 0.148008
518000 60.2772 164.515 55.8093 0.25895 0.185144
518200 60.2772 164.528 55.8093 0.25905 0.165214
518400 60.2772 164.541 55.8093 0.25915 0.170378
518600 60.2772 164.554 55.8093 0.25925 0.142474
518800 60.2772 164.568 55.8093 0.25935 0.177209
519000 60.2772 164.581 55.8093 0.25945 0.180705
519200 60.2772 164.594 55.8093 0.25955 0.205432
519400 60.2772 164.607 55.8093 0.25965 0.237358
519600 60.2772 164.62 55.8093 0.25975 0.233425
519800 60.2772 164.633 55.8093 0.25985 0.208315
520000 60.2772 164.646 55.8093 0.25995 0.208378
520200 60.2772 164.659 55.8093 0.26005 0.186928
520400 60.2772 164.672 55.8093 0.26015 0.190918
520600 60.2772 164.685 55.8093 0.26025 0.207564
520800 60.2772 164.698 55.8093 0.26035 0.206657
521000 60.2772 164.711 55.8093 0.26045 0.171916
521200 60.2772 164.724 55.8093 0.26055 0.168393
521400 60.2772 164.737 55.8093 0.26065 0.139776
521600 60.2772 164.75 55.8093 0.26075 0.156543
521800 60.2772 164.764 55.8093 0.26085 0.137476
522000 60.2772 164.777 55.8093 0.26095 0.183864
522200 60.2772 164.79 55.8093 0.26105 0.178683
522400 60.2772 164.803 55.8093 0.26115 0.19498
522600 60.2772 164.816 55.8093 0.26125 0.183717
522800 60.2772 164.829 55.8093 0.26135 0.184353
523000 60.2772 164.842 55.8093 0.26145 0.195882
523200 60.2772 164.855 55.8093 0.26155 0.217299
523400 60.2772 164.868 55.8093 0.26165 0.231937
523600 60.2772 164.881 55.8093 0.26175 0.241694
523800 60.2772 164.894 55.8093 0.26185 0.271232
524000 60.2772 164.907 55.8093 0.26195 0.200959
524200 60.2772 164.92 55.8093 0.26205 0.214819
524400 60.2772 164.933 55.8093 0.26215 0.197635
524600 60.2772 164.947 55.8093 0.26225 0.179036
524800 60.2772 164.96 55.8093 0.26235 0.21188
525000 60.2772 164.973 55.8093 0.26245 0.195265
525200 60.2772 164.986 55.8093 0.26255 0.189002
525400 60.2772 164.999 55.8093 0.26265 0.175128
525600 60.2772 165.012 55.8093 0.26275 0.137658
525800 60.2772 165.025 55.8093 0.26285 0.139217
526000 60.2772 165.038 55.8093 0.26295 0.189196
526200 60.2772 165.051 55.8093 0.26305 0.1838
526400 60.2772 165.064 55.8093 0.26315 0.214267
526600 60.2772 165.077 55.8093 0.26325 0.22946
526800 60.2772 165.09 55.8093 0.26335 0.212864
527000 60.2772 165.103 55.8093 0.26345 0.220228
527200 60.2772 165.116 55.8093 0.26355 0.225613
527400 60.2772 165.129 55.8093 0.26365 0.230306
527600 60.2772 165.143 55.8093 0.26375 0.228474
527800 60.2772 165.156 55.8093 0.26385 0.233186
528000 60.2772 165.169 55.8093 0.26395 0.246014
528200 60.2772 165.182 55.8093 0.26405 0.239801
528400 60.2772 165.195 55.8093 0.26415 0.187511
528600 60.2772 165.208 55.8093 0.26425 0.213135
528800 60.2772 165.221 55.8093 0.26435 0.18828
529000 60.2772 165.234 55.8093 0.26445 0.183123
529200 60.2772 165.247 55.8093 0.26455 0.18505
529400 60.2772 165.26 55.8093 0.26465 0.186753
529600 60.2772 165.273 55.8093 0.26475 0.17562
529800 60.2772 165.286 55.8093 0.26485 0.176436
530000 60.2772 165.299 55.8093 0.26495 0.18866
530200 60.2772 165.312 55.8093 0.26505 0.209461
530400 60.2772 165.325 55.8093 0.26515 0.210286
530600 60.2772 165.339 55.8093 0.26525 0.230488
530800 60.2772 165.352 55.8093 0.26535 0.247926
531000 60.2772 165.365 55.8093 0.26545 0.234849
531200 60.2772 165.378 55.8093 0.26555 0.25109
531400 60.2772 165.391 55.8093 0.26565 0.240485
531600 60.2772 165.404 55.8093 0.26575 0.279452
531800 60.2772 165.417 55.8093 0.26585 0.259865
532000 60.2772 165.43 55.8093 0.26595 0.253281
532200 60.2772 165.443 55.8093 0.26605 0.220855
532400 60.2772 165.456 55.8093 0.26615 0.204636
532600 60.2772 165.469 55.8093 0.26625 0.199989
532800 60.2772 165.482 55.8093 0.26635 0.186126
533000 60.2772 165.495 55.8093 0.26645 0.18873
533200 60.2772 165.508 55.8093 0.26655 0.179901
533400 60.2772 165.521 55.8093 0.26665 0.181956
533600 60.2772 165.535 55.8093 0.26675 0.19124
533800 60.2772 165.548 55.8093 0.26685 0.184058
534000 60.2772 165.561 55.8093 0.26695 0.195496
534200 60.2772 165.574 55.8093 0.26705 0.242749
534400 60.2772 165.587 55.8093 0.26715 0.2407
534600 60.2772 165.6 55.8093 0.26725 0.252879
534800 60.2772 165.613 55.8093 0.26735 0.273176
535000 60.2772 165.626 55.8093 0.26745 0.25686
535200 60.2772 165.639 55.8093 0.26755 0.250823
535400 60.2772 165.652 55.8093 0.26765 0.275732
535600 60.2772 165.665 55.8093 0.26775 0.266911
535800 60.2772 165.678 55.8093 0.26785 0.261943
536000 60.2772 165.691 55.8093 0.26795 0.250952
536200 60.2772 165.704 55.8093 0.26805 0.2147
536400 60.2772 165.718 55.8093 0.26815 0.227486
536600 60.2772 165.731 55.8093 0.26825 0.186572
536800 60.2772 165.744 55.8093 0.26835 0.175963
537000 60.2772 165.757 55.8093 0.26845 0.212822
537200 60.2772 165.77 55.8093 0.26855 0.205027
537400 60.2772 165.783 55.8093 0.26865 0.189286
537600 60.2772 165.796 55.8093 0.26875 0.217023
537800 60.2772 165.809 55.8093 0.26885 0.214072
538000 60.2772 165.822 55.8093 0.26895 0.216535
538200 60.2772 165.835 55.8093 0.26905 0.24732
538400 60.2772 165.848 55.8093 0.26915 0.243284
538600 60.2772 165.861 55.8093 0.26925 0.295305
538800 60.2772 165.874 55.8093 0.26935 0.275959
539000 60.2772 165.887 55.8093 0.26945 0.294133
539200 60.2772 165.9 55.8093 0.26955 0.268845
539400 60.2772 165.914 55.8093 0.26965 0.266023
539600 60.2772 165.927 55.8093 0.26975 0.268516
539800 60.2772 165.94 55.8093 0.26985 0.255515
540000 60.2772 165.953 55.8093 0.26995 0.249087
540200 60.2772 165.966 55.8093 0.27005 0.253063
540400 60.2772 165.979 55.8093 0.27015 0.220803
540600 60.2772 165.992 55.8093 0.27025 0.214449
540800 60.2772 166.005 55.8093 0.27035 0.194915
541000 60.2772 166.018 55.8093 0.27045 0.187577
541200 60.2772 166.031 55.8093 0.27055 0.188785
541400 60.2772 166.044 55.8093 0.27065 0.203663
541600 60.2772 166.057 55.8093 0.27075 0.237915
541800 60.2772 166.07 55.8093 0.27085 0.23611
542000 60.2772 166.083 55.8093 0.27095 0.256164
542200 60.2772 166.096 55.8093 0.27105 0.254787
542400 60.2772 166.11 55.8093 0.27115 0.271801
542600 60.2772 166.123 55.8093 0.27125 0.283054
542800 60.2772 166.136 55.8093 0.27135 0.291774
543000 60.2772 166.149 55.8093 0.27145 0.297748
543200 60.2772 166.162 55.8093 0.27155 0.297384
543400 60.2772 166.175 55.8093 0.27165 0.287559
543600 60.2772 166.188 55.8093 0.27175 0.269714
543800 60.2772 166.201 55.8093 0.27185 0.245071
544000 60.2772 166.214 55.8093 0.27195 0.280308
544200 60.2772 166.227 55.8093 0.27205 0.230573
544400 60.2772 166.24 55.8093 0.27215 0.24636
544600 60.2772 166.253 55.8093 0.27225 0.21989
544800 60.2772 166.266 55.8093 0.27235 0.208524
545000 60.2772 166.279 55.8093 0.27245 0.202826
545200 60.2772 166.292 55.8093 0.27255 0.222656
545400 60.2772 166.306 55.8093 0.27265 0.22683
545600 60.2772 166.319 55.8093 0.27275 0.264891
545800 60.2772 166.332 55.8093 0.27285 0.266063
546000 60.2772 166.345 55.8093 0.27295 0.247884
546200 60.2772 166.358 55.8093 0.27305 0.267726
546400 60.2772 166.371 55.8093 0.27315 0.275694
546600 60.2772 166.384 55.8093 0.27325 0.277411
546800 60.2772 166.397 55.8093 0.27335 0.300316
547000 60.2772 166.41 55.8093 0.27345 0.325027
547200 60.2772 166.423 55.8093 0.27355 0.299447
547400 60.2772 166.436 55.8093 0.27365 0.289968
547600 60.2772 166.449 55.8093 0.27375 0.260194
547800 60.2772 166.462 55.8093 0.27385 0.27246
548000 60.2772 166.475 55.8093 0.27395 0.25224
548200 60.2772 166.488 55.8093 0.27405 0.241448
548400 60.2772 166.502 55.8093 0.27415 0.267413
548600 60.2772 166.515 55.8093 0.27425 0.227842
548800 60.2772 166.528 55.8093 0.27435 0.23676
549000 60.2772 166.541 55.8093 0.27445 0.239967
549200 60.2772 166.554 55.8093 0.27455 0.237419
549400 60.2772 166.567 55.8093 0.27465 0.224689
549600 60.2772 166.58 55.8093 0.27475 0.253496
549800 60.2772 166.593 55.8093 0.27485 0.276164
550000 60.2772 166.606 55.8093 0.27495 0.297352
550200 60.2772 166.619 55.8093 0.27505 0.307668
550400 60.2772 166.632 55.8093 0.27515 0.294522
550600 60.2772 166.645 55.8093 0.27525 0.312196
550800 60.2772 166.658 55.8093 0.27535 0.316295
551000 60.2772 166.671 55.8093 0.27545 0.287313
551200 60.2772 166.685 55.8093 0.27555 0.336812
551400 60.2772 166.698 55.8093 0.27565 0.282843
551600 60.2772 166.711 55.8093 0.27575 0.294551
551800 60.2772 166.724 55.8093 0.27585 0.247233
552000 60.2772 166.737 55.8093 0.27595 0.256553
552200 60.2772 166.75 55.8093 0.27605 0.260728
552400 60.2772 166.763 55.8093 0.27615 0.225615
552600 60.2772 166.776 55.8093 0.27625 0.25269
552800 60.2772 166.789 55.8093 0.27635 0.254094
553000 60.2772 166.802 55.8093 0.27645 0.2423
553200 60.2772 166.815 55.8093 0.27655 0.255354
553400 60.2772 166.828 55.8093 0.27665 0.252941
553600 60.2772 166.841 55.8093 0.27675 0.278331
553800 60.2772 166.854 55.8093 0.27685 0.326296
554000 60.2772 166.867 55.8093 0.27695 0.29978
554200 60.2772 166.881 55.8093 0.27705 0.327257
554400 60.2772 166.894 55.8093 0.27715 0.308913
554600 60.2772 166.907 55.8093 0.27725 0.300719
554800 60.2772 166.92 55.8093 0.27735 0.310788
555000 60.2772 166.933 55.8093 0.27745 0.328192
555200 60.2772 166.946 55.8093 0.27755 0.301005
555400 60.2772 166.959 55.8093 0.27765 0.294239
555600 60.2772 166.972 55.8093 0.27775 0.290829
555800 60.2772 166.985 55.8093 0.27785 0.291666
556000 60.2772 166.998 55.8093 0.27795 0.263163
556200 60.2772 167.011 55.8093 0.27805 0.262504
556400 60.2772 167.024 55.8093 0.27815 0.234219
556600 60.2772 167.037 55.8093 0.27825 0.268203
556800 60.2772 167.05 55.8093 0.27835 0.277661
557000 60.2772 167.063 55.8093 0.27845 0.269391
557200 60.2772 167.077 55.8093 0.27855 0.286302
557400 60.2772 167.09 55.8093 0.27865 0.287946
557600 60.2772 167.103 55.8093 0.27875 0.280038
557800 60.2772 167.116 55.8093 0.27885 0.299573
558000 60.2772 167.129 55.8093 0.27895 0.323297
558200 60.2772 167.142 55.8093 0.27905 0.319521
558400 60.2772 167.155 55.8093 0.27915 0.340969
558600 60.2772 167.168 55.8093 0.27925 0.330259
558800 60.2772 167.181 55.8093 0.27935 0.308076
559000 60.2772 167.194 55.8093 0.27945 0.317104
559200 60.2772 167.207 55.8093 0.27955 0.327054
559400 60.2772 167.22 55.8093 0.27965 0.30738
559600 60.2772 167.233 55.8093 0.27975 0.296807
559800 60.2772 167.246 55.8093 0.27985 0.29719
560000 60.2772 167.259 55.8093 0.27995 0.280585
560200 60.2772 167.273 55.8093 0.28005 0.248911
560400 60.2772 167.286 55.8093 0.28015 0.257817
560600 60.2772 167.299 55.8093 0.28025 0.256395
560800 60.2772 167.312 55.8093 0.28035 0.219247
561000 60.2772 167.325 55.8093 0.28045 0.179973
561200 60.2772 167.338 55.8093 0.28055 0.188081
561400 60.2772 167.351 55.8093 0.28065 0.0976003
561600 60.2772 167.364 55.8093 0.28075 0.0939636
561800 60.2772 167.377 55.8093 0.28085 0.0594834
562000 60.2772 167.39 55.8093 0.28095 0.0276996
562200 60.2772 167.403 55.8093 0.28105 -0.00159735
562400 60.2772 167.416 55.8093 0.28115 -0.0344628
562600 60.2772 167.429 55.8093 0.28125 -0.0531891
562800 60.2772 167.442 55.8093 0.28135 -0.0667976
563000 60.2772 167.456 55.8093 0.28145 -0.067613
563200 60.2772 167.469 55.8093 0.28155 -0.0474607
563400 60.2772 167.482 55.8093 0.28165 -0.0125904
563600 60.2772 167.495 55.8093 0.28175 -0.0193678
563800 60.2772 167.508 55.8093 0.28185 0.0263598
564000 60.2772 167.521 55.8093 0.28195 0.0661044
564200 60.2772 167.534 55.8093 0.28205 0.130246
564400 60.2772 167.547 55.8093 0.28215 0.117515
564600 60.2772 167.56 55.8093 0.28225 0.167937
564800 60.2772 167.573 55.8093 0.28235 0.162388
565000 60.2772 167.586 55.8093 0.28245 0.16484
565200 60.2772 167.599 55.8093 0.28255 0.132263
565400 60.2772 167.612 55.8093 0.28265 0.0899953
565600 60.2772 167.625 55.8093 0.28275 0.0824923
565800 60.2772 167.638 55.8093 0.28285 0.0787597
566000 60.2772 167.652 55.8093 0.28295 0.0189264
566200 60.2772 167.665 55.8093 0.28305 -0.00980193
566400 60.2772 167.678 55.8093 0.28315 -0.0272383
566600 60.2772 167.691 55.8093 0.28325 -0.0480664
566800 60.2772 167.704 55.8093 0.28335 -0.0658748
567000 60.2772 167.717 55.8093 0.28345 -0.0577345
567200 60.2772 167.73 55.8093 0.28355 -0.0378157
567400 60.2772 167.743 55.8093 0.28365 -0.00606394
567600 60.2772 167.756 55.8093 0.28375 0.0324698
567800 60.2772 167.769 55.8093 0.28385 0.0507041
568000 60.2772 167.782 55.8093 0.28395 0.0712751
568200 60.2772 167.795 55.8093 0.28405 0.0709172
568400 60.2772 167.808 55.8093 0.28415 0.127818
568600 60.2772 167.821 55.8093 0.28425 0.159204
568800 60.2772 167.834 55.8093 0.28435 0.152698
569000 60.2772 167.848 55.8093 0.28445 0.122789
569200 60.2772 167.861 55.8093 0.28455 0.12843
569400 60.2772 167.874 55.8093 0.28465 0.114603
569600 60.2772 167.887 55.8093 0.28475 0.0441054
569800 60.2772 167.9 55.8093 0.28485 0.0437533
570000 60.2772 167.913 55.8093 0.28495 0.0609264
570200 60.2772 167.926 55.8093 0.28505 0.00217885
570400 60.2772 167.939 55.8093 0.28515 -0.0207147
570600 60.2772 167.952 55.8093 0.28525 -0.0245625
570800 60.2772 167.965 55.8093 0.28535 -0.0431697
571000 60.2772 167.978 55.8093 0.28545 -0.000572761
571200 60.2772 167.991 55.8093 0.28555 -0.0163717
571400 60.2772 168.004 55.8093 0.28565 0.0050114
571600 60.2772 168.017 55.8093 0.28575 0.0313
571800 60.2772 168.03 55.8093 0.28585 0.0584111
572000 60.2772 168.044 55.8093 0.28595 0.0622682
572200 60.2772 168.057 55.8093 0.28605 0.114731
572400 60.2772 168.07 55.8093 0.28615 0.110309
572600 60.2772 168.083 55.8093 0.28625 0.111856
572800 60.2772 168.096 55.8093 0.28635 0.165779
573000 60.2772 168.109 55.8093 0.28645 0.16016
573200 60.2772 168.122 55.8093 0.28655 0.123592
573400 60.2772 168.135 55.8093 0.28665 0.103648
573600 60.2772 168.148 55.8093 0.28675 0.0531453
573800 60.2772 168.161 55.8093 0.28685 0.0598289
574000 60.2772 168.174 55.8093 0.28695 0.0354544
574200 60.2772 168.187 55.8093 0.28705 0.0142507
574400 60.2772 168.2 55.8093 0.28715 0.00200956
574600 60.2772 168.213 55.8093 0.28725 -0.025884
574800 60.2772 168.226 55.8093 0.28735 -0.0323502
575000 60.2772 168.24 55.8093 0.28745 -0.035427
575200 60.2772 168.253 55.8093 0.28755 -0.0177064
575400 60.2772 168.266 55.8093 0.28765 -0.00259243
575600 60.2772 168.279 55.8093 0.28775 0.0482753
575800 60.2772 168.292 55.8093 0.28785 0.0743189
576000 60.2772 168.305 55.8093 0.28795 0.0876506
576200 60.2772 168.318 55.8093 0.28805 0.0944638
576400 60.2772 168.331 55.8093 0.28815 0.114105
576600 60.2772 168.344 55.8093 0.28825 0.133771
576800 60.2772 168.357 55.8093 0.28835 0.146006
577000 60.2772 168.37 55.8093 0.28845 0.122013
577200 60.2772 168.383 55.8093 0.28855 0.137748
577400 60.2772 168.396 55.8093 0.28865 0.113296
577600 60.2772 168.409 55.8093 0.28875 0.0625269
577800 60.2772 168.423 55.8093 0.28885 0.0317653
578000 60.2772 168.436 55.8093 0.28895 0.0189531
578200 60.2772 168.449 55.8093 0.28905 -0.00469142
578400 60.2772 168.462 55.8093 0.28915 -0.0230519
578600 60.2772 168.475 55.8093 0.28925 -0.0152147
578800 60.2772 168.488 55.8093 0.28935 -0.0049001
579000 60.2772 168.501 55.8093 0.28945 -0.0447004
579200 60.2772 168.514 55.8093 0.28955 0.0162328
579400 60.2772 168.527 55.8093 0.28965 0.01245
579600 60.2772 168.54 55.8093 0.28975 0.0581938
579800 60.2772 168.553 55.8093 0.28985 0.0799139
580000 60.2772 168.566 55.8093 0.28995 0.0757941
580200 60.2772 168.579 55.8093 0.29005 0.135629
580400 60.2772 168.592 55.8093 0.29015 0.126251
580600 60.2772 168.605 55.8093 0.29025 0.128274
580800 60.2772 168.619 55.8093 0.29035 0.120322
581000 60.2772 168.632 55.8093 0.29045 0.114651
581200 60.2772 168.645 55.8093 0.29055 0.121221
581400 60.2772 168.658 55.8093 0.29065 0.0908739
581600 60.2772 168.671 55.8093 0.29075 0.0769776
581800 60.2772 168.684 55.8093 0.29085 0.0685324
582000 60.2772 168.697 55.8093 0.29095 -0.00434285
582200 60.2772 168.71 55.8093 0.29105 0.0195019
582400 60.2772 168.723 55.8093 0.29115 0.00110589
582600 60.2772 168.736 55.8093 0.29125 -0.0382135
582800 60.2772 168.749 55.8093 0.29135 0.00926811
583000 60.2772 168.762 55.8093 0.29145 0.0165493
583200 60.2772 168.775 55.8093 0.29155 0.0181472
583400 60.2772 168.788 55.8093 0.29165 0.0389244
583600 60.2772 168.801 55.8093 0.29175 0.0388415
583800 60.2772 168.815 55.8093 0.29185 0.0537935
584000 60.2772 168.828 55.8093 0.29195 0.0858265
584200 60.2772 168.841 55.8093 0.29205 0.14149
584400 60.2772 168.854 55.8093 0.29215 0.113342
584600 60.2772 168.867 55.8093 0.29225 0.14814
584800 60.2772 168.88 55.8093 0.29235 0.135053
585000 60.2772 168.893 55.8093 0.29245 0.116178
585200 60.2772 168.906 55.8093 0.29255 0.121961
585400 60.2772 168.919 55.8093 0.29265 0.10323
585600 60.2772 168.932 55.8093 0.29275 0.105956
585800 60.2772 168.945 55.8093 0.29285 0.0669709
586000 60.2772 168.958 55.8093 0.29295 0.0219893
586200 60.2772 168.971 55.8093 0.29305 0.00390906
586400 60.2772 168.984 55.8093 0.29315 -0.000279597
586600 60.2772 168.997 55.8093 0.29325 0.00289639
586800 60.2772 169.011 55.8093 0.29335 -0.000458024
587000 60.2772 169.024 55.8093 0.29345 -0.00772347
587200 60.2772 169.037 55.8093 0.29355 0.021766
587400 60.2772 169.05 55.8093 0.29365 0.0333174
587600 60.2772 169.063 55.8093 0.29375 0.0704805
587800 60.2772 169.076 55.8093 0.29385 0.0397377
588000 60.2772 169.089 55.8093 0.29395 0.111143
588200 60.2772 169.102 55.8093 0.29405 0.122721
588400 60.2772 169.115 55.8093 0.29415 0.125505
588600 60.2772 169.128 55.8093 0.29425 0.145572
588800 60.2772 169.141 55.8093 0.29435 0.129927
589000 60.2772 169.154 55.8093 0.29445 0.125837
589200 60.2772 169.167 55.8093 0.29455 0.12741
589400 60.2772 169.18 55.8093 0.29465 0.0917935
589600 60.2772 169.194 55.8093 0.29475 0.0807084
589800 60.2772 169.207 55.8093 0.29485 0.0643474
590000 60.2772 169.22 55.8093 0.29495 0.0443731
590200 60.2772 169.233 55.8093 0.29505 -0.00951351
590400 60.2772 169.246 55.8093 0.29515 0.0286228
590600 60.2772 169.259 55.8093 0.29525 -0.0276565
590800 60.2772 169.272 55.8093 0.29535 0.0345185
591000 60.2772 169.285 55.8093 0.29545 0.0180355
591200 60.2772 169.298 55.8093 0.29555 0.00960093
591400 60.2772 169.311 55.8093 0.29565 0.0436455
591600 60.2772 169.324 55.8093 0.29575 0.0709985
591800 60.2772 169.337 55.8093 0.29585 0.0889098
592000 60.2772 169.35 55.8093 0.29595 0.0976061
592200 60.2772 169.363 55.8093 0.29605 0.139069
592400 60.2772 169.376 55.8093 0.29615 0.157088
592600 60.2772 169.39 55.8093 0.29625 0.146251
592800 60.2772 169.403 55.8093 0.29635 0.127368
593000 60.2772 169.416 55.8093 0.29645 0.143522
593200 60.2772 169.429 55.8093 0.29655 0.113799
593400 60.2772 169.442 55.8093 0.29665 0.0939389
593600 60.2772 169.455 55.8093 0.29675 0.0759422
593800 60.2772 169.468 55.8093 0.29685 0.058784
594000 60.2772 169.481 55.8093 0.29695 0.0461865
594200 60.2772 169.494 55.8093 0.29705 0.0150056
594400 60.2772 169.507 55.8093 0.29715 -0.000111212
594600 60.2772 169.52 55.8093 0.29725 -0.0278489
594800 60.2772 169.533 55.8093 0.29735 0.0135184
595000 60.2772 169.546 55.8093 0.29745 0.015886
595200 60.2772 169.559 55.8093 0.29755 0.0423657
595400 60.2772 169.572 55.8093 0.29765 0.0387144
595600 60.2772 169.586 55.8093 0.29775 0.0794935
595800 60.2772 169.599 55.8093 0.29785 0.107809
596000 60.2772 169.612 55.8093 0.29795 0.116638
596200 60.2772 169.625 55.8093 0.29805 0.130919
596400 60.2772 169.638 55.8093 0.29815 0.179493
596600 60.2772 169.651 55.8093 0.29825 0.133935
596800 60.2772 169.664 55.8093 0.29835 0.163056
597000 60.2772 169.677 55.8093 0.29845 0.126422
597200 60.2772 169.69 55.8093 0.29855 0.102686
597400 60.2772 169.703 55.8093 0.29865 0.10643
597600 60.2772 169.716 55.8093 0.29875 0.0863727
597800 60.2772 169.729 55.8093 0.29885 0.0483064
598000 60.2772 169.742 55.8093 0.29895 0.0206148
598200 60.2772 169.755 55.8093 0.29905 0.0192426
598400 60.2772 169.768 55.8093 0.29915 0.0146657
598600 60.2772 169.782 55.8093 0.29925 0.0127719
598800 60.2772 169.795 55.8093 0.29935 0.0307335
599000 60.2772 169.808 55.8093 0.29945 0.0352159
599200 60.2772 169.821 55.8093 0.29955 0.0488881
599400 60.2772 169.834 55.8093 0.29965 0.0814391
599600 60.2772 169.847 55.8093 0.29975 0.0814367
599800 60.2772 169.86 55.8093 0.29985 0.101162
600000 60.2772 169.873 55.8093 0.29995 0.140063
600200 60.2772 169.886 55.8093 0.30005 0.156191
600400 60.2772 169.899 55.8093 0.30015 0.148644
600600 60.2772 169.912 55.8093 0.30025 0.145626
600800 60.2772 169.925 55.8093 0.30035 0.140671
601000 60.2772 169.938 55.8093 0.30045 0.160293
601200 60.2772 169.951 55.8093 0.30055 0.100439
601400 60.2772 169.964 55.8093 0.30065 0.106869
601600 60.2772 169.978 55.8093 0.30075 0.066614
601800 60.2772 169.991 55.8093 0.30085 0.0482623
602000 60.2772 170.004 55.8093 0.30095 0.0445951
602200 60.2772 170.017 55.8093 0.30105 0.0428317
602400 60.2772 170.03 55.8093 0.30115 0.0239219
602600 60.2772 170.043 55.8093 0.30125 0.017106
602800 60.2772 170.056 55.8093 0.30135 0.0239828
603000 60.2772 170.069 55.8093 0.30145 0.0277503
603200 60.2772 170.082 55.8093 0.30155 0.0508022
603400 60.2772 170.095 55.8093 0.30165 0.0865623
603600 60.2772 170.108 55.8093 0.30175 0.122022
603800 60.2772 170.121 55.8093 0.30185 0.102239
604000 60.2772 170.134 55.8093 0.30195 0.158212
604200 60.2772 170.147 55.8093 0.30205 0.147639
604400 60.2772 170.161 55.8093 0.30215 0.151792
604600 60.2772 170.174 55.8093 0.30225 0.140212
604800 60.2772 170.187 55.8093 0.30235 0.172336
605000 60.2772 170.2 55.8093 0.30245 0.134585
605200 60.2772 170.213 55.8093 0.30255 0.131925
605400 60.2772 170.226 55.8093 0.30265 0.10867
605600 60.2772 170.239 55.8093 0.30275 0.050953
605800 60.2772 170.252 55.8093 0.30285 0.0749741
606000 60.2772 170.265 55.8093 0.30295 0.063213
606200 60.2772 170.278 55.8093 0.30305 0.0349151
606400 60.2772 170.291 55.8093 0.30315 0.0438246
606600 60.2772 170.304 55.8093 0.30325 0.0373224
606800 60.2772 170.317 55.8093 0.30335 0.0463618
607000 60.2772 170.33 55.8093 0.30345 0.0467201
607200 60.2772 170.343 55.8093 0.30355 0.0633819
607400 60.2772 170.357 55.8093 0.30365 0.078239
607600 60.2772 170.37 55.8093 0.30375 0.106459
607800 60.2772 170.383 55.8093 0.30385 0.131983
608000 60.2772 170.396 55.8093 0.30395 0.152885
608200 60.2772 170.409 55.8093 0.30405 0.159001
608400 60.2772 170.422 55.8093 0.30415 0.149941
608600 60.2772 170.435 55.8093 0.30425 0.121844
608800 60.2772 170.448 55.8093 0.30435 0.13928
609000 60.2772 170.461 55.8093 0.30445 0.148914
609200 60.2772 170.474 55.8093 0.30455 0.14168
609400 60.2772 170.487 55.8093 0.30465 0.0792373
609600 60.2772 170.5 55.8093 0.30475 0.0863822
609800 60.2772 170.513 55.8093 0.30485 0.0566913
610000 60.2772 170.526 55.8093 0.30495 0.0567033
610200 60.2772 170.539 55.8093 0.30505 0.0463822
610400 60.2772 170.553 55.8093 0.30515 0.0486445
610600 60.2772 170.566 55.8093 0.30525 0.0464449
610800 60.2772 170.579 55.8093 0.30535 0.0646517
611000 60.2772 170.592 55.8093 0.30545 0.0592714
611200 60.2772 170.605 55.8093 0.30555 0.0926596
611400 60.2772 170.618 55.8093 0.30565 0.113508
611600 60.2772 170.631 55.8093 0.30575 0.128538
611800 60.2772 170.644 55.8093 0.30585 0.146904
612000 60.2772 170.657 55.8093 0.30595 0.142295
612200 60.2772 170.67 55.8093 0.30605 0.17854
612400 60.2772 170.683 55.8093 0.30615 0.160711
612600 60.2772 170.696 55.8093 0.30625 0.143067
612800 60.2772 170.709 55.8093 0.30635 0.141137
613000 60.2772 170.722 55.8093 0.30645 0.14871
613200 60.2772 170.735 55.8093 0.30655 0.113435
613400 60.2772 170.749 55.8093 0.30665 0.111762
613600 60.2772 170.762 55.8093 0.30675 0.089916
613800 60.2772 170.775 55.8093 0.30685 0.0342041
614000 60.2772 170.788 55.8093 0.30695 0.0516575
614200 60.2772 170.801 55.8093 0.30705 0.0469048
614400 60.2772 170.814 55.8093 0.30715 0.0732966
614600 60.2772 170.827 55.8093 0.30725 0.0446721
614800 60.2772 170.84 55.8093 0.30735 0.079758
615000 60.2772 170.853 55.8093 0.30745 0.0564526
615200 60.2772 170.866 55.8093 0.30755 0.0981061
615400 60.2772 170.879 55.8093 0.30765 0.0967196
615600 60.2772 170.892 55.8093 0.30775 0.146172
615800 60.2772 170.905 55.8093 0.30785 0.156892
616000 60.2772 170.918 55.8093 0.30795 0.182003
616200 60.2772 170.931 55.8093 0.30805 0.176323
616400 60.2772 170.945 55.8093 0.30815 0.167271
616600 60.2772 170.958 55.8093 0.30825 0.164796
616800 60.2772 170.971 55.8093 0.30835 0.157375
617000 60.2772 170.984 55.8093 0.30845 0.154322
617200 60.2772 170.997 55.8093 0.30855 0.127471
617400 60.2772 171.01 55.8093 0.30865 0.104885
617600 60.2772 171.023 55.8093 0.30875 0.100051
617800 60.2772 171.036 55.8093 0.30885 0.0466305
618000 60.2772 171.049 55.8093 0.30895 0.035829
618200 60.2772 171.062 55.8093 0.30905 0.0442037
618400 60.2772 171.075 55.8093 0.30915 0.0647926
618600 60.2772 171.088 55.8093 0.30925 0.0704872
618800 60.2772 171.101 55.8093 0.30935 0.0847687
619000 60.2772 171.114 55.8093 0.30945 0.0735935
619200 60.2772 171.128 55.8093 0.30955 0.112617
619400 60.2772 171.141 55.8093 0.30965 0.119745
619600 60.2772 171.154 55.8093 0.30975 0.146508
619800 60.2772 171.167 55.8093 0.30985 0.210034
620000 60.2772 171.18 55.8093 0.30995 0.170728
620200 60.2772 171.193 55.8093 0.31005 0.187794
620400 60.2772 171.206 55.8093 0.31015 0.168614
620600 60.2772 171.219 55.8093 0.31025 0.159286
620800 60.2772 171.232 55.8093 0.31035 0.162357
621000 60.2772 171.245 55.8093 0.31045 0.155816
621200 60.2772 171.258 55.8093 0.31055 0.123934
621400 60.2772 171.271 55.8093 0.31065 0.101668
621600 60.2772 171.284 55.8093 0.31075 0.0754682
621800 60.2772 171.297 55.8093 0.31085 0.0637842
622000 60.2772 171.31 55.8093 0.31095 0.0496599
622200 60.2772 171.324 55.8093 0.31105 0.0484403
622400 60.2772 171.337 55.8093 0.31115 0.0675276
622600 60.2772 171.35 55.8093 0.31125 0.0721434
622800 60.2772 171.363 55.8093 0.31135 0.102943
623000 60.2772 171.376 55.8093 0.31145 0.096933
623200 60.2772 171.389 55.8093 0.31155 0.133195
623400 60.2772 171.402 55.8093 0.31165 0.164809
623600 60.2772 171.415 55.8093 0.31175 0.154555
623800 60.2772 171.428 55.8093 0.31185 0.193521
624000 60.2772 171.441 55.8093 0.31195 0.211157
624200 60.2772 171.454 55.8093 0.31205 0.18748
624400 60.2772 171.467 55.8093 0.31215 0.178841
624600 60.2772 171.48 55.8093 0.31225 0.178327
624800 60.2772 171.493 55.8093 0.31235 0.151007
625000 60.2772 171.506 55.8093 0.31245 0.139749
625200 60.2772 171.52 55.8093 0.31255 0.124135
625400 60.2772 171.533 55.8093 0.31265 0.104234
625600 60.2772 171.546 55.8093 0.31275 0.0999571
625800 60.2772 171.559 55.8093 0.31285 0.07761
626000 60.2772 171.572 55.8093 0.31295 0.055036
626200 60.2772 171.585 55.8093 0.31305 0.0507178
626400 60.2772 171.598 55.8093 0.31315 0.0804683
626600 60.2772 171.611 55.8093 0.31325 0.0746907
626800 60.2772 171.624 55.8093 0.31335 0.125878
627000 60.2772 171.637 55.8093 0.31345 0.113152
627200 60.2772 171.65 55.8093 0.31355 0.132889
627400 60.2772 171.663 55.8093 0.31365 0.161182
627600 60.2772 171.676 55.8093 0.31375 0.171588
627800 60.2772 171.689 55.8093 0.31385 0.177684
628000 60.2772 171.702 55.8093 0.31395 0.208475
628200 60.2772 171.716 55.8093 0.31405 0.199851
628400 60.2772 171.729 55.8093 0.31415 0.190844
628600 60.2772 171.742 55.8093 0.31425 0.185383
628800 60.2772 171.755 55.8093 0.31435 0.156936
629000 60.2772 171.768 55.8093 0.31445 0.131939
629200 60.2772 171.781 55.8093 0.31455 0.115686
629400 60.2772 171.794 55.8093 0.31465 0.098573
629600 60.2772 171.807 55.8093 0.31475 0.0843405
629800 60.2772 171.82 55.8093 0.31485 0.101521
630000 60.2772 171.833 55.8093 0.31495 0.0705673
630200 60.2772 171.846 55.8093 0.31505 0.0631009
630400 60.2772 171.859 55.8093 0.31515 0.098613
630600 60.2772 171.872 55.8093 0.31525 0.093544
630800 60.2772 171.885 55.8093 0.31535 0.118547
631000 60.2772 171.899 55.8093 0.31545 0.117784
631200 60.2772 171.912 55.8093 0.31555 0.165594
631400 60.2772 171.925 55.8093 0.31565 0.173679
631600 60.2772 171.938 55.8093 0.31575 0.200731
631800 60.2772 171.951 55.8093 0.31585 0.204287
632000 60.2772 171.964 55.8093 0.31595 0.197426
632200 60.2772 171.977 55.8093 0.31605 0.207184
632400 60.2772 171.99 55.8093 0.31615 0.203896
632600 60.2772 172.003 55.8093 0.31625 0.186507
632800 60.2772 172.016 55.8093 0.31635 0.167355
633000 60.2772 172.029 55.8093 0.31645 0.146
633200 60.2772 172.042 55.8093 0.31655 0.121406
633400 60.2772 172.055 55.8093 0.31665 0.107234
633600 60.2772 172.068 55.8093 0.31675 0.109093
633800 60.2772 172.081 55.8093 0.31685 0.0873473
634000 60.2772 172.095 55.8093 0.31695 0.0484726
634200 60.2772 172.108 55.8093 0.31705 0.095438
634400 60.2772 172.121 55.8093 0.31715 0.0716745
634600 60.2772 172.134 55.8093 0.31725 0.114436
634800 60.2772 172.147 55.8093 0.31735 0.131221
635000 60.2772 172.16 55.8093 0.31745 0.160865
635200 60.2772 172.173 55.8093 0.31755 0.164772
635400 60.2772 172.186 55.8093 0.31765 0.180532
635600 60.2772 172.199 55.8093 0.31775 0.200178
635800 60.2772 172.212 55.8093 0.31785 0.213349
636000 60.2772 172.225 55.8093 0.31795 0.224529
636200 60.2772 172.238 55.8093 0.31805 0.232464
636400 60.2772 172.251 55.8093 0.31815 0.20414
636600 60.2772 172.264 55.8093 0.31825 0.187891
636800 60.2772 172.277 55.8093 0.31835 0.162087
637000 60.2772 172.291 55.8093 0.31845 0.125006
637200 60.2772 172.304 55.8093 0.31855 0.130452
637400 60.2772 172.317 55.8093 0.31865 0.110735
637600 60.2772 172.33 55.8093 0.31875 0.101406
637800 60.2772 172.343 55.8093 0.31885 0.0914696
638000 60.2772 172.356 55.8093 0.31895 0.0851698
638200 60.2772 172.369 55.8093 0.31905 0.0719248
638400 60.2772 172.382 55.8093 0.31915 0.0987678
638600 60.2772 172.395 55.8093 0.31925 0.121749
638800 60.2772 172.408 55.8093 0.31935 0.175922
639000 60.2772 172.421 55.8093 0.31945 0.210629
639200 60.2772 172.434 55.8093 0.31955 0.181117
639400 60.2772 172.447 55.8093 0.31965 0.192628
639600 60.2772 172.46 55.8093 0.31975 0.218626
639800 60.2772 172.473 55.8093 0.31985 0.231175
640000 60.2772 172.487 55.8093 0.31995 0.233658
640200 60.2772 172.5 55.8093 0.32005 0.212155
640400 60.2772 172.513 55.8093 0.32015 0.215939
640600 60.2772 172.526 55.8093 0.32025 0.187978
640800 60.2772 172.539 55.8093 0.32035 0.148151
641000 60.2772 172.552 55.8093 0.32045 0.12596
641200 60.2772 172.565 55.8093 0.32055 0.115328
641400 60.2772 172.578 55.8093 0.32065 0.100406
641600 60.2772 172.591 55.8093 0.32075 0.0902246
641800 60.2772 172.604 55.8093 0.32085 0.0981586
642000 60.2772 172.617 55.8093 0.32095 0.0812849
642200 60.2772 172.63 55.8093 0.32105 0.111763
642400 60.2772 172.643 55.8093 0.32115 0.115397
642600 60.2772 172.656 55.8093 0.32125 0.146529
642800 60.2772 172.669 55.8093 0.32135 0.167114
643000 60.2772 172.683 55.8093 0.32145 0.199427
643200 60.2772 172.696 55.8093 0.32155 0.224132
643400 60.2772 172.709 55.8093 0.32165 0.224653
643600 60.2772 172.722 55.8093 0.32175 0.238264
643800 60.2772 172.735 55.8093 0.32185 0.240815
644000 60.2772 172.748 55.8093 0.32195 0.241125
644200 60.2772 172.761 55.8093 0.32205 0.212187
644400 60.2772 172.774 55.8093 0.32215 0.220362
644600 60.2772 172.787 55.8093 0.32225 0.179421
644800 60.2772 172.8 55.8093 0.32235 0.137793
645000 60.2772 172.813 55.8093 0.32245 0.137816
645200 60.2772 172.826 55.8093 0.32255 0.0733391
645400 60.2772 172.839 55.8093 0.32265 0.106886
645600 60.2772 172.852 55.8093 0.32275 0.10021
645800 60.2772 172.866 55.8093 0.32285 0.12464
646000 60.2772 172.879 55.8093 0.32295 0.116599
646200 60.2772 172.892 55.8093 0.32305 0.128786
646400 60.2772 172.905 55.8093 0.32315 0.132309
646600 60.2772 172.918 55.8093 0.32325 0.192086
646800 60.2772 172.931 55.8093 0.32335 0.193026
647000 60.2772 172.944 55.8093 0.32345 0.196031
647200 60.2772 172.957 55.8093 0.32355 0.25521
647400 60.2772 172.97 55.8093 0.32365 0.25934
647600 60.2772 172.983 55.8093 0.32375 0.227204
647800 60.2772 172.996 55.8093 0.32385 0.230007
648000 60.2772 173.009 55.8093 0.32395 0.205673
648200 60.2772 173.022 55.8093 0.32405 0.206723
648400 60.2772 173.035 55.8093 0.32415 0.191923
648600 60.2772 173.048 55.8093 0.32425 0.169961
648800 60.2772 173.062 55.8093 0.32435 0.163777
649000 60.2772 173.075 55.8093 0.32445 0.110286
649200 60.2772 173.088 55.8093 0.32455 0.110914
649400 60.2772 173.101 55.8093 0.32465 0.115773
649600 60.2772 173.114 55.8093 0.32475 0.0989087
649800 60.2772 173.127 55.8093 0.32485 0.117511
650000 60.2772 173.14 55.8093 0.32495 0.111839
650200 60.2772 173.153 55.8093 0.32505 0.180524
650400 60.2772 173.166 55.8093 0.32515 0.190748
650600 60.2772 173.179 55.8093 0.32525 0.184663
650800 60.2772 173.192 55.8093 0.32535 0.194866
651000 60.2772 173.205 55.8093 0.32545 0.23235
651200 60.2772 173.218 55.8093 0.32555 0.234679
651400 60.2772 173.231 55.8093 0.32565 0.264766
651600 60.2772 173.244 55.8093 0.32575 0.255594
651800 60.2772 173.258 55.8093 0.32585 0.249901
652000 60.2772 173.271 55.8093 0.32595 0.239386
652200 60.2772 173.284 55.8093 0.32605 0.204339
652400 60.2772 173.297 55.8093 0.32615 0.165582
652600 60.2772 173.31 55.8093 0.32625 0.147078
652800 60.2772 173.323 55.8093 0.32635 0.132636
653000 60.2772 173.336 55.8093 0.32645 0.134578
653200 60.2772 173.349 55.8093 0.32655 0.113343
653400 60.2772 173.362 55.8093 0.32665 0.0730893
653600 60.2772 173.375 55.8093 0.32675 0.11838
653800 60.2772 173.388 55.8093 0.32685 0.0818235
654000 60.2772 173.401 55.8093 0.32695 0.0927447
654200 60.2772 173.414 55.8093 0.32705 0.141143
654400 60.2772 173.427 55.8093 0.32715 0.133761
654600 60.2772 173.44 55.8093 0.32725 0.150794
654800 60.2772 173.454 55.8093 0.32735 0.195584
655000 60.2772 173.467 55.8093 0.32745 0.203826
655200 60.2772 173.48 55.8093 0.32755 0.214946
655400 60.2772 173.493 55.8093 0.32765 0.209853
655600 60.2772 173.506 55.8093 0.32775 0.213019
655800 60.2772 173.519 55.8093 0.32785 0.241357
656000 60.2772 173.532 55.8093 0.32795 0.204562
656200 60.2772 173.545 55.8093 0.32805 0.196581
656400 60.2772 173.558 55.8093 0.32815 0.158092
656600 60.2772 173.571 55.8093 0.32825 0.169767
656800 60.2772 173.584 55.8093 0.32835 0.138443
657000 60.2772 173.597 55.8093 0.32845 0.103556
657200 60.2772 173.61 55.8093 0.32855 0.0858787
657400 60.2772 173.623 55.8093 0.32865 0.112723
657600 60.2772 173.637 55.8093 0.32875 0.115322
657800 60.2772 173.65 55.8093 0.32885 0.103076
658000 60.2772 173.663 55.8093 0.32895 0.120887
658200 60.2772 173.676 55.8093 0.32905 0.145787
658400 60.2772 173.689 55.8093 0.32915 0.155567
658600 60.2772 173.702 55.8093 0.32925 0.190664
658800 60.2772 173.715 55.8093 0.32935 0.18823
659000 60.2772 173.728 55.8093 0.32945 0.23237
659200 60.2772 173.741 55.8093 0.32955 0.241803
659400 60.2772 173.754 55.8093 0.32965 0.2279
659600 60.2772 173.767 55.8093 0.32975 0.20742
659800 60.2772 173.78 55.8093 0.32985 0.221103
660000 60.2772 173.793 55.8093 0.32995 0.21212
660200 60.2772 173.806 55.8093 0.33005 0.196564
660400 60.2772 173.819 55.8093 0.33015 0.164865
660600 60.2772 173.833 55.8093 0.33025 0.148047
660800 60.2772 173.846 55.8093 0.33035 0.141809
661000 60.2772 173.859 55.8093 0.33045 0.105075
661200 60.2772 173.872 55.8093 0.33055 0.0897831
661400 60.2772 173.885 55.8093 0.33065 0.0964525
661600 60.2772 173.898 55.8093 0.33075 0.108867
661800 60.2772 173.911 55.8093 0.33085 0.134646
662000 60.2772 173.924 55.8093 0.33095 0.140315
662200 60.2772 173.937 55.8093 0.33105 0.168793
662400 60.2772 173.95 55.8093 0.33115 0.171759
662600 60.2772 173.963 55.8093 0.33125 0.199447
662800 60.2772 173.976 55.8093 0.33135 0.2068
663000 60.2772 173.989 55.8093 0.33145 0.230936
663200 60.2772 174.002 55.8093 0.33155 0.267585
663400 60.2772 174.015 55.8093 0.33165 0.256597
663600 60.2772 174.029 55.8093 0.33175 0.195794
663800 60.2772 174.042 55.8093 0.33185 0.220399
664000 60.2772 174.055 55.8093 0.33195 0.198024
664200 60.2772 174.068 55.8093 0.33205 0.19504
664400 60.2772 174.081 55.8093 0.33215 0.187332
664600 60.2772 174.094 55.8093 0.33225 0.121294
664800 60.2772 174.107 55.8093 0.33235 0.129534
665000 60.2772 174.12 55.8093 0.33245 0.131257
665200 60.2772 174.133 55.8093 0.33255 0.124107
665400 60.2772 174.146 55.8093 0.33265 0.100478
665600 60.2772 174.159 55.8093 0.33275 0.119536
665800 60.2772 174.172 55.8093 0.33285 0.165423
666000 60.2772 174.185 55.8093 0.33295 0.175016
666200 60.2772 174.198 55.8093 0.33305 0.156585
666400 60.2772 174.211 55.8093 0.33315 0.208331
666600 60.2772 174.225 55.8093 0.33325 0.22486
666800 60.2772 174.238 55.8093 0.33335 0.225865
667000 60.2772 174.251 55.8093 0.33345 0.232575
667200 60.2772 174.264 55.8093 0.33355 0.23801
667400 60.2772 174.277 55.8093 0.33365 0.241588
667600 60.2772 174.29 55.8093 0.33375 0.235888
667800 60.2772 174.303 55.8093 0.33385 0.204502
668000 60.2772 174.316 55.8093 0.33395 0.191722
668200 60.2772 174.329 55.8093 0.33405 0.179041
668400 60.2772 174.342 55.8093 0.33415 0.159552
668600 60.2772 174.355 55.8093 0.33425 0.129968
668800 60.2772 174.368 55.8093 0.33435 0.152548
669000 60.2772 174.381 55.8093 0.33445 0.145128
669200 60.2772 174.394 55.8093 0.33455 0.128872
669400 60.2772 174.407 55.8093 0.33465 0.115348
669600 60.2772 174.421 55.8093 0.33475 0.153071
669800 60.2772 174.434 55.8093 0.33485 0.159085
670000 60.2772 174.447 55.8093 0.33495 0.182919
670200 60.2772 174.46 55.8093 0.33505 0.186938
670400 60.2772 174.473 55.8093 0.33515 0.232598
670600 60.2772 174.486 55.8093 0.33525 0.243073
670800 60.2772 174.499 55.8093 0.33535 0.248411
671000 60.2772 174.512 55.8093 0.33545 0.231327
671200 60.2772 174.525 55.8093 0.33555 0.242987
671400 60.2772 174.538 55.8093 0.33565 0.240206
671600 60.2772 174.551 55.8093 0.33575 0.237755
671800 60.2772 174.564 55.8093 0.33585 0.227231
672000 60.2772 174.577 55.8093 0.33595 0.184877
672200 60.2772 174.59 55.8093 0.33605 0.190275
672400 60.2772 174.604 55.8093 0.33615 0.161678
672600 60.2772 174.617 55.8093 0.33625 0.139722
672800 60.2772 174.63 55.8093 0.33635 0.136285
673000 60.2772 174.643 55.8093 0.33645 0.138541
673200 60.2772 174.656 55.8093 0.33655 0.140369
673400 60.2772 174.669 55.8093 0.33665 0.164725
673600 60.2772 174.682 55.8093 0.33675 0.139921
673800 60.2772 174.695 55.8093 0.33685 0.188345
674000 60.2772 174.708 55.8093 0.33695 0.156104
674200 60.2772 174.721 55.8093 0.33705 0.217948
674400 60.2772 174.734 55.8093 0.33715 0.228523
674600 60.2772 174.747 55.8093 0.33725 0.256657
674800 60.2772 174.76 55.8093 0.33735 0.261917
675000 60.2772 174.773 55.8093 0.33745 0.254016
675200 60.2772 174.786 55.8093 0.33755 0.234314
675400 60.2772 174.8 55.8093 0.33765 0.250337
675600 60.2772 174.813 55.8093 0.33775 0.230591
675800 60.2772 174.826 55.8093 0.33785 0.206893
676000 60.2772 174.839 55.8093 0.33795 0.187611
676200 60.2772 174.852 55.8093 0.33805 0.184393
676400 60.2772 174.865 55.8093 0.33815 0.167324
676600 60.2772 174.878 55.8093 0.33825 0.15371
676800 60.2772 174.891 55.8093 0.33835 0.131207
677000 60.2772 174.904 55.8093 0.33845 0.137281
677200 60.2772 174.917 55.8093 0.33855 0.173645
677400 60.2772 174.93 55.8093 0.33865 0.178091
677600 60.2772 174.943 55.8093 0.33875 0.164228
677800 60.2772 174.956 55.8093 0.33885 0.202157
678000 60.2772 174.969 55.8093 0.33895 0.203806
678200 60.2772 174.982 55.8093 0.33905 0.25025
678400 60.2772 174.996 55.8093 0.33915 0.25388
678600 60.2772 175.009 55.8093 0.33925 0.260797
678800 60.2772 175.022 55.8093 0.33935 0.247036
679000 60.2772 175.035 55.8093 0.33945 0.256641
679200 60.2772 175.048 55.8093 0.33955 0.269263
679400 60.2772 175.061 55.8093 0.33965 0.239841
679600 60.2772 175.074 55.8093 0.33975 0.233889
679800 60.2772 175.087 55.8093 0.33985 0.199412
680000 60.2772 175.1 55.8093 0.33995 0.180457
680200 60.2772 175.113 55.8093 0.34005 0.189604
680400 60.2772 175.126 55.8093 0.34015 0.147132
680600 60.2772 175.139 55.8093 0.34025 0.158672
680800 60.2772 175.152 55.8093 0.34035 0.143814
681000 60.2772 175.165 55.8093 0.34045 0.143621
681200 60.2772 175.178 55.8093 0.34055 0.169075
681400 60.2772 175.192 55.8093 0.34065 0.169065
681600 60.2772 175.205 55.8093 0.34075 0.205937
681800 60.2772 175.218 55.8093 0.34085 0.220384
682000 60.2772 175.231 55.8093 0.34095 0.202272
682200 60.2772 175.244 55.8093 0.34105 0.267615
682400 60.2772 175.257 55.8093 0.34115 0.268096
682600 60.2772 175.27 55.8093 0.34125 0.267291
682800 60.2772 175.283 55.8093 0.34135 0.281663
683000 60.2772 175.296 55.8093 0.34145 0.281969
683200 60.2772 175.309 55.8093 0.34155 0.26174
683400 60.2772 175.322 55.8093 0.34165 0.230508
683600 60.2772 175.335 55.8093 0.34175 0.202459
683800 60.2772 175.348 55.8093 0.34185 0.195092
684000 60.2772 175.361 55.8093 0.34195 0.195447
684200 60.2772 175.375 55.8093 0.34205 0.180659
684400 60.2772 175.388 55.8093 0.34215 0.163797
684600 60.2772 175.401 55.8093 0.34225 0.176197
684800 60.2772 175.414 55.8093 0.34235 0.160415
685000 60.2772 175.427 55.8093 0.34245 0.151316
685200 60.2772 175.44 55.8093 0.34255 0.164965
685400 60.2772 175.453 55.8093 0.34265 0.212713
685600 60.2772 175.466 55.8093 0.34275 0.237324
685800 60.2772 175.479 55.8093 0.34285 0.253405
686000 60.2772 175.492 55.8093 0.34295 0.250406
686200 60.2772 175.505 55.8093 0.34305 0.245771
686400 60.2772 175.518 55.8093 0.34315 0.265194
686600 60.2772 175.531 55.8093 0.34325 0.25745
686800 60.2772 175.544 55.8093 0.34335 0.272234
687000 60.2772 175.557 55.8093 0.34345 0.272188
687200 60.2772 175.571 55.8093 0.34355 0.263211
687400 60.2772 175.584 55.8093 0.34365 0.217494
687600 60.2772 175.597 55.8093 0.34375 0.209823
687800 60.2772 175.61 55.8093 0.34385 0.208035
688000 60.2772 175.623 55.8093 0.34395 0.178951
688200 60.2772 175.636 55.8093 0.34405 0.167077
688400 60.2772 175.649 55.8093 0.34415 0.184151
688600 60.2772 175.662 55.8093 0.34425 0.177744
688800 60.2772 175.675 55.8093 0.34435 0.179435
689000 60.2772 175.688 55.8093 0.34445 0.180382
689200 60.2772 175.701 55.8093 0.34455 0.188528
689400 60.2772 175.714 55.8093 0.34465 0.217467
689600 60.2772 175.727 55.8093 0.34475 0.213643
689800 60.2772 175.74 55.8093 0.34485 0.247835
690000 60.2772 175.753 55.8093 0.34495 0.255936
690200 60.2772 175.767 55.8093 0.34505 0.263119
690400 60.2772 175.78 55.8093 0.34515 0.26939
690600 60.2772 175.793 55.8093 0.34525 0.266633
690800 60.2772 175.806 55.8093 0.34535 0.279437
691000 60.2772 175.819 55.8093 0.34545 0.258596
691200 60.2772 175.832 55.8093 0.34555 0.246216
691400 60.2772 175.845 55.8093 0.34565 0.237533
691600 60.2772 175.858 55.8093 0.34575 0.217402
691800 60.2772 175.871 55.8093 0.34585 0.2185
692000 60.2772 175.884 55.8093 0.34595 0.20338
692200 60.2772 175.897 55.8093 0.34605 0.186772
692400 60.2772 175.91 55.8093 0.34615 0.197552
692600 60.2772 175.923 55.8093 0.34625 0.185537
692800 60.2772 175.936 55.8093 0.34635 0.187609
693000 60.2772 175.949 55.8093 0.34645 0.177643
693200 60.2772 175.963 55.8093 0.34655 0.20619
693400 60.2772 175.976 55.8093 0.34665 0.232791
693600 60.2772 175.989 55.8093 0.34675 0.238163
693800 60.2772 176.002 55.8093 0.34685 0.237455
694000 60.2772 176.015 55.8093 0.34695 0.249244
694200 60.2772 176.028 55.8093 0.34705 0.27523
694400 60.2772 176.041 55.8093 0.34715 0.269517
694600 60.2772 176.054 55.8093 0.34725 0.272813
694800 60.2772 176.067 55.8093 0.34735 0.285642
695000 60.2772 176.08 55.8093 0.34745 0.254226
695200 60.2772 176.093 55.8093 0.34755 0.263968
695400 60.2772 176.106 55.8093 0.34765 0.249339
695600 60.2772 176.119 55.8093 0.34775 0.208212
695800 60.2772 176.132 55.8093 0.34785 0.225779
696000 60.2772 176.145 55.8093 0.34795 0.209019
696200 60.2772 176.159 55.8093 0.34805 0.190758
696400 60.2772 176.172 55.8093 0.34815 0.18699
696600 60.2772 176.185 55.8093 0.34825 0.19888
696800 60.2772 176.198 55.8093 0.34835 0.201768
697000 60.2772 176.211 55.8093 0.34845 0.203505
697200 60.2772 176.224 55.8093 0.34855 0.211923
697400 60.2772 176.237 55.8093 0.34865 0.229796
697600 60.2772 176.25 55.8093 0.34875 0.233718
697800 60.2772 176.263 55.8093 0.34885 0.243697
698000 60.2772 176.276 55.8093 0.34895 0.27011
698200 60.2772 176.289 55.8093 0.34905 0.284177
698400 60.2772 176.302 55.8093 0.34915 0.296757
698600 60.2772 176.315 55.8093 0.34925 0.282327
698800 60.2772 176.328 55.8093 0.34935 0.292084
699000 60.2772 176.342 55.8093 0.34945 0.276381
699200 60.2772 176.355 55.8093 0.34955 0.25461
699400 60.2772 176.368 55.8093 0.34965 0.23537
699600 60.2772 176.381 55.8093 0.34975 0.226801
699800 60.2772 176.394 55.8093 0.34985 0.230361
700000 60.2772 176.407 55.8093 0.34995 0.213851
700200 60.2772 176.42 55.8093 0.35005 0.150043
700400 60.2772 176.433 55.8093 0.35015 0.117044
700600 60.2772 176.446 55.8093 0.35025 0.0895461
700800 60.2772 176.459 55.8093 0.35035 0.0195506
701000 60.2772 176.472 55.8093 0.35045 0.0229957
701200 60.2772 176.485 55.8093 0.35055 -0.0332296
701400 60.2772 176.498 55.8093 0.35065 -0.0696634
701600 60.2772 176.511 55.8093 0.35075 -0.0627834
701800 60.2772 176.524 55.8093 0.35085 -0.123976
702000 60.2772 176.538 55.8093 0.35095 -0.138794
702200 60.2772 176.551 55.8093 0.35105 -0.119544
702400 60.2772 176.564 55.8093 0.35115 -0.128326
702600 60.2772 176.577 55.8093 0.35125 -0.104707
702800 60.2772 176.59 55.8093 0.35135 -0.0810289
703000 60.2772 176.603 55.8093 0.35145 -0.0273661
703200 60.2772 176.616 55.8093 0.35155 0.0166238
703400 60.2772 176.629 55.8093 0.35165 0.0603791
703600 60.2772 176.642 55.8093 0.35175 0.13036
703800 60.2772 176.655 55.8093 0.35185 0.11889
704000 60.2772 176.668 55.8093 0.35195 0.123115
704200 60.2772 176.681 55.8093 0.35205 0.136242
704400 60.2772 176.694 55.8093 0.35215 0.14169
704600 60.2772 176.707 55.8093 0.35225 0.0969986
704800 60.2772 176.72 55.8093 0.35235 0.09121
705000 60.2772 176.734 55.8093 0.35245 0.0362943
705200 60.2772 176.747 55.8093 0.35255 -0.0302806
705400 60.2772 176.76 55.8093 0.35265 -0.0596661
705600 60.2772 176.773 55.8093 0.35275 -0.102582
705800 60.2772 176.786 55.8093 0.35285 -0.110147
706000 60.2772 176.799 55.8093 0.35295 -0.132858
706200 60.2772 176.812 55.8093 0.35305 -0.143603
706400 60.2772 176.825 55.8093 0.35315 -0.117894
706600 60.2772 176.838 55.8093 0.35325 -0.110192
706800 60.2772 176.851 55.8093 0.35335 -0.0666706
707000 60.2772 176.864 55.8093 0.35345 -0.017956
707200 60.2772 176.877 55.8093 0.35355 -0.00389593
707400 60.2772 176.89 55.8093 0.35365 0.053545
707600 60.2772 176.903 55.8093 0.35375 0.0989546
707800 60.2772 176.916 55.8093 0.35385 0.113148
708000 60.2772 176.93 55.8093 0.35395 0.125304
708200 60.2772 176.943 55.8093 0.35405 0.142044
708400 60.2772 176.956 55.8093 0.35415 0.131815
708600 60.2772 176.969 55.8093 0.35425 0.0872844
708800 60.2772 176.982 55.8093 0.35435 0.0864855
709000 60.2772 176.995 55.8093 0.35445 0.0149598
709200 60.2772 177.008 55.8093 0.35455 -0.00699045
709400 60.2772 177.021 55.8093 0.35465 -0.0347298
709600 60.2772 177.034 55.8093 0.35475 -0.0815462
709800 60.2772 177.047 55.8093 0.35485 -0.108445
710000 60.2772 177.06 55.8093 0.35495 -0.126455
710200 60.2772 177.073 55.8093 0.35505 -0.131983
710400 60.2772 177.086 55.8093 0.35515 -0.108749
710600 60.2772 177.099 55.8093 0.35525 -0.0918415
710800 60.2772 177.112 55.8093 0.35535 -0.0713977
711000 60.2772 177.126 55.8093 0.35545 -0.041524
711200 60.2772 177.139 55.8093 0.35555 0.0386015
711400 60.2772 177.152 55.8093 0.35565 0.043677
711600 60.2772 177.165 55.8093 0.35575 0.0567983
711800 60.2772 177.178 55.8093 0.35585 0.101335
712000 60.2772 177.191 55.8093 0.35595 0.122635
712200 60.2772 177.204 55.8093 0.35605 0.125888
712400 60.2772 177.217 55.8093 0.35615 0.13202
712600 60.2772 177.23 55.8093 0.35625 0.0885711
712800 60.2772 177.243 55.8093 0.35635 0.0725516
713000 60.2772 177.256 55.8093 0.35645 0.0479779
713200 60.2772 177.269 55.8093 0.35655 -0.0261339
713400 60.2772 177.282 55.8093 0.35665 -0.0362663
713600 60.2772 177.295 55.8093 0.35675 -0.0600489
713800 60.2772 177.309 55.8093 0.35685 -0.11078
714000 60.2772 177.322 55.8093 0.35695 -0.124753
714200 60.2772 177.335 55.8093 0.35705 -0.108298
714400 60.2772 177.348 55.8093 0.35715 -0.106493
714600 60.2772 177.361 55.8093 0.35725 -0.086232
714800 60.2772 177.374 55.8093 0.35735 -0.0889696
715000 60.2772 177.387 55.8093 0.35745 -0.0410938
715200 60.2772 177.4 55.8093 0.35755 0.00649917
715400 60.2772 177.413 55.8093 0.35765 0.0243976
715600 60.2772 177.426 55.8093 0.35775 0.0812167
715800 60.2772 177.439 55.8093 0.35785 0.112414
716000 60.2772 177.452 55.8093 0.35795 0.112658
716200 60.2772 177.465 55.8093 0.35805 0.116456
716400 60.2772 177.478 55.8093 0.35815 0.125307
716600 60.2772 177.491 55.8093 0.35825 0.103883
716800 60.2772 177.505 55.8093 0.35835 0.0644389
717000 60.2772 177.518 55.8093 0.35845 0.0430516
717200 60.2772 177.531 55.8093 0.35855 0.0131975
717400 60.2772 177.544 55.8093 0.35865 -0.0356212
717600 60.2772 177.557 55.8093 0.35875 -0.0892554
717800 60.2772 177.57 55.8093 0.35885 -0.0929337
718000 60.2772 177.583 55.8093 0.35895 -0.119769
718200 60.2772 177.596 55.8093 0.35905 -0.102845
718400 60.2772 177.609 55.8093 0.35915 -0.108306
718600 60.2772 177.622 55.8093 0.35925 -0.081282
718800 60.2772 177.635 55.8093 0.35935 -0.0720488
719000 60.2772 177.648 55.8093 0.35945 -0.0416276
719200 60.2772 177.661 55.8093 0.35955 -0.0115759
719400 60.2772 177.674 55.8093 0.35965 0.0182233
719600 60.2772 177.687 55.8093 0.35975 0.0741207
719800 60.2772 177.701 55.8093 0.35985 0.120696
720000 60.2772 177.714 55.8093 0.35995 0.11198
720200 60.2772 177.727 55.8093 0.36005 0.122171
720400 60.2772 177.74 55.8093 0.36015 0.108813
720600 60.2772 177.753 55.8093 0.36025 0.0794317
720800 60.2772 177.766 55.8093 0.36035 0.0720915
721000 60.2772 177.779 55.8093 0.36045 0.0272353
721200 60.2772 177.792 55.8093 0.36055 0.011262
721400 60.2772 177.805 55.8093 0.36065 -0.0171976
721600 60.2772 177.818 55.8093 0.36075 -0.0622463
721800 60.2772 177.831 55.8093 0.36085 -0.101756
722000 60.2772 177.844 55.8093 0.36095 -0.108974
722200 60.2772 177.857 55.8093 0.36105 -0.102998
722400 60.2772 177.87 55.8093 0.36115 -0.111113
722600 60.2772 177.883 55.8093 0.36125 -0.0955326
722800 60.2772 177.897 55.8093 0.36135 -0.0695928
723000 60.2772 177.91 55.8093 0.36145 -0.0395604
723200 60.2772 177.923 55.8093 0.36155 -0.000129828
723400 60.2772 177.936 55.8093 0.36165 0.0169012
723600 60.2772 177.949 55.8093 0.36175 0.0678503
723800 60.2772 177.962 55.8093 0.36185 0.0775445
724000 60.2772 177.975 55.8093 0.36195 0.108264
724200 60.2772 177.988 55.8093 0.36205 0.0999886
724400 60.2772 178.001 55.8093 0.36215 0.13958
724600 60.2772 178.014 55.8093 0.36225 0.119783
724800 60.2772 178.027 55.8093 0.36235 0.0755654
725000 60.2772 178.04 55.8093 0.36245 0.0470159
725200 60.2772 178.053 55.8093 0.36255 0.0101966
725400 60.2772 178.066 55.8093 0.36265 -0.0434846
725600 60.2772 178.08 55.8093 0.36275 -0.0538845
725800 60.2772 178.093 55.8093 0.36285 -0.0746442
726000 60.2772 178.106 55.8093 0.36295 -0.115817
726200 60.2772 178.119 55.8093 0.36305 -0.104321
726400 60.2772 178.132 55.8093 0.36315 -0.11613
726600 60.2772 178.145 55.8093 0.36325 -0.108718
726800 60.2772 178.158 55.8093 0.36335 -0.0860301
727000 60.2772 178.171 55.8093 0.36345 -0.0434414
727200 60.2772 178.184 55.8093 0.36355 -0.00650391
727400 60.2772 178.197 55.8093 0.36365 0.0210244
727600 60.2772 178.21 55.8093 0.36375 0.0551292
727800 60.2772 178.223 55.8093 0.36385 0.108166
728000 60.2772 178.236 55.8093 0.36395 0.112789
728200 60.2772 178.249 55.8093 0.36405 0.12534
728400 60.2772 178.262 55.8093 0.36415 0.104647
728600 60.2772 178.276 55.8093 0.36425 0.0933196
728800 60.2772 178.289 55.8093 0.36435 0.0853834
729000 60.2772 178.302 55.8093 0.36445 0.0480523
729200 60.2772 178.315 55.8093 0.36455 -0.00853447
729400 60.2772 178.328 55.8093 0.36465 -0.015474
729600 60.2772 178.341 55.8093 0.36475 -0.0458153
729800 60.2772 178.354 55.8093 0.36485 -0.0986841
730000 60.2772 178.367 55.8093 0.36495 -0.118998
730200 60.2772 178.38 55.8093 0.36505 -0.10367
730400 60.2772 178.393 55.8093 0.36515 -0.117063
730600 60.2772 178.406 55.8093 0.36525 -0.0894286
730800 60.2772 178.419 55.8093 0.36535 -0.0543118
731000 60.2772 178.432 55.8093 0.36545 -0.0568041
731200 60.2772 178.445 55.8093 0.36555 -0.0198085
731400 60.2772 178.458 55.8093 0.36565 0.039993
731600 60.2772 178.472 55.8093 0.36575 0.0471278
731800 60.2772 178.485 55.8093 0.36585 0.107851
732000 60.2772 178.498 55.8093 0.36595 0.103899
732200 60.2772 178.511 55.8093 0.36605 0.111477
732400 60.2772 178.524 55.8093 0.36615 0.132907
732600 60.2772 178.537 55.8093 0.36625 0.0951476
732800 60.2772 178.55 55.8093 0.36635 0.0599128
733000 60.2772 178.563 55.8093 0.36645 0.0461119
733200 60.2772 178.576 55.8093 0.36655 0.00666217
733400 60.2772 178.589 55.8093 0.36665 -0.0423606
733600 60.2772 178.602 55.8093 0.36675 -0.0510468
733800 60.2772 178.615 55.8093 0.36685 -0.0948484
734000 60.2772 178.628 55.8093 0.36695 -0.0884606
734200 60.2772 178.641 55.8093 0.36705 -0.100982
734400 60.2772 178.654 55.8093 0.36715 -0.113712
734600 60.2772 178.668 55.8093 0.36725 -0.0953737
734800 60.2772 178.681 55.8093 0.36735 -0.0648493
735000 60.2772 178.694 55.8093 0.36745 -0.0383051
735200 60.2772 178.707 55.8093 0.36755 -0.0210225
735400 60.2772 178.72 55.8093 0.36765 0.0500428
735600 60.2772 178.733 55.8093 0.36775 0.0773033
735800 60.2772 178.746 55.8093 0.36785 0.0777578
736000 60.2772 178.759 55.8093 0.36795 0.0777489
736200 60.2772 178.772 55.8093 0.36805 0.118533
736400 60.2772 178.785 55.8093 0.36815 0.0995007
736600 60.2772 178.798 55.8093 0.36825 0.0731179
736800 60.2772 178.811 55.8093 0.36835 0.0826691
737000 60.2772 178.824 55.8093 0.36845 0.0597209
737200 60.2772 178.837 55.8093 0.36855 0.00118078
737400 60.2772 178.85 55.8093 0.36865 -0.0349251
737600 60.2772 178.864 55.8093 0.36875 -0.0637682
737800 60.2772 178.877 55.8093 0.36885 -0.0734246
738000 60.2772 178.89 55.8093 0.36895 -0.0910834
738200 60.2772 178.903 55.8093 0.36905 -0.0942876
738400 60.2772 178.916 55.8093 0.36915 -0.100532
738600 60.2772 178.929 55.8093 0.36925 -0.0958874
738800 60.2772 178.942 55.8093 0.36935 -0.0668058
739000 60.2772 178.955 55.8093 0.36945 -0.0309095
739200 60.2772 178.968 55.8093 0.36955 -0.0235896
739400 60.2772 178.981 55.8093 0.36965 0.0302785
739600 60.2772 178.994 55.8093 0.36975 0.0448733
739800 60.2772 179.007 55.8093 0.36985 0.0891276
740000 60.2772 179.02 55.8093 0.36995 0.101054
740200 60.2772 179.033 55.8093 0.37005 0.103801
740400 60.2772 179.047 55.8093 0.37015 0.103845
740600 60.2772 179.06 55.8093 0.37025 0.0883053
740800 60.2772 179.073 55.8093 0.37035 0.0821352
741000 60.2772 179.086 55.8093 0.37045 0.046937
741200 60.2772 179.099 55.8093 0.37055 -0.00804667
741400 60.2772 179.112 55.8093 0.37065 -0.0177823
741600 60.2772 179.125 55.8093 0.37075 -0.0344275
741800 60.2772 179.138 55.8093 0.37085 -0.095556
742000 60.2772 179.151 55.8093 0.37095 -0.0927368
742200 60.2772 179.164 55.8093 0.37105 -0.0880066
742400 60.2772 179.177 55.8093 0.37115 -0.0978465
742600 60.2772 179.19 55.8093 0.37125 -0.103435
742800 60.2772 179.203 55.8093 0.37135 -0.0552399
743000 60.2772 179.216 55.8093 0.37145 -0.0373207
743200 60.2772 179.229 55.8093 0.37155 -0.0296474
743400 60.2772 179.243 55.8093 0.37165 0.00870049
743600 60.2772 179.256 55.8093 0.37175 0.0549131
743800 60.2772 179.269 55.8093 0.37185 0.0899451
744000 60.2772 179.282 55.8093 0.37195 0.0893307
744200 60.2772 179.295 55.8093 0.37205 0.0977017
744400 60.2772 179.308 55.8093 0.37215 0.0938716
744600 60.2772 179.321 55.8093 0.37225 0.0976971
744800 60.2772 179.334 55.8093 0.37235 0.0770684
745000 60.2772 179.347 55.8093 0.37245 0.0426738
745200 60.2772 179.36 55.8093 0.37255 0.0352124
745400 60.2772 179.373 55.8093 0.37265 -0.00906458
745600 60.2772 179.386 55.8093 0.37275 -0.037738
745800 60.2772 179.399 55.8093 0.37285 -0.0844817
746000 60.2772 179.412 55.8093 0.37295 -0.0829057
746200 60.2772 179.425 55.8093 0.37305 -0.0800361
746400 60.2772 179.439 55.8093 0.37315 -0.0877981
746600 60.2772 179.452 55.8093 0.37325 -0.107798
746800 60.2772 179.465 55.8093 0.37335 -0.0763852
747000 60.2772 179.478 55.8093 0.37345 -0.0622643
747200 60.2772 179.491 55.8093 0.37355 -0.0316833
747400 60.2772 179.504 55.8093 0.37365 0.0152916
747600 60.2772 179.517 55.8093 0.37375 0.0489105
747800 60.2772 179.53 55.8093 0.37385 0.0656598
748000 60.2772 179.543 55.8093 0.37395 0.0895002
748200 60.2772 179.556 55.8093 0.37405 0.0908951
748400 60.2772 179.569 55.8093 0.37415 0.105531
748600 60.2772 179.582 55.8093 0.37425 0.0859688
748800 60.2772 179.595 55.8093 0.37435 0.0914072
749000 60.2772 179.608 55.8093 0.37445 0.0632171
749200 60.2772 179.621 55.8093 0.37455 0.0208991
749400 60.2772 179.635 55.8093 0.37465 -0.00333463
749600 60.2772 179.648 55.8093 0.37475 -0.0450191
749800 60.2772 179.661 55.8093 0.37485 -0.0720869
750000 60.2772 179.674 55.8093 0.37495 -0.0838967
750200 60.2772 179.687 55.8093 0.37505 -0.0989101
750400 60.2772 179.7 55.8093 0.37515 -0.106376
750600 60.2772 179.713 55.8093 0.37525 -0.0593965
750800 60.2772 179.726 55.8093 0.37535 -0.0835032
751000 60.2772 179.739 55.8093 0.37545 -0.0570392
751200 60.2772 179.752 55.8093 0.37555 -0.0268619
751400 60.2772 179.765 55.8093 0.37565 -0.00100576
751600 60.2772 179.778 55.8093 0.37575 0.0366009
751800 60.2772 179.791 55.8093 0.37585 0.0851304
752000 60.2772 179.804 55.8093 0.37595 0.0858838
752200 60.2772 179.818 55.8093 0.37605 0.0959376
752400 60.2772 179.831 55.8093 0.37615 0.119285
752600 60.2772 179.844 55.8093 0.37625 0.0728974
752800 60.2772 179.857 55.8093 0.37635 0.0682455
753000 60.2772 179.87 55.8093 0.37645 0.0809454
753200 60.2772 179.883 55.8093 0.37655 0.0367379
753400 60.2772 179.896 55.8093 0.37665 -0.00961926
753600 60.2772 179.909 55.8093 0.37675 -0.0393039
753800 60.2772 179.922 55.8093 0.37685 -0.0588962
754000 60.2772 179.935 55.8093 0.37695 -0.102725
754200 60.2772 179.948 55.8093 0.37705 -0.113792
754400 60.2772 179.961 55.8093 0.37715 -0.099466
754600 60.2772 179.974 55.8093 0.37725 -0.0942546
754800 60.2772 179.987 55.8093 0.37735 -0.0623411
755000 60.2772 180 55.8093 0.37745 -0.0612306
755200 60.2772 180.014 55.8093 0.37755 -0.0389089
755400 60.2772 180.027 55.8093 0.37765 -0.000762389
755600 60.2772 180.04 55.8093 0.37775 0.0684848
755800 60.2772 180.053 55.8093 0.37785 0.0554236
756000 60.2772 180.066 55.8093 0.37795 0.108228
756200 60.2772 180.079 55.8093 0.37805 0.10235
756400 60.2772 180.092 55.8093 0.37815 0.101025
756600 60.2772 180.105 55.8093 0.37825 0.110123
756800 60.2772 180.118 55.8093 0.37835 0.0726937
757000 60.2772 180.131 55.8093 0.37845 0.0425677
757200 60.2772 180.144 55.8093 0.37855 0.0178986
757400 60.2772 180.157 55.8093 0.37865 0.0142561
757600 60.2772 180.17 55.8093 0.37875 -0.0332196
757800 60.2772 180.183 55.8093 0.37885 -0.0778207
758000 60.2772 180.196 55.8093 0.37895 -0.0720365
758200 60.2772 180.21 55.8093 0.37905 -0.100749
758400 60.2772 180.223 55.8093 0.37915 -0.114884
758600 60.2772 180.236 55.8093 0.37925 -0.10486
758800 60.2772 180.249 55.8093 0.37935 -0.0755644
759000 60.2772 180.262 55.8093 0.37945 -0.0521347
759200 60.2772 180.275 55.8093 0.37955 -0.00624787
759400 60.2772 180.288 55.8093 0.37965 0.00377213
759600 60.2772 180.301 55.8093 0.37975 0.0433491
759800 60.2772 180.314 55.8093 0.37985 0.0454442
760000 60.2772 180.327 55.8093 0.37995 0.102763
760200 60.2772 180.34 55.8093 0.38005 0.0911495
760400 60.2772 180.353 55.8093 0.38015 0.10793
760600 60.2772 180.366 55.8093 0.38025 0.111523
760800 60.2772 180.379 55.8093 0.38035 0.0862682
761000 60.2772 180.392 55.8093 0.38045 0.0485531
761200 60.2772 180.406 55.8093 0.38055 0.0141079
761400 60.2772 180.419 55.8093 0.38065 -0.014864
761600 60.2772 180.432 55.8093 0.38075 -0.0370519
761800 60.2772 180.445 55.8093 0.38085 -0.054901
762000 60.2772 180.458 55.8093 0.38095 -0.0518652
762200 60.2772 180.471 55.8093 0.38105 -0.101152
762400 60.2772 180.484 55.8093 0.38115 -0.108972
762600 60.2772 180.497 55.8093 0.38125 -0.0962855
762800 60.2772 180.51 55.8093 0.38135 -0.0909769
763000 60.2772 180.523 55.8093 0.38145 -0.0465947
763200 60.2772 180.536 55.8093 0.38155 -0.0122102
763400 60.2772 180.549 55.8093 0.38165 0.00052111
763600 60.2772 180.562 55.8093 0.38175 0.0312414
763800 60.2772 180.575 55.8093 0.38185 0.0494102
764000 60.2772 180.588 55.8093 0.38195 0.0875165
764200 60.2772 180.602 55.8093 0.38205 0.0930611
764400 60.2772 180.615 55.8093 0.38215 0.0847225
764600 60.2772 180.628 55.8093 0.38225 0.125542
764800 60.2772 180.641 55.8093 0.38235 0.0901011
765000 60.2772 180.654 55.8093 0.38245 0.058317
765200 60.2772 180.667 55.8093 0.38255 0.0155598
765400 60.2772 180.68 55.8093 0.38265 -0.0125769
765600 60.2772 180.693 55.8093 0.38275 -0.0339421
765800 60.2772 180.706 55.8093 0.38285 -0.0454571
766000 60.2772 180.719 55.8093 0.38295 -0.0727028
766200 60.2772 180.732 55.8093 0.38305 -0.0784453
766400 60.2772 180.745 55.8093 0.38315 -0.119644
766600 60.2772 180.758 55.8093 0.38325 -0.0998943
766800 60.2772 180.771 55.8093 0.38335 -0.0794473
767000 60.2772 180.785 55.8093 0.38345 -0.0504026
767200 60.2772 180.798 55.8093 0.38355 -0.0175807
767400 60.2772 180.811 55.8093 0.38365 0.00940238
767600 60.2772 180.824 55.8093 0.38375 0.0271385
767800 60.2772 180.837 55.8093 0.38385 0.0440256
768000 60.2772 180.85 55.8093 0.38395 0.0796913
768200 60.2772 180.863 55.8093 0.38405 0.108186
768400 60.2772 180.876 55.8093 0.38415 0.0943641
768600 60.2772 180.889 55.8093 0.38425 0.0920185
768800 60.2772 180.902 55.8093 0.38435 0.0896361
769000 60.2772 180.915 55.8093 0.38445 0.054666
769200 60.2772 180.928 55.8093 0.38455 0.0139821
769400 60.2772 180.941 55.8093 0.38465 -0.00465892
769600 60.2772 180.954 55.8093 0.38475 -0.0177148
769800 60.2772 180.967 55.8093 0.38485 -0.0529157
770000 60.2772 180.981 55.8093 0.38495 -0.0693935
770200 60.2772 180.994 55.8093 0.38505 -0.0835881
770400 60.2772 181.007 55.8093 0.38515 -0.0968485
770600 60.2772 181.02 55.8093 0.38525 -0.0839091
770800 60.2772 181.033 55.8093 0.38535 -0.0630875
771000 60.2772 181.046 55.8093 0.38545 -0.0632734
771200 60.2772 181.059 55.8093 0.38555 -0.0424814
771400 60.2772 181.072 55.8093 0.38565 -8.21627e-05
771600 60.2772 181.085 55.8093 0.38575 0.032473
771800 60.2772 181.098 55.8093 0.38585 0.0290531
772000 60.2772 181.111 55.8093 0.38595 0.0743573
772200 60.2772 181.124 55.8093 0.38605 0.100007
772400 60.2772 181.137 55.8093 0.38615 0.0756996
772600 60.2772 181.15 55.8093 0.38625 0.11056
772800 60.2772 181.163 55.8093 0.38635 0.0672835
773000 60.2772 181.177 55.8093 0.38645 0.0791915
773200 60.2772 181.19 55.8093 0.38655 0.0280309
773400 60.2772 181.203 55.8093 0.38665 -0.00463448
773600 60.2772 181.216 55.8093 0.38675 -0.0167194
773800 60.2772 181.229 55.8093 0.38685 -0.0481541
774000 60.2772 181.242 55.8093 0.38695 -0.0427005
774200 60.2772 181.255 55.8093 0.38705 -0.0790866
774400 60.2772 181.268 55.8093 0.38715 -0.0795309
774600 60.2772 181.281 55.8093 0.38725 -0.082562
774800 60.2772 181.294 55.8093 0.38735 -0.0951247
775000 60.2772 181.307 55.8093 0.38745 -0.0481781
775200 60.2772 181.32 55.8093 0.38755 -0.0267349
775400 60.2772 181.333 55.8093 0.38765 -0.0194707
775600 60.2772 181.346 55.8093 0.38775 0.0190452
775800 60.2772 181.359 55.8093 0.38785 0.0254722
776000 60.2772 181.373 55.8093 0.38795 0.0513374
776200 60.2772 181.386 55.8093 0.38805 0.0778597
776400 60.2772 181.399 55.8093 0.38815 0.0803678
776600 60.2772 181.412 55.8093 0.38825 0.0971191
776800 60.2772 181.425 55.8093 0.38835 0.0727193
777000 60.2772 181.438 55.8093 0.38845 0.0631659
777200 60.2772 181.451 55.8093 0.38855 0.043621
777400 60.2772 181.464 55.8093 0.38865 0.0100895
777600 60.2772 181.477 55.8093 0.38875 0.00254937
777800 60.2772 181.49 55.8093 0.38885 -0.0334136
778000 60.2772 181.503 55.8093 0.38895 -0.0584138
778200 60.2772 181.516 55.8093 0.38905 -0.0574288
778400 60.2772 181.529 55.8093 0.38915 -0.0790211
778600 60.2772 181.542 55.8093 0.38925 -0.0932695
778800 60.2772 181.556 55.8093 0.38935 -0.0705312
779000 60.2772 181.569 55.8093 0.38945 -0.0581023
779200 60.2772 181.582 55.8093 0.38955 -0.0352531
779400 60.2772 181.595 55.8093 0.38965 -0.0138621
779600 60.2772 181.608 55.8093 0.38975 0.00423575
779800 60.2772 181.621 55.8093 0.38985 0.0262791
780000 60.2772 181.634 55.8093 0.38995 0.0470931
780200 60.2772 181.647 55.8093 0.39005 0.0799569
780400 60.2772 181.66 55.8093 0.39015 0.0744821
780600 60.2772 181.673 55.8093 0.39025 0.0850098
780800 60.2772 181.686 55.8093 0.39035 0.0707823
781000 60.2772 181.699 55.8093 0.39045 0.0849342
781200 60.2772 181.712 55.8093 0.39055 0.0286468
781400 60.2772 181.725 55.8093 0.39065 0.0252314
781600 60.2772 181.738 55.8093 0.39075 0.00534987
781800 60.2772 181.752 55.8093 0.39085 -0.0329866
782000 60.2772 181.765 55.8093 0.39095 -0.0590376
782200 60.2772 181.778 55.8093 0.39105 -0.0590442
782400 60.2772 181.791 55.8093 0.39115 -0.0849293
782600 60.2772 181.804 55.8093 0.39125 -0.0689672
782800 60.2772 181.817 55.8093 0.39135 -0.0753787
783000 60.2772 181.83 55.8093 0.39145 -0.0590074
783200 60.2772 181.843 55.8093 0.39155 -0.0348404
783400 60.2772 181.856 55.8093 0.39165 -0.0210815
783600 60.2772 181.869 55.8093 0.39175 -0.0107739
783800 60.2772 181.882 55.8093 0.39185 0.0197586
784000 60.2772 181.895 55.8093 0.39195 0.047519
784200 60.2772 181.908 55.8093 0.39205 0.0728251
784400 60.2772 181.921 55.8093 0.39215 0.0795018
784600 60.2772 181.934 55.8093 0.39225 0.0770481
784800 60.2772 181.948 55.8093 0.39235 0.0720251
785000 60.2772 181.961 55.8093 0.39245 0.0616381
785200 60.2772 181.974 55.8093 0.39255 0.0350805
785400 60.2772 181.987 55.8093 0.39265 0.0392963
785600 60.2772 182 55.8093 0.39275 0.00964902
785800 60.2772 182.013 55.8093 0.39285 -0.0157427
786000 60.2772 182.026 55.8093 0.39295 -0.0486508
786200 60.2772 182.039 55.8093 0.39305 -0.0642596
786400 60.2772 182.052 55.8093 0.39315 -0.0679688
786600 60.2772 182.065 55.8093 0.39325 -0.0587896
786800 60.2772 182.078 55.8093 0.39335 -0.0589465
787000 60.2772 182.091 55.8093 0.39345 -0.0626425
787200 60.2772 182.104 55.8093 0.39355 -0.0486163
787400 60.2772 182.117 55.8093 0.39365 -0.0272893
787600 60.2772 182.13 55.8093 0.39375 -0.0217116
787800 60.2772 182.144 55.8093 0.39385 0.0349659
788000 60.2772 182.157 55.8093 0.39395 0.0533049
788200 60.2772 182.17 55.8093 0.39405 0.0451748
788400 60.2772 182.183 55.8093 0.39415 0.064209
788600 60.2772 182.196 55.8093 0.39425 0.0596737
788800 60.2772 182.209 55.8093 0.39435 0.0632609
789000 60.2772 182.222 55.8093 0.39445 0.0730921
789200 60.2772 182.235 55.8093 0.39455 0.0606889
789400 60.2772 182.248 55.8093 0.39465 0.0252782
789600 60.2772 182.261 55.8093 0.39475 0.00571714
789800 60.2772 182.274 55.8093 0.39485 -0.0331336
790000 60.2772 182.287 55.8093 0.39495 -0.035224
790200 60.2772 182.3 55.8093 0.39505 -0.0293651
790400 60.2772 182.313 55.8093 0.39515 -0.0704957
790600 60.2772 182.326 55.8093 0.39525 -0.0714801
790800 60.2772 182.34 55.8093 0.39535 -0.0593349
791000 60.2772 182.353 55.8093 0.39545 -0.0550529
791200 60.2772 182.366 55.8093 0.39555 -0.0540395
791400 60.2772 182.379 55.8093 0.39565 -0.0390178
791600 60.2772 182.392 55.8093 0.39575 -0.0115326
791800 60.2772 182.405 55.8093 0.39585 0.0270517
792000 60.2772 182.418 55.8093 0.39595 0.0387016
792200 60.2772 182.431 55.8093 0.39605 0.0647294
792400 60.2772 182.444 55.8093 0.39615 0.0571359
792600 60.2772 182.457 55.8093 0.39625 0.0630292
792800 60.2772 182.47 55.8093 0.39635 0.0796118
793000 60.2772 182.483 55.8093 0.39645 0.071201
793200 60.2772 182.496 55.8093 0.39655 0.0281056
793400 60.2772 182.509 55.8093 0.39665 0.0372207
793600 60.2772 182.523 55.8093 0.39675 0.0158368
793800 60.2772 182.536 55.8093 0.39685 -0.00557754
794000 60.2772 182.549 55.8093 0.39695 -0.0462194
794200 60.2772 182.562 55.8093 0.39705 -0.0604366
794400 60.2772 182.575 55.8093 0.39715 -0.0555237
794600 60.2772 182.588 55.8093 0.39725 -0.0504651
794800 60.2772 182.601 55.8093 0.39735 -0.0669416
795000 60.2772 182.614 55.8093 0.39745 -0.0757889
795200 60.2772 182.627 55.8093 0.39755 -0.0545486
795400 60.2772 182.64 55.8093 0.39765 -0.00667721
795600 60.2772 182.653 55.8093 0.39775 -0.00358916
795800 60.2772 182.666 55.8093 0.39785 0.0204227
796000 60.2772 182.679 55.8093 0.39795 0.028584
796200 60.2772 182.692 55.8093 0.39805 0.0500377
796400 60.2772 182.705 55.8093 0.39815 0.0744204
796600 60.2772 182.719 55.8093 0.39825 0.0437986
796800 60.2772 182.732 55.8093 0.39835 0.0745272
797000 60.2772 182.745 55.8093 0.39845 0.0670846
797200 60.2772 182.758 55.8093 0.39855 0.0521367
797400 60.2772 182.771 55.8093 0.39865 0.0241218
797600 60.2772 182.784 55.8093 0.39875 -0.0191342
797800 60.2772 182.797 55.8093 0.39885 -0.00680954
798000 60.2772 182.81 55.8093 0.39895 -0.0297657
798200 60.2772 182.823 55.8093 0.39905 -0.040576
798400 60.2772 182.836 55.8093 0.39915 -0.0505161
798600 60.2772 182.849 55.8093 0.39925 -0.0476976
798800 60.2772 182.862 55.8093 0.39935 -0.0574597
799000 60.2772 182.875 55.8093 0.39945 -0.0613329
799200 60.2772 182.888 55.8093 0.39955 -0.0490176
799400 60.2772 182.901 55.8093 0.39965 -0.0270333
799600 60.2772 182.915 55.8093 0.39975 -0.00474445
799800 60.2772 182.928 55.8093 0.39985 0.0156591
800000 60.2772 182.941 55.8093 0.39995 0.0289549
800200 60.2772 182.954 55.8093 0.40005 0.0475382
800400 60.2772 182.967 55.8093 0.40015 0.0536204
800600 60.2772 182.98 55.8093 0.40025 0.0465868
800800 60.2772 182.993 55.8093 0.40035 0.066141
801000 60.2772 183.006 55.8093 0.40045 0.0661245
801200 60.2772 183.019 55.8093 0.40055 0.0266579
801400 60.2772 183.032 55.8093 0.40065 0.0405768
801600 60.2772 183.045 55.8093 0.40075 0.0183894
801800 60.2772 183.058 55.8093 0.40085 -0.0147157
802000 60.2772 183.071 55.8093 0.40095 -0.0417776
802200 60.2772 183.084 55.8093 0.40105 -0.0142875
802400 60.2772 183.097 55.8093 0.40115 -0.0614896
802600 60.2772 183.111 55.8093 0.40125 -0.060684
802800 60.2772 183.124 55.8093 0.40135 -0.0483836
803000 60.2772 183.137 55.8093 0.40145 -0.0448457
803200 60.2772 183.15 55.8093 0.40155 -0.0419888
803400 60.2772 183.163 55.8093 0.40165 -0.0203078
803600 60.2772 183.176 55.8093 0.40175 -0.0148668
803800 60.2772 183.189 55.8093 0.40185 0.0188024
804000 60.2772 183.202 55.8093 0.40195 0.00913616
804200 60.2772 183.215 55.8093 0.40205 0.0356792
804400 60.2772 183.228 55.8093 0.40215 0.0748618
804600 60.2772 183.241 55.8093 0.40225 0.0463057
804800 60.2772 183.254 55.8093 0.40235 0.0596037
805000 60.2772 183.267 55.8093 0.40245 0.0416092
805200 60.2772 183.28 55.8093 0.40255 0.0411445
805400 60.2772 183.294 55.8093 0.40265 0.0368946
805600 60.2772 183.307 55.8093 0.40275 0.0157796
805800 60.2772 183.32 55.8093 0.40285 -0.0111646
806000 60.2772 183.333 55.8093 0.40295 -0.0326285
806200 60.2772 183.346 55.8093 0.40305 -0.0469788
806400 60.2772 183.359 55.8093 0.40315 -0.0506377
806600 60.2772 183.372 55.8093 0.40325 -0.0372141
806800 60.2772 183.385 55.8093 0.40335 -0.0711835
807000 60.2772 183.398 55.8093 0.40345 -0.0349585
807200 60.2772 183.411 55.8093 0.40355 -0.0238207
807400 60.2772 183.424 55.8093 0.40365 -0.039679
807600 60.2772 183.437 55.8093 0.40375 -0.00449612
807800 60.2772 183.45 55.8093 0.40385 -0.00421549
808000 60.2772 183.463 55.8093 0.40395 0.0397938
808200 60.2772 183.476 55.8093 0.40405 0.0519363
808400 60.2772 183.49 55.8093 0.40415 0.060589
808600 60.2772 183.503 55.8093 0.40425 0.02358
808800 60.2772 183.516 55.8093 0.40435 0.0616308
809000 60.2772 183.529 55.8093 0.40445 0.0747006
809200 60.2772 183.542 55.8093 0.40455 0.0208857
809400 60.2772 183.555 55.8093 0.40465 0.031751
809600 60.2772 183.568 55.8093 0.40475 0.0330656
809800 60.2772 183.581 55.8093 0.40485 -0.0252539
810000 60.2772 183.594 55.8093 0.40495 -0.0169566
810200 60.2772 183.607 55.8093 0.40505 -0.045887
810400 60.2772 183.62 55.8093 0.40515 -0.0567752
810600 60.2772 183.633 55.8093 0.40525 -0.0523208
810800 60.2772 183.646 55.8093 0.40535 -0.062326
811000 60.2772 183.659 55.8093 0.40545 -0.0423982
811200 60.2772 183.672 55.8093 0.40555 -0.0528788
811400 60.2772 183.686 55.8093 0.40565 -0.0041806
811600 60.2772 183.699 55.8093 0.40575 -0.0293617
811800 60.2772 183.712 55.8093 0.40585 0.0183251
812000 60.2772 183.725 55.8093 0.40595 0.0192757
812200 60.2772 183.738 55.8093 0.40605 0.053723
812400 60.2772 183.751 55.8093 0.40615 0.064529
812600 60.2772 183.764 55.8093 0.40625 0.0564569
812800 60.2772 183.777 55.8093 0.40635 0.0518436
813000 60.2772 183.79 55.8093 0.40645 0.0426562
813200 60.2772 183.803 55.8093 0.40655 0.0345771
813400 60.2772 183.816 55.8093 0.40665 0.0280716
813600 60.2772 183.829 55.8093 0.40675 0.0148624
813800 60.2772 183.842 55.8093 0.40685 0.0152496
814000 60.2772 183.855 55.8093 0.40695 -0.0127185
814200 60.2772 183.868 55.8093 0.40705 -0.0332148
814400 60.2772 183.882 55.8093 0.40715 -0.0683185
814600 60.2772 183.895 55.8093 0.40725 -0.0696215
814800 60.2772 183.908 55.8093 0.40735 -0.0423677
815000 60.2772 183.921 55.8093 0.40745 -0.0692751
815200 60.2772 183.934 55.8093 0.40755 -0.0417887
815400 60.2772 183.947 55.8093 0.40765 -0.0114941
815600 60.2772 183.96 55.8093 0.40775 0.010993
815800 60.2772 183.973 55.8093 0.40785 -0.00682579
816000 60.2772 183.986 55.8093 0.40795 0.0221113
816200 60.2772 183.999 55.8093 0.40805 0.0263543
816400 60.2772 184.012 55.8093 0.40815 0.0350217
816600 60.2772 184.025 55.8093 0.40825 0.0731689
816800 60.2772 184.038 55.8093 0.40835 0.0610677
817000 60.2772 184.051 55.8093 0.40845 0.0570639
817200 60.2772 184.064 55.8093 0.40855 0.0556115
817400 60.2772 184.078 55.8093 0.40865 0.0331328
817600 60.2772 184.091 55.8093 0.40875 0.0015225
817800 60.2772 184.104 55.8093 0.40885 0.00243292
818000 60.2772 184.117 55.8093 0.40895 -0.0221656
818200 60.2772 184.13 55.8093 0.40905 -0.0317004
818400 60.2772 184.143 55.8093 0.40915 -0.0377402
818600 60.2772 184.156 55.8093 0.40925 -0.0538932
818800 60.2772 184.169 55.8093 0.40935 -0.0515618
819000 60.2772 184.182 55.8093 0.40945 -0.0588495
819200 60.2772 184.195 55.8093 0.40955 -0.0598528
819400 60.2772 184.208 55.8093 0.40965 -0.0317662
819600 60.2772 184.221 55.8093 0.40975 -5.15858e-05
819800 60.2772 184.234 55.8093 0.40985 0.0164075
820000 60.2772 184.247 55.8093 0.40995 0.00731232
820200 60.2772 184.261 55.8093 0.41005 0.0283248
820400 60.2772 184.274 55.8093 0.41015 0.0374396
820600 60.2772 184.287 55.8093 0.41025 0.0272131
820800 60.2772 184.3 55.8093 0.41035 0.0510226
821000 60.2772 184.313 55.8093 0.41045 0.0785883
821200 60.2772 184.326 55.8093 0.41055 0.0836891
821400 60.2772 184.339 55.8093 0.41065 0.0376227
821600 60.2772 184.352 55.8093 0.41075 0.00942676
821800 60.2772 184.365 55.8093 0.41085 0.00409099
822000 60.2772 184.378 55.8093 0.41095 -0.0179966
822200 60.2772 184.391 55.8093 0.41105 -0.0340915
822400 60.2772 184.404 55.8093 0.41115 -0.00676158
822600 60.2772 184.417 55.8093 0.41125 -0.0572722
822800 60.2772 184.43 55.8093 0.41135 -0.0569865
823000 60.2772 184.443 55.8093 0.41145 -0.0747571
823200 60.2772 184.457 55.8093 0.41155 -0.0645115
823400 60.2772 184.47 55.8093 0.41165 -0.039237
823600 60.2772 184.483 55.8093 0.41175 -0.0132096
823800 60.2772 184.496 55.8093 0.41185 -0.00604437
824000 60.2772 184.509 55.8093 0.41195 0.0213121
824200 60.2772 184.522 55.8093 0.41205 0.0243659
824400 60.2772 184.535 55.8093 0.41215 0.0361753
824600 60.2772 184.548 55.8093 0.41225 0.0578619
824800 60.2772 184.561 55.8093 0.41235 0.0444984
825000 60.2772 184.574 55.8093 0.41245 0.0752401
825200 60.2772 184.587 55.8093 0.41255 0.0456665
825400 60.2772 184.6 55.8093 0.41265 0.0644688
825600 60.2772 184.613 55.8093 0.41275 0.0370634
825800 60.2772 184.626 55.8093 0.41285 0.00137222
826000 60.2772 184.639 55.8093 0.41295 -0.0400765
826200 60.2772 184.653 55.8093 0.41305 -0.0296282
826400 60.2772 184.666 55.8093 0.41315 -0.0241392
826600 60.2772 184.679 55.8093 0.41325 -0.0406394
826800 60.2772 184.692 55.8093 0.41335 -0.0372857
827000 60.2772 184.705 55.8093 0.41345 -0.063729
827200 60.2772 184.718 55.8093 0.41355 -0.0476637
827400 60.2772 184.731 55.8093 0.41365 -0.0471716
827600 60.2772 184.744 55.8093 0.41375 -0.0421995
827800 60.2772 184.757 55.8093 0.41385 0.0237759
828000 60.2772 184.77 55.8093 0.41395 0.00424883
828200 60.2772 184.783 55.8093 0.41405 0.0324531
828400 60.2772 184.796 55.8093 0.41415 0.024205
828600 60.2772 184.809 55.8093 0.41425 0.0459023
828800 60.2772 184.822 55.8093 0.41435 0.0738393
829000 60.2772 184.835 55.8093 0.41445 0.0467472
829200 60.2772 184.849 55.8093 0.41455 0.0450001
829400 60.2772 184.862 55.8093 0.41465 0.0425753
829600 60.2772 184.875 55.8093 0.41475 0.0410094
829800 60.2772 184.888 55.8093 0.41485 0.017105
830000 60.2772 184.901 55.8093 0.41495 -0.0319872
830200 60.2772 184.914 55.8093 0.41505 -0.0402724
830400 60.2772 184.927 55.8093 0.41515 -0.0491251
830600 60.2772 184.94 55.8093 0.41525 -0.0282502
830800 60.2772 184.953 55.8093 0.41535 -0.0381541
831000 60.2772 184.966 55.8093 0.41545 -0.0456576
831200 60.2772 184.979 55.8093 0.41555 -0.0621338
831400 60.2772 184.992 55.8093 0.41565 -0.0365916
831600 60.2772 185.005 55.8093 0.41575 -0.0232203
831800 60.2772 185.018 55.8093 0.41585 -0.00170993
832000 60.2772 185.031 55.8093 0.41595 0.0049916
832200 60.2772 185.045 55.8093 0.41605 0.0420498
832400 60.2772 185.058 55.8093 0.41615 0.0474916
832600 60.2772 185.071 55.8093 0.41625 0.0592389
832800 60.2772 185.084 55.8093 0.41635 0.0229306
833000 60.2772 185.097 55.8093 0.41645 0.05329
833200 60.2772 185.11 55.8093 0.41655 0.0489742
833400 60.2772 185.123 55.8093 0.41665 0.0428668
833600 60.2772 185.136 55.8093 0.41675 0.0504468
833800 60.2772 185.149 55.8093 0.41685 0.00909673
834000 60.2772 185.162 55.8093 0.41695 -0.0150244
834200 60.2772 185.175 55.8093 0.41705 -0.0332853
834400 60.2772 185.188 55.8093 0.41715 -0.0368692
834600 60.2772 185.201 55.8093 0.41725 -0.0650995
834800 60.2772 185.214 55.8093 0.41735 -0.0357693
835000 60.2772 185.228 55.8093 0.41745 -0.0316912
835200 60.2772 185.241 55.8093 0.41755 -0.0598895
835400 60.2772 185.254 55.8093 0.41765 -0.0480886
835600 60.2772 185.267 55.8093 0.41775 -0.0370397
835800 60.2772 185.28 55.8093 0.41785 -0.0128324
836000 60.2772 185.293 55.8093 0.41795 0.00996141
836200 60.2772 185.306 55.8093 0.41805 0.0380149
836400 60.2772 185.319 55.8093 0.41815 0.0547934
836600 60.2772 185.332 55.8093 0.41825 0.0725562
836800 60.2772 185.345 55.8093 0.41835 0.0394033
837000 60.2772 185.358 55.8093 0.41845 0.0183574
837200 60.2772 185.371 55.8093 0.41855 0.0444553
837400 60.2772 185.384 55.8093 0.41865 0.0708123
837600 60.2772 185.397 55.8093 0.41875 0.0367227
837800 60.2772 185.41 55.8093 0.41885 0.0162897
838000 60.2772 185.424 55.8093 0.41895 -0.0192594
838200 60.2772 185.437 55.8093 0.41905 -0.00778097
838400 60.2772 185.45 55.8093 0.41915 -0.0487609
838600 60.2772 185.463 55.8093 0.41925 -0.0538355
838800 60.2772 185.476 55.8093 0.41935 -0.0634105
839000 60.2772 185.489 55.8093 0.41945 -0.0388763
839200 60.2772 185.502 55.8093 0.41955 -0.0208268
839400 60.2772 185.515 55.8093 0.41965 -0.0601506
839600 60.2772 185.528 55.8093 0.41975 -0.0337333
839800 60.2772 185.541 55.8093 0.41985 -0.0203667
840000 60.2772 185.554 55.8093 0.41995 0.00426731
840200 60.2772 185.567 55.8093 0.42005 0.0216079
840400 60.2772 185.58 55.8093 0.42015 0.040123
840600 60.2772 185.593 55.8093 0.42025 0.0545486
840800 60.2772 185.606 55.8093 0.42035 0.0497252
841000 60.2772 185.62 55.8093 0.42045 0.0470624
841200 60.2772 185.633 55.8093 0.42055 0.060879
841400 60.2772 185.646 55.8093 0.42065 0.0345669
841600 60.2772 185.659 55.8093 0.42075 0.0510825
841800 60.2772 185.672 55.8093 0.42085 0.0392205
842000 60.2772 185.685 55.8093 0.42095 0.000399911
842200 60.2772 185.698 55.8093 0.42105 -0.00214696
842400 60.2772 185.711 55.8093 0.42115 -0.0511931
842600 60.2772 185.724 55.8093 0.42125 -0.0395317
842800 60.2772 185.737 55.8093 0.42135 -0.0427626
843000 60.2772 185.75 55.8093 0.42145 -0.0645922
843200 60.2772 185.763 55.8093 0.42155 -0.0700237
843400 60.2772 185.776 55.8093 0.42165 -0.0474773
843600 60.2772 185.789 55.8093 0.42175 -0.0485558
843800 60.2772 185.802 55.8093 0.42185 -0.0192364
844000 60.2772 185.816 55.8093 0.42195 -0.00907637
844200 60.2772 185.829 55.8093 0.42205 0.0116871
844400 60.2772 185.842 55.8093 0.42215 0.0552062
844600 60.2772 185.855 55.8093 0.42225 0.0500801
844800 60.2772 185.868 55.8093 0.42235 0.0801455
845000 60.2772 185.881 55.8093 0.42245 0.0492826
845200 60.2772 185.894 55.8093 0.42255 0.0599046
845400 60.2772 185.907 55.8093 0.42265 0.0465299
845600 60.2772 185.92 55.8093 0.42275 0.0377783
845800 60.2772 185.933 55.8093 0.42285 0.0282268
846000 60.2772 185.946 55.8093 0.42295 0.0166077
846200 60.2772 185.959 55.8093 0.42305 -0.00550416
846400 60.2772 185.972 55.8093 0.42315 -0.0380249
846600 60.2772 185.985 55.8093 0.42325 -0.0713348
846800 60.2772 185.999 55.8093 0.42335 -0.0781377
847000 60.2772 186.012 55.8093 0.42345 -0.0538847
847200 60.2772 186.025 55.8093 0.42355 -0.0276774
847400 60.2772 186.038 55.8093 0.42365 -0.0538228
847600 60.2772 186.051 55.8093 0.42375 -0.0293807
847800 60.2772 186.064 55.8093 0.42385 -0.0352573
848000 60.2772 186.077 55.8093 0.42395 0.00137536
848200 60.2772 186.09 55.8093 0.42405 0.021377
848400 60.2772 186.103 55.8093 0.42415 0.0232179
848600 60.2772 186.116 55.8093 0.42425 0.0529688
848800 60.2772 186.129 55.8093 0.42435 0.0734182
849000 60.2772 186.142 55.8093 0.42445 0.0468213
849200 60.2772 186.155 55.8093 0.42455 0.0512027
849400 60.2772 186.168 55.8093 0.42465 0.0550138
849600 60.2772 186.181 55.8093 0.42475 0.02654
849800 60.2772 186.195 55.8093 0.42485 0.0280206
850000 60.2772 186.208 55.8093 0.42495 0.0202498
850200 60.2772 186.221 55.8093 0.42505 -0.0104616
850400 60.2772 186.234 55.8093 0.42515 -0.0187257
850600 60.2772 186.247 55.8093 0.42525 -0.0332569
850800 60.2772 186.26 55.8093 0.42535 -0.0648911
851000 60.2772 186.273 55.8093 0.42545 -0.0616723
851200 60.2772 186.286 55.8093 0.42555 -0.0514345
851400 60.2772 186.299 55.8093 0.42565 -0.0511322
851600 60.2772 186.312 55.8093 0.42575 -0.0165701
851800 60.2772 186.325 55.8093 0.42585 -0.0402079
852000 60.2772 186.338 55.8093 0.42595 -0.0104853
852200 60.2772 186.351 55.8093 0.42605 -0.00440961
852400 60.2772 186.364 55.8093 0.42615 0.0248098
852600 60.2772 186.377 55.8093 0.42625 0.0421099
852800 60.2772 186.391 55.8093 0.42635 0.0565538
853000 60.2772 186.404 55.8093 0.42645 0.0704599
853200 60.2772 186.417 55.8093 0.42655 0.0661781
853400 60.2772 186.43 55.8093 0.42665 0.042078
853600 60.2772 186.443 55.8093 0.42675 0.0494803
853800 60.2772 186.456 55.8093 0.42685 0.0486737
854000 60.2772 186.469 55.8093 0.42695 -0.00388536
854200 60.2772 186.482 55.8093 0.42705 -0.0143855
854400 60.2772 186.495 55.8093 0.42715 -0.0136353
854600 60.2772 186.508 55.8093 0.42725 -0.0302305
854800 60.2772 186.521 55.8093 0.42735 -0.0537487
855000 60.2772 186.534 55.8093 0.42745 -0.057451
855200 60.2772 186.547 55.8093 0.42755 -0.0677559
855400 60.2772 186.56 55.8093 0.42765 -0.0645964
855600 60.2772 186.573 55.8093 0.42775 -0.0343545
855800 60.2772 186.587 55.8093 0.42785 -0.025063
856000 60.2772 186.6 55.8093 0.42795 0.00610329
856200 60.2772 186.613 55.8093 0.42805 -0.00968711
856400 60.2772 186.626 55.8093 0.42815 0.0131609
856600 60.2772 186.639 55.8093 0.42825 0.0242712
856800 60.2772 186.652 55.8093 0.42835 0.072579
857000 60.2772 186.665 55.8093 0.42845 0.0685946
857200 60.2772 186.678 55.8093 0.42855 0.062609
857400 60.2772 186.691 55.8093 0.42865 0.0545658
857600 60.2772 186.704 55.8093 0.42875 0.0443057
857800 60.2772 186.717 55.8093 0.42885 0.0307247
858000 60.2772 186.73 55.8093 0.42895 0.0339565
858200 60.2772 186.743 55.8093 0.42905 0.00339258
858400 60.2772 186.756 55.8093 0.42915 -0.0214134
858600 60.2772 186.769 55.8093 0.42925 -0.0438849
858800 60.2772 186.783 55.8093 0.42935 -0.0749119
859000 60.2772 186.796 55.8093 0.42945 -0.0549527
859200 60.2772 186.809 55.8093 0.42955 -0.0492354
859400 60.2772 186.822 55.8093 0.42965 -0.0711126
859600 60.2772 186.835 55.8093 0.42975 -0.0535012
859800 60.2772 186.848 55.8093 0.42985 -0.0125062
860000 60.2772 186.861 55.8093 0.42995 -0.00343031
860200 60.2772 186.874 55.8093 0.43005 0.00304559
860400 60.2772 186.887 55.8093 0.43015 0.011398
860600 60.2772 186.9 55.8093 0.43025 0.038609
860800 60.2772 186.913 55.8093 0.43035 0.0639713
861000 60.2772 186.926 55.8093 0.43045 0.0608585
861200 60.2772 186.939 55.8093 0.43055 0.0724553
861400 60.2772 186.952 55.8093 0.43065 0.055342
861600 60.2772 186.966 55.8093 0.43075 0.0400147
861800 60.2772 186.979 55.8093 0.43085 0.0388557
862000 60.2772 186.992 55.8093 0.43095 0.00440872
862200 60.2772 187.005 55.8093 0.43105 0.000190312
862400 60.2772 187.018 55.8093 0.43115 -0.00529659
862600 60.2772 187.031 55.8093 0.43125 -0.0518136
862800 60.2772 187.044 55.8093 0.43135 -0.0360129
863000 60.2772 187.057 55.8093 0.43145 -0.0495824
863200 60.2772 187.07 55.8093 0.43155 -0.0492298
863400 60.2772 187.083 55.8093 0.43165 -0.0696369
863600 60.2772 187.096 55.8093 0.43175 -0.045608
863800 60.2772 187.109 55.8093 0.43185 -0.0538581
864000 60.2772 187.122 55.8093 0.43195 -0.00160492
864200 60.2772 187.135 55.8093 0.43205 0.00620356
864400 60.2772 187.148 55.8093 0.43215 0.0304544
864600 60.2772 187.162 55.8093 0.43225 0.0286185
864800 60.2772 187.175 55.8093 0.43235 0.0395351
865000 60.2772 187.188 55.8093 0.43245 0.0485641
865200 60.2772 187.201 55.8093 0.43255 0.0599472
865400 60.2772 187.214 55.8093 0.43265 0.0772861
865600 60.2772 187.227 55.8093 0.43275 0.0610511
865800 60.2772 187.24 55.8093 0.43285 0.019014
866000 60.2772 187.253 55.8093 0.43295 0.0317712
866200 60.2772 187.266 55.8093 0.43305 -0.0133993
866400 60.2772 187.279 55.8093 0.43315 -0.0276929
866600 60.2772 187.292 55.8093 0.43325 -0.0253813
866800 60.2772 187.305 55.8093 0.43335 -0.055472
867000 60.2772 187.318 55.8093 0.43345 -0.036305
867200 60.2772 187.331 55.8093 0.43355 -0.0526135
867400 60.2772 187.344 55.8093 0.43365 -0.0531471
867600 60.2772 187.358 55.8093 0.43375 -0.0548605
867800 60.2772 187.371 55.8093 0.43385 -0.029333
868000 60.2772 187.384 55.8093 0.43395 -0.0225597
868200 60.2772 187.397 55.8093 0.43405 -0.0018209
868400 60.2772 187.41 55.8093 0.43415 0.0300971
868600 60.2772 187.423 55.8093 0.43425 0.0502793
868800 60.2772 187.436 55.8093 0.43435 0.0435074
869000 60.2772 187.449 55.8093 0.43445 0.0255783
869200 60.2772 187.462 55.8093 0.43455 0.0447725
869400 60.2772 187.475 55.8093 0.43465 0.0617467
869600 60.2772 187.488 55.8093 0.43475 0.0809
869800 60.2772 187.501 55.8093 0.43485 0.0523668
870000 60.2772 187.514 55.8093 0.43495 0.00704183
870200 60.2772 187.527 55.8093 0.43505 0.0061976
870400 60.2772 187.54 55.8093 0.43515 -0.021754
870600 60.2772 187.554 55.8093 0.43525 -0.0317859
870800 60.2772 187.567 55.8093 0.43535 -0.0416099
871000 60.2772 187.58 55.8093 0.43545 -0.0422551
871200 60.2772 187.593 55.8093 0.43555 -0.0588558
871400 60.2772 187.606 55.8093 0.43565 -0.0512764
871600 60.2772 187.619 55.8093 0.43575 -0.0597983
871800 60.2772 187.632 55.8093 0.43585 -0.0339214
872000 60.2772 187.645 55.8093 0.43595 -0.0280877
872200 60.2772 187.658 55.8093 0.43605 0.0122281
872400 60.2772 187.671 55.8093 0.43615 0.0109239
872600 60.2772 187.684 55.8093 0.43625 0.0442566
872800 60.2772 187.697 55.8093 0.43635 0.04246
873000 60.2772 187.71 55.8093 0.43645 0.0394227
873200 60.2772 187.723 55.8093 0.43655 0.0566521
873400 60.2772 187.737 55.8093 0.43665 0.0409323
873600 60.2772 187.75 55.8093 0.43675 0.0661201
873800 60.2772 187.763 55.8093 0.43685 0.0403243
874000 60.2772 187.776 55.8093 0.43695 0.0248324
874200 60.2772 187.789 55.8093 0.43705 0.00424688
874400 60.2772 187.802 55.8093 0.43715 -0.0282755
874600 60.2772 187.815 55.8093 0.43725 -0.0229484
874800 60.2772 187.828 55.8093 0.43735 -0.0367472
875000 60.2772 187.841 55.8093 0.43745 -0.0610179
875200 60.2772 187.854 55.8093 0.43755 -0.0415609
875400 60.2772 187.867 55.8093 0.43765 -0.0365553
875600 60.2772 187.88 55.8093 0.43775 -0.0479396
875800 60.2772 187.893 55.8093 0.43785 -0.0354814
876000 60.2772 187.906 55.8093 0.43795 -0.0352376
876200 60.2772 187.919 55.8093 0.43805 -0.00518083
876400 60.2772 187.933 55.8093 0.43815 0.021715
876600 60.2772 187.946 55.8093 0.43825 0.0302526
876800 60.2772 187.959 55.8093 0.43835 0.058463
877000 60.2772 187.972 55.8093 0.43845 0.0479615
877200 60.2772 187.985 55.8093 0.43855 0.0507751
877400 60.2772 187.998 55.8093 0.43865 0.0454357
877600 60.2772 188.011 55.8093 0.43875 0.0321487
877800 60.2772 188.024 55.8093 0.43885 0.0421212
878000 60.2772 188.037 55.8093 0.43895 0.0231187
878200 60.2772 188.05 55.8093 0.43905 0.0253901
878400 60.2772 188.063 55.8093 0.43915 0.0102205
878600 60.2772 188.076 55.8093 0.43925 -0.0469089
878800 60.2772 188.089 55.8093 0.43935 -0.0435827
879000 60.2772 188.102 55.8093 0.43945 -0.0571428
879200 60.2772 188.115 55.8093 0.43955 -0.0407723
879400 60.2772 188.129 55.8093 0.43965 -0.0663624
879600 60.2772 188.142 55.8093 0.43975 -0.0142795
879800 60.2772 188.155 55.8093 0.43985 -0.0396789
880000 60.2772 188.168 55.8093 0.43995 -0.0294264
880200 60.2772 188.181 55.8093 0.44005 -0.00412072
880400 60.2772 188.194 55.8093 0.44015 0.0201078
880600 60.2772 188.207 55.8093 0.44025 0.0169094
880800 60.2772 188.22 55.8093 0.44035 0.0418764
881000 60.2772 188.233 55.8093 0.44045 0.0408906
881200 60.2772 188.246 55.8093 0.44055 0.0551567
881400 60.2772 188.259 55.8093 0.44065 0.0523231
881600 60.2772 188.272 55.8093 0.44075 0.0596324
881800 60.2772 188.285 55.8093 0.44085 0.0207631
882000 60.2772 188.298 55.8093 0.44095 0.0299483
882200 60.2772 188.311 55.8093 0.44105 0.0278647
882400 60.2772 188.325 55.8093 0.44115 -0.0257961
882600 60.2772 188.338 55.8093 0.44125 -0.02999
882800 60.2772 188.351 55.8093 0.44135 -0.0331031
883000 60.2772 188.364 55.8093 0.44145 -0.0658804
883200 60.2772 188.377 55.8093 0.44155 -0.0385691
883400 60.2772 188.39 55.8093 0.44165 -0.0327513
883600 60.2772 188.403 55.8093 0.44175 -0.0447221
883800 60.2772 188.416 55.8093 0.44185 -0.0182302
884000 60.2772 188.429 55.8093 0.44195 -0.021596
884200 60.2772 188.442 55.8093 0.44205 -0.0411407
884400 60.2772 188.455 55.8093 0.44215 0.0295874
884600 60.2772 188.468 55.8093 0.44225 0.0200375
884800 60.2772 188.481 55.8093 0.44235 0.0465434
885000 60.2772 188.494 55.8093 0.44245 0.0404736
885200 60.2772 188.507 55.8093 0.44255 0.0516973
885400 60.2772 188.521 55.8093 0.44265 0.0610383
885600 60.2772 188.534 55.8093 0.44275 0.0426054
885800 60.2772 188.547 55.8093 0.44285 0.0182914
886000 60.2772 188.56 55.8093 0.44295 0.0548528
886200 60.2772 188.573 55.8093 0.44305 0.0171039
886400 60.2772 188.586 55.8093 0.44315 -0.0237394
886600 60.2772 188.599 55.8093 0.44325 -0.024803
886800 60.2772 188.612 55.8093 0.44335 -0.0496094
887000 60.2772 188.625 55.8093 0.44345 -0.0369795
887200 60.2772 188.638 55.8093 0.44355 -0.0478316
887400 60.2772 188.651 55.8093 0.44365 -0.0531887
887600 60.2772 188.664 55.8093 0.44375 -0.043967
887800 60.2772 188.677 55.8093 0.44385 -0.0355961
888000 60.2772 188.69 55.8093 0.44395 -0.02345
888200 60.2772 188.704 55.8093 0.44405 -0.00097208
888400 60.2772 188.717 55.8093 0.44415 0.00427711
888600 60.2772 188.73 55.8093 0.44425 0.0316663
888800 60.2772 188.743 55.8093 0.44435 0.0487908
889000 60.2772 188.756 55.8093 0.44445 0.0550491
889200 60.2772 188.769 55.8093 0.44455 0.0533045
889400 60.2772 188.782 55.8093 0.44465 0.0438941
889600 60.2772 188.795 55.8093 0.44475 0.0521341
889800 60.2772 188.808 55.8093 0.44485 0.0263551
890000 60.2772 188.821 55.8093 0.44495 0.0408482
890200 60.2772 188.834 55.8093 0.44505 0.00360289
890400 60.2772 188.847 55.8093 0.44515 0.00455889
890600 60.2772 188.86 55.8093 0.44525 -0.0269563
890800 60.2772 188.873 55.8093 0.44535 -0.0619378
891000 60.2772 188.886 55.8093 0.44545 -0.0412751
891200 60.2772 188.9 55.8093 0.44555 -0.0609824
891400 60.2772 188.913 55.8093 0.44565 -0.0505916
891600 60.2772 188.926 55.8093 0.44575 -0.0270787
891800 60.2772 188.939 55.8093 0.44585 -0.0298178
892000 60.2772 188.952 55.8093 0.44595 -0.026672
892200 60.2772 188.965 55.8093 0.44605 -0.0187009
892400 60.2772 188.978 55.8093 0.44615 0.00902066
892600 60.2772 188.991 55.8093 0.44625 0.0242098
892800 60.2772 189.004 55.8093 0.44635 0.0471464
893000 60.2772 189.017 55.8093 0.44645 0.0494815
893200 60.2772 189.03 55.8093 0.44655 0.0575728
893400 60.2772 189.043 55.8093 0.44665 0.04653
893600 60.2772 189.056 55.8093 0.44675 0.039185
893800 60.2772 189.069 55.8093 0.44685 0.0470133
894000 60.2772 189.082 55.8093 0.44695 0.0207703
894200 60.2772 189.096 55.8093 0.44705 0.0215802
894400 60.2772 189.109 55.8093 0.44715 0.00190486
894600 60.2772 189.122 55.8093 0.44725 -0.0226595
894800 60.2772 189.135 55.8093 0.44735 -0.0436136
895000 60.2772 189.148 55.8093 0.44745 -0.039662
895200 60.2772 189.161 55.8093 0.44755 -0.0564707
895400 60.2772 189.174 55.8093 0.44765 -0.0458942
895600 60.2772 189.187 55.8093 0.44775 -0.04182
895800 60.2772 189.2 55.8093 0.44785 -0.0297946
896000 60.2772 189.213 55.8093 0.44795 -0.00984299
896200 60.2772 189.226 55.8093 0.44805 -0.0149819
896400 60.2772 189.239 55.8093 0.44815 -0.00441016
896600 60.2772 189.252 55.8093 0.44825 0.0168072
896800 60.2772 189.265 55.8093 0.44835 0.0211177
897000 60.2772 189.278 55.8093 0.44845 0.0641988
897200 60.2772 189.292 55.8093 0.44855 0.0639357
897400 60.2772 189.305 55.8093 0.44865 0.045515
897600 60.2772 189.318 55.8093 0.44875 0.0389794
897800 60.2772 189.331 55.8093 0.44885 0.0397175
898000 60.2772 189.344 55.8093 0.44895 0.00841866
898200 60.2772 189.357 55.8093 0.44905 -0.00551874
898400 60.2772 189.37 55.8093 0.44915 0.021746
898600 60.2772 189.383 55.8093 0.44925 -0.00180305
898800 60.2772 189.396 55.8093 0.44935 -0.0384214
899000 60.2772 189.409 55.8093 0.44945 -0.0353524
899200 60.2772 189.422 55.8093 0.44955 -0.0487998
899400 60.2772 189.435 55.8093 0.44965 -0.0633857
899600 60.2772 189.448 55.8093 0.44975 -0.0390716
899800 60.2772 189.461 55.8093 0.44985 0.00400554
900000 60.2772 189.475 55.8093 0.44995 -0.0268707
900200 60.2772 189.488 55.8093 0.45005 -0.0101988
900400 60.2772 189.501 55.8093 0.45015 -0.00479381
900600 60.2772 189.514 55.8093 0.45025 0.00882658
900800 60.2772 189.527 55.8093 0.45035 0.029159
901000 60.2772 189.54 55.8093 0.45045 0.0191552
901200 60.2772 189.553 55.8093 0.45055 0.0632199
901400 60.2772 189.566 55.8093 0.45065 0.0449818
901600 60.2772 189.579 55.8093 0.45075 0.0601429
901800 60.2772 189.592 55.8093 0.45085 0.0119729
902000 60.2772 189.605 55.8093 0.45095 0.0104947
902200 60.2772 189.618 55.8093 0.45105 0.0271137
902400 60.2772 189.631 55.8093 0.45115 0.0140978
902600 60.2772 189.644 55.8093 0.45125 -0.0143698
902800 60.2772 189.657 55.8093 0.45135 -0.00617207
903000 60.2772 189.671 55.8093 0.45145 -0.0353287
903200 60.2772 189.684 55.8093 0.45155 -0.0500257
903400 60.2772 189.697 55.8093 0.45165 -0.0209321
903600 60.2772 189.71 55.8093 0.45175 -0.045414
903800 60.2772 189.723 55.8093 0.45185 -0.027813
904000 60.2772 189.736 55.8093 0.45195 -0.0338924
904200 60.2772 189.749 55.8093 0.45205 -0.021528
904400 60.2772 189.762 55.8093 0.45215 -0.00173461
904600 60.2772 189.775 55.8093 0.45225 0.0127867
904800 60.2772 189.788 55.8093 0.45235 0.00511694
905000 60.2772 189.801 55.8093 0.45245 0.0309845
905200 60.2772 189.814 55.8093 0.45255 0.0646712
905400 60.2772 189.827 55.8093 0.45265 0.0481266
905600 60.2772 189.84 55.8093 0.45275 0.034048
905800 60.2772 189.853 55.8093 0.45285 0.0262825
906000 60.2772 189.867 55.8093 0.45295 0.026949
906200 60.2772 189.88 55.8093 0.45305 0.0390867
906400 60.2772 189.893 55.8093 0.45315 0.00720948
906600 60.2772 189.906 55.8093 0.45325 -0.0064724
906800 60.2772 189.919 55.8093 0.45335 -0.01233
907000 60.2772 189.932 55.8093 0.45345 -0.0356157
907200 60.2772 189.945 55.8093 0.45355 -0.053292
907400 60.2772 189.958 55.8093 0.45365 -0.0587403
907600 60.2772 189.971 55.8093 0.45375 -0.0485121
907800 60.2772 189.984 55.8093 0.45385 -0.0442199
908000 60.2772 189.997 55.8093 0.45395 -0.0137738
908200 60.2772 190.01 55.8093 0.45405 -0.00175871
908400 60.2772 190.023 55.8093 0.45415 -0.00313074
908600 60.2772 190.036 55.8093 0.45425 0.00787513
908800 60.2772 190.049 55.8093 0.45435 0.0200253
909000 60.2772 190.063 55.8093 0.45445 0.0311569
909200 60.2772 190.076 55.8093 0.45455 0.0637414
909400 60.2772 190.089 55.8093 0.45465 0.0495156
909600 60.2772 190.102 55.8093 0.45475 0.0643999
909800 60.2772 190.115 55.8093 0.45485 0.0344041
910000 60.2772 190.128 55.8093 0.45495 0.0348584
910200 60.2772 190.141 55.8093 0.45505 0.0278891
910400 60.2772 190.154 55.8093 0.45515 0.00432691
910600 60.2772 190.167 55.8093 0.45525 -0.0163333
910800 60.2772 190.18 55.8093 0.45535 -0.0330885
911000 60.2772 190.193 55.8093 0.45545 -0.0382041
911200 60.2772 190.206 55.8093 0.45555 -0.0468291
911400 60.2772 190.219 55.8093 0.45565 -0.0463497
911600 60.2772 190.232 55.8093 0.45575 -0.053582
911800 60.2772 190.245 55.8093 0.45585 -0.0273868
912000 60.2772 190.259 55.8093 0.45595 -0.0423851
912200 60.2772 190.272 55.8093 0.45605 -0.00387979
912400 60.2772 190.285 55.8093 0.45615 0.00136429
912600 60.2772 190.298 55.8093 0.45625 0.0227774
912800 60.2772 190.311 55.8093 0.45635 0.0213614
913000 60.2772 190.324 55.8093 0.45645 0.0221195
913200 60.2772 190.337 55.8093 0.45655 0.0337656
913400 60.2772 190.35 55.8093 0.45665 0.0454235
913600 60.2772 190.363 55.8093 0.45675 0.0567682
913800 60.2772 190.376 55.8093 0.45685 0.0601956
914000 60.2772 190.389 55.8093 0.45695 0.0403866
914200 60.2772 190.402 55.8093 0.45705 0.0109264
914400 60.2772 190.415 55.8093 0.45715 -0.00078599
914600 60.2772 190.428 55.8093 0.45725 -0.00412839
914800 60.2772 190.442 55.8093 0.45735 -0.0246856
915000 60.2772 190.455 55.8093 0.45745 -0.0285188
915200 60.2772 190.468 55.8093 0.45755 -0.0345118
915400 60.2772 190.481 55.8093 0.45765 -0.0357406
915600 60.2772 190.494 55.8093 0.45775 -0.0553984
915800 60.2772 190.507 55.8093 0.45785 -0.0564398
916000 60.2772 190.52 55.8093 0.45795 -0.0253198
916200 60.2772 190.533 55.8093 0.45805 -0.0253914
916400 60.2772 190.546 55.8093 0.45815 -0.0155041
916600 60.2772 190.559 55.8093 0.45825 0.0242633
916800 60.2772 190.572 55.8093 0.45835 0.0304401
917000 60.2772 190.585 55.8093 0.45845 0.0332224
917200 60.2772 190.598 55.8093 0.45855 0.0438069
917400 60.2772 190.611 55.8093 0.45865 0.0261324
917600 60.2772 190.624 55.8093 0.45875 0.0329037
917800 60.2772 190.638 55.8093 0.45885 0.0587427
918000 60.2772 190.651 55.8093 0.45895 0.0458408
918200 60.2772 190.664 55.8093 0.45905 0.0399803
918400 60.2772 190.677 55.8093 0.45915 0.0106029
918600 60.2772 190.69 55.8093 0.45925 -0.00417796
918800 60.2772 190.703 55.8093 0.45935 -0.0123349
919000 60.2772 190.716 55.8093 0.45945 -0.0383013
919200 60.2772 190.729 55.8093 0.45955 -0.0389219
919400 60.2772 190.742 55.8093 0.45965 -0.0345779
919600 60.2772 190.755 55.8093 0.45975 -0.0383363
919800 60.2772 190.768 55.8093 0.45985 -0.0528235
920000 60.2772 190.781 55.8093 0.45995 -0.034521
920200 60.2772 190.794 55.8093 0.46005 -0.0324064
920400 60.2772 190.807 55.8093 0.46015 -0.0151873
920600 60.2772 190.82 55.8093 0.46025 0.0195614
920800 60.2772 190.834 55.8093 0.46035 0.0193721
921000 60.2772 190.847 55.8093 0.46045 0.0245749
921200 60.2772 190.86 55.8093 0.46055 0.035366
921400 60.2772 190.873 55.8093 0.46065 0.0615289
921600 60.2772 190.886 55.8093 0.46075 0.0419989
921800 60.2772 190.899 55.8093 0.46085 0.0553528
922000 60.2772 190.912 55.8093 0.46095 0.0471269
922200 60.2772 190.925 55.8093 0.46105 0.0232423
922400 60.2772 190.938 55.8093 0.46115 -0.00383583
922600 60.2772 190.951 55.8093 0.46125 -0.0129642
922800 60.2772 190.964 55.8093 0.46135 -0.0208977
923000 60.2772 190.977 55.8093 0.46145 -0.00605991
923200 60.2772 190.99 55.8093 0.46155 -0.033945
923400 60.2772 191.003 55.8093 0.46165 -0.0417048
923600 60.2772 191.016 55.8093 0.46175 -0.0604048
923800 60.2772 191.03 55.8093 0.46185 -0.0557905
924000 60.2772 191.043 55.8093 0.46195 -0.00731965
924200 60.2772 191.056 55.8093 0.46205 -0.0356405
924400 60.2772 191.069 55.8093 0.46215 0.00377353
924600 60.2772 191.082 55.8093 0.46225 0.0103669
924800 60.2772 191.095 55.8093 0.46235 0.0257569
925000 60.2772 191.108 55.8093 0.46245 0.0231942
925200 60.2772 191.121 55.8093 0.46255 0.042084
925400 60.2772 191.134 55.8093 0.46265 0.0381299
925600 60.2772 191.147 55.8093 0.46275 0.0455418
925800 60.2772 191.16 55.8093 0.46285 0.03015
926000 60.2772 191.173 55.8093 0.46295 0.0477663
926200 60.2772 191.186 55.8093 0.46305 0.0331699
926400 60.2772 191.199 55.8093 0.46315 -0.0035024
926600 60.2772 191.212 55.8093 0.46325 -0.0202709
926800 60.2772 191.226 55.8093 0.46335 -0.00832714
927000 60.2772 191.239 55.8093 0.46345 -0.0186171
927200 60.2772 191.252 55.8093 0.46355 -0.0310129
927400 60.2772 191.265 55.8093 0.46365 -0.0494438
927600 60.2772 191.278 55.8093 0.46375 -0.030527
927800 60.2772 191.291 55.8093 0.46385 -0.032627
928000 60.2772 191.304 55.8093 0.46395 -0.0262829
928200 60.2772 191.317 55.8093 0.46405 -0.0253351
928400 60.2772 191.33 55.8093 0.46415 0.000663885
928600 60.2772 191.343 55.8093 0.46425 0.0148249
928800 60.2772 191.356 55.8093 0.46435 0.0148449
929000 60.2772 191.369 55.8093 0.46445 0.035229
929200 60.2772 191.382 55.8093 0.46455 0.0116282
929400 60.2772 191.395 55.8093 0.46465 0.0255998
929600 60.2772 191.409 55.8093 0.46475 0.0341831
929800 60.2772 191.422 55.8093 0.46485 0.0499265
930000 60.2772 191.435 55.8093 0.46495 0.0274938
930200 60.2772 191.448 55.8093 0.46505 0.0422919
930400 60.2772 191.461 55.8093 0.46515 0.0081085
930600 60.2772 191.474 55.8093 0.46525 -0.007172
930800 60.2772 191.487 55.8093 0.46535 -0.022575
931000 60.2772 191.5 55.8093 0.46545 -0.035204
931200 60.2772 191.513 55.8093 0.46555 -0.00846397
931400 60.2772 191.526 55.8093 0.46565 -0.0223759
931600 60.2772 191.539 55.8093 0.46575 -0.0364835
931800 60.2772 191.552 55.8093 0.46585 -0.0302892
932000 60.2772 191.565 55.8093 0.46595 -0.0243379
932200 60.2772 191.578 55.8093 0.46605 -0.0338119
932400 60.2772 191.591 55.8093 0.46615 -0.00978462
932600 60.2772 191.605 55.8093 0.46625 0.0135863
932800 60.2772 191.618 55.8093 0.46635 0.0284147
933000 60.2772 191.631 55.8093 0.46645 0.0211698
933200 60.2772 191.644 55.8093 0.46655 0.0198101
933400 60.2772 191.657 55.8093 0.46665 0.0151124
933600 60.2772 191.67 55.8093 0.46675 0.0296367
933800 60.2772 191.683 55.8093 0.46685 0.0291832
934000 60.2772 191.696 55.8093 0.46695 0.0617769
934200 60.2772 191.709 55.8093 0.46705 0.0310905
934400 60.2772 191.722 55.8093 0.46715 -0.00109039
934600 60.2772 191.735 55.8093 0.46725 0.015105
934800 60.2772 191.748 55.8093 0.46735 -0.0112861
935000 60.2772 191.761 55.8093 0.46745 -0.0271248
935200 60.2772 191.774 55.8093 0.46755 -0.0192927
935400 60.2772 191.787 55.8093 0.46765 -0.0301222
935600 60.2772 191.801 55.8093 0.46775 -0.0275659
935800 60.2772 191.814 55.8093 0.46785 -0.0376379
936000 60.2772 191.827 55.8093 0.46795 -0.0311767
936200 60.2772 191.84 55.8093 0.46805 -0.0338552
936400 60.2772 191.853 55.8093 0.46815 -0.0137269
936600 60.2772 191.866 55.8093 0.46825 -0.00297469
936800 60.2772 191.879 55.8093 0.46835 0.00475121
937000 60.2772 191.892 55.8093 0.46845 0.0376282
937200 60.2772 191.905 55.8093 0.46855 0.0121502
937400 60.2772 191.918 55.8093 0.46865 0.0334229
937600 60.2772 191.931 55.8093 0.46875 0.0455226
937800 60.2772 191.944 55.8093 0.46885 0.0262633
938000 60.2772 191.957 55.8093 0.46895 0.0464922
938200 60.2772 191.97 55.8093 0.46905 0.0341027
938400 60.2772 191.983 55.8093 0.46915 0.0161523
938600 60.2772 191.997 55.8093 0.46925 0.00920318
938800 60.2772 192.01 55.8093 0.46935 -0.0239674
939000 60.2772 192.023 55.8093 0.46945 -0.0170917
939200 60.2772 192.036 55.8093 0.46955 -0.0124157
939400 60.2772 192.049 55.8093 0.46965 -0.0214921
939600 60.2772 192.062 55.8093 0.46975 -0.0333994
939800 60.2772 192.075 55.8093 0.46985 -0.0337561
940000 60.2772 192.088 55.8093 0.46995 -0.00972444
940200 60.2772 192.101 55.8093 0.47005 -0.0504219
940400 60.2772 192.114 55.8093 0.47015 -0.00973328
940600 60.2772 192.127 55.8093 0.47025 -0.00705117
940800 60.2772 192.14 55.8093 0.47035 0.0138954
941000 60.2772 192.153 55.8093 0.47045 0.0210771
941200 60.2772 192.166 55.8093 0.47055 0.0186955
941400 60.2772 192.18 55.8093 0.47065 0.0253131
941600 60.2772 192.193 55.8093 0.47075 0.0294556
941800 60.2772 192.206 55.8093 0.47085 0.0479113
942000 60.2772 192.219 55.8093 0.47095 0.0220768
942200 60.2772 192.232 55.8093 0.47105 0.0180132
942400 60.2772 192.245 55.8093 0.47115 0.0299837
942600 60.2772 192.258 55.8093 0.47125 0.00471127
942800 60.2772 192.271 55.8093 0.47135 -0.00178974
943000 60.2772 192.284 55.8093 0.47145 -0.00809703
943200 60.2772 192.297 55.8093 0.47155 -0.0363858
943400 60.2772 192.31 55.8093 0.47165 -0.0271764
943600 60.2772 192.323 55.8093 0.47175 -0.0149672
943800 60.2772 192.336 55.8093 0.47185 -0.0240444
944000 60.2772 192.349 55.8093 0.47195 -0.0265614
944200 60.2772 192.362 55.8093 0.47205 -0.0216109
944400 60.2772 192.376 55.8093 0.47215 -0.0180291
944600 60.2772 192.389 55.8093 0.47225 -0.0135042
944800 60.2772 192.402 55.8093 0.47235 -0.00150124
945000 60.2772 192.415 55.8093 0.47245 0.0208557
945200 60.2772 192.428 55.8093 0.47255 0.028451
945400 60.2772 192.441 55.8093 0.47265 0.040338
945600 60.2772 192.454 55.8093 0.47275 0.0319464
945800 60.2772 192.467 55.8093 0.47285 0.00579598
946000 60.2772 192.48 55.8093 0.47295 0.0268695
946200 60.2772 192.493 55.8093 0.47305 0.0321796
946400 60.2772 192.506 55.8093 0.47315 0.0207981
946600 60.2772 192.519 55.8093 0.47325 0.0219284
946800 60.2772 192.532 55.8093 0.47335 0.00375557
947000 60.2772 192.545 55.8093 0.47345 -0.0164108
947200 60.2772 192.558 55.8093 0.47355 -0.0212664
947400 60.2772 192.572 55.8093 0.47365 -0.0213172
947600 60.2772 192.585 55.8093 0.47375 -0.0183127
947800 60.2772 192.598 55.8093 0.47385 -0.0430214
948000 60.2772 192.611 55.8093 0.47395 -0.00901933
948200 60.2772 192.624 55.8093 0.47405 -0.0318734
948400 60.2772 192.637 55.8093 0.47415 -0.0232227
948600 60.2772 192.65 55.8093 0.47425 -0.00720102
948800 60.2772 192.663 55.8093 0.47435 0.00394668
949000 60.2772 192.676 55.8093 0.47445 0.0112669
949200 60.2772 192.689 55.8093 0.47455 0.0220615
949400 60.2772 192.702 55.8093 0.47465 0.0263681
949600 60.2772 192.715 55.8093 0.47475 0.0108299
949800 60.2772 192.728 55.8093 0.47485 0.026007
950000 60.2772 192.741 55.8093 0.47495 0.0308566
950200 60.2772 192.754 55.8093 0.47505 0.0338732
950400 60.2772 192.768 55.8093 0.47515 0.0200096
950600 60.2772 192.781 55.8093 0.47525 0.00891367
950800 60.2772 192.794 55.8093 0.47535 0.0179959
951000 60.2772 192.807 55.8093 0.47545 -0.010537
951200 60.2772 192.82 55.8093 0.47555 -0.0188083
951400 60.2772 192.833 55.8093 0.47565 -0.0108658
951600 60.2772 192.846 55.8093 0.47575 -0.0207084
951800 60.2772 192.859 55.8093 0.47585 -0.014276
952000 60.2772 192.872 55.8093 0.47595 -0.0138479
952200 60.2772 192.885 55.8093 0.47605 -0.0359089
952400 60.2772 192.898 55.8093 0.47615 -0.0139423
952600 60.2772 192.911 55.8093 0.47625 -0.0217669
952800 60.2772 192.924 55.8093 0.47635 0.00819643
953000 60.2772 192.937 55.8093 0.47645 -0.000562871
953200 60.2772 192.95 55.8093 0.47655 0.0201604
953400 60.2772 192.964 55.8093 0.47665 0.0338756
953600 60.2772 192.977 55.8093 0.47675 0.02227
953800 60.2772 192.99 55.8093 0.47685 0.00630383
954000 60.2772 193.003 55.8093 0.47695 0.0144034
954200 60.2772 193.016 55.8093 0.47705 0.0145619
954400 60.2772 193.029 55.8093 0.47715 0.0293046
954600 60.2772 193.042 55.8093 0.47725 0.0138727
954800 60.2772 193.055 55.8093 0.47735 0.00717398
955000 60.2772 193.068 55.8093 0.47745 -0.00698805
955200 60.2772 193.081 55.8093 0.47755 -0.00695527
955400 60.2772 193.094 55.8093 0.47765 -0.0194468
955600 60.2772 193.107 55.8093 0.47775 -0.0183901
955800 60.2772 193.12 55.8093 0.47785 -0.0174641
956000 60.2772 193.133 55.8093 0.47795 0.00742912
956200 60.2772 193.147 55.8093 0.47805 -0.0202943
956400 60.2772 193.16 55.8093 0.47815 -0.00618512
956600 60.2772 193.173 55.8093 0.47825 -0.00944606
956800 60.2772 193.186 55.8093 0.47835 -0.0161983
957000 60.2772 193.199 55.8093 0.47845 0.00829514
957200 60.2772 193.212 55.8093 0.47855 0.0141885
957400 60.2772 193.225 55.8093 0.47865 0.00296854
957600 60.2772 193.238 55.8093 0.47875 0.0194698
957800 60.2772 193.251 55.8093 0.47885 0.0248332
958000 60.2772 193.264 55.8093 0.47895 0.0147216
958200 60.2772 193.277 55.8093 0.47905 -0.00199483
958400 60.2772 193.29 55.8093 0.47915 0.0110006
958600 60.2772 193.303 55.8093 0.47925 0.0266597
958800 60.2772 193.316 55.8093 0.47935 0.00422172
959000 60.2772 193.329 55.8093 0.47945 0.0145554
959200 60.2772 193.343 55.8093 0.47955 -0.00828244
959400 60.2772 193.356 55.8093 0.47965 -0.000945586
959600 60.2772 193.369 55.8093 0.47975 -0.0164786
959800 60.2772 193.382 55.8093 0.47985 -0.00724806
960000 60.2772 193.395 55.8093 0.47995 -0.0215569
960200 60.2772 193.408 55.8093 0.48005 -0.00253033
960400 60.2772 193.421 55.8093 0.48015 -0.0125957
960600 60.2772 193.434 55.8093 0.48025 -0.00263475
960800 60.2772 193.447 55.8093 0.48035 -0.0188372
961000 60.2772 193.46 55.8093 0.48045 -0.00111026
961200 60.2772 193.473 55.8093 0.48055 0.00959655
961400 60.2772 193.486 55.8093 0.48065 -0.0106268
961600 60.2772 193.499 55.8093 0.48075 0.0376059
961800 60.2772 193.512 55.8093 0.48085 0.0121041
962000 60.2772 193.525 55.8093 0.48095 0.028093
962200 60.2772 193.539 55.8093 0.48105 0.0148328
962400 60.2772 193.552 55.8093 0.48115 -0.00859008
962600 60.2772 193.565 55.8093 0.48125 0.0183145
962800 60.2772 193.578 55.8093 0.48135 0.00273141
963000 60.2772 193.591 55.8093 0.48145 -0.00681532
963200 60.2772 193.604 55.8093 0.48155 0.00564991
963400 60.2772 193.617 55.8093 0.48165 -0.000302872
963600 60.2772 193.63 55.8093 0.48175 -0.00938742
963800 60.2772 193.643 55.8093 0.48185 -0.00759181
964000 60.2772 193.656 55.8093 0.48195 -0.0127539
964200 60.2772 193.669 55.8093 0.48205 -0.0140302
964400 60.2772 193.682 55.8093 0.48215 -0.00815236
964600 60.2772 193.695 55.8093 0.48225 -0.000838179
964800 60.2772 193.708 55.8093 0.48235 -0.0119054
965000 60.2772 193.721 55.8093 0.48245 -0.000139927
965200 60.2772 193.735 55.8093 0.48255 0.00595726
965400 60.2772 193.748 55.8093 0.48265 0.00667137
965600 60.2772 193.761 55.8093 0.48275 0.0155531
965800 60.2772 193.774 55.8093 0.48285 0.0139462
966000 60.2772 193.787 55.8093 0.48295 0.029209
966200 60.2772 193.8 55.8093 0.48305 0.0193983
966400 60.2772 193.813 55.8093 0.48315 0.0168078
966600 60.2772 193.826 55.8093 0.48325 0.0137283
966800 60.2772 193.839 55.8093 0.48335 -0.0199441
967000 60.2772 193.852 55.8093 0.48345 0.00652159
967200 60.2772 193.865 55.8093 0.48355 -0.00183666
967400 60.2772 193.878 55.8093 0.48365 0.00328143
967600 60.2772 193.891 55.8093 0.48375 -0.000272228
967800 60.2772 193.904 55.8093 0.48385 -0.0210437
968000 60.2772 193.918 55.8093 0.48395 0.00107396
968200 60.2772 193.931 55.8093 0.48405 -0.0252968
968400 60.2772 193.944 55.8093 0.48415 0.000274361
968600 60.2772 193.957 55.8093 0.48425 -0.0266883
968800 60.2772 193.97 55.8093 0.48435 -0.00461454
969000 60.2772 193.983 55.8093 0.48445 0.000845547
969200 60.2772 193.996 55.8093 0.48455 0.00102744
969400 60.2772 194.009 55.8093 0.48465 0.00916807
969600 60.2772 194.022 55.8093 0.48475 0.00176103
969800 60.2772 194.035 55.8093 0.48485 0.0351065
970000 60.2772 194.048 55.8093 0.48495 0.0142927
970200 60.2772 194.061 55.8093 0.48505 0.00566586
970400 60.2772 194.074 55.8093 0.48515 0.00680271
970600 60.2772 194.087 55.8093 0.48525 0.026969
970800 60.2772 194.1 55.8093 0.48535 0.00689208
971000 60.2772 194.114 55.8093 0.48545 -0.0197932
971200 60.2772 194.127 55.8093 0.48555 0.0141516
971400 60.2772 194.14 55.8093 0.48565 0.0243427
971600 60.2772 194.153 55.8093 0.48575 -0.01139
971800 60.2772 194.166 55.8093 0.48585 -0.000227011
972000 60.2772 194.179 55.8093 0.48595 -0.016087
972200 60.2772 194.192 55.8093 0.48605 -0.0310458
972400 60.2772 194.205 55.8093 0.48615 0.0061951
972600 60.2772 194.218 55.8093 0.48625 -0.00601444
972800 60.2772 194.231 55.8093 0.48635 -0.00897178
973000 60.2772 194.244 55.8093 0.48645 -0.0151446
973200 60.2772 194.257 55.8093 0.48655 0.0140799
973400 60.2772 194.27 55.8093 0.48665 -0.0147089
973600 60.2772 194.283 55.8093 0.48675 0.0106444
973800 60.2772 194.296 55.8093 0.48685 0.00846853
974000 60.2772 194.31 55.8093 0.48695 0.0117606
974200 60.2772 194.323 55.8093 0.48705 0.0215816
974400 60.2772 194.336 55.8093 0.48715 0.0237686
974600 60.2772 194.349 55.8093 0.48725 0.0151011
974800 60.2772 194.362 55.8093 0.48735 0.00265951
975000 60.2772 194.375 55.8093 0.48745 -0.00113561
975200 60.2772 194.388 55.8093 0.48755 -0.00211872
975400 60.2772 194.401 55.8093 0.48765 0.0140238
975600 60.2772 194.414 55.8093 0.48775 -0.00664018
975800 60.2772 194.427 55.8093 0.48785 -0.00140237
976000 60.2772 194.44 55.8093 0.48795 -0.0175595
976200 60.2772 194.453 55.8093 0.48805 -0.00623598
976400 60.2772 194.466 55.8093 0.48815 -0.00122564
976600 60.2772 194.479 55.8093 0.48825 -0.0280639
976800 60.2772 194.492 55.8093 0.48835 -0.0203523
977000 60.2772 194.506 55.8093 0.48845 0.0237257
977200 60.2772 194.519 55.8093 0.48855 -0.0045349
977400 60.2772 194.532 55.8093 0.48865 0.0198311
977600 60.2772 194.545 55.8093 0.48875 -0.00937969
977800 60.2772 194.558 55.8093 0.48885 0.00368823
978000 60.2772 194.571 55.8093 0.48895 0.0396853
978200 60.2772 194.584 55.8093 0.48905 0.00429042
978400 60.2772 194.597 55.8093 0.48915 0.00571602
978600 60.2772 194.61 55.8093 0.48925 0.0103671
978800 60.2772 194.623 55.8093 0.48935 0.0361907
979000 60.2772 194.636 55.8093 0.48945 -0.0117209
979200 60.2772 194.649 55.8093 0.48955 -0.0191921
979400 60.2772 194.662 55.8093 0.48965 -0.00726166
979600 60.2772 194.675 55.8093 0.48975 0.00745774
979800 60.2772 194.688 55.8093 0.48985 0.0109199
980000 60.2772 194.702 55.8093 0.48995 -0.000535885
980200 60.2772 194.715 55.8093 0.49005 -0.0302332
980400 60.2772 194.728 55.8093 0.49015 -0.0309637
980600 60.2772 194.741 55.8093 0.49025 -0.00605942
980800 60.2772 194.754 55.8093 0.49035 -0.00328529
981000 60.2772 194.767 55.8093 0.49045 0.0138525
981200 60.2772 194.78 55.8093 0.49055 0.0151359
981400 60.2772 194.793 55.8093 0.49065 -0.0121589
981600 60.2772 194.806 55.8093 0.49075 0.0179904
981800 60.2772 194.819 55.8093 0.49085 -0.0105492
982000 60.2772 194.832 55.8093 0.49095 0.0226328
982200 60.2772 194.845 55.8093 0.49105 0.0351549
982400 60.2772 194.858 55.8093 0.49115 0.00800414
982600 60.2772 194.871 55.8093 0.49125 0.0153928
982800 60.2772 194.885 55.8093 0.49135 0.00430816
983000 60.2772 194.898 55.8093 0.49145 0.00487717
983200 60.2772 194.911 55.8093 0.49155 0.00225363
983400 60.2772 194.924 55.8093 0.49165 -0.0271958
983600 60.2772 194.937 55.8093 0.49175 0.00829656
983800 60.2772 194.95 55.8093 0.49185 -0.000889339
984000 60.2772 194.963 55.8093 0.49195 -0.00582928
984200 60.2772 194.976 55.8093 0.49205 -0.00552899
984400 60.2772 194.989 55.8093 0.49215 -0.0222047
984600 60.2772 195.002 55.8093 0.49225 -0.00660998
984800 60.2772 195.015 55.8093 0.49235 0.00271021
985000 60.2772 195.028 55.8093 0.49245 -0.0108155
985200 60.2772 195.041 55.8093 0.49255 0.00947226
985400 60.2772 195.054 55.8093 0.49265 0.0161565
985600 60.2772 195.067 55.8093 0.49275 0.0222862
985800 60.2772 195.081 55.8093 0.49285 -0.00520154
986000 60.2772 195.094 55.8093 0.49295 -0.0144718
986200 60.2772 195.107 55.8093 0.49305 0.00770728
986400 60.2772 195.12 55.8093 0.49315 0.0261351
986600 60.2772 195.133 55.8093 0.49325 0.0228308
986800 60.2772 195.146 55.8093 0.49335 0.0200657
987000 60.2772 195.159 55.8093 0.49345 -0.0121481
987200 60.2772 195.172 55.8093 0.49355 -0.00189101
987400 60.2772 195.185 55.8093 0.49365 0.0146267
987600 60.2772 195.198 55.8093 0.49375 -0.0310519
987800 60.2772 195.211 55.8093 0.49385 -0.00783144
988000 60.2772 195.224 55.8093 0.49395 0.0184684
988200 60.2772 195.237 55.8093 0.49405 -0.0216635
988400 60.2772 195.25 55.8093 0.49415 -0.00275979
988600 60.2772 195.263 55.8093 0.49425 -0.0119377
988800 60.2772 195.277 55.8093 0.49435 -0.00836301
989000 60.2772 195.29 55.8093 0.49445 -0.0124109
989200 60.2772 195.303 55.8093 0.49455 -0.00189357
989400 60.2772 195.316 55.8093 0.49465 0.0129886
989600 60.2772 195.329 55.8093 0.49475 0.011227
989800 60.2772 195.342 55.8093 0.49485 0.0160838
990000 60.2772 195.355 55.8093 0.49495 0.0184809
990200 60.2772 195.368 55.8093 0.49505 0.0148042
990400 60.2772 195.381 55.8093 0.49515 0.0179915
990600 60.2772 195.394 55.8093 0.49525 0.0151855
990800 60.2772 195.407 55.8093 0.49535 0.00434514
991000 60.2772 195.42 55.8093 0.49545 0.0121333
991200 60.2772 195.433 55.8093 0.49555 0.00344783
991400 60.2772 195.446 55.8093 0.49565 -0.01372
991600 60.2772 195.459 55.8093 0.49575 -0.0127793
991800 60.2772 195.473 55.8093 0.49585 -0.0198473
992000 60.2772 195.486 55.8093 0.49595 -0.0277286
992200 60.2772 195.499 55.8093 0.49605 -0.0050049
992400 60.2772 195.512 55.8093 0.49615 -0.0153812
992600 60.2772 195.525 55.8093 0.49625 0.0120633
992800 60.2772 195.538 55.8093 0.49635 -0.00713222
993000 60.2772 195.551 55.8093 0.49645 -0.0132535
993200 60.2772 195.564 55.8093 0.49655 0.0205301
993400 60.2772 195.577 55.8093 0.49665 0.00214323
993600 60.2772 195.59 55.8093 0.49675 0.0318121
993800 60.2772 195.603 55.8093 0.49685 0.024897
994000 60.2772 195.616 55.8093 0.49695 0.0234134
994200 60.2772 195.629 55.8093 0.49705 -0.00613656
994400 60.2772 195.642 55.8093 0.49715 0.00489837
994600 60.2772 195.656 55.8093 0.49725 0.0377095
994800 60.2772 195.669 55.8093 0.49735 -0.00126873
995000 60.2772 195.682 55.8093 0.49745 -0.00474142
995200 60.2772 195.695 55.8093 0.49755 0.00176071
995400 60.2772 195.708 55.8093 0.49765 -0.0086531
995600 60.2772 195.721 55.8093 0.49775 -0.0131974
995800 60.2772 195.734 55.8093 0.49785 -0.0260117
996000 60.2772 195.747 55.8093 0.49795 -0.0291542
996200 60.2772 195.76 55.8093 0.49805 -0.017968
996400 60.2772 195.773 55.8093 0.49815 -0.00170527
996600 60.2772 195.786 55.8093 0.49825 -0.00450295
996800 60.2772 195.799 55.8093 0.49835 -0.0120243
997000 60.2772 195.812 55.8093 0.49845 0.000583172
997200 60.2772 195.825 55.8093 0.49855 0.0137647
997400 60.2772 195.838 55.8093 0.49865 0.0324004
997600 60.2772 195.852 55.8093 0.49875 0.0127616
997800 60.2772 195.865 55.8093 0.49885 0.0261283
998000 60.2772 195.878 55.8093 0.49895 0.0293711
998200 60.2772 195.891 55.8093 0.49905 0.0421422
998400 60.2772 195.904 55.8093 0.49915 0.0129693
998600 60.2772 195.917 55.8093 0.49925 0.00476369
998800 60.2772 195.93 55.8093 0.49935 0.00297483
999000 60.2772 195.943 55.8093 0.49945 -0.00359715
999200 60.2772 195.956 55.8093 0.49955 -0.0147867
999400 60.2772 195.969 55.8093 0.49965 -0.0124224
999600 60.2772 195.982 55.8093 0.49975 -0.043552
999800 60.2772 195.995 55.8093 0.49985 -0.00755455
1000000 60.2772 196.008 55.8093 0.49995 -0.0237899
1000200 60.2772 196.021 55.8093 0.50005 -0.0213803
1000400 60.2772 196.034 55.8093 0.50015 -0.01843
1000600 60.2772 196.048 55.8093 0.50025 -0.0279385
1000800 60.2772 196.061 55.8093 0.50035 0.00167056
1001000 60.2772 196.074 55.8093 0.50045 0.0222712
1001200 60.2772 196.087 55.8093 0.50055 0.0165055
1001400 60.2772 196.1 55.8093 0.50065 0.0355688
1001600 60.2772 196.113 55.8093 0.50075 0.022519
1001800 60.2772 196.126 55.8093 0.50085 0.0484511
1002000 60.2772 196.139 55.8093 0.50095 0.0384704
1002200 60.2772 196.152 55.8093 0.50105 0.0202654
1002400 60.2772 196.165 55.8093 0.50115 0.0131443
1002600 60.2772 196.178 55.8093 0.50125 0.0108543
1002800 60.2772 196.191 55.8093 0.50135 -0.0130964
1003000 60.2772 196.204 55.8093 0.50145 0.00799871
1003200 60.2772 196.217 55.8093 0.50155 -0.0184094
1003400 60.2772 196.23 55.8093 0.50165 -0.046493
1003600 60.2772 196.244 55.8093 0.50175 -0.0326865
1003800 60.2772 196.257 55.8093 0.50185 -0.0270199
1004000 60.2772 196.27 55.8093 0.50195 -0.0142441
1004200 60.2772 196.283 55.8093 0.50205 -0.023845
1004400 60.2772 196.296 55.8093 0.50215 -0.0296041
1004600 60.2772 196.309 55.8093 0.50225 -0.00155185
1004800 60.2772 196.322 55.8093 0.50235 0.00425403
1005000 60.2772 196.335 55.8093 0.50245 0.0177051
1005200 60.2772 196.348 55.8093 0.50255 0.0339452
1005400 60.2772 196.361 55.8093 0.50265 0.0428935
1005600 60.2772 196.374 55.8093 0.50275 0.0296394
1005800 60.2772 196.387 55.8093 0.50285 0.0392863
1006000 60.2772 196.4 55.8093 0.50295 0.0195338
1006200 60.2772 196.413 55.8093 0.50305 0.021484
1006400 60.2772 196.426 55.8093 0.50315 0.0278822
1006600 60.2772 196.44 55.8093 0.50325 0.0112518
1006800 60.2772 196.453 55.8093 0.50335 0.000516231
1007000 60.2772 196.466 55.8093 0.50345 -0.00904733
1007200 60.2772 196.479 55.8093 0.50355 -0.0249226
1007400 60.2772 196.492 55.8093 0.50365 -0.0380362
1007600 60.2772 196.505 55.8093 0.50375 -0.0464766
1007800 60.2772 196.518 55.8093 0.50385 -0.0179569
1008000 60.2772 196.531 55.8093 0.50395 -0.0327949
1008200 60.2772 196.544 55.8093 0.50405 -0.0175441
1008400 60.2772 196.557 55.8093 0.50415 -0.0142627
1008600 60.2772 196.57 55.8093 0.50425 -0.0058119
1008800 60.2772 196.583 55.8093 0.50435 -0.00551921
1009000 60.2772 196.596 55.8093 0.50445 0.0237905
1009200 60.2772 196.609 55.8093 0.50455 0.0376453
1009400 60.2772 196.623 55.8093 0.50465 0.0343531
1009600 60.2772 196.636 55.8093 0.50475 0.0354709
1009800 60.2772 196.649 55.8093 0.50485 0.0268733
1010000 60.2772 196.662 55.8093 0.50495 0.029822
1010200 60.2772 196.675 55.8093 0.50505 0.0226332
1010400 60.2772 196.688 55.8093 0.50515 0.0248391
1010600 60.2772 196.701 55.8093 0.50525 0.0103682
1010800 60.2772 196.714 55.8093 0.50535 0.0116508
1011000 60.2772 196.727 55.8093 0.50545 -0.0202935
1011200 60.2772 196.74 55.8093 0.50555 -0.0300577
1011400 60.2772 196.753 55.8093 0.50565 -0.0235593
1011600 60.2772 196.766 55.8093 0.50575 -0.0448984
1011800 60.2772 196.779 55.8093 0.50585 -0.0325595
1012000 60.2772 196.792 55.8093 0.50595 -0.0219954
1012200 60.2772 196.805 55.8093 0.50605 -0.0336324
1012400 60.2772 196.819 55.8093 0.50615 -0.00588898
1012600 60.2772 196.832 55.8093 0.50625 -0.00778528
1012800 60.2772 196.845 55.8093 0.50635 -0.00692555
1013000 60.2772 196.858 55.8093 0.50645 0.00996187
1013200 60.2772 196.871 55.8093 0.50655 0.0475716
1013400 60.2772 196.884 55.8093 0.50665 0.0479503
1013600 60.2772 196.897 55.8093 0.50675 0.0216031
1013800 60.2772 196.91 55.8093 0.50685 0.0353846
1014000 60.2772 196.923 55.8093 0.50695 0.0474319
1014200 60.2772 196.936 55.8093 0.50705 0.0366366
1014400 60.2772 196.949 55.8093 0.50715 -0.00033829
1014600 60.2772 196.962 55.8093 0.50725 -0.000365344
1014800 60.2772 196.975 55.8093 0.50735 0.0160157
1015000 60.2772 196.988 55.8093 0.50745 0.00642742
1015200 60.2772 197.001 55.8093 0.50755 -0.0357496
1015400 60.2772 197.015 55.8093 0.50765 -0.0351451
1015600 60.2772 197.028 55.8093 0.50775 -0.0318344
1015800 60.2772 197.041 55.8093 0.50785 -0.041151
1016000 60.2772 197.054 55.8093 0.50795 -0.0328146
1016200 60.2772 197.067 55.8093 0.50805 -0.0269307
1016400 60.2772 197.08 55.8093 0.50815 -0.0101883
1016600 60.2772 197.093 55.8093 0.50825 -0.00634193
1016800 60.2772 197.106 55.8093 0.50835 -0.00845505
1017000 60.2772 197.119 55.8093 0.50845 0.0225694
1017200 60.2772 197.132 55.8093 0.50855 0.0160178
1017400 60.2772 197.145 55.8093 0.50865 0.0420742
1017600 60.2772 197.158 55.8093 0.50875 0.0440716
1017800 60.2772 197.171 55.8093 0.50885 0.0424514
1018000 60.2772 197.184 55.8093 0.50895 0.0421781
1018200 60.2772 197.197 55.8093 0.50905 0.0166021
1018400 60.2772 197.211 55.8093 0.50915 0.0167475
1018600 60.2772 197.224 55.8093 0.50925 0.0230964
1018800 60.2772 197.237 55.8093 0.50935 0.00891707
1019000 60.2772 197.25 55.8093 0.50945 -0.0180222
1019200 60.2772 197.263 55.8093 0.50955 -0.0200087
1019400 60.2772 197.276 55.8093 0.50965 -0.0339903
1019600 60.2772 197.289 55.8093 0.50975 -0.0375153
1019800 60.2772 197.302 55.8093 0.50985 -0.0551686
1020000 60.2772 197.315 55.8093 0.50995 -0.0261179
1020200 60.2772 197.328 55.8093 0.51005 -0.011279
1020400 60.2772 197.341 55.8093 0.51015 -0.0070739
1020600 60.2772 197.354 55.8093 0.51025 -0.00627921
1020800 60.2772 197.367 55.8093 0.51035 -0.00260808
1021000 60.2772 197.38 55.8093 0.51045 0.000912767
1021200 60.2772 197.394 55.8093 0.51055 0.0222419
1021400 60.2772 197.407 55.8093 0.51065 0.0484337
1021600 60.2772 197.42 55.8093 0.51075 0.0265132
1021800 60.2772 197.433 55.8093 0.51085 0.0596659
1022000 60.2772 197.446 55.8093 0.51095 0.0353722
1022200 60.2772 197.459 55.8093 0.51105 0.0340817
1022400 60.2772 197.472 55.8093 0.51115 0.000153464
1022600 60.2772 197.485 55.8093 0.51125 0.00374106
1022800 60.2772 197.498 55.8093 0.51135 -0.00760783
1023000 60.2772 197.511 55.8093 0.51145 -0.00967378
1023200 60.2772 197.524 55.8093 0.51155 -0.00156673
1023400 60.2772 197.537 55.8093 0.51165 -0.0200454
1023600 60.2772 197.55 55.8093 0.51175 -0.0241406
1023800 60.2772 197.563 55.8093 0.51185 -0.0451463
1024000 60.2772 197.576 55.8093 0.51195 -0.0430447
1024200 60.2772 197.59 55.8093 0.51205 -0.0311145
1024400 60.2772 197.603 55.8093 0.51215 -0.00765454
1024600 60.2772 197.616 55.8093 0.51225 -0.00190501
1024800 60.2772 197.629 55.8093 0.51235 0.00354933
1025000 60.2772 197.642 55.8093 0.51245 0.0095845
1025200 60.2772 197.655 55.8093 0.51255 0.0274472
1025400 60.2772 197.668 55.8093 0.51265 0.0149264
1025600 60.2772 197.681 55.8093 0.51275 0.0469971
1025800 60.2772 197.694 55.8093 0.51285 0.0256532
1026000 60.2772 197.707 55.8093 0.51295 0.0343603
1026200 60.2772 197.72 55.8093 0.51305 0.0565939
1026400 60.2772 197.733 55.8093 0.51315 0.0116617
1026600 60.2772 197.746 55.8093 0.51325 -0.00518189
1026800 60.2772 197.759 55.8093 0.51335 0.0154844
1027000 60.2772 197.772 55.8093 0.51345 -0.0148334
1027200 60.2772 197.786 55.8093 0.51355 -0.0391477
1027400 60.2772 197.799 55.8093 0.51365 -0.00610967
1027600 60.2772 197.812 55.8093 0.51375 -0.0339823
1027800 60.2772 197.825 55.8093 0.51385 -0.0214124
1028000 60.2772 197.838 55.8093 0.51395 -0.049658
1028200 60.2772 197.851 55.8093 0.51405 -0.0103244
1028400 60.2772 197.864 55.8093 0.51415 -0.0177899
1028600 60.2772 197.877 55.8093 0.51425 -0.0170224
1028800 60.2772 197.89 55.8093 0.51435 0.0040967
1029000 60.2772 197.903 55.8093 0.51445 0.0266844
1029200 60.2772 197.916 55.8093 0.51455 0.012916
1029400 60.2772 197.929 55.8093 0.51465 0.0265094
1029600 60.2772 197.942 55.8093 0.51475 0.0318029
1029800 60.2772 197.955 55.8093 0.51485 0.0524439
1030000 60.2772 197.968 55.8093 0.51495 0.0192347
1030200 60.2772 197.982 55.8093 0.51505 0.036206
1030400 60.2772 197.995 55.8093 0.51515 0.032144
1030600 60.2772 198.008 55.8093 0.51525 -0.00564864
1030800 60.2772 198.021 55.8093 0.51535 -0.00180311
1031000 60.2772 198.034 55.8093 0.51545 -0.00712794
1031200 60.2772 198.047 55.8093 0.51555 -0.0138834
1031400 60.2772 198.06 55.8093 0.51565 -0.0260322
1031600 60.2772 198.073 55.8093 0.51575 -0.0298205
1031800 60.2772 198.086 55.8093 0.51585 -0.020468
1032000 60.2772 198.099 55.8093 0.51595 -0.0524627
1032200 60.2772 198.112 55.8093 0.51605 -0.00848398
1032400 60.2772 198.125 55.8093 0.51615 -0.0230244
1032600 60.2772 198.138 55.8093 0.51625 -0.0149668
1032800 60.2772 198.151 55.8093 0.51635 0.0165881
1033000 60.2772 198.164 55.8093 0.51645 -0.00504456
1033200 60.2772 198.178 55.8093 0.51655 0.0315493
1033400 60.2772 198.191 55.8093 0.51665 0.033723
1033600 60.2772 198.204 55.8093 0.51675 0.036771
1033800 60.2772 198.217 55.8093 0.51685 0.0203459
1034000 60.2772 198.23 55.8093 0.51695 0.0487762
1034200 60.2772 198.243 55.8093 0.51705 0.0275138
1034400 60.2772 198.256 55.8093 0.51715 0.0323881
1034600 60.2772 198.269 55.8093 0.51725 0.0138683
1034800 60.2772 198.282 55.8093 0.51735 -0.00309398
1035000 60.2772 198.295 55.8093 0.51745 -0.02849
1035200 60.2772 198.308 55.8093 0.51755 -0.00489823
1035400 60.2772 198.321 55.8093 0.51765 -0.0206662
1035600 60.2772 198.334 55.8093 0.51775 -0.0324509
1035800 60.2772 198.347 55.8093 0.51785 -0.0327577
1036000 60.2772 198.361 55.8093 0.51795 -0.0262847
1036200 60.2772 198.374 55.8093 0.51805 -0.0226596
1036400 60.2772 198.387 55.8093 0.51815 -0.0183562
1036600 60.2772 198.4 55.8093 0.51825 -0.0149699
1036800 60.2772 198.413 55.8093 0.51835 0.0132236
1037000 60.2772 198.426 55.8093 0.51845 -0.00365129
1037200 60.2772 198.439 55.8093 0.51855 0.0192817
1037400 60.2772 198.452 55.8093 0.51865 0.0283123
1037600 60.2772 198.465 55.8093 0.51875 0.0202851
1037800 60.2772 198.478 55.8093 0.51885 0.0434826
1038000 60.2772 198.491 55.8093 0.51895 0.0333411
1038200 60.2772 198.504 55.8093 0.51905 0.0280087
1038400 60.2772 198.517 55.8093 0.51915 0.0348784
1038600 60.2772 198.53 55.8093 0.51925 0.00536761
1038800 60.2772 198.543 55.8093 0.51935 -0.00912038
1039000 60.2772 198.557 55.8093 0.51945 -0.0149626
1039200 60.2772 198.57 55.8093 0.51955 0.00176671
1039400 60.2772 198.583 55.8093 0.51965 -0.0150089
1039600 60.2772 198.596 55.8093 0.51975 -0.0196014
1039800 60.2772 198.609 55.8093 0.51985 -0.0248092
1040000 60.2772 198.622 55.8093 0.51995 -0.0334897
1040200 60.2772 198.635 55.8093 0.52005 -0.0435274
1040400 60.2772 198.648 55.8093 0.52015 -0.00220353
1040600 60.2772 198.661 55.8093 0.52025 -0.0167321
1040800 60.2772 198.674 55.8093 0.52035 -0.00273073
1041000 60.2772 198.687 55.8093 0.52045 0.014931
1041200 60.2772 198.7 55.8093 0.52055 0.0297036
1041400 60.2772 198.713 55.8093 0.52065 0.0146783
1041600 60.2772 198.726 55.8093 0.52075 0.0281416
1041800 60.2772 198.739 55.8093 0.52085 0.0263897
1042000 60.2772 198.753 55.8093 0.52095 0.0384875
1042200 60.2772 198.766 55.8093 0.52105 0.0340076
1042400 60.2772 198.779 55.8093 0.52115 0.0179823
1042600 60.2772 198.792 55.8093 0.52125 -0.0073
1042800 60.2772 198.805 55.8093 0.52135 0.020222
1043000 60.2772 198.818 55.8093 0.52145 -0.00451231
1043200 60.2772 198.831 55.8093 0.52155 -0.011324
1043400 60.2772 198.844 55.8093 0.52165 -0.0250315
1043600 60.2772 198.857 55.8093 0.52175 -0.017068
1043800 60.2772 198.87 55.8093 0.52185 -0.0447077
1044000 60.2772 198.883 55.8093 0.52195 -0.02586
1044200 60.2772 198.896 55.8093 0.52205 -0.0113468
1044400 60.2772 198.909 55.8093 0.52215 -0.0184572
1044600 60.2772 198.922 55.8093 0.52225 -0.00407301
1044800 60.2772 198.935 55.8093 0.52235 0.00393679
1045000 60.2772 198.949 55.8093 0.52245 -0.001254
1045200 60.2772 198.962 55.8093 0.52255 0.0150496
1045400 60.2772 198.975 55.8093 0.52265 0.0171203
1045600 60.2772 198.988 55.8093 0.52275 0.043147
1045800 60.2772 199.001 55.8093 0.52285 0.0252428
1046000 60.2772 199.014 55.8093 0.52295 0.0400413
1046200 60.2772 199.027 55.8093 0.52305 0.0185638
1046400 60.2772 199.04 55.8093 0.52315 0.0276809
1046600 60.2772 199.053 55.8093 0.52325 0.00572749
1046800 60.2772 199.066 55.8093 0.52335 -0.00372352
1047000 60.2772 199.079 55.8093 0.52345 9.95793e-05
1047200 60.2772 199.092 55.8093 0.52355 -0.0129681
1047400 60.2772 199.105 55.8093 0.52365 -0.0228973
1047600 60.2772 199.118 55.8093 0.52375 -0.0250612
1047800 60.2772 199.131 55.8093 0.52385 -0.0276515
1048000 60.2772 199.145 55.8093 0.52395 -0.0182365
1048200 60.2772 199.158 55.8093 0.52405 -0.0236749
1048400 60.2772 199.171 55.8093 0.52415 -0.0206036
1048600 60.2772 199.184 55.8093 0.52425 0.000545809
1048800 60.2772 199.197 55.8093 0.52435 -0.00741052
1049000 60.2772 199.21 55.8093 0.52445 0.0262605
1049200 60.2772 199.223 55.8093 0.52455 0.0210147
1049400 60.2772 199.236 55.8093 0.52465 0.0276855
1049600 60.2772 199.249 55.8093 0.52475 0.0165757
1049800 60.2772 199.262 55.8093 0.52485 0.0310451
1050000 60.2772 199.275 55.8093 0.52495 0.023191
1050200 60.2772 199.288 55.8093 0.52505 0.0187095
1050400 60.2772 199.301 55.8093 0.52515 0.0175696
1050600 60.2772 199.314 55.8093 0.52525 0.0156125
1050800 60.2772 199.328 55.8093 0.52535 0.000334674
1051000 60.2772 199.341 55.8093 0.52545 -0.0107177
1051200 60.2772 199.354 55.8093 0.52555 -0.0199686
1051400 60.2772 199.367 55.8093 0.52565 -0.0268049
1051600 60.2772 199.38 55.8093 0.52575 -0.0122496
1051800 60.2772 199.393 55.8093 0.52585 -0.0302667
1052000 60.2772 199.406 55.8093 0.52595 0.00232394
1052200 60.2772 199.419 55.8093 0.52605 -0.0275669
1052400 60.2772 199.432 55.8093 0.52615 -0.017155
1052600 60.2772 199.445 55.8093 0.52625 -0.0024651
1052800 60.2772 199.458 55.8093 0.52635 -0.000908318
1053000 60.2772 199.471 55.8093 0.52645 0.0207595
1053200 60.2772 199.484 55.8093 0.52655 0.0126287
1053400 60.2772 199.497 55.8093 0.52665 0.0288257
1053600 60.2772 199.51 55.8093 0.52675 0.0325027
1053800 60.2772 199.524 55.8093 0.52685 0.021258
1054000 60.2772 199.537 55.8093 0.52695 0.0125968
1054200 60.2772 199.55 55.8093 0.52705 0.0330702
1054400 60.2772 199.563 55.8093 0.52715 0.0120907
1054600 60.2772 199.576 55.8093 0.52725 0.00230266
1054800 60.2772 199.589 55.8093 0.52735 0.000454482
1055000 60.2772 199.602 55.8093 0.52745 -0.0017026
1055200 60.2772 199.615 55.8093 0.52755 -0.0102822
1055400 60.2772 199.628 55.8093 0.52765 -0.0390794
1055600 60.2772 199.641 55.8093 0.52775 -0.0185726
1055800 60.2772 199.654 55.8093 0.52785 -0.0139364
1056000 60.2772 199.667 55.8093 0.52795 -0.00767832
1056200 60.2772 199.68 55.8093 0.52805 -0.0032042
1056400 60.2772 199.693 55.8093 0.52815 -0.0255075
1056600 60.2772 199.706 55.8093 0.52825 -0.00776747
1056800 60.2772 199.72 55.8093 0.52835 0.00859107
1057000 60.2772 199.733 55.8093 0.52845 -0.0115513
1057200 60.2772 199.746 55.8093 0.52855 0.0316487
1057400 60.2772 199.759 55.8093 0.52865 0.0240912
1057600 60.2772 199.772 55.8093 0.52875 0.0291487
1057800 60.2772 199.785 55.8093 0.52885 0.0319251
1058000 60.2772 199.798 55.8093 0.52895 -0.0160705
1058200 60.2772 199.811 55.8093 0.52905 0.0246747
1058400 60.2772 199.824 55.8093 0.52915 0.0113546
1058600 60.2772 199.837 55.8093 0.52925 0.0246395
1058800 60.2772 199.85 55.8093 0.52935 0.0118903
1059000 60.2772 199.863 55.8093 0.52945 -0.00590425
1059200 60.2772 199.876 55.8093 0.52955 -0.00587388
1059400 60.2772 199.889 55.8093 0.52965 -0.0129908
1059600 60.2772 199.902 55.8093 0.52975 -0.0231386
1059800 60.2772 199.916 55.8093 0.52985 -0.0193496
1060000 60.2772 199.929 55.8093 0.52995 -0.0134627
1060200 60.2772 199.942 55.8093 0.53005 -0.00699136
1060400 60.2772 199.955 55.8093 0.53015 -0.0115358
1060600 60.2772 199.968 55.8093 0.53025 -0.005141
1060800 60.2772 199.981 55.8093 0.53035 -0.0197538
1061000 60.2772 199.994 55.8093 0.53045 -0.00395455
1061200 60.2772 200.007 55.8093 0.53055 0.0158914
1061400 60.2772 200.02 55.8093 0.53065 0.0321998
1061600 60.2772 200.033 55.8093 0.53075 0.0163654
1061800 60.2772 200.046 55.8093 0.53085 0.0275497
1062000 60.2772 200.059 55.8093 0.53095 0.0274689
1062200 60.2772 200.072 55.8093 0.53105 0.0169976
1062400 60.2772 200.085 55.8093 0.53115 -0.00193458
1062600 60.2772 200.099 55.8093 0.53125 0.0124386
1062800 60.2772 200.112 55.8093 0.53135 0.0108534
1063000 60.2772 200.125 55.8093 0.53145 -0.00271213
1063200 60.2772 200.138 55.8093 0.53155 -0.011125
1063400 60.2772 200.151 55.8093 0.53165 -0.0144415
1063600 60.2772 200.164 55.8093 0.53175 -0.00895639
1063800 60.2772 200.177 55.8093 0.53185 -0.0190803
1064000 60.2772 200.19 55.8093 0.53195 -0.018214
1064200 60.2772 200.203 55.8093 0.53205 -0.00663092
1064400 60.2772 200.216 55.8093 0.53215 -0.015439
1064600 60.2772 200.229 55.8093 0.53225 -0.00733674
1064800 60.2772 200.242 55.8093 0.53235 -0.00136412
1065000 60.2772 200.255 55.8093 0.53245 0.00876776
1065200 60.2772 200.268 55.8093 0.53255 0.0206549
1065400 60.2772 200.281 55.8093 0.53265 -0.0027639
1065600 60.2772 200.295 55.8093 0.53275 0.0101502
1065800 60.2772 200.308 55.8093 0.53285 0.0151614
1066000 60.2772 200.321 55.8093 0.53295 0.0220601
1066200 60.2772 200.334 55.8093 0.53305 0.0413972
1066400 60.2772 200.347 55.8093 0.53315 0.0082301
1066600 60.2772 200.36 55.8093 0.53325 0.0284786
1066800 60.2772 200.373 55.8093 0.53335 0.0107346
1067000 60.2772 200.386 55.8093 0.53345 -0.00475365
1067200 60.2772 200.399 55.8093 0.53355 -0.0171982
1067400 60.2772 200.412 55.8093 0.53365 0.00150099
1067600 60.2772 200.425 55.8093 0.53375 -0.029905
1067800 60.2772 200.438 55.8093 0.53385 -0.0144044
1068000 60.2772 200.451 55.8093 0.53395 -0.0149251
1068200 60.2772 200.464 55.8093 0.53405 -0.00475423
1068400 60.2772 200.477 55.8093 0.53415 -0.0314849
1068600 60.2772 200.491 55.8093 0.53425 -0.000381024
1068800 60.2772 200.504 55.8093 0.53435 -0.00297253
1069000 60.2772 200.517 55.8093 0.53445 0.0108194
1069200 60.2772 200.53 55.8093 0.53455 0.0068746
1069400 60.2772 200.543 55.8093 0.53465 0.0114195
1069600 60.2772 200.556 55.8093 0.53475 0.0260973
1069800 60.2772 200.569 55.8093 0.53485 0.0337345
1070000 60.2772 200.582 55.8093 0.53495 0.00177675
1070200 60.2772 200.595 55.8093 0.53505 0.0158177
1070400 60.2772 200.608 55.8093 0.53515 0.0124763
1070600 60.2772 200.621 55.8093 0.53525 0.00172005
1070800 60.2772 200.634 55.8093 0.53535 0.00521185
1071000 60.2772 200.647 55.8093 0.53545 0.00447592
1071200 60.2772 200.66 55.8093 0.53555 0.0108452
1071400 60.2772 200.673 55.8093 0.53565 -0.00834791
1071600 60.2772 200.687 55.8093 0.53575 -0.0271793
1071800 60.2772 200.7 55.8093 0.53585 0.0093227
1072000 60.2772 200.713 55.8093 0.53595 -0.0269527
1072200 60.2772 200.726 55.8093 0.53605 -0.00853145
1072400 60.2772 200.739 55.8093 0.53615 0.00540421
1072600 60.2772 200.752 55.8093 0.53625 -0.0110943
1072800 60.2772 200.765 55.8093 0.53635 -0.0171868
1073000 60.2772 200.778 55.8093 0.53645 0.0158459
1073200 60.2772 200.791 55.8093 0.53655 0.0120748
1073400 60.2772 200.804 55.8093 0.53665 0.0135647
1073600 60.2772 200.817 55.8093 0.53675 0.00610748
1073800 60.2772 200.83 55.8093 0.53685 0.00111107
1074000 60.2772 200.843 55.8093 0.53695 0.00800054
1074200 60.2772 200.856 55.8093 0.53705 0.0141017
1074400 60.2772 200.869 55.8093 0.53715 0.0206709
1074600 60.2772 200.883 55.8093 0.53725 0.00761836
1074800 60.2772 200.896 55.8093 0.53735 0.00623468
1075000 60.2772 200.909 55.8093 0.53745 -0.00968773
1075200 60.2772 200.922 55.8093 0.53755 -0.00270982
1075400 60.2772 200.935 55.8093 0.53765 -0.00112188
1075600 60.2772 200.948 55.8093 0.53775 0.000399815
1075800 60.2772 200.961 55.8093 0.53785 0.00619786
1076000 60.2772 200.974 55.8093 0.53795 0.00598305
1076200 60.2772 200.987 55.8093 0.53805 -0.00287807
1076400 60.2772 201 55.8093 0.53815 -0.0102945
1076600 60.2772 201.013 55.8093 0.53825 -0.0200332
1076800 60.2772 201.026 55.8093 0.53835 0.000352262
1077000 60.2772 201.039 55.8093 0.53845 0.0233416
1077200 60.2772 201.052 55.8093 0.53855 -0.00879837
1077400 60.2772 201.066 55.8093 0.53865 -0.00407215
1077600 60.2772 201.079 55.8093 0.53875 0.00171384
1077800 60.2772 201.092 55.8093 0.53885 0.00653974
1078000 60.2772 201.105 55.8093 0.53895 -0.00332659
1078200 60.2772 201.118 55.8093 0.53905 0.0160296
1078400 60.2772 201.131 55.8093 0.53915 -0.00607732
1078600 60.2772 201.144 55.8093 0.53925 0.0200347
1078800 60.2772 201.157 55.8093 0.53935 0.0166181
1079000 60.2772 201.17 55.8093 0.53945 0.00213988
1079200 60.2772 201.183 55.8093 0.53955 0.0151555
1079400 60.2772 201.196 55.8093 0.53965 -0.00701874
1079600 60.2772 201.209 55.8093 0.53975 0.00615455
1079800 60.2772 201.222 55.8093 0.53985 0.00363886
1080000 60.2772 201.235 55.8093 0.53995 0.00553714
1080200 60.2772 201.248 55.8093 0.54005 -0.00271404
1080400 60.2772 201.262 55.8093 0.54015 -0.00598974
1080600 60.2772 201.275 55.8093 0.54025 -0.029747
1080800 60.2772 201.288 55.8093 0.54035 -0.00466635
1081000 60.2772 201.301 55.8093 0.54045 -0.00866499
1081200 60.2772 201.314 55.8093 0.54055 -0.0113568
1081400 60.2772 201.327 55.8093 0.54065 0.00839895
1081600 60.2772 201.34 55.8093 0.54075 0.0255763
1081800 60.2772 201.353 55.8093 0.54085 0.000900898
1082000 60.2772 201.366 55.8093 0.54095 0.00170208
1082200 60.2772 201.379 55.8093 0.54105 0.00712907
1082400 60.2772 201.392 55.8093 0.54115 -0.00246853
1082600 60.2772 201.405 55.8093 0.54125 0.0299377
1082800 60.2772 201.418 55.8093 0.54135 0.0149713
1083000 60.2772 201.431 55.8093 0.54145 0.00741964
1083200 60.2772 201.444 55.8093 0.54155 0.0027062
1083400 60.2772 201.458 55.8093 0.54165 0.00623741
1083600 60.2772 201.471 55.8093 0.54175 0.00610966
1083800 60.2772 201.484 55.8093 0.54185 0.00303799
1084000 60.2772 201.497 55.8093 0.54195 -0.019693
1084200 60.2772 201.51 55.8093 0.54205 -0.0105103
1084400 60.2772 201.523 55.8093 0.54215 -0.00923031
1084600 60.2772 201.536 55.8093 0.54225 0.00338576
1084800 60.2772 201.549 55.8093 0.54235 0.00223051
1085000 60.2772 201.562 55.8093 0.54245 -0.0145168
1085200 60.2772 201.575 55.8093 0.54255 -0.00182913
1085400 60.2772 201.588 55.8093 0.54265 -0.00631482
1085600 60.2772 201.601 55.8093 0.54275 0.000616631
1085800 60.2772 201.614 55.8093 0.54285 0.0121453
1086000 60.2772 201.627 55.8093 0.54295 0.0205561
1086200 60.2772 201.64 55.8093 0.54305 0.0090655
1086400 60.2772 201.654 55.8093 0.54315 0.0183756
1086600 60.2772 201.667 55.8093 0.54325 -0.00536737
1086800 60.2772 201.68 55.8093 0.54335 0.00474022
1087000 60.2772 201.693 55.8093 0.54345 0.0138945
1087200 60.2772 201.706 55.8093 0.54355 0.0110483
1087400 60.2772 201.719 55.8093 0.54365 0.023126
1087600 60.2772 201.732 55.8093 0.54375 -0.000217088
1087800 60.2772 201.745 55.8093 0.54385 -0.00440707
1088000 60.2772 201.758 55.8093 0.54395 -0.0134069
1088200 60.2772 201.771 55.8093 0.54405 -0.0200898
1088400 60.2772 201.784 55.8093 0.54415 -0.00598605
1088600 60.2772 201.797 55.8093 0.54425 0.00621785
1088800 60.2772 201.81 55.8093 0.54435 0.000388083
1089000 60.2772 201.823 55.8093 0.54445 -0.0011409
1089200 60.2772 201.837 55.8093 0.54455 -0.00620498
1089400 60.2772 201.85 55.8093 0.54465 -0.000325131
1089600 60.2772 201.863 55.8093 0.54475 -0.000396253
1089800 60.2772 201.876 55.8093 0.54485 0.00125207
1090000 60.2772 201.889 55.8093 0.54495 0.0269441
1090200 60.2772 201.902 55.8093 0.54505 0.00242487
1090400 60.2772 201.915 55.8093 0.54515 0.0101355
1090600 60.2772 201.928 55.8093 0.54525 0.00746737
1090800 60.2772 201.941 55.8093 0.54535 0.0122763
1091000 60.2772 201.954 55.8093 0.54545 -0.00396898
1091200 60.2772 201.967 55.8093 0.54555 0.00453742
1091400 60.2772 201.98 55.8093 0.54565 -0.00247282
1091600 60.2772 201.993 55.8093 0.54575 0.00161215
1091800 60.2772 202.006 55.8093 0.54585 -0.000632907
1092000 60.2772 202.019 55.8093 0.54595 -0.00539348
1092200 60.2772 202.033 55.8093 0.54605 -0.00710864
1092400 60.2772 202.046 55.8093 0.54615 -0.00822542
1092600 60.2772 202.059 55.8093 0.54625 0.00147273
1092800 60.2772 202.072 55.8093 0.54635 0.000315295
1093000 60.2772 202.085 55.8093 0.54645 -0.0112158
1093200 60.2772 202.098 55.8093 0.54655 0.00883937
1093400 60.2772 202.111 55.8093 0.54665 0.0108851
1093600 60.2772 202.124 55.8093 0.54675 0.00201584
1093800 60.2772 202.137 55.8093 0.54685 0.0198462
1094000 60.2772 202.15 55.8093 0.54695 0.00049889
1094200 60.2772 202.163 55.8093 0.54705 0.01761
1094400 60.2772 202.176 55.8093 0.54715 -3.18152e-05
1094600 60.2772 202.189 55.8093 0.54725 0.00203882
1094800 60.2772 202.202 55.8093 0.54735 0.00485447
1095000 60.2772 202.215 55.8093 0.54745 0.00203729
1095200 60.2772 202.229 55.8093 0.54755 -0.017954
1095400 60.2772 202.242 55.8093 0.54765 0.0126046
1095600 60.2772 202.255 55.8093 0.54775 0.00279078
1095800 60.2772 202.268 55.8093 0.54785 0.00255102
1096000 60.2772 202.281 55.8093 0.54795 0.00876015
1096200 60.2772 202.294 55.8093 0.54805 0.00145066
1096400 60.2772 202.307 55.8093 0.54815 -0.00293504
1096600 60.2772 202.32 55.8093 0.54825 -0.0172387
1096800 60.2772 202.333 55.8093 0.54835 0.0133094
1097000 60.2772 202.346 55.8093 0.54845 -0.00468397
1097200 60.2772 202.359 55.8093 0.54855 0.00701023
1097400 60.2772 202.372 55.8093 0.54865 0.00736265
1097600 60.2772 202.385 55.8093 0.54875 -0.00429205
1097800 60.2772 202.398 55.8093 0.54885 -0.00348183
1098000 60.2772 202.411 55.8093 0.54895 -0.00132145
1098200 60.2772 202.425 55.8093 0.54905 0.00455708
1098400 60.2772 202.438 55.8093 0.54915 -0.0117286
1098600 60.2772 202.451 55.8093 0.54925 0.00778734
1098800 60.2772 202.464 55.8093 0.54935 0.0251791
1099000 60.2772 202.477 55.8093 0.54945 0.0201021
1099200 60.2772 202.49 55.8093 0.54955 0.0110271
1099400 60.2772 202.503 55.8093 0.54965 -0.0161647
1099600 60.2772 202.516 55.8093 0.54975 0.0127546
1099800 60.2772 202.529 55.8093 0.54985 0.0112512
1100000 60.2772 202.542 55.8093 0.54995 0.00279883
1100200 60.2772 202.555 55.8093 0.55005 0.0158353
1100400 60.2772 202.568 55.8093 0.55015 -0.00479101
1100600 60.2772 202.581 55.8093 0.55025 -0.0123327
1100800 60.2772 202.594 55.8093 0.55035 -0.0197459
1101000 60.2772 202.607 55.8093 0.55045 -0.00813385
1101200 60.2772 202.621 55.8093 0.55055 0.0180945
1101400 60.2772 202.634 55.8093 0.55065 -0.0126403
1101600 60.2772 202.647 55.8093 0.55075 -0.00534359
1101800 60.2772 202.66 55.8093 0.55085 0.0013418
1102000 60.2772 202.673 55.8093 0.55095 -0.00299169
1102200 60.2772 202.686 55.8093 0.55105 -0.00334956
1102400 60.2772 202.699 55.8093 0.55115 0.0172245
1102600 60.2772 202.712 55.8093 0.55125 0.0170607
1102800 60.2772 202.725 55.8093 0.55135 0.0139871
1103000 60.2772 202.738 55.8093 0.55145 0.00225332
1103200 60.2772 202.751 55.8093 0.55155 0.0224993
1103400 60.2772 202.764 55.8093 0.55165 0.0165695
1103600 60.2772 202.777 55.8093 0.55175 -0.0127683
1103800 60.2772 202.79 55.8093 0.55185 -0.0102832
1104000 60.2772 202.804 55.8093 0.55195 -0.0044894
1104200 60.2772 202.817 55.8093 0.55205 0.0131549
1104400 60.2772 202.83 55.8093 0.55215 -0.00951191
1104600 60.2772 202.843 55.8093 0.55225 -0.0140917
1104800 60.2772 202.856 55.8093 0.55235 -0.0109809
1105000 60.2772 202.869 55.8093 0.55245 -0.00315929
1105200 60.2772 202.882 55.8093 0.55255 0.00733015
1105400 60.2772 202.895 55.8093 0.55265 -0.0108129
1105600 60.2772 202.908 55.8093 0.55275 -0.00220105
1105800 60.2772 202.921 55.8093 0.55285 0.01276
1106000 60.2772 202.934 55.8093 0.55295 0.0223956
1106200 60.2772 202.947 55.8093 0.55305 0.0170441
1106400 60.2772 202.96 55.8093 0.55315 0.00286807
1106600 60.2772 202.973 55.8093 0.55325 0.0128929
1106800 60.2772 202.986 55.8093 0.55335 0.0100973
1107000 60.2772 203 55.8093 0.55345 0.00810783
1107200 60.2772 203.013 55.8093 0.55355 -0.00457978
1107400 60.2772 203.026 55.8093 0.55365 0.00942492
1107600 60.2772 203.039 55.8093 0.55375 0.00674528
1107800 60.2772 203.052 55.8093 0.55385 -0.0071797
1108000 60.2772 203.065 55.8093 0.55395 0.00392244
1108200 60.2772 203.078 55.8093 0.55405 -0.0175039
1108400 60.2772 203.091 55.8093 0.55415 -0.00556939
1108600 60.2772 203.104 55.8093 0.55425 -0.0199651
1108800 60.2772 203.117 55.8093 0.55435 0.00454251
1109000 60.2772 203.13 55.8093 0.55445 -0.00586073
1109200 60.2772 203.143 55.8093 0.55455 0.00527108
1109400 60.2772 203.156 55.8093 0.55465 -0.00314396
1109600 60.2772 203.169 55.8093 0.55475 -0.0024184
1109800 60.2772 203.182 55.8093 0.55485 0.00874762
1110000 60.2772 203.196 55.8093 0.55495 0.0061242
1110200 60.2772 203.209 55.8093 0.55505 0.0100717
1110400 60.2772 203.222 55.8093 0.55515 0.020846
1110600 60.2772 203.235 55.8093 0.55525 0.00674092
1110800 60.2772 203.248 55.8093 0.55535 0.0286567
1111000 60.2772 203.261 55.8093 0.55545 -0.0159612
1111200 60.2772 203.274 55.8093 0.55555 0.0119679
1111400 60.2772 203.287 55.8093 0.55565 0.00395932
1111600 60.2772 203.3 55.8093 0.55575 0.0147005
1111800 60.2772 203.313 55.8093 0.55585 0.00153919
1112000 60.2772 203.326 55.8093 0.55595 -0.00554683
1112200 60.2772 203.339 55.8093 0.55605 -0.00999878
1112400 60.2772 203.352 55.8093 0.55615 -0.0228462
1112600 60.2772 203.365 55.8093 0.55625 -0.0109012
1112800 60.2772 203.378 55.8093 0.55635 -0.000718331
1113000 60.2772 203.392 55.8093 0.55645 0.00352696
1113200 60.2772 203.405 55.8093 0.55655 -0.00239299
1113400 60.2772 203.418 55.8093 0.55665 0.00778564
1113600 60.2772 203.431 55.8093 0.55675 -0.00817533
1113800 60.2772 203.444 55.8093 0.55685 0.0245504
1114000 60.2772 203.457 55.8093 0.55695 0.00571252
1114200 60.2772 203.47 55.8093 0.55705 0.0065164
1114400 60.2772 203.483 55.8093 0.55715 0.00330745
1114600 60.2772 203.496 55.8093 0.55725 0.0284814
1114800 60.2772 203.509 55.8093 0.55735 -0.000476703
1115000 60.2772 203.522 55.8093 0.55745 0.0166659
1115200 60.2772 203.535 55.8093 0.55755 0.0025782
1115400 60.2772 203.548 55.8093 0.55765 0.00145276
1115600 60.2772 203.561 55.8093 0.55775 -0.0166958
1115800 60.2772 203.575 55.8093 0.55785 0.00936111
1116000 60.2772 203.588 55.8093 0.55795 -0.0138779
1116200 60.2772 203.601 55.8093 0.55805 0.000304929
1116400 60.2772 203.614 55.8093 0.55815 -0.0247446
1116600 60.2772 203.627 55.8093 0.55825 0.00163139
1116800 60.2772 203.64 55.8093 0.55835 -0.00844575
1117000 60.2772 203.653 55.8093 0.55845 0.000991759
1117200 60.2772 203.666 55.8093 0.55855 0.0146508
1117400 60.2772 203.679 55.8093 0.55865 5.21451e-05
1117600 60.2772 203.692 55.8093 0.55875 0.00193084
1117800 60.2772 203.705 55.8093 0.55885 0.00493807
1118000 60.2772 203.718 55.8093 0.55895 0.020162
1118200 60.2772 203.731 55.8093 0.55905 0.0138358
1118400 60.2772 203.744 55.8093 0.55915 0.0116355
1118600 60.2772 203.757 55.8093 0.55925 0.00788995
1118800 60.2772 203.771 55.8093 0.55935 0.00595761
1119000 60.2772 203.784 55.8093 0.55945 -0.00402229
1119200 60.2772 203.797 55.8093 0.55955 -0.0104247
1119400 60.2772 203.81 55.8093 0.55965 0.000259124
1119600 60.2772 203.823 55.8093 0.55975 0.00183631
1119800 60.2772 203.836 55.8093 0.55985 0.0245062
1120000 60.2772 203.849 55.8093 0.55995 -0.000597592
1120200 60.2772 203.862 55.8093 0.56005 -0.0168032
1120400 60.2772 203.875 55.8093 0.56015 -0.00628783
1120600 60.2772 203.888 55.8093 0.56025 -0.00393314
1120800 60.2772 203.901 55.8093 0.56035 -0.0132716
1121000 60.2772 203.914 55.8093 0.56045 0.00787566
1121200 60.2772 203.927 55.8093 0.56055 0.00949809
1121400 60.2772 203.94 55.8093 0.56065 0.0150593
1121600 60.2772 203.953 55.8093 0.56075 -0.00243135
1121800 60.2772 203.967 55.8093 0.56085 0.00161553
1122000 60.2772 203.98 55.8093 0.56095 0.000500536
1122200 60.2772 203.993 55.8093 0.56105 8.46656e-05
1122400 60.2772 204.006 55.8093 0.56115 0.0130678
1122600 60.2772 204.019 55.8093 0.56125 0.0106712
1122800 60.2772 204.032 55.8093 0.56135 0.00800691
1123000 60.2772 204.045 55.8093 0.56145 0.00487032
1123200 60.2772 204.058 55.8093 0.56155 0.00256027
1123400 60.2772 204.071 55.8093 0.56165 -0.0076244
1123600 60.2772 204.084 55.8093 0.56175 0.00634922
1123800 60.2772 204.097 55.8093 0.56185 0.000332349
1124000 60.2772 204.11 55.8093 0.56195 0.0172978
1124200 60.2772 204.123 55.8093 0.56205 -0.0133428
1124400 60.2772 204.136 55.8093 0.56215 -0.00697847
1124600 60.2772 204.149 55.8093 0.56225 -0.00629141
1124800 60.2772 204.163 55.8093 0.56235 -0.0178694
1125000 60.2772 204.176 55.8093 0.56245 0.0061546
1125200 60.2772 204.189 55.8093 0.56255 -0.00886349
1125400 60.2772 204.202 55.8093 0.56265 0.00388181
1125600 60.2772 204.215 55.8093 0.56275 0.00880534
1125800 60.2772 204.228 55.8093 0.56285 0.0153779
1126000 60.2772 204.241 55.8093 0.56295 0.00176386
1126200 60.2772 204.254 55.8093 0.56305 0.00467409
1126400 60.2772 204.267 55.8093 0.56315 0.010411
1126600 60.2772 204.28 55.8093 0.56325 0.0303905
1126800 60.2772 204.293 55.8093 0.56335 0.0145331
1127000 60.2772 204.306 55.8093 0.56345 -0.000865009
1127200 60.2772 204.319 55.8093 0.56355 0.0156297
1127400 60.2772 204.332 55.8093 0.56365 -0.00948201
1127600 60.2772 204.345 55.8093 0.56375 -0.0037496
1127800 60.2772 204.359 55.8093 0.56385 -0.00946324
1128000 60.2772 204.372 55.8093 0.56395 0.00148303
1128200 60.2772 204.385 55.8093 0.56405 -0.00367656
1128400 60.2772 204.398 55.8093 0.56415 -0.00924314
1128600 60.2772 204.411 55.8093 0.56425 -0.00321707
1128800 60.2772 204.424 55.8093 0.56435 -0.0212463
1129000 60.2772 204.437 55.8093 0.56445 -0.00664149
1129200 60.2772 204.45 55.8093 0.56455 0.0217581
1129400 60.2772 204.463 55.8093 0.56465 -0.00520725
1129600 60.2772 204.476 55.8093 0.56475 0.0138286
1129800 60.2772 204.489 55.8093 0.56485 -0.0130372
1130000 60.2772 204.502 55.8093 0.56495 0.0275283
1130200 60.2772 204.515 55.8093 0.56505 0.0161402
1130400 60.2772 204.528 55.8093 0.56515 0.0158924
1130600 60.2772 204.542 55.8093 0.56525 0.00323496
1130800 60.2772 204.555 55.8093 0.56535 0.000745394
1131000 60.2772 204.568 55.8093 0.56545 0.023881
1131200 60.2772 204.581 55.8093 0.56555 -0.0071725
1131400 60.2772 204.594 55.8093 0.56565 -0.00904836
1131600 60.2772 204.607 55.8093 0.56575 0.00798909
1131800 60.2772 204.62 55.8093 0.56585 0.0002892
1132000 60.2772 204.633 55.8093 0.56595 -0.000210377
1132200 60.2772 204.646 55.8093 0.56605 -0.0310182
1132400 60.2772 204.659 55.8093 0.56615 0.00321593
1132600 60.2772 204.672 55.8093 0.56625 -0.0225427
1132800 60.2772 204.685 55.8093 0.56635 0.0161819
1133000 60.2772 204.698 55.8093 0.56645 -0.00127442
1133200 60.2772 204.711 55.8093 0.56655 -0.00820037
1133400 60.2772 204.724 55.8093 0.56665 0.0101344
1133600 60.2772 204.738 55.8093 0.56675 0.0204461
1133800 60.2772 204.751 55.8093 0.56685 0.0161831
1134000 60.2772 204.764 55.8093 0.56695 0.00166715
1134200 60.2772 204.777 55.8093 0.56705 -0.00468486
1134400 60.2772 204.79 55.8093 0.56715 0.0216192
1134600 60.2772 204.803 55.8093 0.56725 0.00935941
1134800 60.2772 204.816 55.8093 0.56735 -0.00788298
1135000 60.2772 204.829 55.8093 0.56745 0.00633444
1135200 60.2772 204.842 55.8093 0.56755 0.0225314
1135400 60.2772 204.855 55.8093 0.56765 0.000275448
1135600 60.2772 204.868 55.8093 0.56775 -0.0110927
1135800 60.2772 204.881 55.8093 0.56785 -0.00443721
1136000 60.2772 204.894 55.8093 0.56795 0.000981985
1136200 60.2772 204.907 55.8093 0.56805 -0.00081759
1136400 60.2772 204.92 55.8093 0.56815 -0.00949504
1136600 60.2772 204.934 55.8093 0.56825 0.00644821
1136800 60.2772 204.947 55.8093 0.56835 -0.0173709
1137000 60.2772 204.96 55.8093 0.56845 0.00830096
1137200 60.2772 204.973 55.8093 0.56855 0.00303114
1137400 60.2772 204.986 55.8093 0.56865 -0.00587526
1137600 60.2772 204.999 55.8093 0.56875 0.00769411
1137800 60.2772 205.012 55.8093 0.56885 0.0092992
1138000 60.2772 205.025 55.8093 0.56895 0.00593591
1138200 60.2772 205.038 55.8093 0.56905 -0.00243164
1138400 60.2772 205.051 55.8093 0.56915 0.0159333
1138600 60.2772 205.064 55.8093 0.56925 0.00692589
1138800 60.2772 205.077 55.8093 0.56935 -0.00165511
1139000 60.2772 205.09 55.8093 0.56945 0.0253799
1139200 60.2772 205.103 55.8093 0.56955 0.00181075
1139400 60.2772 205.116 55.8093 0.56965 0.00967333
1139600 60.2772 205.13 55.8093 0.56975 -0.00612762
1139800 60.2772 205.143 55.8093 0.56985 -0.00919173
1140000 60.2772 205.156 55.8093 0.56995 -0.00322151
1140200 60.2772 205.169 55.8093 0.57005 -0.0119242
1140400 60.2772 205.182 55.8093 0.57015 0.0139366
1140600 60.2772 205.195 55.8093 0.57025 -0.0140091
1140800 60.2772 205.208 55.8093 0.57035 0.00953891
1141000 60.2772 205.221 55.8093 0.57045 -0.0221155
1141200 60.2772 205.234 55.8093 0.57055 -0.00590075
1141400 60.2772 205.247 55.8093 0.57065 0.0172035
1141600 60.2772 205.26 55.8093 0.57075 0.00311904
1141800 60.2772 205.273 55.8093 0.57085 0.0136586
1142000 60.2772 205.286 55.8093 0.57095 0.00838281
1142200 60.2772 205.299 55.8093 0.57105 0.00173893
1142400 60.2772 205.312 55.8093 0.57115 0.0172924
1142600 60.2772 205.326 55.8093 0.57125 0.0134184
1142800 60.2772 205.339 55.8093 0.57135 0.0132489
1143000 60.2772 205.352 55.8093 0.57145 -0.00846736
1143200 60.2772 205.365 55.8093 0.57155 0.0226354
1143400 60.2772 205.378 55.8093 0.57165 0.000619184
1143600 60.2772 205.391 55.8093 0.57175 -0.0140217
1143800 60.2772 205.404 55.8093 0.57185 -0.00885884
1144000 60.2772 205.417 55.8093 0.57195 -0.013733
1144200 60.2772 205.43 55.8093 0.57205 0.00865804
1144400 60.2772 205.443 55.8093 0.57215 0.00732858
1144600 60.2772 205.456 55.8093 0.57225 -0.0177695
1144800 60.2772 205.469 55.8093 0.57235 0.00337581
1145000 60.2772 205.482 55.8093 0.57245 -0.0243112
1145200 60.2772 205.495 55.8093 0.57255 0.0176827
1145400 60.2772 205.509 55.8093 0.57265 -0.00185542
1145600 60.2772 205.522 55.8093 0.57275 0.00485296
1145800 60.2772 205.535 55.8093 0.57285 0.0181655
1146000 60.2772 205.548 55.8093 0.57295 0.0145051
1146200 60.2772 205.561 55.8093 0.57305 0.0074807
1146400 60.2772 205.574 55.8093 0.57315 0.0104444
1146600 60.2772 205.587 55.8093 0.57325 0.0160046
1146800 60.2772 205.6 55.8093 0.57335 -0.00845171
1147000 60.2772 205.613 55.8093 0.57345 0.0212149
1147200 60.2772 205.626 55.8093 0.57355 -0.00326194
1147400 60.2772 205.639 55.8093 0.57365 0.00576502
1147600 60.2772 205.652 55.8093 0.57375 0.0035335
1147800 60.2772 205.665 55.8093 0.57385 0.00109078
1148000 60.2772 205.678 55.8093 0.57395 -0.0293291
1148200 60.2772 205.691 55.8093 0.57405 -0.00255134
1148400 60.2772 205.705 55.8093 0.57415 -0.00615281
1148600 60.2772 205.718 55.8093 0.57425 -0.0222454
1148800 60.2772 205.731 55.8093 0.57435 -0.00624117
1149000 60.2772 205.744 55.8093 0.57445 0.0106121
1149200 60.2772 205.757 55.8093 0.57455 0.0206589
1149400 60.2772 205.77 55.8093 0.57465 0.0148862
1149600 60.2772 205.783 55.8093 0.57475 0.00344133
1149800 60.2772 205.796 55.8093 0.57485 -0.00223609
1150000 60.2772 205.809 55.8093 0.57495 0.0182058
1150200 60.2772 205.822 55.8093 0.57505 0.0192254
1150400 60.2772 205.835 55.8093 0.57515 0.0126485
1150600 60.2772 205.848 55.8093 0.57525 0.0134627
1150800 60.2772 205.861 55.8093 0.57535 0.00596326
1151000 60.2772 205.874 55.8093 0.57545 -0.00369648
1151200 60.2772 205.887 55.8093 0.57555 -0.00134385
1151400 60.2772 205.901 55.8093 0.57565 -0.0169237
1151600 60.2772 205.914 55.8093 0.57575 -0.00777173
1151800 60.2772 205.927 55.8093 0.57585 0.0079114
1152000 60.2772 205.94 55.8093 0.57595 -6.17528e-05
1152200 60.2772 205.953 55.8093 0.57605 -0.00794782
1152400 60.2772 205.966 55.8093 0.57615 -0.0107888
1152600 60.2772 205.979 55.8093 0.57625 -0.00535224
1152800 60.2772 205.992 55.8093 0.57635 -0.00249079
1153000 60.2772 206.005 55.8093 0.57645 0.00700655
1153200 60.2772 206.018 55.8093 0.57655 0.0162275
1153400 60.2772 206.031 55.8093 0.57665 0.00420017
1153600 60.2772 206.044 55.8093 0.57675 -0.00207902
1153800 60.2772 206.057 55.8093 0.57685 0.00472441
1154000 60.2772 206.07 55.8093 0.57695 0.0201574
1154200 60.2772 206.083 55.8093 0.57705 -0.00869189
1154400 60.2772 206.097 55.8093 0.57715 0.0165247
1154600 60.2772 206.11 55.8093 0.57725 0.00721943
1154800 60.2772 206.123 55.8093 0.57735 0.0206812
1155000 60.2772 206.136 55.8093 0.57745 -0.0018445
1155200 60.2772 206.149 55.8093 0.57755 0.00968523
1155400 60.2772 206.162 55.8093 0.57765 0.00112108
1155600 60.2772 206.175 55.8093 0.57775 -0.0258637
1155800 60.2772 206.188 55.8093 0.57785 0.0179473
1156000 60.2772 206.201 55.8093 0.57795 0.0065912
1156200 60.2772 206.214 55.8093 0.57805 0.0130979
1156400 60.2772 206.227 55.8093 0.57815 -0.0222008
1156600 60.2772 206.24 55.8093 0.57825 -0.00138368
1156800 60.2772 206.253 55.8093 0.57835 -0.0140352
1157000 60.2772 206.266 55.8093 0.57845 -0.0024362
1157200 60.2772 206.28 55.8093 0.57855 -0.00771184
1157400 60.2772 206.293 55.8093 0.57865 0.00172438
1157600 60.2772 206.306 55.8093 0.57875 0.00638023
1157800 60.2772 206.319 55.8093 0.57885 0.000692071
1158000 60.2772 206.332 55.8093 0.57895 0.0192746
1158200 60.2772 206.345 55.8093 0.57905 0.00643701
1158400 60.2772 206.358 55.8093 0.57915 -0.00697426
1158600 60.2772 206.371 55.8093 0.57925 0.00362061
1158800 60.2772 206.384 55.8093 0.57935 0.0232876
1159000 60.2772 206.397 55.8093 0.57945 0.0209871
1159200 60.2772 206.41 55.8093 0.57955 0.0132953
1159400 60.2772 206.423 55.8093 0.57965 0.00943325
1159600 60.2772 206.436 55.8093 0.57975 0.0096936
1159800 60.2772 206.449 55.8093 0.57985 -0.0220482
1160000 60.2772 206.462 55.8093 0.57995 0.00398418
1160200 60.2772 206.476 55.8093 0.58005 -0.00749509
1160400 60.2772 206.489 55.8093 0.58015 -0.00536809
1160600 60.2772 206.502 55.8093 0.58025 0.0136762
1160800 60.2772 206.515 55.8093 0.58035 -0.0218745
1161000 60.2772 206.528 55.8093 0.58045 -0.0135763
1161200 60.2772 206.541 55.8093 0.58055 -0.0209658
1161400 60.2772 206.554 55.8093 0.58065 -0.00811546
1161600 60.2772 206.567 55.8093 0.58075 0.0154736
1161800 60.2772 206.58 55.8093 0.58085 0.0264888
1162000 60.2772 206.593 55.8093 0.58095 0.00460532
1162200 60.2772 206.606 55.8093 0.58105 -0.0124363
1162400 60.2772 206.619 55.8093 0.58115 0.0141703
1162600 60.2772 206.632 55.8093 0.58125 0.0102392
1162800 60.2772 206.645 55.8093 0.58135 0.0336659
1163000 60.2772 206.658 55.8093 0.58145 0.018684
1163200 60.2772 206.672 55.8093 0.58155 0.0281577
1163400 60.2772 206.685 55.8093 0.58165 0.0138386
1163600 60.2772 206.698 55.8093 0.58175 -0.00295247
1163800 60.2772 206.711 55.8093 0.58185 -0.0271081
1164000 60.2772 206.724 55.8093 0.58195 -0.00702609
1164200 60.2772 206.737 55.8093 0.58205 0.00357292
1164400 60.2772 206.75 55.8093 0.58215 0.018
1164600 60.2772 206.763 55.8093 0.58225 -0.00705536
1164800 60.2772 206.776 55.8093 0.58235 -0.0330159
1165000 60.2772 206.789 55.8093 0.58245 0.004159
1165200 60.2772 206.802 55.8093 0.58255 -0.0345442
1165400 60.2772 206.815 55.8093 0.58265 -0.00296453
1165600 60.2772 206.828 55.8093 0.58275 0.0079098
1165800 60.2772 206.841 55.8093 0.58285 0.00872192
1166000 60.2772 206.854 55.8093 0.58295 0.0214576
1166200 60.2772 206.868 55.8093 0.58305 -0.0104006
1166400 60.2772 206.881 55.8093 0.58315 0.00349931
1166600 60.2772 206.894 55.8093 0.58325 0.0034304
1166800 60.2772 206.907 55.8093 0.58335 0.017153
1167000 60.2772 206.92 55.8093 0.58345 0.018486
1167200 60.2772 206.933 55.8093 0.58355 0.0223654
1167400 60.2772 206.946 55.8093 0.58365 0.0266152
1167600 60.2772 206.959 55.8093 0.58375 -0.00881268
1167800 60.2772 206.972 55.8093 0.58385 0.0185661
1168000 60.2772 206.985 55.8093 0.58395 -0.00427787
1168200 60.2772 206.998 55.8093 0.58405 -0.000238474
1168400 60.2772 207.011 55.8093 0.58415 -0.0103046
1168600 60.2772 207.024 55.8093 0.58425 0.00505836
1168800 60.2772 207.037 55.8093 0.58435 -0.00634099
1169000 60.2772 207.05 55.8093 0.58445 -0.00966247
1169200 60.2772 207.064 55.8093 0.58455 -0.0211104
1169400 60.2772 207.077 55.8093 0.58465 -0.0110454
1169600 60.2772 207.09 55.8093 0.58475 -0.0021415
1169800 60.2772 207.103 55.8093 0.58485 -0.009481
1170000 60.2772 207.116 55.8093 0.58495 0.0106657
1170200 60.2772 207.129 55.8093 0.58505 0.0134264
1170400 60.2772 207.142 55.8093 0.58515 0.0244474
1170600 60.2772 207.155 55.8093 0.58525 -0.00904571
1170800 60.2772 207.168 55.8093 0.58535 -0.00201747
1171000 60.2772 207.181 55.8093 0.58545 0.00826127
1171200 60.2772 207.194 55.8093 0.58555 0.035572
1171400 60.2772 207.207 55.8093 0.58565 0.0117197
1171600 60.2772 207.22 55.8093 0.58575 0.00795422
1171800 60.2772 207.233 55.8093 0.58585 0.0138775
1172000 60.2772 207.247 55.8093 0.58595 -0.00200663
1172200 60.2772 207.26 55.8093 0.58605 0.00215002
1172400 60.2772 207.273 55.8093 0.58615 0.0105018
1172600 60.2772 207.286 55.8093 0.58625 -0.0209541
1172800 60.2772 207.299 55.8093 0.58635 0.0157436
1173000 60.2772 207.312 55.8093 0.58645 0.00468508
1173200 60.2772 207.325 55.8093 0.58655 -0.032735
1173400 60.2772 207.338 55.8093 0.58665 0.0020562
1173600 60.2772 207.351 55.8093 0.58675 -0.0134513
1173800 60.2772 207.364 55.8093 0.58685 -0.0126915
1174000 60.2772 207.377 55.8093 0.58695 -0.000353756
1174200 60.2772 207.39 55.8093 0.58705 0.0124229
1174400 60.2772 207.403 55.8093 0.58715 0.0224451
1174600 60.2772 207.416 55.8093 0.58725 0.0113375
1174800 60.2772 207.429 55.8093 0.58735 0.00259443
1175000 60.2772 207.443 55.8093 0.58745 -0.0237345
1175200 60.2772 207.456 55.8093 0.58755 0.0125684
1175400 60.2772 207.469 55.8093 0.58765 0.0210044
1175600 60.2772 207.482 55.8093 0.58775 0.0178163
1175800 60.2772 207.495 55.8093 0.58785 0.0125937
1176000 60.2772 207.508 55.8093 0.58795 0.0103968
1176200 60.2772 207.521 55.8093 0.58805 0.006354
1176400 60.2772 207.534 55.8093 0.58815 -0.00548412
1176600 60.2772 207.547 55.8093 0.58825 0.00794538
1176800 60.2772 207.56 55.8093 0.58835 -0.0282989
1177000 60.2772 207.573 55.8093 0.58845 -0.00237724
1177200 60.2772 207.586 55.8093 0.58855 0.0133226
1177400 60.2772 207.599 55.8093 0.58865 -0.00520627
1177600 60.2772 207.612 55.8093 0.58875 -0.0181406
1177800 60.2772 207.625 55.8093 0.58885 -0.00745768
1178000 60.2772 207.639 55.8093 0.58895 -0.00417815
1178200 60.2772 207.652 55.8093 0.58905 0.00783629
1178400 60.2772 207.665 55.8093 0.58915 0.00624504
1178600 60.2772 207.678 55.8093 0.58925 0.00898704
1178800 60.2772 207.691 55.8093 0.58935 0.00274604
1179000 60.2772 207.704 55.8093 0.58945 0.0170218
1179200 60.2772 207.717 55.8093 0.58955 0.00580035
1179400 60.2772 207.73 55.8093 0.58965 0.0122702
1179600 60.2772 207.743 55.8093 0.58975 0.0235488
1179800 60.2772 207.756 55.8093 0.58985 0.0193121
1180000 60.2772 207.769 55.8093 0.58995 0.001235
1180200 60.2772 207.782 55.8093 0.59005 -0.00799504
1180400 60.2772 207.795 55.8093 0.59015 0.0113391
1180600 60.2772 207.808 55.8093 0.59025 0.00457414
1180800 60.2772 207.821 55.8093 0.59035 -0.00708893
1181000 60.2772 207.835 55.8093 0.59045 -0.0166828
1181200 60.2772 207.848 55.8093 0.59055 -0.013128
1181400 60.2772 207.861 55.8093 0.59065 -0.0116202
1181600 60.2772 207.874 55.8093 0.59075 0.00445566
1181800 60.2772 207.887 55.8093 0.59085 -0.00189951
1182000 60.2772 207.9 55.8093 0.59095 -0.0120169
1182200 60.2772 207.913 55.8093 0.59105 -0.00260708
1182400 60.2772 207.926 55.8093 0.59115 0.0105464
1182600 60.2772 207.939 55.8093 0.59125 0.0115934
1182800 60.2772 207.952 55.8093 0.59135 0.00298425
1183000 60.2772 207.965 55.8093 0.59145 0.0351567
1183200 60.2772 207.978 55.8093 0.59155 0.0107899
1183400 60.2772 207.991 55.8093 0.59165 0.0220497
1183600 60.2772 208.004 55.8093 0.59175 0.00568442
1183800 60.2772 208.018 55.8093 0.59185 0.00776939
1184000 60.2772 208.031 55.8093 0.59195 -0.00841819
1184200 60.2772 208.044 55.8093 0.59205 0.025394
1184400 60.2772 208.057 55.8093 0.59215 -0.000400534
1184600 60.2772 208.07 55.8093 0.59225 -0.0136799
1184800 60.2772 208.083 55.8093 0.59235 -0.00556572
1185000 60.2772 208.096 55.8093 0.59245 -0.0200224
1185200 60.2772 208.109 55.8093 0.59255 -0.00554535
1185400 60.2772 208.122 55.8093 0.59265 -0.00604705
1185600 60.2772 208.135 55.8093 0.59275 -0.0101629
1185800 60.2772 208.148 55.8093 0.59285 -0.00105789
1186000 60.2772 208.161 55.8093 0.59295 0.000956604
1186200 60.2772 208.174 55.8093 0.59305 -0.0148818
1186400 60.2772 208.187 55.8093 0.59315 0.0338583
1186600 60.2772 208.2 55.8093 0.59325 0.000421385
1186800 60.2772 208.214 55.8093 0.59335 0.0272923
1187000 60.2772 208.227 55.8093 0.59345 0.00196444
1187200 60.2772 208.24 55.8093 0.59355 0.0218919
1187400 60.2772 208.253 55.8093 0.59365 0.000288783
1187600 60.2772 208.266 55.8093 0.59375 0.0201838
1187800 60.2772 208.279 55.8093 0.59385 0.0113783
1188000 60.2772 208.292 55.8093 0.59395 0.0133105
1188200 60.2772 208.305 55.8093 0.59405 0.0149075
1188400 60.2772 208.318 55.8093 0.59415 -0.0154779
1188600 60.2772 208.331 55.8093 0.59425 -0.0105447
1188800 60.2772 208.344 55.8093 0.59435 -0.00623749
1189000 60.2772 208.357 55.8093 0.59445 -0.0254962
1189200 60.2772 208.37 55.8093 0.59455 -0.0239998
1189400 60.2772 208.383 55.8093 0.59465 0.00955113
1189600 60.2772 208.396 55.8093 0.59475 -0.00858148
1189800 60.2772 208.41 55.8093 0.59485 -0.00615157
1190000 60.2772 208.423 55.8093 0.59495 -0.013712
1190200 60.2772 208.436 55.8093 0.59505 0.0178873
1190400 60.2772 208.449 55.8093 0.59515 0.00298294
1190600 60.2772 208.462 55.8093 0.59525 0.0202393
1190800 60.2772 208.475 55.8093 0.59535 0.030568
1191000 60.2772 208.488 55.8093 0.59545 0.00704426
1191200 60.2772 208.501 55.8093 0.59555 0.0172004
1191400 60.2772 208.514 55.8093 0.59565 0.0102364
1191600 60.2772 208.527 55.8093 0.59575 0.0164752
1191800 60.2772 208.54 55.8093 0.59585 0.00431561
1192000 60.2772 208.553 55.8093 0.59595 0.0271191
1192200 60.2772 208.566 55.8093 0.59605 -0.00277524
1192400 60.2772 208.579 55.8093 0.59615 0.00183591
1192600 60.2772 208.592 55.8093 0.59625 -0.0169125
1192800 60.2772 208.606 55.8093 0.59635 -0.0187339
1193000 60.2772 208.619 55.8093 0.59645 -0.0172294
1193200 60.2772 208.632 55.8093 0.59655 0.00376653
1193400 60.2772 208.645 55.8093 0.59665 -0.023428
1193600 60.2772 208.658 55.8093 0.59675 -0.0080017
1193800 60.2772 208.671 55.8093 0.59685 -0.00445952
1194000 60.2772 208.684 55.8093 0.59695 -0.00540235
1194200 60.2772 208.697 55.8093 0.59705 -0.00416081
1194400 60.2772 208.71 55.8093 0.59715 0.0134553
1194600 60.2772 208.723 55.8093 0.59725 0.0206845
1194800 60.2772 208.736 55.8093 0.59735 0.00846424
1195000 60.2772 208.749 55.8093 0.59745 0.0189671
1195200 60.2772 208.762 55.8093 0.59755 0.0233056
1195400 60.2772 208.775 55.8093 0.59765 0.0242951
1195600 60.2772 208.788 55.8093 0.59775 0.0305781
1195800 60.2772 208.802 55.8093 0.59785 0.0169828
1196000 60.2772 208.815 55.8093 0.59795 0.00926305
1196200 60.2772 208.828 55.8093 0.59805 0.0062444
1196400 60.2772 208.841 55.8093 0.59815 -0.0212878
1196600 60.2772 208.854 55.8093 0.59825 -0.0127569
1196800 60.2772 208.867 55.8093 0.59835 -0.003509
1197000 60.2772 208.88 55.8093 0.59845 -0.00654604
1197200 60.2772 208.893 55.8093 0.59855 -0.015258
1197400 60.2772 208.906 55.8093 0.59865 -0.0256543
1197600 60.2772 208.919 55.8093 0.59875 -0.0184509
1197800 60.2772 208.932 55.8093 0.59885 -0.00288466
1198000 60.2772 208.945 55.8093 0.59895 -0.0100117
1198200 60.2772 208.958 55.8093 0.59905 -0.00972085
1198400 60.2772 208.971 55.8093 0.59915 0.0184065
1198600 60.2772 208.985 55.8093 0.59925 0.00836527
1198800 60.2772 208.998 55.8093 0.59935 0.0160516
1199000 60.2772 209.011 55.8093 0.59945 0.0356319
1199200 60.2772 209.024 55.8093 0.59955 0.0252366
1199400 60.2772 209.037 55.8093 0.59965 0.0128183
1199600 60.2772 209.05 55.8093 0.59975 0.00971928
1199800 60.2772 209.063 55.8093 0.59985 0.0336923
1200000 60.2772 209.076 55.8093 0.59995 -0.00333844
1200200 60.2772 209.089 55.8093 0.60005 0.00681582
1200400 60.2772 209.102 55.8093 0.60015 -0.0126367
1200600 60.2772 209.115 55.8093 0.60025 -0.00160078
1200800 60.2772 209.128 55.8093 0.60035 -0.00661957
1201000 60.2772 209.141 55.8093 0.60045 -0.00708122
1201200 60.2772 209.154 55.8093 0.60055 -0.0154355
1201400 60.2772 209.167 55.8093 0.60065 -0.0271434
1201600 60.2772 209.181 55.8093 0.60075 -0.00886276
1201800 60.2772 209.194 55.8093 0.60085 -0.00131699
1202000 60.2772 209.207 55.8093 0.60095 -0.00638219
1202200 60.2772 209.22 55.8093 0.60105 0.00162006
1202400 60.2772 209.233 55.8093 0.60115 0.0109404
1202600 60.2772 209.246 55.8093 0.60125 0.00796198
1202800 60.2772 209.259 55.8093 0.60135 0.0062847
1203000 60.2772 209.272 55.8093 0.60145 0.0236045
1203200 60.2772 209.285 55.8093 0.60155 0.0205941
1203400 60.2772 209.298 55.8093 0.60165 0.0331961
1203600 60.2772 209.311 55.8093 0.60175 0.0174069
1203800 60.2772 209.324 55.8093 0.60185 0.00965044
1204000 60.2772 209.337 55.8093 0.60195 0.00153517
1204200 60.2772 209.35 55.8093 0.60205 -0.00665392
1204400 60.2772 209.363 55.8093 0.60215 0.0041397
1204600 60.2772 209.377 55.8093 0.60225 -0.00209615
1204800 60.2772 209.39 55.8093 0.60235 -0.0110502
1205000 60.2772 209.403 55.8093 0.60245 -0.000272619
1205200 60.2772 209.416 55.8093 0.60255 -0.0198394
1205400 60.2772 209.429 55.8093 0.60265 -0.0156884
1205600 60.2772 209.442 55.8093 0.60275 -0.004746
1205800 60.2772 209.455 55.8093 0.60285 -0.0124641
1206000 60.2772 209.468 55.8093 0.60295 0.00400029
1206200 60.2772 209.481 55.8093 0.60305 0.00918524
1206400 60.2772 209.494 55.8093 0.60315 -0.00155332
1206600 60.2772 209.507 55.8093 0.60325 0.00576946
1206800 60.2772 209.52 55.8093 0.60335 0.00287458
1207000 60.2772 209.533 55.8093 0.60345 0.0285744
1207200 60.2772 209.546 55.8093 0.60355 0.0214613
1207400 60.2772 209.559 55.8093 0.60365 0.0217956
1207600 60.2772 209.573 55.8093 0.60375 0.013211
1207800 60.2772 209.586 55.8093 0.60385 0.00418078
1208000 60.2772 209.599 55.8093 0.60395 0.00326077
1208200 60.2772 209.612 55.8093 0.60405 0.00466725
1208400 60.2772 209.625 55.8093 0.60415 0.00736333
1208600 60.2772 209.638 55.8093 0.60425 -0.00205408
1208800 60.2772 209.651 55.8093 0.60435 -0.0112545
1209000 60.2772 209.664 55.8093 0.60445 -0.00772811
1209200 60.2772 209.677 55.8093 0.60455 -0.00603956
1209400 60.2772 209.69 55.8093 0.60465 -0.0142816
1209600 60.2772 209.703 55.8093 0.60475 -0.00325222
1209800 60.2772 209.716 55.8093 0.60485 -0.0193151
1210000 60.2772 209.729 55.8093 0.60495 0.00515674
1210200 60.2772 209.742 55.8093 0.60505 0.00455429
1210400 60.2772 209.756 55.8093 0.60515 0.000534108
1210600 60.2772 209.769 55.8093 0.60525 0.00634585
1210800 60.2772 209.782 55.8093 0.60535 0.0145208
1211000 60.2772 209.795 55.8093 0.60545 0.0337601
1211200 60.2772 209.808 55.8093 0.60555 0.00128399
1211400 60.2772 209.821 55.8093 0.60565 0.0079264
1211600 60.2772 209.834 55.8093 0.60575 0.0230325
1211800 60.2772 209.847 55.8093 0.60585 0.000902001
1212000 60.2772 209.86 55.8093 0.60595 -8.61905e-05
1212200 60.2772 209.873 55.8093 0.60605 0.00429418
1212400 60.2772 209.886 55.8093 0.60615 0.00811147
1212600 60.2772 209.899 55.8093 0.60625 -0.00459662
1212800 60.2772 209.912 55.8093 0.60635 -0.0173043
1213000 60.2772 209.925 55.8093 0.60645 1.83101e-06
1213200 60.2772 209.938 55.8093 0.60655 -0.00603327
1213400 60.2772 209.952 55.8093 0.60665 -0.00509007
1213600 60.2772 209.965 55.8093 0.60675 -0.003767
1213800 60.2772 209.978 55.8093 0.60685 -0.0150964
1214000 60.2772 209.991 55.8093 0.60695 -0.00137496
1214200 60.2772 210.004 55.8093 0.60705 -0.0135191
1214400 60.2772 210.017 55.8093 0.60715 0.0196413
1214600 60.2772 210.03 55.8093 0.60725 0.0237052
1214800 60.2772 210.043 55.8093 0.60735 0.00670678
1215000 60.2772 210.056 55.8093 0.60745 0.0207698
1215200 60.2772 210.069 55.8093 0.60755 0.023244
1215400 60.2772 210.082 55.8093 0.60765 0.00233665
1215600 60.2772 210.095 55.8093 0.60775 0.010369
1215800 60.2772 210.108 55.8093 0.60785 -0.00107275
1216000 60.2772 210.121 55.8093 0.60795 0.0284887
1216200 60.2772 210.134 55.8093 0.60805 0.00903628
1216400 60.2772 210.148 55.8093 0.60815 -0.0181856
1216600 60.2772 210.161 55.8093 0.60825 -0.00591075
1216800 60.2772 210.174 55.8093 0.60835 -0.0304281
1217000 60.2772 210.187 55.8093 0.60845 -0.000620164
1217200 60.2772 210.2 55.8093 0.60855 -0.00383748
1217400 60.2772 210.213 55.8093 0.60865 -0.00204729
1217600 60.2772 210.226 55.8093 0.60875 -0.00256064
1217800 60.2772 210.239 55.8093 0.60885 -0.00271787
1218000 60.2772 210.252 55.8093 0.60895 0.00321429
1218200 60.2772 210.265 55.8093 0.60905 -0.0108284
1218400 60.2772 210.278 55.8093 0.60915 0.017877
1218600 60.2772 210.291 55.8093 0.60925 0.016873
1218800 60.2772 210.304 55.8093 0.60935 0.013683
1219000 60.2772 210.317 55.8093 0.60945 0.0168208
1219200 60.2772 210.33 55.8093 0.60955 0.00376802
1219400 60.2772 210.344 55.8093 0.60965 0.0113893
1219600 60.2772 210.357 55.8093 0.60975 0.00988364
1219800 60.2772 210.37 55.8093 0.60985 0.00917167
1220000 60.2772 210.383 55.8093 0.60995 0.0168202
1220200 60.2772 210.396 55.8093 0.61005 -0.00150356
1220400 60.2772 210.409 55.8093 0.61015 -0.00507583
1220600 60.2772 210.422 55.8093 0.61025 -0.0168824
1220800 60.2772 210.435 55.8093 0.61035 0.00641044
1221000 60.2772 210.448 55.8093 0.61045 -0.0169961
1221200 60.2772 210.461 55.8093 0.61055 -0.00820899
1221400 60.2772 210.474 55.8093 0.61065 0.00978526
1221600 60.2772 210.487 55.8093 0.61075 -0.0262003
1221800 60.2772 210.5 55.8093 0.61085 0.00201954
1222000 60.2772 210.513 55.8093 0.61095 -0.00765669
1222200 60.2772 210.526 55.8093 0.61105 -0.0159514
1222400 60.2772 210.54 55.8093 0.61115 0.0406894
1222600 60.2772 210.553 55.8093 0.61125 0.0223498
1222800 60.2772 210.566 55.8093 0.61135 0.0135923
1223000 60.2772 210.579 55.8093 0.61145 0.0238818
1223200 60.2772 210.592 55.8093 0.61155 0.000574172
1223400 60.2772 210.605 55.8093 0.61165 0.0164935
1223600 60.2772 210.618 55.8093 0.61175 -0.00528619
1223800 60.2772 210.631 55.8093 0.61185 0.0184215
1224000 60.2772 210.644 55.8093 0.61195 0.00770537
1224200 60.2772 210.657 55.8093 0.61205 0.000858525
1224400 60.2772 210.67 55.8093 0.61215 -0.00577447
1224600 60.2772 210.683 55.8093 0.61225 -0.00497144
1224800 60.2772 210.696 55.8093 0.61235 -0.0247012
1225000 60.2772 210.709 55.8093 0.61245 -0.0139413
1225200 60.2772 210.723 55.8093 0.61255 0.00450481
1225400 60.2772 210.736 55.8093 0.61265 -0.0171366
1225600 60.2772 210.749 55.8093 0.61275 0.00533705
1225800 60.2772 210.762 55.8093 0.61285 0.0010329
1226000 60.2772 210.775 55.8093 0.61295 -0.0150569
1226200 60.2772 210.788 55.8093 0.61305 0.012319
1226400 60.2772 210.801 55.8093 0.61315 0.0119977
1226600 60.2772 210.814 55.8093 0.61325 0.0143011
1226800 60.2772 210.827 55.8093 0.61335 0.000460913
1227000 60.2772 210.84 55.8093 0.61345 0.0378131
1227200 60.2772 210.853 55.8093 0.61355 0.0087878
1227400 60.2772 210.866 55.8093 0.61365 0.0166365
1227600 60.2772 210.879 55.8093 0.61375 0.00838671
1227800 60.2772 210.892 55.8093 0.61385 -0.00316386
1228000 60.2772 210.905 55.8093 0.61395 0.0077137
1228200 60.2772 210.919 55.8093 0.61405 -0.0169558
1228400 60.2772 210.932 55.8093 0.61415 0.0153589
1228600 60.2772 210.945 55.8093 0.61425 -0.00327581
1228800 60.2772 210.958 55.8093 0.61435 0.00136954
1229000 60.2772 210.971 55.8093 0.61445 0.00298418
1229200 60.2772 210.984 55.8093 0.61455 -0.00775345
1229400 60.2772 210.997 55.8093 0.61465 -0.017905
1229600 60.2772 211.01 55.8093 0.61475 -0.00461481
1229800 60.2772 211.023 55.8093 0.61485 0.0016319
1230000 60.2772 211.036 55.8093 0.61495 0.00352343
1230200 60.2772 211.049 55.8093 0.61505 0.00421241
1230400 60.2772 211.062 55.8093 0.61515 -0.003108
1230600 60.2772 211.075 55.8093 0.61525 -0.00270647
1230800 60.2772 211.088 55.8093 0.61535 0.0126551
1231000 60.2772 211.101 55.8093 0.61545 -0.0150249
1231200 60.2772 211.115 55.8093 0.61555 0.00682208
1231400 60.2772 211.128 55.8093 0.61565 0.0325044
1231600 60.2772 211.141 55.8093 0.61575 0.00902325
1231800 60.2772 211.154 55.8093 0.61585 0.0283408
1232000 60.2772 211.167 55.8093 0.61595 -0.00935791
1232200 60.2772 211.18 55.8093 0.61605 0.00811527
1232400 60.2772 211.193 55.8093 0.61615 0.00108985
1232600 60.2772 211.206 55.8093 0.61625 0.0148116
1232800 60.2772 211.219 55.8093 0.61635 -0.000796464
1233000 60.2772 211.232 55.8093 0.61645 0.00255789
1233200 60.2772 211.245 55.8093 0.61655 0.00310301
1233400 60.2772 211.258 55.8093 0.61665 0.00076712
1233600 60.2772 211.271 55.8093 0.61675 -0.0146056
1233800 60.2772 211.284 55.8093 0.61685 -0.0288389
1234000 60.2772 211.297 55.8093 0.61695 0.0169297
1234200 60.2772 211.311 55.8093 0.61705 -0.0105182
1234400 60.2772 211.324 55.8093 0.61715 -0.00403189
1234600 60.2772 211.337 55.8093 0.61725 0.0125431
1234800 60.2772 211.35 55.8093 0.61735 0.00661942
1235000 60.2772 211.363 55.8093 0.61745 -0.00172696
1235200 60.2772 211.376 55.8093 0.61755 0.00330117
1235400 60.2772 211.389 55.8093 0.61765 0.0135921
1235600 60.2772 211.402 55.8093 0.61775 0.0099146
1235800 60.2772 211.415 55.8093 0.61785 0.00370086
1236000 60.2772 211.428 55.8093 0.61795 0.0145382
1236200 60.2772 211.441 55.8093 0.61805 0.00929976
1236400 60.2772 211.454 55.8093 0.61815 0.0101367
1236600 60.2772 211.467 55.8093 0.61825 0.0104821
1236800 60.2772 211.48 55.8093 0.61835 0.00467235
1237000 60.2772 211.494 55.8093 0.61845 0.0058635
1237200 60.2772 211.507 55.8093 0.61855 -0.0061671
1237400 60.2772 211.52 55.8093 0.61865 -0.0346857
1237600 60.2772 211.533 55.8093 0.61875 0.00753903
1237800 60.2772 211.546 55.8093 0.61885 0.0030726
1238000 60.2772 211.559 55.8093 0.61895 0.00114757
1238200 60.2772 211.572 55.8093 0.61905 0.00305192
1238400 60.2772 211.585 55.8093 0.61915 -0.00878135
1238600 60.2772 211.598 55.8093 0.61925 -0.00194931
1238800 60.2772 211.611 55.8093 0.61935 -0.0162524
1239000 60.2772 211.624 55.8093 0.61945 0.0201689
1239200 60.2772 211.637 55.8093 0.61955 0.0224674
1239400 60.2772 211.65 55.8093 0.61965 0.0247126
1239600 60.2772 211.663 55.8093 0.61975 0.0032956
1239800 60.2772 211.676 55.8093 0.61985 0.00718289
1240000 60.2772 211.69 55.8093 0.61995 -0.00384872
1240200 60.2772 211.703 55.8093 0.62005 -0.00606576
1240400 60.2772 211.716 55.8093 0.62015 0.00614609
1240600 60.2772 211.729 55.8093 0.62025 0.017778
1240800 60.2772 211.742 55.8093 0.62035 -0.00516998
1241000 60.2772 211.755 55.8093 0.62045 0.00764512
1241200 60.2772 211.768 55.8093 0.62055 0.00105926
1241400 60.2772 211.781 55.8093 0.62065 -0.00657644
1241600 60.2772 211.794 55.8093 0.62075 -0.0241387
1241800 60.2772 211.807 55.8093 0.62085 0.00651241
1242000 60.2772 211.82 55.8093 0.62095 -0.0018295
1242200 60.2772 211.833 55.8093 0.62105 0.0156552
1242400 60.2772 211.846 55.8093 0.62115 -0.00201263
1242600 60.2772 211.859 55.8093 0.62125 0.00419702
1242800 60.2772 211.872 55.8093 0.62135 0.00854301
1243000 60.2772 211.886 55.8093 0.62145 -0.0219763
1243200 60.2772 211.899 55.8093 0.62155 0.00726351
1243400 60.2772 211.912 55.8093 0.62165 0.0091622
1243600 60.2772 211.925 55.8093 0.62175 0.0202298
1243800 60.2772 211.938 55.8093 0.62185 0.00354623
1244000 60.2772 211.951 55.8093 0.62195 0.0142038
1244200 60.2772 211.964 55.8093 0.62205 -0.000951029
1244400 60.2772 211.977 55.8093 0.62215 0.00563336
1244600 60.2772 211.99 55.8093 0.62225 0.0047003
1244800 60.2772 212.003 55.8093 0.62235 0.0208113
1245000 60.2772 212.016 55.8093 0.62245 -0.00724642
1245200 60.2772 212.029 55.8093 0.62255 0.00699133
1245400 60.2772 212.042 55.8093 0.62265 -0.00120601
1245600 60.2772 212.055 55.8093 0.62275 -0.00512139
1245800 60.2772 212.068 55.8093 0.62285 0.0148493
1246000 60.2772 212.082 55.8093 0.62295 0.00787482
1246200 60.2772 212.095 55.8093 0.62305 -0.0106706
1246400 60.2772 212.108 55.8093 0.62315 -0.0150256
1246600 60.2772 212.121 55.8093 0.62325 -0.00364448
1246800 60.2772 212.134 55.8093 0.62335 0.00584532
1247000 60.2772 212.147 55.8093 0.62345 0.0126309
1247200 60.2772 212.16 55.8093 0.62355 0.00308689
1247400 60.2772 212.173 55.8093 0.62365 -0.00242296
1247600 60.2772 212.186 55.8093 0.62375 -0.00101743
1247800 60.2772 212.199 55.8093 0.62385 0.00122405
1248000 60.2772 212.212 55.8093 0.62395 0.00461198
1248200 60.2772 212.225 55.8093 0.62405 0.00661288
1248400 60.2772 212.238 55.8093 0.62415 0.000775695
1248600 60.2772 212.251 55.8093 0.62425 0.00809297
1248800 60.2772 212.264 55.8093 0.62435 0.0135376
1249000 60.2772 212.278 55.8093 0.62445 0.00982338
1249200 60.2772 212.291 55.8093 0.62455 0.000106649
1249400 60.2772 212.304 55.8093 0.62465 0.000385852
1249600 60.2772 212.317 55.8093 0.62475 0.00769413
1249800 60.2772 212.33 55.8093 0.62485 0.0132918
1250000 60.2772 212.343 55.8093 0.62495 0.0135392
1250200 60.2772 212.356 55.8093 0.62505 0.0105023
1250400 60.2772 212.369 55.8093 0.62515 -0.0288253
1250600 60.2772 212.382 55.8093 0.62525 -0.0053127
1250800 60.2772 212.395 55.8093 0.62535 0.00536913
1251000 60.2772 212.408 55.8093 0.62545 -0.0116361
1251200 60.2772 212.421 55.8093 0.62555 0.000830137
1251400 60.2772 212.434 55.8093 0.62565 0.00184048
1251600 60.2772 212.447 55.8093 0.62575 0.0139331
1251800 60.2772 212.461 55.8093 0.62585 -0.00333924
1252000 60.2772 212.474 55.8093 0.62595 -0.003435
1252200 60.2772 212.487 55.8093 0.62605 -0.00137928
1252400 60.2772 212.5 55.8093 0.62615 0.00925002
1252600 60.2772 212.513 55.8093 0.62625 0.001244
1252800 60.2772 212.526 55.8093 0.62635 0.0103418
1253000 60.2772 212.539 55.8093 0.62645 0.0153507
1253200 60.2772 212.552 55.8093 0.62655 0.00958216
1253400 60.2772 212.565 55.8093 0.62665 -0.0070493
1253600 60.2772 212.578 55.8093 0.62675 0.0150051
1253800 60.2772 212.591 55.8093 0.62685 0.0118493
1254000 60.2772 212.604 55.8093 0.62695 -0.00470115
1254200 60.2772 212.617 55.8093 0.62705 0.00707868
1254400 60.2772 212.63 55.8093 0.62715 0.00180419
1254600 60.2772 212.643 55.8093 0.62725 0.000433139
1254800 60.2772 212.657 55.8093 0.62735 -0.00430512
1255000 60.2772 212.67 55.8093 0.62745 -0.000215256
1255200 60.2772 212.683 55.8093 0.62755 0.0071115
1255400 60.2772 212.696 55.8093 0.62765 -0.00363378
1255600 60.2772 212.709 55.8093 0.62775 -0.00502302
1255800 60.2772 212.722 55.8093 0.62785 -0.00582241
1256000 60.2772 212.735 55.8093 0.62795 -0.00461116
1256200 60.2772 212.748 55.8093 0.62805 0.0137679
1256400 60.2772 212.761 55.8093 0.62815 0.0076339
1256600 60.2772 212.774 55.8093 0.62825 -0.0126821
1256800 60.2772 212.787 55.8093 0.62835 0.0232869
1257000 60.2772 212.8 55.8093 0.62845 0.0129298
1257200 60.2772 212.813 55.8093 0.62855 0.0148184
1257400 60.2772 212.826 55.8093 0.62865 -0.00556327
1257600 60.2772 212.839 55.8093 0.62875 0.00771053
1257800 60.2772 212.853 55.8093 0.62885 0.00549467
1258000 60.2772 212.866 55.8093 0.62895 0.00883503
1258200 60.2772 212.879 55.8093 0.62905 0.00237394
1258400 60.2772 212.892 55.8093 0.62915 0.0118953
1258600 60.2772 212.905 55.8093 0.62925 -0.00715178
1258800 60.2772 212.918 55.8093 0.62935 -0.0119389
1259000 60.2772 212.931 55.8093 0.62945 -0.00422006
1259200 60.2772 212.944 55.8093 0.62955 -0.00444764
1259400 60.2772 212.957 55.8093 0.62965 -0.0136245
1259600 60.2772 212.97 55.8093 0.62975 0.0295531
1259800 60.2772 212.983 55.8093 0.62985 0.00200875
1260000 60.2772 212.996 55.8093 0.62995 0.00297566
1260200 60.2772 213.009 55.8093 0.63005 -0.0076486
1260400 60.2772 213.022 55.8093 0.63015 -0.0237031
1260600 60.2772 213.035 55.8093 0.63025 0.0381718
1260800 60.2772 213.049 55.8093 0.63035 -0.00450403
1261000 60.2772 213.062 55.8093 0.63045 0.00196262
1261200 60.2772 213.075 55.8093 0.63055 0.020686
1261400 60.2772 213.088 55.8093 0.63065 0.0288885
1261600 60.2772 213.101 55.8093 0.63075 -0.000462933
1261800 60.2772 213.114 55.8093 0.63085 -0.00655342
1262000 60.2772 213.127 55.8093 0.63095 -0.0142189
1262200 60.2772 213.14 55.8093 0.63105 0.0183616
1262400 60.2772 213.153 55.8093 0.63115 0.012262
1262600 60.2772 213.166 55.8093 0.63125 0.00318662
1262800 60.2772 213.179 55.8093 0.63135 -0.000192548
1263000 60.2772 213.192 55.8093 0.63145 -0.000620745
1263200 60.2772 213.205 55.8093 0.63155 -0.00307786
1263400 60.2772 213.218 55.8093 0.63165 -0.00224149
1263600 60.2772 213.231 55.8093 0.63175 -0.00721915
1263800 60.2772 213.245 55.8093 0.63185 0.00507844
1264000 60.2772 213.258 55.8093 0.63195 0.00636027
1264200 60.2772 213.271 55.8093 0.63205 0.00225409
1264400 60.2772 213.284 55.8093 0.63215 -0.0112503
1264600 60.2772 213.297 55.8093 0.63225 0.0178968
1264800 60.2772 213.31 55.8093 0.63235 -0.0139418
1265000 60.2772 213.323 55.8093 0.63245 0.0050136
1265200 60.2772 213.336 55.8093 0.63255 0.0129073
1265400 60.2772 213.349 55.8093 0.63265 0.00354295
1265600 60.2772 213.362 55.8093 0.63275 0.0219931
1265800 60.2772 213.375 55.8093 0.63285 0.000272712
1266000 60.2772 213.388 55.8093 0.63295 -0.00245894
1266200 60.2772 213.401 55.8093 0.63305 -0.00182376
1266400 60.2772 213.414 55.8093 0.63315 -0.00109982
1266600 60.2772 213.428 55.8093 0.63325 0.0194655
1266800 60.2772 213.441 55.8093 0.63335 0.0109655
1267000 60.2772 213.454 55.8093 0.63345 0.0126092
1267200 60.2772 213.467 55.8093 0.63355 -0.00417898
1267400 60.2772 213.48 55.8093 0.63365 -0.00874754
1267600 60.2772 213.493 55.8093 0.63375 -0.00595037
1267800 60.2772 213.506 55.8093 0.63385 0.011358
1268000 60.2772 213.519 55.8093 0.63395 0.00231646
1268200 60.2772 213.532 55.8093 0.63405 -0.00564513
1268400 60.2772 213.545 55.8093 0.63415 0.0158563
1268600 60.2772 213.558 55.8093 0.63425 -0.0222165
1268800 60.2772 213.571 55.8093 0.63435 0.0272991
1269000 60.2772 213.584 55.8093 0.63445 0.000680732
1269200 60.2772 213.597 55.8093 0.63455 -0.00467652
1269400 60.2772 213.61 55.8093 0.63465 0.00185775
1269600 60.2772 213.624 55.8093 0.63475 0.00545852
1269800 60.2772 213.637 55.8093 0.63485 0.00582926
1270000 60.2772 213.65 55.8093 0.63495 0.000785386
1270200 60.2772 213.663 55.8093 0.63505 0.000690778
1270400 60.2772 213.676 55.8093 0.63515 0.00751219
1270600 60.2772 213.689 55.8093 0.63525 -0.0235574
1270800 60.2772 213.702 55.8093 0.63535 0.00548896
1271000 60.2772 213.715 55.8093 0.63545 0.0083267
1271200 60.2772 213.728 55.8093 0.63555 0.0224582
1271400 60.2772 213.741 55.8093 0.63565 -0.0054606
1271600 60.2772 213.754 55.8093 0.63575 -0.00249214
1271800 60.2772 213.767 55.8093 0.63585 0.0163801
1272000 60.2772 213.78 55.8093 0.63595 0.00582796
1272200 60.2772 213.793 55.8093 0.63605 0.00595348
1272400 60.2772 213.806 55.8093 0.63615 0.0169266
1272600 60.2772 213.82 55.8093 0.63625 0.0104469
1272800 60.2772 213.833 55.8093 0.63635 0.00344582
1273000 60.2772 213.846 55.8093 0.63645 -0.0127951
1273200 60.2772 213.859 55.8093 0.63655 -0.00663636
1273400 60.2772 213.872 55.8093 0.63665 0.00967423
1273600 60.2772 213.885 55.8093 0.63675 -0.0114168
1273800 60.2772 213.898 55.8093 0.63685 0.016849
1274000 60.2772 213.911 55.8093 0.63695 0.00102533
1274200 60.2772 213.924 55.8093 0.63705 -0.00407643
1274400 60.2772 213.937 55.8093 0.63715 -0.00131338
1274600 60.2772 213.95 55.8093 0.63725 -0.00817622
1274800 60.2772 213.963 55.8093 0.63735 0.00306608
1275000 60.2772 213.976 55.8093 0.63745 0.00627123
1275200 60.2772 213.989 55.8093 0.63755 0.016747
1275400 60.2772 214.002 55.8093 0.63765 0.004242
1275600 60.2772 214.016 55.8093 0.63775 0.0190555
1275800 60.2772 214.029 55.8093 0.63785 0.00735798
1276000 60.2772 214.042 55.8093 0.63795 0.00341135
1276200 60.2772 214.055 55.8093 0.63805 0.00900354
1276400 60.2772 214.068 55.8093 0.63815 0.0110365
1276600 60.2772 214.081 55.8093 0.63825 -0.0119729
1276800 60.2772 214.094 55.8093 0.63835 0.00393187
1277000 60.2772 214.107 55.8093 0.63845 0.00952004
1277200 60.2772 214.12 55.8093 0.63855 -0.00723468
1277400 60.2772 214.133 55.8093 0.63865 -0.00600201
1277600 60.2772 214.146 55.8093 0.63875 -0.00580402
1277800 60.2772 214.159 55.8093 0.63885 -0.0109184
1278000 60.2772 214.172 55.8093 0.63895 0.0111244
1278200 60.2772 214.185 55.8093 0.63905 0.00219983
1278400 60.2772 214.199 55.8093 0.63915 -0.0145509
1278600 60.2772 214.212 55.8093 0.63925 0.019811
1278800 60.2772 214.225 55.8093 0.63935 0.00413441
1279000 60.2772 214.238 55.8093 0.63945 0.00272742
1279200 60.2772 214.251 55.8093 0.63955 0.0191991
1279400 60.2772 214.264 55.8093 0.63965 0.0176369
1279600 60.2772 214.277 55.8093 0.63975 0.00900029
1279800 60.2772 214.29 55.8093 0.63985 -0.00958443
1280000 60.2772 214.303 55.8093 0.63995 0.0141514
1280200 60.2772 214.316 55.8093 0.64005 0.00780499
1280400 60.2772 214.329 55.8093 0.64015 0.0157866
1280600 60.2772 214.342 55.8093 0.64025 0.0014465
1280800 60.2772 214.355 55.8093 0.64035 0.00968305
1281000 60.2772 214.368 55.8093 0.64045 -0.00315051
1281200 60.2772 214.381 55.8093 0.64055 -0.0234076
1281400 60.2772 214.395 55.8093 0.64065 -0.00443734
1281600 60.2772 214.408 55.8093 0.64075 -0.00989747
1281800 60.2772 214.421 55.8093 0.64085 -0.00109425
1282000 60.2772 214.434 55.8093 0.64095 -0.00212234
1282200 60.2772 214.447 55.8093 0.64105 0.00505624
1282400 60.2772 214.46 55.8093 0.64115 -0.00591834
1282600 60.2772 214.473 55.8093 0.64125 0.00725376
1282800 60.2772 214.486 55.8093 0.64135 0.0134597
1283000 60.2772 214.499 55.8093 0.64145 -0.00787639
1283200 60.2772 214.512 55.8093 0.64155 0.00978345
1283400 60.2772 214.525 55.8093 0.64165 0.0190945
1283600 60.2772 214.538 55.8093 0.64175 0.0313077
1283800 60.2772 214.551 55.8093 0.64185 0.00687862
1284000 60.2772 214.564 55.8093 0.64195 0.00621336
1284200 60.2772 214.577 55.8093 0.64205 0.0178982
1284400 60.2772 214.591 55.8093 0.64215 -0.00877934
1284600 60.2772 214.604 55.8093 0.64225 -0.00190674
1284800 60.2772 214.617 55.8093 0.64235 0.00190389
1285000 60.2772 214.63 55.8093 0.64245 0.00342406
1285200 60.2772 214.643 55.8093 0.64255 0.00407626
1285400 60.2772 214.656 55.8093 0.64265 -0.00580764
1285600 60.2772 214.669 55.8093 0.64275 -0.0209027
1285800 60.2772 214.682 55.8093 0.64285 0.00369315
1286000 60.2772 214.695 55.8093 0.64295 -0.00928103
1286200 60.2772 214.708 55.8093 0.64305 0.00866675
1286400 60.2772 214.721 55.8093 0.64315 0.00290617
1286600 60.2772 214.734 55.8093 0.64325 0.0203771
1286800 60.2772 214.747 55.8093 0.64335 0.00532638
1287000 60.2772 214.76 55.8093 0.64345 -0.00265456
1287200 60.2772 214.773 55.8093 0.64355 0.0174025
1287400 60.2772 214.787 55.8093 0.64365 -0.00855712
1287600 60.2772 214.8 55.8093 0.64375 0.00825587
1287800 60.2772 214.813 55.8093 0.64385 -0.00604458
1288000 60.2772 214.826 55.8093 0.64395 0.0183449
1288200 60.2772 214.839 55.8093 0.64405 0.0120644
1288400 60.2772 214.852 55.8093 0.64415 0.00784632
1288600 60.2772 214.865 55.8093 0.64425 -0.00323396
1288800 60.2772 214.878 55.8093 0.64435 0.0172955
1289000 60.2772 214.891 55.8093 0.64445 -0.0123846
1289200 60.2772 214.904 55.8093 0.64455 -0.00425745
1289400 60.2772 214.917 55.8093 0.64465 -0.00201614
1289600 60.2772 214.93 55.8093 0.64475 0.0034666
1289800 60.2772 214.943 55.8093 0.64485 -0.00350237
1290000 60.2772 214.956 55.8093 0.64495 0.00769445
1290200 60.2772 214.969 55.8093 0.64505 -0.00757127
1290400 60.2772 214.983 55.8093 0.64515 -0.015478
1290600 60.2772 214.996 55.8093 0.64525 0.01023
1290800 60.2772 215.009 55.8093 0.64535 0.0104075
1291000 60.2772 215.022 55.8093 0.64545 0.0133145
1291200 60.2772 215.035 55.8093 0.64555 0.00954816
1291400 60.2772 215.048 55.8093 0.64565 0.0113539
1291600 60.2772 215.061 55.8093 0.64575 0.0154572
1291800 60.2772 215.074 55.8093 0.64585 -0.00143665
1292000 60.2772 215.087 55.8093 0.64595 0.012943
1292200 60.2772 215.1 55.8093 0.64605 -0.00849964
1292400 60.2772 215.113 55.8093 0.64615 0.0297328
1292600 60.2772 215.126 55.8093 0.64625 0.00294846
1292800 60.2772 215.139 55.8093 0.64635 0.00138694
1293000 60.2772 215.152 55.8093 0.64645 -0.00227171
1293200 60.2772 215.166 55.8093 0.64655 -0.0148806
1293400 60.2772 215.179 55.8093 0.64665 0.00457017
1293600 60.2772 215.192 55.8093 0.64675 0.0142646
1293800 60.2772 215.205 55.8093 0.64685 -0.028058
1294000 60.2772 215.218 55.8093 0.64695 0.0113678
1294200 60.2772 215.231 55.8093 0.64705 -0.00834553
1294400 60.2772 215.244 55.8093 0.64715 -0.00900989
1294600 60.2772 215.257 55.8093 0.64725 -0.00663697
1294800 60.2772 215.27 55.8093 0.64735 0.00339082
1295000 60.2772 215.283 55.8093 0.64745 0.00222976
1295200 60.2772 215.296 55.8093 0.64755 0.0165105
1295400 60.2772 215.309 55.8093 0.64765 0.0137337
1295600 60.2772 215.322 55.8093 0.64775 0.0114802
1295800 60.2772 215.335 55.8093 0.64785 0.0120335
1296000 60.2772 215.348 55.8093 0.64795 0.023619
1296200 60.2772 215.362 55.8093 0.64805 0.0107381
1296400 60.2772 215.375 55.8093 0.64815 0.0102886
1296600 60.2772 215.388 55.8093 0.64825 -0.00274975
1296800 60.2772 215.401 55.8093 0.64835 0.0113419
1297000 60.2772 215.414 55.8093 0.64845 0.025968
1297200 60.2772 215.427 55.8093 0.64855 -0.0182916
1297400 60.2772 215.44 55.8093 0.64865 -0.0108515
1297600 60.2772 215.453 55.8093 0.64875 -0.0110404
1297800 60.2772 215.466 55.8093 0.64885 -0.00484196
1298000 60.2772 215.479 55.8093 0.64895 -0.00745742
1298200 60.2772 215.492 55.8093 0.64905 -0.00600668
1298400 60.2772 215.505 55.8093 0.64915 0.0153864
1298600 60.2772 215.518 55.8093 0.64925 -0.00179442
1298800 60.2772 215.531 55.8093 0.64935 -0.00632637
1299000 60.2772 215.544 55.8093 0.64945 0.00525282
1299200 60.2772 215.558 55.8093 0.64955 -0.00746436
1299400 60.2772 215.571 55.8093 0.64965 0.00584303
1299600 60.2772 215.584 55.8093 0.64975 0.0223112
1299800 60.2772 215.597 55.8093 0.64985 0.0240787
1300000 60.2772 215.61 55.8093 0.64995 0.010861
1300200 60.2772 215.623 55.8093 0.65005 0.018959
1300400 60.2772 215.636 55.8093 0.65015 -0.00644546
1300600 60.2772 215.649 55.8093 0.65025 -0.000921711
1300800 60.2772 215.662 55.8093 0.65035 0.000693155
1301000 60.2772 215.675 55.8093 0.65045 -0.00594649
1301200 60.2772 215.688 55.8093 0.65055 0.00248036
1301400 60.2772 215.701 55.8093 0.65065 0.00997396
1301600 60.2772 215.714 55.8093 0.65075 -0.01156
1301800 60.2772 215.727 55.8093 0.65085 0.00129873
1302000 60.2772 215.74 55.8093 0.65095 0.00159672
1302200 60.2772 215.754 55.8093 0.65105 -0.0123933
1302400 60.2772 215.767 55.8093 0.65115 0.00917783
1302600 60.2772 215.78 55.8093 0.65125 -0.00481824
1302800 60.2772 215.793 55.8093 0.65135 0.0110209
1303000 60.2772 215.806 55.8093 0.65145 0.0174736
1303200 60.2772 215.819 55.8093 0.65155 0.0197324
1303400 60.2772 215.832 55.8093 0.65165 0.015252
1303600 60.2772 215.845 55.8093 0.65175 0.00945822
1303800 60.2772 215.858 55.8093 0.65185 -0.000970335
1304000 60.2772 215.871 55.8093 0.65195 0.0022258
1304200 60.2772 215.884 55.8093 0.65205 -0.00896182
1304400 60.2772 215.897 55.8093 0.65215 0.0146391
1304600 60.2772 215.91 55.8093 0.65225 0.00765087
1304800 60.2772 215.923 55.8093 0.65235 -0.00779978
1305000 60.2772 215.937 55.8093 0.65245 -0.00499369
1305200 60.2772 215.95 55.8093 0.65255 -0.00563992
1305400 60.2772 215.963 55.8093 0.65265 -0.0139569
1305600 60.2772 215.976 55.8093 0.65275 0.00487772
1305800 60.2772 215.989 55.8093 0.65285 0.00180584
1306000 60.2772 216.002 55.8093 0.65295 -0.00551224
1306200 60.2772 216.015 55.8093 0.65305 0.00716771
1306400 60.2772 216.028 55.8093 0.65315 0.011586
1306600 60.2772 216.041 55.8093 0.65325 0.000276407
1306800 60.2772 216.054 55.8093 0.65335 0.0105218
1307000 60.2772 216.067 55.8093 0.65345 0.0123389
1307200 60.2772 216.08 55.8093 0.65355 0.00713401
1307400 60.2772 216.093 55.8093 0.65365 0.0259513
1307600 60.2772 216.106 55.8093 0.65375 0.0199397
1307800 60.2772 216.119 55.8093 0.65385 0.00362471
1308000 60.2772 216.133 55.8093 0.65395 -0.00464177
1308200 60.2772 216.146 55.8093 0.65405 -0.00617125
1308400 60.2772 216.159 55.8093 0.65415 0.012717
1308600 60.2772 216.172 55.8093 0.65425 -0.00202201
1308800 60.2772 216.185 55.8093 0.65435 -0.00646802
1309000 60.2772 216.198 55.8093 0.65445 -0.0120308
1309200 60.2772 216.211 55.8093 0.65455 0.00954379
1309400 60.2772 216.224 55.8093 0.65465 -0.0254373
1309600 60.2772 216.237 55.8093 0.65475 -0.00889491
1309800 60.2772 216.25 55.8093 0.65485 0.00120105
1310000 60.2772 216.263 55.8093 0.65495 0.0151465
1310200 60.2772 216.276 55.8093 0.65505 -0.00505782
1310400 60.2772 216.289 55.8093 0.65515 0.0058619
1310600 60.2772 216.302 55.8093 0.65525 0.021115
1310800 60.2772 216.315 55.8093 0.65535 0.0151252
1311000 60.2772 216.329 55.8093 0.65545 0.0130732
1311200 60.2772 216.342 55.8093 0.65555 0.0142767
1311400 60.2772 216.355 55.8093 0.65565 0.0199667
1311600 60.2772 216.368 55.8093 0.65575 -0.000529024
1311800 60.2772 216.381 55.8093 0.65585 0.0154711
1312000 60.2772 216.394 55.8093 0.65595 8.55752e-06
1312200 60.2772 216.407 55.8093 0.65605 0.0089629
1312400 60.2772 216.42 55.8093 0.65615 -0.00105907
1312600 60.2772 216.433 55.8093 0.65625 -0.0126036
1312800 60.2772 216.446 55.8093 0.65635 -0.01687
1313000 60.2772 216.459 55.8093 0.65645 -0.0196262
1313200 60.2772 216.472 55.8093 0.65655 0.00251331
1313400 60.2772 216.485 55.8093 0.65665 0.0112375
1313600 60.2772 216.498 55.8093 0.65675 -0.0218022
1313800 60.2772 216.511 55.8093 0.65685 0.0137173
1314000 60.2772 216.525 55.8093 0.65695 -0.00642048
1314200 60.2772 216.538 55.8093 0.65705 -0.007362
1314400 60.2772 216.551 55.8093 0.65715 0.00803603
1314600 60.2772 216.564 55.8093 0.65725 0.0221509
1314800 60.2772 216.577 55.8093 0.65735 0.0450777
1315000 60.2772 216.59 55.8093 0.65745 0.0239037
1315200 60.2772 216.603 55.8093 0.65755 0.0093085
1315400 60.2772 216.616 55.8093 0.65765 -0.00307973
1315600 60.2772 216.629 55.8093 0.65775 -0.0100366
1315800 60.2772 216.642 55.8093 0.65785 0.0159104
1316000 60.2772 216.655 55.8093 0.65795 0.0183844
1316200 60.2772 216.668 55.8093 0.65805 0.00235733
1316400 60.2772 216.681 55.8093 0.65815 0.00734124
1316600 60.2772 216.694 55.8093 0.65825 -0.0088617
1316800 60.2772 216.707 55.8093 0.65835 -0.0298643
1317000 60.2772 216.721 55.8093 0.65845 -0.0143937
1317200 60.2772 216.734 55.8093 0.65855 -0.00899054
1317400 60.2772 216.747 55.8093 0.65865 0.0150377
1317600 60.2772 216.76 55.8093 0.65875 0.0115344
1317800 60.2772 216.773 55.8093 0.65885 -0.0150025
1318000 60.2772 216.786 55.8093 0.65895 -0.00891316
1318200 60.2772 216.799 55.8093 0.65905 -0.0071703
1318400 60.2772 216.812 55.8093 0.65915 0.0069215
1318600 60.2772 216.825 55.8093 0.65925 0.020203
1318800 60.2772 216.838 55.8093 0.65935 0.00717291
1319000 60.2772 216.851 55.8093 0.65945 0.0301971
1319200 60.2772 216.864 55.8093 0.65955 0.0187104
1319400 60.2772 216.877 55.8093 0.65965 -0.00161061
1319600 60.2772 216.89 55.8093 0.65975 -0.0121261
1319800 60.2772 216.904 55.8093 0.65985 0.0202528
1320000 60.2772 216.917 55.8093 0.65995 0.0345567
1320200 60.2772 216.93 55.8093 0.66005 0.00388517
1320400 60.2772 216.943 55.8093 0.66015 -0.00105461
1320600 60.2772 216.956 55.8093 0.66025 0.00626253
1320800 60.2772 216.969 55.8093 0.66035 -0.00187319
1321000 60.2772 216.982 55.8093 0.66045 -0.0292143
1321200 60.2772 216.995 55.8093 0.66055 0.00240588
1321400 60.2772 217.008 55.8093 0.66065 -0.012597
1321600 60.2772 217.021 55.8093 0.66075 0.00170454
1321800 60.2772 217.034 55.8093 0.66085 -0.0264821
1322000 60.2772 217.047 55.8093 0.66095 0.00964417
1322200 60.2772 217.06 55.8093 0.66105 0.00610475
1322400 60.2772 217.073 55.8093 0.66115 0.012211
1322600 60.2772 217.086 55.8093 0.66125 0.00232211
1322800 60.2772 217.1 55.8093 0.66135 0.0205587
1323000 60.2772 217.113 55.8093 0.66145 0.0239684
1323200 60.2772 217.126 55.8093 0.66155 0.0112969
1323400 60.2772 217.139 55.8093 0.66165 0.0137837
1323600 60.2772 217.152 55.8093 0.66175 0.00246974
1323800 60.2772 217.165 55.8093 0.66185 0.0253159
1324000 60.2772 217.178 55.8093 0.66195 -6.81538e-05
1324200 60.2772 217.191 55.8093 0.66205 0.00437887
1324400 60.2772 217.204 55.8093 0.66215 -0.00559768
1324600 60.2772 217.217 55.8093 0.66225 -0.00975803
1324800 60.2772 217.23 55.8093 0.66235 -0.0201214
1325000 60.2772 217.243 55.8093 0.66245 -0.0106287
1325200 60.2772 217.256 55.8093 0.66255 0.00653897
1325400 60.2772 217.269 55.8093 0.66265 0.0111846
1325600 60.2772 217.282 55.8093 0.66275 -0.0131451
1325800 60.2772 217.296 55.8093 0.66285 -0.0123549
1326000 60.2772 217.309 55.8093 0.66295 -0.000431883
1326200 60.2772 217.322 55.8093 0.66305 0.00551204
1326400 60.2772 217.335 55.8093 0.66315 0.00201414
1326600 60.2772 217.348 55.8093 0.66325 0.0254881
1326800 60.2772 217.361 55.8093 0.66335 0.0158377
1327000 60.2772 217.374 55.8093 0.66345 0.0126283
1327200 60.2772 217.387 55.8093 0.66355 0.0041514
1327400 60.2772 217.4 55.8093 0.66365 0.0320894
1327600 60.2772 217.413 55.8093 0.66375 0.00847834
1327800 60.2772 217.426 55.8093 0.66385 0.0105402
1328000 60.2772 217.439 55.8093 0.66395 -0.00766429
1328200 60.2772 217.452 55.8093 0.66405 0.0198482
1328400 60.2772 217.465 55.8093 0.66415 -0.00232348
1328600 60.2772 217.478 55.8093 0.66425 0.0028709
1328800 60.2772 217.492 55.8093 0.66435 -0.00641165
1329000 60.2772 217.505 55.8093 0.66445 -0.00478332
1329200 60.2772 217.518 55.8093 0.66455 -0.0140055
1329400 60.2772 217.531 55.8093 0.66465 -0.00894726
1329600 60.2772 217.544 55.8093 0.66475 -0.0224954
1329800 60.2772 217.557 55.8093 0.66485 -0.00935242
1330000 60.2772 217.57 55.8093 0.66495 0.0132612
1330200 60.2772 217.583 55.8093 0.66505 -0.00269207
1330400 60.2772 217.596 55.8093 0.66515 -0.00566635
1330600 60.2772 217.609 55.8093 0.66525 0.0094623
1330800 60.2772 217.622 55.8093 0.66535 0.010504
1331000 60.2772 217.635 55.8093 0.66545 0.0233872
1331200 60.2772 217.648 55.8093 0.66555 0.0129797
1331400 60.2772 217.661 55.8093 0.66565 0.0228677
1331600 60.2772 217.675 55.8093 0.66575 0.0257932
1331800 60.2772 217.688 55.8093 0.66585 0.0047434
1332000 60.2772 217.701 55.8093 0.66595 0.00279226
1332200 60.2772 217.714 55.8093 0.66605 0.0307976
1332400 60.2772 217.727 55.8093 0.66615 -0.0024637
1332600 60.2772 217.74 55.8093 0.66625 0.000300377
1332800 60.2772 217.753 55.8093 0.66635 0.012445
1333000 60.2772 217.766 55.8093 0.66645 -0.0173173
1333200 60.2772 217.779 55.8093 0.66655 -0.0165759
1333400 60.2772 217.792 55.8093 0.66665 -0.00803789
1333600 60.2772 217.805 55.8093 0.66675 -0.00842122
1333800 60.2772 217.818 55.8093 0.66685 -0.00462761
1334000 60.2772 217.831 55.8093 0.66695 -0.00473072
1334200 60.2772 217.844 55.8093 0.66705 -0.00736569
1334400 60.2772 217.857 55.8093 0.66715 -0.00640219
1334600 60.2772 217.871 55.8093 0.66725 -0.00991804
1334800 60.2772 217.884 55.8093 0.66735 0.0166863
1335000 60.2772 217.897 55.8093 0.66745 0.00686246
1335200 60.2772 217.91 55.8093 0.66755 0.010916
1335400 60.2772 217.923 55.8093 0.66765 0.0371499
1335600 60.2772 217.936 55.8093 0.66775 0.0189796
1335800 60.2772 217.949 55.8093 0.66785 3.40857e-06
1336000 60.2772 217.962 55.8093 0.66795 0.0274511
1336200 60.2772 217.975 55.8093 0.66805 -0.00859192
1336400 60.2772 217.988 55.8093 0.66815 0.0107386
1336600 60.2772 218.001 55.8093 0.66825 0.0127333
1336800 60.2772 218.014 55.8093 0.66835 0.0152346
1337000 60.2772 218.027 55.8093 0.66845 -0.00663873
1337200 60.2772 218.04 55.8093 0.66855 0.00207042
1337400 60.2772 218.053 55.8093 0.66865 -0.0236185
1337600 60.2772 218.067 55.8093 0.66875 -0.0039349
1337800 60.2772 218.08 55.8093 0.66885 -0.012156
1338000 60.2772 218.093 55.8093 0.66895 -0.00311426
1338200 60.2772 218.106 55.8093 0.66905 -0.00136901
1338400 60.2772 218.119 55.8093 0.66915 -0.00506842
1338600 60.2772 218.132 55.8093 0.66925 -0.00668156
1338800 60.2772 218.145 55.8093 0.66935 -0.00371587
1339000 60.2772 218.158 55.8093 0.66945 0.0156332
1339200 60.2772 218.171 55.8093 0.66955 0.00901402
1339400 60.2772 218.184 55.8093 0.66965 0.0178805
1339600 60.2772 218.197 55.8093 0.66975 0.021155
1339800 60.2772 218.21 55.8093 0.66985 0.00441018
1340000 60.2772 218.223 55.8093 0.66995 0.00573948
1340200 60.2772 218.236 55.8093 0.67005 0.0203354
1340400 60.2772 218.249 55.8093 0.67015 0.00713876
1340600 60.2772 218.263 55.8093 0.67025 0.0235574
1340800 60.2772 218.276 55.8093 0.67035 0.00566884
1341000 60.2772 218.289 55.8093 0.67045 0.0016187
1341200 60.2772 218.302 55.8093 0.67055 -0.0110981
1341400 60.2772 218.315 55.8093 0.67065 -0.00301647
1341600 60.2772 218.328 55.8093 0.67075 -0.0111441
1341800 60.2772 218.341 55.8093 0.67085 0.0117839
1342000 60.2772 218.354 55.8093 0.67095 -0.0327612
1342200 60.2772 218.367 55.8093 0.67105 0.00592075
1342400 60.2772 218.38 55.8093 0.67115 -0.00081615
1342600 60.2772 218.393 55.8093 0.67125 -0.00324199
1342800 60.2772 218.406 55.8093 0.67135 -0.0146927
1343000 60.2772 218.419 55.8093 0.67145 -0.00780414
1343200 60.2772 218.432 55.8093 0.67155 0.0253375
1343400 60.2772 218.445 55.8093 0.67165 0.0191125
1343600 60.2772 218.459 55.8093 0.67175 0.0161714
1343800 60.2772 218.472 55.8093 0.67185 0.0118885
1344000 60.2772 218.485 55.8093 0.67195 0.022293
1344200 60.2772 218.498 55.8093 0.67205 0.00624753
1344400 60.2772 218.511 55.8093 0.67215 0.00936276
1344600 60.2772 218.524 55.8093 0.67225 0.0102192
1344800 60.2772 218.537 55.8093 0.67235 0.00692272
1345000 60.2772 218.55 55.8093 0.67245 0.0179873
1345200 60.2772 218.563 55.8093 0.67255 -0.00243838
1345400 60.2772 218.576 55.8093 0.67265 -0.00997179
1345600 60.2772 218.589 55.8093 0.67275 -0.0137764
1345800 60.2772 218.602 55.8093 0.67285 -0.0249384
1346000 60.2772 218.615 55.8093 0.67295 0.000569769
1346200 60.2772 218.628 55.8093 0.67305 0.000957887
1346400 60.2772 218.642 55.8093 0.67315 -0.00275051
1346600 60.2772 218.655 55.8093 0.67325 0.00214715
1346800 60.2772 218.668 55.8093 0.67335 -0.00333335
1347000 60.2772 218.681 55.8093 0.67345 -0.00559989
1347200 60.2772 218.694 55.8093 0.67355 0.00263793
1347400 60.2772 218.707 55.8093 0.67365 -0.00210069
1347600 60.2772 218.72 55.8093 0.67375 0.0276639
1347800 60.2772 218.733 55.8093 0.67385 0.0287296
1348000 60.2772 218.746 55.8093 0.67395 0.0128775
1348200 60.2772 218.759 55.8093 0.67405 0.00686855
1348400 60.2772 218.772 55.8093 0.67415 0.00856462
1348600 60.2772 218.785 55.8093 0.67425 0.0191584
1348800 60.2772 218.798 55.8093 0.67435 0.00343407
1349000 60.2772 218.811 55.8093 0.67445 0.0125692
1349200 60.2772 218.824 55.8093 0.67455 0.00244975
1349400 60.2772 218.838 55.8093 0.67465 -0.00304303
1349600 60.2772 218.851 55.8093 0.67475 0.00300473
1349800 60.2772 218.864 55.8093 0.67485 -0.0210463
1350000 60.2772 218.877 55.8093 0.67495 -0.0193479
1350200 60.2772 218.89 55.8093 0.67505 -0.00365004
1350400 60.2772 218.903 55.8093 0.67515 0.00947746
1350600 60.2772 218.916 55.8093 0.67525 0.00346231
1350800 60.2772 218.929 55.8093 0.67535 -0.0118598
1351000 60.2772 218.942 55.8093 0.67545 -0.000891806
1351200 60.2772 218.955 55.8093 0.67555 0.00167924
1351400 60.2772 218.968 55.8093 0.67565 0.00444571
1351600 60.2772 218.981 55.8093 0.67575 0.0211376
1351800 60.2772 218.994 55.8093 0.67585 0.0213991
1352000 60.2772 219.007 55.8093 0.67595 0.00867059
1352200 60.2772 219.02 55.8093 0.67605 0.0149948
1352400 60.2772 219.034 55.8093 0.67615 0.00747302
1352600 60.2772 219.047 55.8093 0.67625 0.0128642
1352800 60.2772 219.06 55.8093 0.67635 0.00141338
1353000 60.2772 219.073 55.8093 0.67645 -0.00342291
1353200 60.2772 219.086 55.8093 0.67655 0.00470227
1353400 60.2772 219.099 55.8093 0.67665 0.00986738
1353600 60.2772 219.112 55.8093 0.67675 -0.0058975
1353800 60.2772 219.125 55.8093 0.67685 -0.00950914
1354000 60.2772 219.138 55.8093 0.67695 -0.00539477
1354200 60.2772 219.151 55.8093 0.67705 -0.00426433
1354400 60.2772 219.164 55.8093 0.67715 -0.0179262
1354600 60.2772 219.177 55.8093 0.67725 0.00167802
1354800 60.2772 219.19 55.8093 0.67735 0.0196028
1355000 60.2772 219.203 55.8093 0.67745 0.00382654
1355200 60.2772 219.216 55.8093 0.67755 0.0125815
1355400 60.2772 219.23 55.8093 0.67765 -0.000128532
1355600 60.2772 219.243 55.8093 0.67775 0.0017293
1355800 60.2772 219.256 55.8093 0.67785 0.018165
1356000 60.2772 219.269 55.8093 0.67795 0.0193417
1356200 60.2772 219.282 55.8093 0.67805 0.00999436
1356400 60.2772 219.295 55.8093 0.67815 0.00956848
1356600 60.2772 219.308 55.8093 0.67825 0.00450789
1356800 60.2772 219.321 55.8093 0.67835 0.00573522
1357000 60.2772 219.334 55.8093 0.67845 -0.00820936
1357200 60.2772 219.347 55.8093 0.67855 -0.0268032
1357400 60.2772 219.36 55.8093 0.67865 0.0288191
1357600 60.2772 219.373 55.8093 0.67875 -0.00780659
1357800 60.2772 219.386 55.8093 0.67885 -0.00169303
1358000 60.2772 219.399 55.8093 0.67895 0.0125172
1358200 60.2772 219.412 55.8093 0.67905 -0.0166475
1358400 60.2772 219.426 55.8093 0.67915 0.00550825
1358600 60.2772 219.439 55.8093 0.67925 -0.0184793
1358800 60.2772 219.452 55.8093 0.67935 -0.00395665
1359000 60.2772 219.465 55.8093 0.67945 0.0302254
1359200 60.2772 219.478 55.8093 0.67955 -0.00635498
1359400 60.2772 219.491 55.8093 0.67965 0.0202731
1359600 60.2772 219.504 55.8093 0.67975 0.018359
1359800 60.2772 219.517 55.8093 0.67985 0.000685218
1360000 60.2772 219.53 55.8093 0.67995 0.0155699
1360200 60.2772 219.543 55.8093 0.68005 0.00830848
1360400 60.2772 219.556 55.8093 0.68015 0.00349112
1360600 60.2772 219.569 55.8093 0.68025 -0.00780111
1360800 60.2772 219.582 55.8093 0.68035 0.0237325
1361000 60.2772 219.595 55.8093 0.68045 0.00212263
1361200 60.2772 219.609 55.8093 0.68055 -0.0191844
1361400 60.2772 219.622 55.8093 0.68065 0.0085352
1361600 60.2772 219.635 55.8093 0.68075 -0.00798845
1361800 60.2772 219.648 55.8093 0.68085 -0.01028
1362000 60.2772 219.661 55.8093 0.68095 -0.000988824
1362200 60.2772 219.674 55.8093 0.68105 0.011135
1362400 60.2772 219.687 55.8093 0.68115 0.00645156
1362600 60.2772 219.7 55.8093 0.68125 -0.00721271
1362800 60.2772 219.713 55.8093 0.68135 -0.004044
1363000 60.2772 219.726 55.8093 0.68145 -0.00178988
1363200 60.2772 219.739 55.8093 0.68155 0.020656
1363400 60.2772 219.752 55.8093 0.68165 0.00454488
1363600 60.2772 219.765 55.8093 0.68175 -0.00635545
1363800 60.2772 219.778 55.8093 0.68185 0.0317851
1364000 60.2772 219.791 55.8093 0.68195 0.0208627
1364200 60.2772 219.805 55.8093 0.68205 -0.0109999
1364400 60.2772 219.818 55.8093 0.68215 0.0114854
1364600 60.2772 219.831 55.8093 0.68225 0.0143517
1364800 60.2772 219.844 55.8093 0.68235 -0.0139949
1365000 60.2772 219.857 55.8093 0.68245 0.000917175
1365200 60.2772 219.87 55.8093 0.68255 0.0128393
1365400 60.2772 219.883 55.8093 0.68265 -0.00101187
1365600 60.2772 219.896 55.8093 0.68275 -0.0104604
1365800 60.2772 219.909 55.8093 0.68285 0.00825883
1366000 60.2772 219.922 55.8093 0.68295 -0.0046205
1366200 60.2772 219.935 55.8093 0.68305 -0.00439413
1366400 60.2772 219.948 55.8093 0.68315 0.00810919
1366600 60.2772 219.961 55.8093 0.68325 -0.00520325
1366800 60.2772 219.974 55.8093 0.68335 0.000535725
1367000 60.2772 219.987 55.8093 0.68345 0.00979158
1367200 60.2772 220.001 55.8093 0.68355 0.00458971
1367400 60.2772 220.014 55.8093 0.68365 0.000341098
1367600 60.2772 220.027 55.8093 0.68375 0.0248187
1367800 60.2772 220.04 55.8093 0.68385 0.0124596
1368000 60.2772 220.053 55.8093 0.68395 0.015004
1368200 60.2772 220.066 55.8093 0.68405 0.00239651
1368400 60.2772 220.079 55.8093 0.68415 0.0143238
1368600 60.2772 220.092 55.8093 0.68425 -0.0263141
1368800 60.2772 220.105 55.8093 0.68435 0.0152525
1369000 60.2772 220.118 55.8093 0.68445 0.00829862
1369200 60.2772 220.131 55.8093 0.68455 0.0103765
1369400 60.2772 220.144 55.8093 0.68465 -0.0151636
1369600 60.2772 220.157 55.8093 0.68475 0.0076901
1369800 60.2772 220.17 55.8093 0.68485 -0.00739862
1370000 60.2772 220.183 55.8093 0.68495 -0.0188671
1370200 60.2772 220.197 55.8093 0.68505 0.0122104
1370400 60.2772 220.21 55.8093 0.68515 -0.0165406
1370600 60.2772 220.223 55.8093 0.68525 0.0200504
1370800 60.2772 220.236 55.8093 0.68535 0.0100314
1371000 60.2772 220.249 55.8093 0.68545 -0.0107959
1371200 60.2772 220.262 55.8093 0.68555 0.00739266
1371400 60.2772 220.275 55.8093 0.68565 -0.00311
1371600 60.2772 220.288 55.8093 0.68575 -0.00479272
1371800 60.2772 220.301 55.8093 0.68585 0.0248026
1372000 60.2772 220.314 55.8093 0.68595 0.015962
1372200 60.2772 220.327 55.8093 0.68605 0.0205238
1372400 60.2772 220.34 55.8093 0.68615 0.011332
1372600 60.2772 220.353 55.8093 0.68625 0.00243004
1372800 60.2772 220.366 55.8093 0.68635 0.00320628
1373000 60.2772 220.38 55.8093 0.68645 0.00590323
1373200 60.2772 220.393 55.8093 0.68655 0.0115424
1373400 60.2772 220.406 55.8093 0.68665 0.0173427
1373600 60.2772 220.419 55.8093 0.68675 -0.00638362
1373800 60.2772 220.432 55.8093 0.68685 0.00203162
1374000 60.2772 220.445 55.8093 0.68695 -0.0181426
1374200 60.2772 220.458 55.8093 0.68705 -0.0142468
1374400 60.2772 220.471 55.8093 0.68715 -0.00274692
1374600 60.2772 220.484 55.8093 0.68725 -0.0195195
1374800 60.2772 220.497 55.8093 0.68735 0.0083921
1375000 60.2772 220.51 55.8093 0.68745 -0.00976944
1375200 60.2772 220.523 55.8093 0.68755 0.00702109
1375400 60.2772 220.536 55.8093 0.68765 0.00210106
1375600 60.2772 220.549 55.8093 0.68775 0.0137223
1375800 60.2772 220.562 55.8093 0.68785 0.00414695
1376000 60.2772 220.576 55.8093 0.68795 0.0160214
1376200 60.2772 220.589 55.8093 0.68805 0.0115725
1376400 60.2772 220.602 55.8093 0.68815 0.0184309
1376600 60.2772 220.615 55.8093 0.68825 0.0135806
1376800 60.2772 220.628 55.8093 0.68835 0.0071828
1377000 60.2772 220.641 55.8093 0.68845 0.0068929
1377200 60.2772 220.654 55.8093 0.68855 0.0185647
1377400 60.2772 220.667 55.8093 0.68865 0.01386
1377600 60.2772 220.68 55.8093 0.68875 -0.00823631
1377800 60.2772 220.693 55.8093 0.68885 0.00301984
1378000 60.2772 220.706 55.8093 0.68895 -0.0146519
1378200 60.2772 220.719 55.8093 0.68905 -0.00925921
1378400 60.2772 220.732 55.8093 0.68915 -0.00223931
1378600 60.2772 220.745 55.8093 0.68925 -0.0174452
1378800 60.2772 220.758 55.8093 0.68935 0.0125217
1379000 60.2772 220.772 55.8093 0.68945 -0.00268383
1379200 60.2772 220.785 55.8093 0.68955 -0.00173611
1379400 60.2772 220.798 55.8093 0.68965 -0.000186838
1379600 60.2772 220.811 55.8093 0.68975 0.00680774
1379800 60.2772 220.824 55.8093 0.68985 -0.000439819
1380000 60.2772 220.837 55.8093 0.68995 0.00502213
1380200 60.2772 220.85 55.8093 0.69005 0.0265878
1380400 60.2772 220.863 55.8093 0.69015 0.0138262
1380600 60.2772 220.876 55.8093 0.69025 0.0174827
1380800 60.2772 220.889 55.8093 0.69035 0.00432603
1381000 60.2772 220.902 55.8093 0.69045 0.00394609
1381200 60.2772 220.915 55.8093 0.69055 0.00815739
1381400 60.2772 220.928 55.8093 0.69065 0.00857625
1381600 60.2772 220.941 55.8093 0.69075 -0.0071426
1381800 60.2772 220.954 55.8093 0.69085 0.00736861
1382000 60.2772 220.968 55.8093 0.69095 0.000804472
1382200 60.2772 220.981 55.8093 0.69105 0.0122766
1382400 60.2772 220.994 55.8093 0.69115 -0.0225731
1382600 60.2772 221.007 55.8093 0.69125 -0.0102002
1382800 60.2772 221.02 55.8093 0.69135 -0.0228489
1383000 60.2772 221.033 55.8093 0.69145 0.027944
1383200 60.2772 221.046 55.8093 0.69155 0.00105716
1383400 60.2772 221.059 55.8093 0.69165 0.00303554
1383600 60.2772 221.072 55.8093 0.69175 0.0115849
1383800 60.2772 221.085 55.8093 0.69185 0.00598361
1384000 60.2772 221.098 55.8093 0.69195 0.011414
1384200 60.2772 221.111 55.8093 0.69205 0.00646473
1384400 60.2772 221.124 55.8093 0.69215 -0.012277
1384600 60.2772 221.137 55.8093 0.69225 0.0133406
1384800 60.2772 221.15 55.8093 0.69235 0.0197688
1385000 60.2772 221.164 55.8093 0.69245 0.0221102
1385200 60.2772 221.177 55.8093 0.69255 -0.00123607
1385400 60.2772 221.19 55.8093 0.69265 0.00061785
1385600 60.2772 221.203 55.8093 0.69275 0.00894289
1385800 60.2772 221.216 55.8093 0.69285 0.00278137
1386000 60.2772 221.229 55.8093 0.69295 -0.00869706
1386200 60.2772 221.242 55.8093 0.69305 0.00463445
1386400 60.2772 221.255 55.8093 0.69315 -0.00385633
1386600 60.2772 221.268 55.8093 0.69325 -0.00253414
1386800 60.2772 221.281 55.8093 0.69335 -0.018184
1387000 60.2772 221.294 55.8093 0.69345 0.0117878
1387200 60.2772 221.307 55.8093 0.69355 -0.00511843
1387400 60.2772 221.32 55.8093 0.69365 -0.000321326
1387600 60.2772 221.333 55.8093 0.69375 -0.00604663
1387800 60.2772 221.347 55.8093 0.69385 0.00772677
1388000 60.2772 221.36 55.8093 0.69395 0.0032724
1388200 60.2772 221.373 55.8093 0.69405 0.0303024
1388400 60.2772 221.386 55.8093 0.69415 0.0240182
1388600 60.2772 221.399 55.8093 0.69425 -0.0118078
1388800 60.2772 221.412 55.8093 0.69435 0.0056495
1389000 60.2772 221.425 55.8093 0.69445 0.00749016
1389200 60.2772 221.438 55.8093 0.69455 0.00136707
1389400 60.2772 221.451 55.8093 0.69465 0.0209734
1389600 60.2772 221.464 55.8093 0.69475 0.00750669
1389800 60.2772 221.477 55.8093 0.69485 0.0107361
1390000 60.2772 221.49 55.8093 0.69495 0.0044098
1390200 60.2772 221.503 55.8093 0.69505 -0.01928
1390400 60.2772 221.516 55.8093 0.69515 0.00267225
1390600 60.2772 221.529 55.8093 0.69525 0.00408558
1390800 60.2772 221.543 55.8093 0.69535 -0.00708507
1391000 60.2772 221.556 55.8093 0.69545 -0.00300301
1391200 60.2772 221.569 55.8093 0.69555 0.00854993
1391400 60.2772 221.582 55.8093 0.69565 0.0189587
1391600 60.2772 221.595 55.8093 0.69575 -0.005681
1391800 60.2772 221.608 55.8093 0.69585 0.00470257
1392000 60.2772 221.621 55.8093 0.69595 -0.0104743
1392200 60.2772 221.634 55.8093 0.69605 -0.00239777
1392400 60.2772 221.647 55.8093 0.69615 0.00766704
1392600 60.2772 221.66 55.8093 0.69625 0.017073
1392800 60.2772 221.673 55.8093 0.69635 0.0270242
1393000 60.2772 221.686 55.8093 0.69645 0.00660536
1393200 60.2772 221.699 55.8093 0.69655 -0.00194137
1393400 60.2772 221.712 55.8093 0.69665 -0.0113802
1393600 60.2772 221.725 55.8093 0.69675 0.00427724
1393800 60.2772 221.739 55.8093 0.69685 0.0121324
1394000 60.2772 221.752 55.8093 0.69695 0.000780264
1394200 60.2772 221.765 55.8093 0.69705 0.00834545
1394400 60.2772 221.778 55.8093 0.69715 0.0125857
1394600 60.2772 221.791 55.8093 0.69725 -0.0142191
1394800 60.2772 221.804 55.8093 0.69735 -0.0104242
1395000 60.2772 221.817 55.8093 0.69745 -0.00599583
1395200 60.2772 221.83 55.8093 0.69755 0.00240303
1395400 60.2772 221.843 55.8093 0.69765 0.00245276
1395600 60.2772 221.856 55.8093 0.69775 0.00807035
1395800 60.2772 221.869 55.8093 0.69785 0.00471755
1396000 60.2772 221.882 55.8093 0.69795 0.0193234
1396200 60.2772 221.895 55.8093 0.69805 -0.00185585
1396400 60.2772 221.908 55.8093 0.69815 0.0124734
1396600 60.2772 221.921 55.8093 0.69825 0.0237014
1396800 60.2772 221.935 55.8093 0.69835 0.00233017
1397000 60.2772 221.948 55.8093 0.69845 0.00862715
1397200 60.2772 221.961 55.8093 0.69855 0.00631065
1397400 60.2772 221.974 55.8093 0.69865 0.000802274
1397600 60.2772 221.987 55.8093 0.69875 2.8694e-05
1397800 60.2772 222 55.8093 0.69885 -0.00964737
1398000 60.2772 222.013 55.8093 0.69895 0.00265571
1398200 60.2772 222.026 55.8093 0.69905 -0.0012036
1398400 60.2772 222.039 55.8093 0.69915 0.00258524
1398600 60.2772 222.052 55.8093 0.69925 0.00110644
1398800 60.2772 222.065 55.8093 0.69935 -0.00466339
1399000 60.2772 222.078 55.8093 0.69945 -0.0158912
1399200 60.2772 222.091 55.8093 0.69955 0.000874568
1399400 60.2772 222.104 55.8093 0.69965 0.0181909
1399600 60.2772 222.118 55.8093 0.69975 0.0117864
1399800 60.2772 222.131 55.8093 0.69985 0.00974527
1400000 60.2772 222.144 55.8093 0.69995 0.0256075
1400200 60.2772 222.157 55.8093 0.70005 -0.00306749
1400400 60.2772 222.17 55.8093 0.70015 0.00998457
1400600 60.2772 222.183 55.8093 0.70025 0.00660694
1400800 60.2772 222.196 55.8093 0.70035 -0.00523948
1401000 60.2772 222.209 55.8093 0.70045 0.0128567
1401200 60.2772 222.222 55.8093 0.70055 0.0133115
1401400 60.2772 222.235 55.8093 0.70065 0.00998768
1401600 60.2772 222.248 55.8093 0.70075 -0.00666393
1401800 60.2772 222.261 55.8093 0.70085 -0.00343764
1402000 60.2772 222.274 55.8093 0.70095 -0.0100913
1402200 60.2772 222.287 55.8093 0.70105 -0.00930938
1402400 60.2772 222.3 55.8093 0.70115 -0.0081568
1402600 60.2772 222.314 55.8093 0.70125 0.0136084
1402800 60.2772 222.327 55.8093 0.70135 0.00996317
1403000 60.2772 222.34 55.8093 0.70145 0.00210785
1403200 60.2772 222.353 55.8093 0.70155 -0.0122305
1403400 60.2772 222.366 55.8093 0.70165 0.00690579
1403600 60.2772 222.379 55.8093 0.70175 0.0082524
1403800 60.2772 222.392 55.8093 0.70185 0.00424095
1404000 60.2772 222.405 55.8093 0.70195 0.0203345
1404200 60.2772 222.418 55.8093 0.70205 0.019548
1404400 60.2772 222.431 55.8093 0.70215 0.00660093
1404600 60.2772 222.444 55.8093 0.70225 0.0128868
1404800 60.2772 222.457 55.8093 0.70235 0.0158816
1405000 60.2772 222.47 55.8093 0.70245 0.00200853
1405200 60.2772 222.483 55.8093 0.70255 -0.00120294
1405400 60.2772 222.496 55.8093 0.70265 0.00724325
1405600 60.2772 222.51 55.8093 0.70275 -0.00415359
1405800 60.2772 222.523 55.8093 0.70285 -0.00233319
1406000 60.2772 222.536 55.8093 0.70295 -0.0110332
1406200 60.2772 222.549 55.8093 0.70305 -0.0243663
1406400 60.2772 222.562 55.8093 0.70315 0.00695409
1406600 60.2772 222.575 55.8093 0.70325 -0.00482133
1406800 60.2772 222.588 55.8093 0.70335 0.0129293
1407000 60.2772 222.601 55.8093 0.70345 0.00572694
1407200 60.2772 222.614 55.8093 0.70355 -0.00334616
1407400 60.2772 222.627 55.8093 0.70365 0.018697
1407600 60.2772 222.64 55.8093 0.70375 -0.000348374
1407800 60.2772 222.653 55.8093 0.70385 0.0112836
1408000 60.2772 222.666 55.8093 0.70395 -0.000112978
1408200 60.2772 222.679 55.8093 0.70405 0.0410341
1408400 60.2772 222.692 55.8093 0.70415 -0.000700449
1408600 60.2772 222.706 55.8093 0.70425 0.0088327
1408800 60.2772 222.719 55.8093 0.70435 0.00151181
1409000 60.2772 222.732 55.8093 0.70445 0.00688257
1409200 60.2772 222.745 55.8093 0.70455 0.00906829
1409400 60.2772 222.758 55.8093 0.70465 -0.00432093
1409600 60.2772 222.771 55.8093 0.70475 0.00190073
1409800 60.2772 222.784 55.8093 0.70485 -0.0116815
1410000 60.2772 222.797 55.8093 0.70495 -0.00844069
1410200 60.2772 222.81 55.8093 0.70505 -0.00881225
1410400 60.2772 222.823 55.8093 0.70515 -0.00339994
1410600 60.2772 222.836 55.8093 0.70525 0.00596804
1410800 60.2772 222.849 55.8093 0.70535 0.0027372
1411000 60.2772 222.862 55.8093 0.70545 0.00378874
1411200 60.2772 222.875 55.8093 0.70555 0.00169827
1411400 60.2772 222.888 55.8093 0.70565 0.0203008
1411600 60.2772 222.902 55.8093 0.70575 0.0142535
1411800 60.2772 222.915 55.8093 0.70585 0.013063
1412000 60.2772 222.928 55.8093 0.70595 0.0110313
1412200 60.2772 222.941 55.8093 0.70605 8.09205e-05
1412400 60.2772 222.954 55.8093 0.70615 0.0223772
1412600 60.2772 222.967 55.8093 0.70625 0.0136772
1412800 60.2772 222.98 55.8093 0.70635 0.00980565
1413000 60.2772 222.993 55.8093 0.70645 0.000675655
1413200 60.2772 223.006 55.8093 0.70655 -0.00424559
1413400 60.2772 223.019 55.8093 0.70665 -0.0125787
1413600 60.2772 223.032 55.8093 0.70675 -0.0139131
1413800 60.2772 223.045 55.8093 0.70685 0.0123566
1414000 60.2772 223.058 55.8093 0.70695 -0.00923587
1414200 60.2772 223.071 55.8093 0.70705 -0.00650519
1414400 60.2772 223.085 55.8093 0.70715 0.000715079
1414600 60.2772 223.098 55.8093 0.70725 -0.0208386
1414800 60.2772 223.111 55.8093 0.70735 0.0130609
1415000 60.2772 223.124 55.8093 0.70745 0.00922426
1415200 60.2772 223.137 55.8093 0.70755 0.0126624
1415400 60.2772 223.15 55.8093 0.70765 0.019467
1415600 60.2772 223.163 55.8093 0.70775 0.0157828
1415800 60.2772 223.176 55.8093 0.70785 0.00824856
1416000 60.2772 223.189 55.8093 0.70795 0.0163866
1416200 60.2772 223.202 55.8093 0.70805 -0.00890279
1416400 60.2772 223.215 55.8093 0.70815 0.0112539
1416600 60.2772 223.228 55.8093 0.70825 0.0142785
1416800 60.2772 223.241 55.8093 0.70835 0.018647
1417000 60.2772 223.254 55.8093 0.70845 -0.00384088
1417200 60.2772 223.267 55.8093 0.70855 -0.000744638
1417400 60.2772 223.281 55.8093 0.70865 -0.0143797
1417600 60.2772 223.294 55.8093 0.70875 -0.00933256
1417800 60.2772 223.307 55.8093 0.70885 -0.0104899
1418000 60.2772 223.32 55.8093 0.70895 -0.00420145
1418200 60.2772 223.333 55.8093 0.70905 0.0192196
1418400 60.2772 223.346 55.8093 0.70915 -0.0125211
1418600 60.2772 223.359 55.8093 0.70925 0.0026832
1418800 60.2772 223.372 55.8093 0.70935 -0.0079407
1419000 60.2772 223.385 55.8093 0.70945 0.00144259
1419200 60.2772 223.398 55.8093 0.70955 0.0172927
1419400 60.2772 223.411 55.8093 0.70965 0.0293464
1419600 60.2772 223.424 55.8093 0.70975 0.0201699
1419800 60.2772 223.437 55.8093 0.70985 0.00960927
1420000 60.2772 223.45 55.8093 0.70995 0.0163904
1420200 60.2772 223.463 55.8093 0.71005 0.00398707
1420400 60.2772 223.477 55.8093 0.71015 -0.00124729
1420600 60.2772 223.49 55.8093 0.71025 0.0204006
1420800 60.2772 223.503 55.8093 0.71035 0.00992393
1421000 60.2772 223.516 55.8093 0.71045 -0.000685224
1421200 60.2772 223.529 55.8093 0.71055 0.00211598
1421400 60.2772 223.542 55.8093 0.71065 -0.0171619
1421600 60.2772 223.555 55.8093 0.71075 -0.0272644
1421800 60.2772 223.568 55.8093 0.71085 -0.00446147
1422000 60.2772 223.581 55.8093 0.71095 -0.0110521
1422200 60.2772 223.594 55.8093 0.71105 0.00183533
1422400 60.2772 223.607 55.8093 0.71115 0.0170427
1422600 60.2772 223.62 55.8093 0.71125 0.000762403
1422800 60.2772 223.633 55.8093 0.71135 -0.0143126
1423000 60.2772 223.646 55.8093 0.71145 0.0069124
1423200 60.2772 223.659 55.8093 0.71155 0.00188566
1423400 60.2772 223.673 55.8093 0.71165 0.0253934
1423600 60.2772 223.686 55.8093 0.71175 0.0237841
1423800 60.2772 223.699 55.8093 0.71185 0.0337288
1424000 60.2772 223.712 55.8093 0.71195 0.00373235
1424200 60.2772 223.725 55.8093 0.71205 0.0174135
1424400 60.2772 223.738 55.8093 0.71215 -0.000812176
1424600 60.2772 223.751 55.8093 0.71225 -0.00190399
1424800 60.2772 223.764 55.8093 0.71235 0.0116779
1425000 60.2772 223.777 55.8093 0.71245 0.00207659
1425200 60.2772 223.79 55.8093 0.71255 0.000786367
1425400 60.2772 223.803 55.8093 0.71265 0.00516074
1425600 60.2772 223.816 55.8093 0.71275 -0.0264451
1425800 60.2772 223.829 55.8093 0.71285 -0.00598876
1426000 60.2772 223.842 55.8093 0.71295 -0.0161854
1426200 60.2772 223.856 55.8093 0.71305 0.00164979
1426400 60.2772 223.869 55.8093 0.71315 -0.000345454
1426600 60.2772 223.882 55.8093 0.71325 0.0135936
1426800 60.2772 223.895 55.8093 0.71335 0.00999558
1427000 60.2772 223.908 55.8093 0.71345 -0.0185891
1427200 60.2772 223.921 55.8093 0.71355 0.00701871
1427400 60.2772 223.934 55.8093 0.71365 0.017378
1427600 60.2772 223.947 55.8093 0.71375 -0.000580591
1427800 60.2772 223.96 55.8093 0.71385 0.0274982
1428000 60.2772 223.973 55.8093 0.71395 0.0153365
1428200 60.2772 223.986 55.8093 0.71405 0.0240818
1428400 60.2772 223.999 55.8093 0.71415 -0.000674772
1428600 60.2772 224.012 55.8093 0.71425 0.0144431
1428800 60.2772 224.025 55.8093 0.71435 0.00674534
1429000 60.2772 224.038 55.8093 0.71445 0.0127391
1429200 60.2772 224.052 55.8093 0.71455 -0.00271919
1429400 60.2772 224.065 55.8093 0.71465 0.00305073
1429600 60.2772 224.078 55.8093 0.71475 -0.0142085
1429800 60.2772 224.091 55.8093 0.71485 -0.0160678
1430000 60.2772 224.104 55.8093 0.71495 -0.0117882
1430200 60.2772 224.117 55.8093 0.71505 -0.0183299
1430400 60.2772 224.13 55.8093 0.71515 0.00146255
1430600 60.2772 224.143 55.8093 0.71525 0.00213521
1430800 60.2772 224.156 55.8093 0.71535 0.010259
1431000 60.2772 224.169 55.8093 0.71545 0.00422061
1431200 60.2772 224.182 55.8093 0.71555 0.0113291
1431400 60.2772 224.195 55.8093 0.71565 0.0203862
1431600 60.2772 224.208 55.8093 0.71575 0.0115881
1431800 60.2772 224.221 55.8093 0.71585 0.0173186
1432000 60.2772 224.234 55.8093 0.71595 0.0100205
1432200 60.2772 224.248 55.8093 0.71605 0.0237672
1432400 60.2772 224.261 55.8093 0.71615 0.00485584
1432600 60.2772 224.274 55.8093 0.71625 0.0183179
1432800 60.2772 224.287 55.8093 0.71635 -0.0105495
1433000 60.2772 224.3 55.8093 0.71645 -0.00588084
1433200 60.2772 224.313 55.8093 0.71655 -0.00551201
1433400 60.2772 224.326 55.8093 0.71665 -0.00283511
1433600 60.2772 224.339 55.8093 0.71675 0.00103732
1433800 60.2772 224.352 55.8093 0.71685 -0.0069789
1434000 60.2772 224.365 55.8093 0.71695 -0.0164549
1434200 60.2772 224.378 55.8093 0.71705 0.00313062
1434400 60.2772 224.391 55.8093 0.71715 -0.0058465
1434600 60.2772 224.404 55.8093 0.71725 -0.0116035
1434800 60.2772 224.417 55.8093 0.71735 0.00684342
1435000 60.2772 224.43 55.8093 0.71745 0.0294778
1435200 60.2772 224.444 55.8093 0.71755 0.0127184
1435400 60.2772 224.457 55.8093 0.71765 0.0015273
1435600 60.2772 224.47 55.8093 0.71775 0.00446416
1435800 60.2772 224.483 55.8093 0.71785 0.00976032
1436000 60.2772 224.496 55.8093 0.71795 0.0143252
1436200 60.2772 224.509 55.8093 0.71805 0.0313816
1436400 60.2772 224.522 55.8093 0.71815 0.0192518
1436600 60.2772 224.535 55.8093 0.71825 -0.00409077
1436800 60.2772 224.548 55.8093 0.71835 0.00173598
1437000 60.2772 224.561 55.8093 0.71845 -0.00924144
1437200 60.2772 224.574 55.8093 0.71855 -0.0100369
1437400 60.2772 224.587 55.8093 0.71865 -0.00564507
1437600 60.2772 224.6 55.8093 0.71875 0.0236018
1437800 60.2772 224.613 55.8093 0.71885 0.00726612
1438000 60.2772 224.626 55.8093 0.71895 -0.0192738
1438200 60.2772 224.64 55.8093 0.71905 -0.00731271
1438400 60.2772 224.653 55.8093 0.71915 -0.0279804
1438600 60.2772 224.666 55.8093 0.71925 0.00235148
1438800 60.2772 224.679 55.8093 0.71935 0.00824119
1439000 60.2772 224.692 55.8093 0.71945 0.012102
1439200 60.2772 224.705 55.8093 0.71955 0.0124499
1439400 60.2772 224.718 55.8093 0.71965 0.0176151
1439600 60.2772 224.731 55.8093 0.71975 0.00745947
1439800 60.2772 224.744 55.8093 0.71985 0.011654
1440000 60.2772 224.757 55.8093 0.71995 0.00786293
1440200 60.2772 224.77 55.8093 0.72005 0.0211734
1440400 60.2772 224.783 55.8093 0.72015 0.0183791
1440600 60.2772 224.796 55.8093 0.72025 0.0106656
1440800 60.2772 224.809 55.8093 0.72035 -0.0189269
1441000 60.2772 224.823 55.8093 0.72045 -0.000186964
1441200 60.2772 224.836 55.8093 0.72055 0.00100915
1441400 60.2772 224.849 55.8093 0.72065 -0.00213706
1441600 60.2772 224.862 55.8093 0.72075 -0.00302394
1441800 60.2772 224.875 55.8093 0.72085 -0.00634571
1442000 60.2772 224.888 55.8093 0.72095 0.0144893
1442200 60.2772 224.901 55.8093 0.72105 -0.00895202
1442400 60.2772 224.914 55.8093 0.72115 -0.0234568
1442600 60.2772 224.927 55.8093 0.72125 0.00264732
1442800 60.2772 224.94 55.8093 0.72135 0.0166678
1443000 60.2772 224.953 55.8093 0.72145 0.0179614
1443200 60.2772 224.966 55.8093 0.72155 0.0190951
1443400 60.2772 224.979 55.8093 0.72165 -0.00307878
1443600 60.2772 224.992 55.8093 0.72175 -0.0020155
1443800 60.2772 225.005 55.8093 0.72185 0.00717183
1444000 60.2772 225.019 55.8093 0.72195 0.0169668
1444200 60.2772 225.032 55.8093 0.72205 0.0203375
1444400 60.2772 225.045 55.8093 0.72215 0.00980636
1444600 60.2772 225.058 55.8093 0.72225 0.0101924
1444800 60.2772 225.071 55.8093 0.72235 -0.00335074
1445000 60.2772 225.084 55.8093 0.72245 0.00416377
1445200 60.2772 225.097 55.8093 0.72255 -0.0164424
1445400 60.2772 225.11 55.8093 0.72265 -0.000253229
1445600 60.2772 225.123 55.8093 0.72275 -0.000687404
1445800 60.2772 225.136 55.8093 0.72285 -0.00869538
1446000 60.2772 225.149 55.8093 0.72295 0.00741425
1446200 60.2772 225.162 55.8093 0.72305 0.0125373
1446400 60.2772 225.175 55.8093 0.72315 -0.0363521
1446600 60.2772 225.188 55.8093 0.72325 0.000304553
1446800 60.2772 225.201 55.8093 0.72335 -0.0015243
1447000 60.2772 225.215 55.8093 0.72345 0.00752412
1447200 60.2772 225.228 55.8093 0.72355 0.0176247
1447400 60.2772 225.241 55.8093 0.72365 0.0224928
1447600 60.2772 225.254 55.8093 0.72375 0.0246245
1447800 60.2772 225.267 55.8093 0.72385 0.00537079
1448000 60.2772 225.28 55.8093 0.72395 0.0154213
1448200 60.2772 225.293 55.8093 0.72405 0.000307709
1448400 60.2772 225.306 55.8093 0.72415 -0.00453754
1448600 60.2772 225.319 55.8093 0.72425 0.0258098
1448800 60.2772 225.332 55.8093 0.72435 0.0289837
1449000 60.2772 225.345 55.8093 0.72445 -0.0148395
1449200 60.2772 225.358 55.8093 0.72455 -0.0114632
1449400 60.2772 225.371 55.8093 0.72465 -0.00846776
1449600 60.2772 225.384 55.8093 0.72475 -0.00037621
1449800 60.2772 225.397 55.8093 0.72485 -0.00773789
1450000 60.2772 225.411 55.8093 0.72495 -0.00507128
1450200 60.2772 225.424 55.8093 0.72505 0.00340478
1450400 60.2772 225.437 55.8093 0.72515 0.00422887
1450600 60.2772 225.45 55.8093 0.72525 -0.0312674
1450800 60.2772 225.463 55.8093 0.72535 0.000213566
1451000 60.2772 225.476 55.8093 0.72545 -0.000879708
1451200 60.2772 225.489 55.8093 0.72555 0.0196811
1451400 60.2772 225.502 55.8093 0.72565 0.0255338
1451600 60.2772 225.515 55.8093 0.72575 0.006583
1451800 60.2772 225.528 55.8093 0.72585 0.0177359
1452000 60.2772 225.541 55.8093 0.72595 0.0185546
1452200 60.2772 225.554 55.8093 0.72605 0.00454815
1452400 60.2772 225.567 55.8093 0.72615 0.019405
1452600 60.2772 225.58 55.8093 0.72625 0.0169288
1452800 60.2772 225.594 55.8093 0.72635 0.0167052
1453000 60.2772 225.607 55.8093 0.72645 0.011554
1453200 60.2772 225.62 55.8093 0.72655 -0.0188746
1453400 60.2772 225.633 55.8093 0.72665 -0.00483209
1453600 60.2772 225.646 55.8093 0.72675 -0.0176031
1453800 60.2772 225.659 55.8093 0.72685 -0.00124538
1454000 60.2772 225.672 55.8093 0.72695 -0.000356969
1454200 60.2772 225.685 55.8093 0.72705 0.00424739
1454400 60.2772 225.698 55.8093 0.72715 -0.0117895
1454600 60.2772 225.711 55.8093 0.72725 -0.0193853
1454800 60.2772 225.724 55.8093 0.72735 -0.006383
1455000 60.2772 225.737 55.8093 0.72745 -0.0242594
1455200 60.2772 225.75 55.8093 0.72755 0.037751
1455400 60.2772 225.763 55.8093 0.72765 0.00944134
1455600 60.2772 225.776 55.8093 0.72775 0.0264401
1455800 60.2772 225.79 55.8093 0.72785 0.0234693
1456000 60.2772 225.803 55.8093 0.72795 0.00775146
1456200 60.2772 225.816 55.8093 0.72805 0.000570769
1456400 60.2772 225.829 55.8093 0.72815 0.0182572
1456600 60.2772 225.842 55.8093 0.72825 0.0218038
1456800 60.2772 225.855 55.8093 0.72835 0.0238083
1457000 60.2772 225.868 55.8093 0.72845 0.0204047
1457200 60.2772 225.881 55.8093 0.72855 -0.00961133
1457400 60.2772 225.894 55.8093 0.72865 -0.0128582
1457600 60.2772 225.907 55.8093 0.72875 -0.00558161
1457800 60.2772 225.92 55.8093 0.72885 -0.0272758
1458000 60.2772 225.933 55.8093 0.72895 -0.0111924
1458200 60.2772 225.946 55.8093 0.72905 -0.00317765
1458400 60.2772 225.959 55.8093 0.72915 -0.0154994
1458600 60.2772 225.972 55.8093 0.72925 -0.0115843
1458800 60.2772 225.986 55.8093 0.72935 -0.00749109
1459000 60.2772 225.999 55.8093 0.72945 0.00430739
1459200 60.2772 226.012 55.8093 0.72955 -0.00352684
1459400 60.2772 226.025 55.8093 0.72965 0.00794103
1459600 60.2772 226.038 55.8093 0.72975 0.0235106
1459800 60.2772 226.051 55.8093 0.72985 0.021248
1460000 60.2772 226.064 55.8093 0.72995 0.0385511
1460200 60.2772 226.077 55.8093 0.73005 0.0327675
1460400 60.2772 226.09 55.8093 0.73015 0.00579414
1460600 60.2772 226.103 55.8093 0.73025 0.0124933
1460800 60.2772 226.116 55.8093 0.73035 0.0245539
1461000 60.2772 226.129 55.8093 0.73045 0.0147235
1461200 60.2772 226.142 55.8093 0.73055 -0.0091
1461400 60.2772 226.155 55.8093 0.73065 -0.010158
1461600 60.2772 226.168 55.8093 0.73075 -0.00403761
1461800 60.2772 226.182 55.8093 0.73085 -0.017021
1462000 60.2772 226.195 55.8093 0.73095 -0.017679
1462200 60.2772 226.208 55.8093 0.73105 -0.0147047
1462400 60.2772 226.221 55.8093 0.73115 -0.0148862
1462600 60.2772 226.234 55.8093 0.73125 0.000779178
1462800 60.2772 226.247 55.8093 0.73135 -0.00386568
1463000 60.2772 226.26 55.8093 0.73145 -0.00888511
1463200 60.2772 226.273 55.8093 0.73155 0.00432988
1463400 60.2772 226.286 55.8093 0.73165 0.0238319
1463600 60.2772 226.299 55.8093 0.73175 0.0276816
1463800 60.2772 226.312 55.8093 0.73185 0.00335052
1464000 60.2772 226.325 55.8093 0.73195 0.0123081
1464200 60.2772 226.338 55.8093 0.73205 0.0127337
1464400 60.2772 226.351 55.8093 0.73215 0.0124327
1464600 60.2772 226.364 55.8093 0.73225 0.0196773
1464800 60.2772 226.378 55.8093 0.73235 0.0334951
1465000 60.2772 226.391 55.8093 0.73245 -0.00281513
1465200 60.2772 226.404 55.8093 0.73255 0.0109384
1465400 60.2772 226.417 55.8093 0.73265 -0.0145844
1465600 60.2772 226.43 55.8093 0.73275 0.00248845
1465800 60.2772 226.443 55.8093 0.73285 -0.0139908
1466000 60.2772 226.456 55.8093 0.73295 -0.00558576
1466200 60.2772 226.469 55.8093 0.73305 0.00509308
1466400 60.2772 226.482 55.8093 0.73315 -0.0238466
1466600 60.2772 226.495 55.8093 0.73325 0.00178812
1466800 60.2772 226.508 55.8093 0.73335 -0.0109713
1467000 60.2772 226.521 55.8093 0.73345 -0.00305553
1467200 60.2772 226.534 55.8093 0.73355 -0.00689186
1467400 60.2772 226.547 55.8093 0.73365 0.00196031
1467600 60.2772 226.561 55.8093 0.73375 0.00338654
1467800 60.2772 226.574 55.8093 0.73385 0.0227331
1468000 60.2772 226.587 55.8093 0.73395 0.0253062
1468200 60.2772 226.6 55.8093 0.73405 0.0280761
1468400 60.2772 226.613 55.8093 0.73415 0.0201633
1468600 60.2772 226.626 55.8093 0.73425 0.00803045
1468800 60.2772 226.639 55.8093 0.73435 0.00878244
1469000 60.2772 226.652 55.8093 0.73445 0.0157397
1469200 60.2772 226.665 55.8093 0.73455 0.0025436
1469400 60.2772 226.678 55.8093 0.73465 0.0123251
1469600 60.2772 226.691 55.8093 0.73475 0.00573237
1469800 60.2772 226.704 55.8093 0.73485 -0.0099554
1470000 60.2772 226.717 55.8093 0.73495 -0.0181076
1470200 60.2772 226.73 55.8093 0.73505 -0.0123337
1470400 60.2772 226.743 55.8093 0.73515 -0.0127743
1470600 60.2772 226.757 55.8093 0.73525 -0.0142316
1470800 60.2772 226.77 55.8093 0.73535 -0.0136332
1471000 60.2772 226.783 55.8093 0.73545 9.6117e-05
1471200 60.2772 226.796 55.8093 0.73555 -0.00206467
1471400 60.2772 226.809 55.8093 0.73565 0.0140876
1471600 60.2772 226.822 55.8093 0.73575 -0.00583796
1471800 60.2772 226.835 55.8093 0.73585 0.0323421
1472000 60.2772 226.848 55.8093 0.73595 0.012565
1472200 60.2772 226.861 55.8093 0.73605 0.00699249
1472400 60.2772 226.874 55.8093 0.73615 0.0324474
1472600 60.2772 226.887 55.8093 0.73625 0.0286451
1472800 60.2772 226.9 55.8093 0.73635 0.00537782
1473000 60.2772 226.913 55.8093 0.73645 0.0083403
1473200 60.2772 226.926 55.8093 0.73655 0.0218022
1473400 60.2772 226.939 55.8093 0.73665 0.00318108
1473600 60.2772 226.953 55.8093 0.73675 0.00594259
1473800 60.2772 226.966 55.8093 0.73685 -0.0112946
1474000 60.2772 226.979 55.8093 0.73695 -0.0132076
1474200 60.2772 226.992 55.8093 0.73705 -0.0120656
1474400 60.2772 227.005 55.8093 0.73715 -0.00630683
1474600 60.2772 227.018 55.8093 0.73725 -0.0188055
1474800 60.2772 227.031 55.8093 0.73735 -0.00287881
1475000 60.2772 227.044 55.8093 0.73745 -0.0086139
1475200 60.2772 227.057 55.8093 0.73755 -0.00524874
1475400 60.2772 227.07 55.8093 0.73765 0.00358459
1475600 60.2772 227.083 55.8093 0.73775 0.00811032
1475800 60.2772 227.096 55.8093 0.73785 0.0168457
1476000 60.2772 227.109 55.8093 0.73795 -0.000745738
1476200 60.2772 227.122 55.8093 0.73805 0.0124416
1476400 60.2772 227.135 55.8093 0.73815 0.0268446
1476600 60.2772 227.149 55.8093 0.73825 0.0331113
1476800 60.2772 227.162 55.8093 0.73835 0.0171513
1477000 60.2772 227.175 55.8093 0.73845 0.0113359
1477200 60.2772 227.188 55.8093 0.73855 0.00422923
1477400 60.2772 227.201 55.8093 0.73865 0.0128263
1477600 60.2772 227.214 55.8093 0.73875 0.00623453
1477800 60.2772 227.227 55.8093 0.73885 -0.00689398
1478000 60.2772 227.24 55.8093 0.73895 -0.00779305
1478200 60.2772 227.253 55.8093 0.73905 -0.0188736
1478400 60.2772 227.266 55.8093 0.73915 -0.00587518
1478600 60.2772 227.279 55.8093 0.73925 -0.0166331
1478800 60.2772 227.292 55.8093 0.73935 0.00480146
1479000 60.2772 227.305 55.8093 0.73945 -0.0112971
1479200 60.2772 227.318 55.8093 0.73955 0.00637551
1479400 60.2772 227.331 55.8093 0.73965 -0.00268823
1479600 60.2772 227.345 55.8093 0.73975 0.00335277
1479800 60.2772 227.358 55.8093 0.73985 -0.00375813
1480000 60.2772 227.371 55.8093 0.73995 0.0241714
1480200 60.2772 227.384 55.8093 0.74005 0.0140023
1480400 60.2772 227.397 55.8093 0.74015 0.0128592
1480600 60.2772 227.41 55.8093 0.74025 0.0160984
1480800 60.2772 227.423 55.8093 0.74035 0.0398553
1481000 60.2772 227.436 55.8093 0.74045 -0.00359963
1481200 60.2772 227.449 55.8093 0.74055 0.000601643
1481400 60.2772 227.462 55.8093 0.74065 0.0138341
1481600 60.2772 227.475 55.8093 0.74075 0.00457809
1481800 60.2772 227.488 55.8093 0.74085 0.00256839
1482000 60.2772 227.501 55.8093 0.74095 0.00412512
1482200 60.2772 227.514 55.8093 0.74105 -0.000271912
1482400 60.2772 227.528 55.8093 0.74115 -0.0190017
1482600 60.2772 227.541 55.8093 0.74125 -0.0133509
1482800 60.2772 227.554 55.8093 0.74135 -0.0134147
1483000 60.2772 227.567 55.8093 0.74145 -0.0119103
1483200 60.2772 227.58 55.8093 0.74155 0.0155287
1483400 60.2772 227.593 55.8093 0.74165 0.00160121
1483600 60.2772 227.606 55.8093 0.74175 0.00465524
1483800 60.2772 227.619 55.8093 0.74185 0.018477
1484000 60.2772 227.632 55.8093 0.74195 0.00386421
1484200 60.2772 227.645 55.8093 0.74205 0.00950535
1484400 60.2772 227.658 55.8093 0.74215 0.0185839
1484600 60.2772 227.671 55.8093 0.74225 0.0177318
1484800 60.2772 227.684 55.8093 0.74235 0.0182618
1485000 60.2772 227.697 55.8093 0.74245 0.0168053
1485200 60.2772 227.71 55.8093 0.74255 0.0154957
1485400 60.2772 227.724 55.8093 0.74265 -0.00648257
1485600 60.2772 227.737 55.8093 0.74275 -0.0149473
1485800 60.2772 227.75 55.8093 0.74285 -0.0117751
1486000 60.2772 227.763 55.8093 0.74295 0.001453
1486200 60.2772 227.776 55.8093 0.74305 -0.00212384
1486400 60.2772 227.789 55.8093 0.74315 -0.000565196
1486600 60.2772 227.802 55.8093 0.74325 -0.00923214
1486800 60.2772 227.815 55.8093 0.74335 -0.00172714
1487000 60.2772 227.828 55.8093 0.74345 -0.00923807
1487200 60.2772 227.841 55.8093 0.74355 0.00267944
1487400 60.2772 227.854 55.8093 0.74365 0.00474174
1487600 60.2772 227.867 55.8093 0.74375 0.0106461
1487800 60.2772 227.88 55.8093 0.74385 0.0270659
1488000 60.2772 227.893 55.8093 0.74395 -0.00568046
1488200 60.2772 227.906 55.8093 0.74405 0.00989273
1488400 60.2772 227.92 55.8093 0.74415 0.0112155
1488600 60.2772 227.933 55.8093 0.74425 0.00828854
1488800 60.2772 227.946 55.8093 0.74435 0.0163797
1489000 60.2772 227.959 55.8093 0.74445 0.0208033
1489200 60.2772 227.972 55.8093 0.74455 0.0110938
1489400 60.2772 227.985 55.8093 0.74465 0.0126822
1489600 60.2772 227.998 55.8093 0.74475 0.00730787
1489800 60.2772 228.011 55.8093 0.74485 -0.0156781
1490000 60.2772 228.024 55.8093 0.74495 0.00625047
1490200 60.2772 228.037 55.8093 0.74505 -0.00733137
1490400 60.2772 228.05 55.8093 0.74515 -0.00276852
1490600 60.2772 228.063 55.8093 0.74525 -0.00883679
1490800 60.2772 228.076 55.8093 0.74535 -0.0160796
1491000 60.2772 228.089 55.8093 0.74545 -0.00544907
1491200 60.2772 228.102 55.8093 0.74555 0.00188277
1491400 60.2772 228.116 55.8093 0.74565 -0.00703589
1491600 60.2772 228.129 55.8093 0.74575 0.00610226
1491800 60.2772 228.142 55.8093 0.74585 0.0104589
1492000 60.2772 228.155 55.8093 0.74595 0.0159614
1492200 60.2772 228.168 55.8093 0.74605 0.0273575
1492400 60.2772 228.181 55.8093 0.74615 0.00213764
1492600 60.2772 228.194 55.8093 0.74625 0.00465599
1492800 60.2772 228.207 55.8093 0.74635 0.00900175
1493000 60.2772 228.22 55.8093 0.74645 0.0262772
1493200 60.2772 228.233 55.8093 0.74655 0.0134259
1493400 60.2772 228.246 55.8093 0.74665 0.00417719
1493600 60.2772 228.259 55.8093 0.74675 0.019135
1493800 60.2772 228.272 55.8093 0.74685 -0.00958036
1494000 60.2772 228.285 55.8093 0.74695 -0.00486792
1494200 60.2772 228.299 55.8093 0.74705 -0.0106995
1494400 60.2772 228.312 55.8093 0.74715 -0.00549173
1494600 60.2772 228.325 55.8093 0.74725 -0.00405124
1494800 60.2772 228.338 55.8093 0.74735 0.00270743
1495000 60.2772 228.351 55.8093 0.74745 0.00212912
1495200 60.2772 228.364 55.8093 0.74755 -0.0187772
1495400 60.2772 228.377 55.8093 0.74765 -0.0102969
1495600 60.2772 228.39 55.8093 0.74775 0.00561868
1495800 60.2772 228.403 55.8093 0.74785 0.00327178
1496000 60.2772 228.416 55.8093 0.74795 0.006842
1496200 60.2772 228.429 55.8093 0.74805 0.0242592
1496400 60.2772 228.442 55.8093 0.74815 0.0296281
1496600 60.2772 228.455 55.8093 0.74825 0.015128
1496800 60.2772 228.468 55.8093 0.74835 0.0132885
1497000 60.2772 228.481 55.8093 0.74845 0.0089323
1497200 60.2772 228.495 55.8093 0.74855 0.00521221
1497400 60.2772 228.508 55.8093 0.74865 0.00762297
1497600 60.2772 228.521 55.8093 0.74875 0.0185869
1497800 60.2772 228.534 55.8093 0.74885 0.00597425
1498000 60.2772 228.547 55.8093 0.74895 -0.013932
1498200 60.2772 228.56 55.8093 0.74905 -0.0146468
1498400 60.2772 228.573 55.8093 0.74915 -0.00464958
1498600 60.2772 228.586 55.8093 0.74925 -0.0123057
1498800 60.2772 228.599 55.8093 0.74935 -0.00779709
1499000 60.2772 228.612 55.8093 0.74945 0.000528159
1499200 60.2772 228.625 55.8093 0.74955 0.00431636
1499400 60.2772 228.638 55.8093 0.74965 -0.00516323
1499600 60.2772 228.651 55.8093 0.74975 -0.00877275
1499800 60.2772 228.664 55.8093 0.74985 0.00631324
1500000 60.2772 228.677 55.8093 0.74995 0.0145936
1500200 60.2772 228.691 55.8093 0.75005 0.000240829
1500400 60.2772 228.704 55.8093 0.75015 0.0351389
1500600 60.2772 228.717 55.8093 0.75025 0.0168354
1500800 60.2772 228.73 55.8093 0.75035 -0.00871752
1501000 60.2772 228.743 55.8093 0.75045 0.0198106
1501200 60.2772 228.756 55.8093 0.75055 0.0136668
1501400 60.2772 228.769 55.8093 0.75065 0.021089
1501600 60.2772 228.782 55.8093 0.75075 0.0217487
1501800 60.2772 228.795 55.8093 0.75085 -0.00287241
1502000 60.2772 228.808 55.8093 0.75095 0.013494
1502200 60.2772 228.821 55.8093 0.75105 -0.00851996
1502400 60.2772 228.834 55.8093 0.75115 -0.0213902
1502600 60.2772 228.847 55.8093 0.75125 -0.00112205
1502800 60.2772 228.86 55.8093 0.75135 -0.00304495
1503000 60.2772 228.873 55.8093 0.75145 0.0050668
1503200 60.2772 228.887 55.8093 0.75155 -0.025171
1503400 60.2772 228.9 55.8093 0.75165 -0.0153992
1503600 60.2772 228.913 55.8093 0.75175 -0.000171218
1503800 60.2772 228.926 55.8093 0.75185 0.00311944
1504000 60.2772 228.939 55.8093 0.75195 -0.00373578
1504200 60.2772 228.952 55.8093 0.75205 0.0111469
1504400 60.2772 228.965 55.8093 0.75215 0.0195528
1504600 60.2772 228.978 55.8093 0.75225 0.0275511
1504800 60.2772 228.991 55.8093 0.75235 0.0112166
1505000 60.2772 229.004 55.8093 0.75245 0.0101619
1505200 60.2772 229.017 55.8093 0.75255 0.0140173
1505400 60.2772 229.03 55.8093 0.75265 0.0273689
1505600 60.2772 229.043 55.8093 0.75275 0.000192469
1505800 60.2772 229.056 55.8093 0.75285 0.0181628
1506000 60.2772 229.069 55.8093 0.75295 0.00582468
1506200 60.2772 229.083 55.8093 0.75305 0.000426294
1506400 60.2772 229.096 55.8093 0.75315 -0.0114927
1506600 60.2772 229.109 55.8093 0.75325 -0.0140282
1506800 60.2772 229.122 55.8093 0.75335 -0.0138297
1507000 60.2772 229.135 55.8093 0.75345 -0.0109533
1507200 60.2772 229.148 55.8093 0.75355 0.0045665
1507400 60.2772 229.161 55.8093 0.75365 -0.0078612
1507600 60.2772 229.174 55.8093 0.75375 -0.000472086
1507800 60.2772 229.187 55.8093 0.75385 -0.000421765
1508000 60.2772 229.2 55.8093 0.75395 5.96131e-05
1508200 60.2772 229.213 55.8093 0.75405 -0.00419834
1508400 60.2772 229.226 55.8093 0.75415 0.00825566
1508600 60.2772 229.239 55.8093 0.75425 0.00250153
1508800 60.2772 229.252 55.8093 0.75435 0.0355062
1509000 60.2772 229.266 55.8093 0.75445 0.0322736
1509200 60.2772 229.279 55.8093 0.75455 -0.00226941
1509400 60.2772 229.292 55.8093 0.75465 0.017753
1509600 60.2772 229.305 55.8093 0.75475 0.00935331
1509800 60.2772 229.318 55.8093 0.75485 0.0170958
1510000 60.2772 229.331 55.8093 0.75495 0.0226876
1510200 60.2772 229.344 55.8093 0.75505 -0.00338349
1510400 60.2772 229.357 55.8093 0.75515 -0.00507316
1510600 60.2772 229.37 55.8093 0.75525 -0.00722067
1510800 60.2772 229.383 55.8093 0.75535 0.00906627
1511000 60.2772 229.396 55.8093 0.75545 -0.0321087
1511200 60.2772 229.409 55.8093 0.75555 -0.0249373
1511400 60.2772 229.422 55.8093 0.75565 -0.0138888
1511600 60.2772 229.435 55.8093 0.75575 0.0023618
1511800 60.2772 229.448 55.8093 0.75585 0.0106591
1512000 60.2772 229.462 55.8093 0.75595 -0.00337809
1512200 60.2772 229.475 55.8093 0.75605 0.0014661
1512400 60.2772 229.488 55.8093 0.75615 0.00477423
1512600 60.2772 229.501 55.8093 0.75625 0.00825455
1512800 60.2772 229.514 55.8093 0.75635 0.0205571
1513000 60.2772 229.527 55.8093 0.75645 0.0389341
1513200 60.2772 229.54 55.8093 0.75655 0.0234679
1513400 60.2772 229.553 55.8093 0.75665 0.0266754
1513600 60.2772 229.566 55.8093 0.75675 0.0239121
1513800 60.2772 229.579 55.8093 0.75685 0.00594681
1514000 60.2772 229.592 55.8093 0.75695 0.000991932
1514200 60.2772 229.605 55.8093 0.75705 0.0100607
1514400 60.2772 229.618 55.8093 0.75715 -0.00696498
1514600 60.2772 229.631 55.8093 0.75725 -0.0212997
1514800 60.2772 229.644 55.8093 0.75735 -0.0164229
1515000 60.2772 229.658 55.8093 0.75745 -0.0264312
1515200 60.2772 229.671 55.8093 0.75755 -0.01416
1515400 60.2772 229.684 55.8093 0.75765 -0.0156246
1515600 60.2772 229.697 55.8093 0.75775 -0.00333898
1515800 60.2772 229.71 55.8093 0.75785 0.00538745
1516000 60.2772 229.723 55.8093 0.75795 0.00036881
1516200 60.2772 229.736 55.8093 0.75805 0.00011018
1516400 60.2772 229.749 55.8093 0.75815 0.0122861
1516600 60.2772 229.762 55.8093 0.75825 0.0188798
1516800 60.2772 229.775 55.8093 0.75835 0.0200164
1517000 60.2772 229.788 55.8093 0.75845 0.0391553
1517200 60.2772 229.801 55.8093 0.75855 0.0225422
1517400 60.2772 229.814 55.8093 0.75865 0.00513637
1517600 60.2772 229.827 55.8093 0.75875 0.0210196
1517800 60.2772 229.84 55.8093 0.75885 -0.00977126
1518000 60.2772 229.854 55.8093 0.75895 0.0116035
1518200 60.2772 229.867 55.8093 0.75905 0.0133478
1518400 60.2772 229.88 55.8093 0.75915 -0.00181642
1518600 60.2772 229.893 55.8093 0.75925 -0.015364
1518800 60.2772 229.906 55.8093 0.75935 -0.00835131
1519000 60.2772 229.919 55.8093 0.75945 -0.029322
1519200 60.2772 229.932 55.8093 0.75955 -0.0237555
1519400 60.2772 229.945 55.8093 0.75965 0.00566033
1519600 60.2772 229.958 55.8093 0.75975 0.00143941
1519800 60.2772 229.971 55.8093 0.75985 0.0199018
1520000 60.2772 229.984 55.8093 0.75995 -0.000463419
1520200 60.2772 229.997 55.8093 0.76005 0.0046595
1520400 60.2772 230.01 55.8093 0.76015 -0.00300202
1520600 60.2772 230.023 55.8093 0.76025 0.0128657
1520800 60.2772 230.037 55.8093 0.76035 0.00516867
1521000 60.2772 230.05 55.8093 0.76045 0.0377963
1521200 60.2772 230.063 55.8093 0.76055 0.0261762
1521400 60.2772 230.076 55.8093 0.76065 0.0287338
1521600 60.2772 230.089 55.8093 0.76075 -0.00268962
1521800 60.2772 230.102 55.8093 0.76085 -0.00885775
1522000 60.2772 230.115 55.8093 0.76095 -0.00454991
1522200 60.2772 230.128 55.8093 0.76105 0.00698831
1522400 60.2772 230.141 55.8093 0.76115 -0.0155671
1522600 60.2772 230.154 55.8093 0.76125 0.00122053
1522800 60.2772 230.167 55.8093 0.76135 0.0116662
1523000 60.2772 230.18 55.8093 0.76145 -0.0140557
1523200 60.2772 230.193 55.8093 0.76155 -0.0266942
1523400 60.2772 230.206 55.8093 0.76165 0.0101292
1523600 60.2772 230.219 55.8093 0.76175 -0.0094457
1523800 60.2772 230.233 55.8093 0.76185 0.00968779
1524000 60.2772 230.246 55.8093 0.76195 0.00945624
1524200 60.2772 230.259 55.8093 0.76205 0.00359783
1524400 60.2772 230.272 55.8093 0.76215 0.0262356
1524600 60.2772 230.285 55.8093 0.76225 0.0065674
1524800 60.2772 230.298 55.8093 0.76235 0.00305491
1525000 60.2772 230.311 55.8093 0.76245 0.00658192
1525200 60.2772 230.324 55.8093 0.76255 0.00942578
1525400 60.2772 230.337 55.8093 0.76265 0.0125685
1525600 60.2772 230.35 55.8093 0.76275 0.02197
1525800 60.2772 230.363 55.8093 0.76285 0.00137052
1526000 60.2772 230.376 55.8093 0.76295 -0.0037131
1526200 60.2772 230.389 55.8093 0.76305 -0.00725459
1526400 60.2772 230.402 55.8093 0.76315 0.0157831
1526600 60.2772 230.415 55.8093 0.76325 -0.00471548
1526800 60.2772 230.429 55.8093 0.76335 0.000646182
1527000 60.2772 230.442 55.8093 0.76345 0.000678462
1527200 60.2772 230.455 55.8093 0.76355 -0.00448673
1527400 60.2772 230.468 55.8093 0.76365 -0.00365489
1527600 60.2772 230.481 55.8093 0.76375 -0.0215347
1527800 60.2772 230.494 55.8093 0.76385 0.0024931
1528000 60.2772 230.507 55.8093 0.76395 -0.00197743
1528200 60.2772 230.52 55.8093 0.76405 0.0054078
1528400 60.2772 230.533 55.8093 0.76415 0.0247633
1528600 60.2772 230.546 55.8093 0.76425 -0.0156278
1528800 60.2772 230.559 55.8093 0.76435 0.00572624
1529000 60.2772 230.572 55.8093 0.76445 -5.43096e-05
1529200 60.2772 230.585 55.8093 0.76455 0.0117121
1529400 60.2772 230.598 55.8093 0.76465 0.0204597
1529600 60.2772 230.611 55.8093 0.76475 0.0346486
1529800 60.2772 230.625 55.8093 0.76485 0.00126474
1530000 60.2772 230.638 55.8093 0.76495 0.0251909
1530200 60.2772 230.651 55.8093 0.76505 -0.0108254
1530400 60.2772 230.664 55.8093 0.76515 -0.0103837
1530600 60.2772 230.677 55.8093 0.76525 0.00359849
1530800 60.2772 230.69 55.8093 0.76535 0.0140204
1531000 60.2772 230.703 55.8093 0.76545 0.012918
1531200 60.2772 230.716 55.8093 0.76555 -0.0117213
1531400 60.2772 230.729 55.8093 0.76565 -0.0107136
1531600 60.2772 230.742 55.8093 0.76575 -0.00698622
1531800 60.2772 230.755 55.8093 0.76585 -0.0083029
1532000 60.2772 230.768 55.8093 0.76595 -0.00967467
1532200 60.2772 230.781 55.8093 0.76605 -0.00179769
1532400 60.2772 230.794 55.8093 0.76615 0.0217002
1532600 60.2772 230.807 55.8093 0.76625 -0.0183025
1532800 60.2772 230.821 55.8093 0.76635 0.00253842
1533000 60.2772 230.834 55.8093 0.76645 0.0070323
1533200 60.2772 230.847 55.8093 0.76655 0.0222423
1533400 60.2772 230.86 55.8093 0.76665 0.0210904
1533600 60.2772 230.873 55.8093 0.76675 0.015119
1533800 60.2772 230.886 55.8093 0.76685 0.0194153
1534000 60.2772 230.899 55.8093 0.76695 0.00809271
1534200 60.2772 230.912 55.8093 0.76705 0.0158969
1534400 60.2772 230.925 55.8093 0.76715 0.00662846
1534600 60.2772 230.938 55.8093 0.76725 0.00561939
1534800 60.2772 230.951 55.8093 0.76735 0.0136546
1535000 60.2772 230.964 55.8093 0.76745 -0.00768513
1535200 60.2772 230.977 55.8093 0.76755 -0.0232242
1535400 60.2772 230.99 55.8093 0.76765 -0.0151044
1535600 60.2772 231.004 55.8093 0.76775 -0.00784006
1535800 60.2772 231.017 55.8093 0.76785 -0.0114955
1536000 60.2772 231.03 55.8093 0.76795 -0.00810416
1536200 60.2772 231.043 55.8093 0.76805 -0.0165808
1536400 60.2772 231.056 55.8093 0.76815 -0.00629519
1536600 60.2772 231.069 55.8093 0.76825 0.0100976
1536800 60.2772 231.082 55.8093 0.76835 0.00783961
1537000 60.2772 231.095 55.8093 0.76845 0.0161314
1537200 60.2772 231.108 55.8093 0.76855 0.0108216
1537400 60.2772 231.121 55.8093 0.76865 0.0208174
1537600 60.2772 231.134 55.8093 0.76875 0.0280214
1537800 60.2772 231.147 55.8093 0.76885 0.0146989
1538000 60.2772 231.16 55.8093 0.76895 0.0257196
1538200 60.2772 231.173 55.8093 0.76905 0.0259176
1538400 60.2772 231.186 55.8093 0.76915 0.00179919
1538600 60.2772 231.2 55.8093 0.76925 0.00714834
1538800 60.2772 231.213 55.8093 0.76935 -0.00523789
1539000 60.2772 231.226 55.8093 0.76945 -0.00416234
1539200 60.2772 231.239 55.8093 0.76955 -0.00521145
1539400 60.2772 231.252 55.8093 0.76965 -0.0199065
1539600 60.2772 231.265 55.8093 0.76975 -0.0184743
1539800 60.2772 231.278 55.8093 0.76985 -0.00468617
1540000 60.2772 231.291 55.8093 0.76995 -0.00728791
1540200 60.2772 231.304 55.8093 0.77005 -0.0136612
1540400 60.2772 231.317 55.8093 0.77015 -0.0137716
1540600 60.2772 231.33 55.8093 0.77025 -0.00925755
1540800 60.2772 231.343 55.8093 0.77035 0.00839722
1541000 60.2772 231.356 55.8093 0.77045 0.0286965
1541200 60.2772 231.369 55.8093 0.77055 0.0107464
1541400 60.2772 231.382 55.8093 0.77065 0.0181437
1541600 60.2772 231.396 55.8093 0.77075 0.0336731
1541800 60.2772 231.409 55.8093 0.77085 0.0284207
1542000 60.2772 231.422 55.8093 0.77095 0.015607
1542200 60.2772 231.435 55.8093 0.77105 0.0070625
1542400 60.2772 231.448 55.8093 0.77115 0.017287
1542600 60.2772 231.461 55.8093 0.77125 0.0104696
1542800 60.2772 231.474 55.8093 0.77135 -0.00701997
1543000 60.2772 231.487 55.8093 0.77145 -0.0169736
1543200 60.2772 231.5 55.8093 0.77155 -0.00858178
1543400 60.2772 231.513 55.8093 0.77165 -0.0134058
1543600 60.2772 231.526 55.8093 0.77175 -0.0076248
1543800 60.2772 231.539 55.8093 0.77185 -0.0259374
1544000 60.2772 231.552 55.8093 0.77195 -0.0272091
1544200 60.2772 231.565 55.8093 0.77205 -0.00113995
1544400 60.2772 231.578 55.8093 0.77215 -0.0010843
1544600 60.2772 231.592 55.8093 0.77225 0.0138204
1544800 60.2772 231.605 55.8093 0.77235 0.00329943
1545000 60.2772 231.618 55.8093 0.77245 0.00841103
1545200 60.2772 231.631 55.8093 0.77255 0.0346702
1545400 60.2772 231.644 55.8093 0.77265 0.0287258
1545600 60.2772 231.657 55.8093 0.77275 0.0158588
1545800 60.2772 231.67 55.8093 0.77285 0.0116939
1546000 60.2772 231.683 55.8093 0.77295 0.0404408
1546200 60.2772 231.696 55.8093 0.77305 0.0210688
1546400 60.2772 231.709 55.8093 0.77315 0.00239323
1546600 60.2772 231.722 55.8093 0.77325 -0.0124139
1546800 60.2772 231.735 55.8093 0.77335 0.00206798
1547000 60.2772 231.748 55.8093 0.77345 0.00871786
1547200 60.2772 231.761 55.8093 0.77355 -0.036489
1547400 60.2772 231.775 55.8093 0.77365 -0.0102808
1547600 60.2772 231.788 55.8093 0.77375 -0.0225744
1547800 60.2772 231.801 55.8093 0.77385 -0.0129167
1548000 60.2772 231.814 55.8093 0.77395 -0.00789877
1548200 60.2772 231.827 55.8093 0.77405 0.0166956
1548400 60.2772 231.84 55.8093 0.77415 -0.0191723
1548600 60.2772 231.853 55.8093 0.77425 -0.0117676
1548800 60.2772 231.866 55.8093 0.77435 0.00723446
1549000 60.2772 231.879 55.8093 0.77445 0.0199613
1549200 60.2772 231.892 55.8093 0.77455 0.0202763
1549400 60.2772 231.905 55.8093 0.77465 0.0330965
1549600 60.2772 231.918 55.8093 0.77475 0.0292144
1549800 60.2772 231.931 55.8093 0.77485 -0.00216114
1550000 60.2772 231.944 55.8093 0.77495 0.0239243
1550200 60.2772 231.957 55.8093 0.77505 0.0084954
1550400 60.2772 231.971 55.8093 0.77515 0.0136756
1550600 60.2772 231.984 55.8093 0.77525 0.0127511
1550800 60.2772 231.997 55.8093 0.77535 0.0128312
1551000 60.2772 232.01 55.8093 0.77545 0.00285311
1551200 60.2772 232.023 55.8093 0.77555 -0.0200911
1551400 60.2772 232.036 55.8093 0.77565 -0.0227513
1551600 60.2772 232.049 55.8093 0.77575 -0.0199439
1551800 60.2772 232.062 55.8093 0.77585 -0.0119258
1552000 60.2772 232.075 55.8093 0.77595 -0.00938423
1552200 60.2772 232.088 55.8093 0.77605 -0.0109275
1552400 60.2772 232.101 55.8093 0.77615 -0.00141041
1552600 60.2772 232.114 55.8093 0.77625 0.00573499
1552800 60.2772 232.127 55.8093 0.77635 -0.0081589
1553000 60.2772 232.14 55.8093 0.77645 0.00754066
1553200 60.2772 232.153 55.8093 0.77655 0.0192948
1553400 60.2772 232.167 55.8093 0.77665 0.016339
1553600 60.2772 232.18 55.8093 0.77675 0.0229612
1553800 60.2772 232.193 55.8093 0.77685 0.0433584
1554000 60.2772 232.206 55.8093 0.77695 0.00786622
1554200 60.2772 232.219 55.8093 0.77705 0.014709
1554400 60.2772 232.232 55.8093 0.77715 0.0106183
1554600 60.2772 232.245 55.8093 0.77725 0.0191871
1554800 60.2772 232.258 55.8093 0.77735 0.00744182
1555000 60.2772 232.271 55.8093 0.77745 -0.010349
1555200 60.2772 232.284 55.8093 0.77755 -0.00122579
1555400 60.2772 232.297 55.8093 0.77765 -0.0174685
1555600 60.2772 232.31 55.8093 0.77775 -0.0259408
1555800 60.2772 232.323 55.8093 0.77785 -0.00179662
1556000 60.2772 232.336 55.8093 0.77795 -0.0237746
1556200 60.2772 232.349 55.8093 0.77805 -0.0130538
1556400 60.2772 232.363 55.8093 0.77815 -0.00659416
1556600 60.2772 232.376 55.8093 0.77825 -0.00679738
1556800 60.2772 232.389 55.8093 0.77835 -0.00215673
1557000 60.2772 232.402 55.8093 0.77845 0.0194147
1557200 60.2772 232.415 55.8093 0.77855 0.00654554
1557400 60.2772 232.428 55.8093 0.77865 0.0323605
1557600 60.2772 232.441 55.8093 0.77875 0.0281505
1557800 60.2772 232.454 55.8093 0.77885 0.0313156
1558000 60.2772 232.467 55.8093 0.77895 0.0184571
1558200 60.2772 232.48 55.8093 0.77905 0.0197613
1558400 60.2772 232.493 55.8093 0.77915 0.0200864
1558600 60.2772 232.506 55.8093 0.77925 0.0152147
1558800 60.2772 232.519 55.8093 0.77935 -0.000981576
1559000 60.2772 232.532 55.8093 0.77945 -0.00487277
1559200 60.2772 232.545 55.8093 0.77955 -0.0120877
1559400 60.2772 232.559 55.8093 0.77965 -0.0102031
1559600 60.2772 232.572 55.8093 0.77975 -0.0354506
1559800 60.2772 232.585 55.8093 0.77985 -0.0311767
1560000 60.2772 232.598 55.8093 0.77995 -0.018595
1560200 60.2772 232.611 55.8093 0.78005 -0.00729303
1560400 60.2772 232.624 55.8093 0.78015 -0.0092338
1560600 60.2772 232.637 55.8093 0.78025 -0.00435647
1560800 60.2772 232.65 55.8093 0.78035 0.0104218
1561000 60.2772 232.663 55.8093 0.78045 0.017069
1561200 60.2772 232.676 55.8093 0.78055 0.0141779
1561400 60.2772 232.689 55.8093 0.78065 0.030919
1561600 60.2772 232.702 55.8093 0.78075 0.0365711
1561800 60.2772 232.715 55.8093 0.78085 0.0250274
1562000 60.2772 232.728 55.8093 0.78095 0.0232344
1562200 60.2772 232.742 55.8093 0.78105 0.0314442
1562400 60.2772 232.755 55.8093 0.78115 0.00405042
1562600 60.2772 232.768 55.8093 0.78125 0.010221
1562800 60.2772 232.781 55.8093 0.78135 0.00963329
1563000 60.2772 232.794 55.8093 0.78145 0.00109665
1563200 60.2772 232.807 55.8093 0.78155 -0.0140978
1563400 60.2772 232.82 55.8093 0.78165 -0.0218481
1563600 60.2772 232.833 55.8093 0.78175 -0.0284067
1563800 60.2772 232.846 55.8093 0.78185 -0.0209243
1564000 60.2772 232.859 55.8093 0.78195 -0.0128094
1564200 60.2772 232.872 55.8093 0.78205 -0.0238371
1564400 60.2772 232.885 55.8093 0.78215 -0.0122697
1564600 60.2772 232.898 55.8093 0.78225 -0.00321806
1564800 60.2772 232.911 55.8093 0.78235 -0.0138377
1565000 60.2772 232.924 55.8093 0.78245 0.0203001
1565200 60.2772 232.938 55.8093 0.78255 0.0141934
1565400 60.2772 232.951 55.8093 0.78265 0.0280285
1565600 60.2772 232.964 55.8093 0.78275 0.0426801
1565800 60.2772 232.977 55.8093 0.78285 0.0282022
1566000 60.2772 232.99 55.8093 0.78295 0.0325783
1566200 60.2772 233.003 55.8093 0.78305 0.0275269
1566400 60.2772 233.016 55.8093 0.78315 0.00766724
1566600 60.2772 233.029 55.8093 0.78325 0.0264269
1566800 60.2772 233.042 55.8093 0.78335 0.000125631
1567000 60.2772 233.055 55.8093 0.78345 -0.00972064
1567200 60.2772 233.068 55.8093 0.78355 -0.0249523
1567400 60.2772 233.081 55.8093 0.78365 -0.0119175
1567600 60.2772 233.094 55.8093 0.78375 -0.0213927
1567800 60.2772 233.107 55.8093 0.78385 -0.0124966
1568000 60.2772 233.12 55.8093 0.78395 -0.0154668
1568200 60.2772 233.134 55.8093 0.78405 -0.0371303
1568400 60.2772 233.147 55.8093 0.78415 -0.0122603
1568600 60.2772 233.16 55.8093 0.78425 0.0118758
1568800 60.2772 233.173 55.8093 0.78435 0.00956335
1569000 60.2772 233.186 55.8093 0.78445 0.0222362
1569200 60.2772 233.199 55.8093 0.78455 0.0194564
1569400 60.2772 233.212 55.8093 0.78465 0.0357982
1569600 60.2772 233.225 55.8093 0.78475 0.00919419
1569800 60.2772 233.238 55.8093 0.78485 0.03142
1570000 60.2772 233.251 55.8093 0.78495 0.0197103
1570200 60.2772 233.264 55.8093 0.78505 0.0243029
1570400 60.2772 233.277 55.8093 0.78515 0.00346641
1570600 60.2772 233.29 55.8093 0.78525 0.0137163
1570800 60.2772 233.303 55.8093 0.78535 -0.00984482
1571000 60.2772 233.316 55.8093 0.78545 -0.0237237
1571200 60.2772 233.33 55.8093 0.78555 -0.00801975
1571400 60.2772 233.343 55.8093 0.78565 -0.0116384
1571600 60.2772 233.356 55.8093 0.78575 -0.00614892
1571800 60.2772 233.369 55.8093 0.78585 -0.00730959
1572000 60.2772 233.382 55.8093 0.78595 -0.0147711
1572200 60.2772 233.395 55.8093 0.78605 -0.0239994
1572400 60.2772 233.408 55.8093 0.78615 0.00570958
1572600 60.2772 233.421 55.8093 0.78625 0.00234797
1572800 60.2772 233.434 55.8093 0.78635 0.0162568
1573000 60.2772 233.447 55.8093 0.78645 0.00941118
1573200 60.2772 233.46 55.8093 0.78655 0.0302453
1573400 60.2772 233.473 55.8093 0.78665 0.0196783
1573600 60.2772 233.486 55.8093 0.78675 0.00304502
1573800 60.2772 233.499 55.8093 0.78685 0.026985
1574000 60.2772 233.512 55.8093 0.78695 0.0276928
1574200 60.2772 233.526 55.8093 0.78705 0.0202548
1574400 60.2772 233.539 55.8093 0.78715 0.0100619
1574600 60.2772 233.552 55.8093 0.78725 -0.00189182
1574800 60.2772 233.565 55.8093 0.78735 -0.00279839
1575000 60.2772 233.578 55.8093 0.78745 -0.0226984
1575200 60.2772 233.591 55.8093 0.78755 -0.0181791
1575400 60.2772 233.604 55.8093 0.78765 -0.00360283
1575600 60.2772 233.617 55.8093 0.78775 -0.00685363
1575800 60.2772 233.63 55.8093 0.78785 -0.00647731
1576000 60.2772 233.643 55.8093 0.78795 -0.0202247
1576200 60.2772 233.656 55.8093 0.78805 -0.0175296
1576400 60.2772 233.669 55.8093 0.78815 0.00658292
1576600 60.2772 233.682 55.8093 0.78825 -0.00507349
1576800 60.2772 233.695 55.8093 0.78835 0.0117732
1577000 60.2772 233.709 55.8093 0.78845 0.031592
1577200 60.2772 233.722 55.8093 0.78855 0.00957533
1577400 60.2772 233.735 55.8093 0.78865 0.0245844
1577600 60.2772 233.748 55.8093 0.78875 0.0139164
1577800 60.2772 233.761 55.8093 0.78885 0.0213912
1578000 60.2772 233.774 55.8093 0.78895 0.0248923
1578200 60.2772 233.787 55.8093 0.78905 0.00476787
1578400 60.2772 233.8 55.8093 0.78915 0.024369
1578600 60.2772 233.813 55.8093 0.78925 0.0166397
1578800 60.2772 233.826 55.8093 0.78935 -0.00509394
1579000 60.2772 233.839 55.8093 0.78945 -0.015733
1579200 60.2772 233.852 55.8093 0.78955 -0.018755
1579400 60.2772 233.865 55.8093 0.78965 -0.0138194
1579600 60.2772 233.878 55.8093 0.78975 -0.00770983
1579800 60.2772 233.891 55.8093 0.78985 -0.00430684
1580000 60.2772 233.905 55.8093 0.78995 -0.014166
1580200 60.2772 233.918 55.8093 0.79005 -0.0161779
1580400 60.2772 233.931 55.8093 0.79015 0.0102117
1580600 60.2772 233.944 55.8093 0.79025 -0.00800242
1580800 60.2772 233.957 55.8093 0.79035 0.0149273
1581000 60.2772 233.97 55.8093 0.79045 0.0125781
1581200 60.2772 233.983 55.8093 0.79055 0.0200275
1581400 60.2772 233.996 55.8093 0.79065 0.00787219
1581600 60.2772 234.009 55.8093 0.79075 0.0304699
1581800 60.2772 234.022 55.8093 0.79085 0.0176448
1582000 60.2772 234.035 55.8093 0.79095 0.0124838
1582200 60.2772 234.048 55.8093 0.79105 0.02308
1582400 60.2772 234.061 55.8093 0.79115 0.00186482
1582600 60.2772 234.074 55.8093 0.79125 0.00179305
1582800 60.2772 234.087 55.8093 0.79135 0.00971052
1583000 60.2772 234.101 55.8093 0.79145 -0.0199449
1583200 60.2772 234.114 55.8093 0.79155 0.00311846
1583400 60.2772 234.127 55.8093 0.79165 -0.0100887
1583600 60.2772 234.14 55.8093 0.79175 0.00808847
1583800 60.2772 234.153 55.8093 0.79185 -0.0228067
1584000 60.2772 234.166 55.8093 0.79195 -0.0175162
1584200 60.2772 234.179 55.8093 0.79205 -0.0129985
1584400 60.2772 234.192 55.8093 0.79215 -0.00504861
1584600 60.2772 234.205 55.8093 0.79225 -0.00715475
1584800 60.2772 234.218 55.8093 0.79235 0.00950534
1585000 60.2772 234.231 55.8093 0.79245 0.0133935
1585200 60.2772 234.244 55.8093 0.79255 0.0126324
1585400 60.2772 234.257 55.8093 0.79265 0.0245053
1585600 60.2772 234.27 55.8093 0.79275 0.0199199
1585800 60.2772 234.283 55.8093 0.79285 0.015464
1586000 60.2772 234.297 55.8093 0.79295 0.0183271
1586200 60.2772 234.31 55.8093 0.79305 0.0221575
1586400 60.2772 234.323 55.8093 0.79315 0.00614904
1586600 60.2772 234.336 55.8093 0.79325 0.0230719
1586800 60.2772 234.349 55.8093 0.79335 -0.000921237
1587000 60.2772 234.362 55.8093 0.79345 -0.0014079
1587200 60.2772 234.375 55.8093 0.79355 -0.00255728
1587400 60.2772 234.388 55.8093 0.79365 -0.0337365
1587600 60.2772 234.401 55.8093 0.79375 -0.00653779
1587800 60.2772 234.414 55.8093 0.79385 -0.00520258
1588000 60.2772 234.427 55.8093 0.79395 0.000301381
1588200 60.2772 234.44 55.8093 0.79405 -0.0179566
1588400 60.2772 234.453 55.8093 0.79415 0.00354531
1588600 60.2772 234.466 55.8093 0.79425 -0.0242691
1588800 60.2772 234.48 55.8093 0.79435 0.00538921
1589000 60.2772 234.493 55.8093 0.79445 0.0172873
1589200 60.2772 234.506 55.8093 0.79455 0.0200743
1589400 60.2772 234.519 55.8093 0.79465 0.0177893
1589600 60.2772 234.532 55.8093 0.79475 0.0229285
1589800 60.2772 234.545 55.8093 0.79485 0.0240253
1590000 60.2772 234.558 55.8093 0.79495 0.0219132
1590200 60.2772 234.571 55.8093 0.79505 0.00934773
1590400 60.2772 234.584 55.8093 0.79515 -0.00203642
1590600 60.2772 234.597 55.8093 0.79525 0.0253438
1590800 60.2772 234.61 55.8093 0.79535 -2.3841e-05
1591000 60.2772 234.623 55.8093 0.79545 -0.00537163
1591200 60.2772 234.636 55.8093 0.79555 -0.00801696
1591400 60.2772 234.649 55.8093 0.79565 -0.00501674
1591600 60.2772 234.662 55.8093 0.79575 -0.0199222
1591800 60.2772 234.676 55.8093 0.79585 -0.00992693
1592000 60.2772 234.689 55.8093 0.79595 -0.010236
1592200 60.2772 234.702 55.8093 0.79605 -0.010784
1592400 60.2772 234.715 55.8093 0.79615 0.000838137
1592600 60.2772 234.728 55.8093 0.79625 -0.00991076
1592800 60.2772 234.741 55.8093 0.79635 0.0191362
1593000 60.2772 234.754 55.8093 0.79645 0.00336158
1593200 60.2772 234.767 55.8093 0.79655 0.0147105
1593400 60.2772 234.78 55.8093 0.79665 0.0160979
1593600 60.2772 234.793 55.8093 0.79675 0.00712747
1593800 60.2772 234.806 55.8093 0.79685 0.0274542
1594000 60.2772 234.819 55.8093 0.79695 0.00351092
1594200 60.2772 234.832 55.8093 0.79705 0.0208951
1594400 60.2772 234.845 55.8093 0.79715 0.00139557
1594600 60.2772 234.858 55.8093 0.79725 0.01432
1594800 60.2772 234.872 55.8093 0.79735 0.0171033
1595000 60.2772 234.885 55.8093 0.79745 -0.0167246
1595200 60.2772 234.898 55.8093 0.79755 0.0133212
1595400 60.2772 234.911 55.8093 0.79765 -0.0176161
1595600 60.2772 234.924 55.8093 0.79775 -0.00436568
1595800 60.2772 234.937 55.8093 0.79785 -0.00886156
1596000 60.2772 234.95 55.8093 0.79795 0.00981487
1596200 60.2772 234.963 55.8093 0.79805 -0.000162745
1596400 60.2772 234.976 55.8093 0.79815 -0.0286009
1596600 60.2772 234.989 55.8093 0.79825 0.00707743
1596800 60.2772 235.002 55.8093 0.79835 -0.000747769
1597000 60.2772 235.015 55.8093 0.79845 0.00980729
1597200 60.2772 235.028 55.8093 0.79855 0.00998221
1597400 60.2772 235.041 55.8093 0.79865 0.00862232
1597600 60.2772 235.054 55.8093 0.79875 0.0197815
1597800 60.2772 235.068 55.8093 0.79885 0.0132427
1598000 60.2772 235.081 55.8093 0.79895 0.00711713
1598200 60.2772 235.094 55.8093 0.79905 0.007294
1598400 60.2772 235.107 55.8093 0.79915 0.0249841
1598600 60.2772 235.12 55.8093 0.79925 0.00263495
1598800 60.2772 235.133 55.8093 0.79935 -0.00460269
1599000 60.2772 235.146 55.8093 0.79945 -0.00565574
1599200 60.2772 235.159 55.8093 0.79955 6.96008e-05
1599400 60.2772 235.172 55.8093 0.79965 -0.00487659
1599600 60.2772 235.185 55.8093 0.79975 -0.0143074
1599800 60.2772 235.198 55.8093 0.79985 0.0079937
1600000 60.2772 235.211 55.8093 0.79995 -0.00362846
1600200 60.2772 235.224 55.8093 0.80005 -0.0118079
1600400 60.2772 235.237 55.8093 0.80015 0.0208086
1600600 60.2772 235.25 55.8093 0.80025 -0.0152858
1600800 60.2772 235.264 55.8093 0.80035 0.000509298
1601000 60.2772 235.277 55.8093 0.80045 0.000781062
1601200 60.2772 235.29 55.8093 0.80055 0.00544861
1601400 60.2772 235.303 55.8093 0.80065 0.0250211
1601600 60.2772 235.316 55.8093 0.80075 0.0190696
1601800 60.2772 235.329 55.8093 0.80085 0.0119931
1602000 60.2772 235.342 55.8093 0.80095 0.00142077
1602200 60.2772 235.355 55.8093 0.80105 0.023143
1602400 60.2772 235.368 55.8093 0.80115 0.0173592
1602600 60.2772 235.381 55.8093 0.80125 0.00933546
1602800 60.2772 235.394 55.8093 0.80135 -0.00813627
1603000 60.2772 235.407 55.8093 0.80145 0.00631661
1603200 60.2772 235.42 55.8093 0.80155 0.00312861
1603400 60.2772 235.433 55.8093 0.80165 0.00424743
1603600 60.2772 235.447 55.8093 0.80175 -0.0168284
1603800 60.2772 235.46 55.8093 0.80185 -0.00531991
1604000 60.2772 235.473 55.8093 0.80195 -0.0157265
1604200 60.2772 235.486 55.8093 0.80205 -0.014136
1604400 60.2772 235.499 55.8093 0.80215 -0.00954928
1604600 60.2772 235.512 55.8093 0.80225 0.00139046
1604800 60.2772 235.525 55.8093 0.80235 0.0163925
1605000 60.2772 235.538 55.8093 0.80245 -0.0035937
1605200 60.2772 235.551 55.8093 0.80255 0.0212905
1605400 60.2772 235.564 55.8093 0.80265 0.00925307
1605600 60.2772 235.577 55.8093 0.80275 0.0131743
1605800 60.2772 235.59 55.8093 0.80285 0.010453
1606000 60.2772 235.603 55.8093 0.80295 0.0159997
1606200 60.2772 235.616 55.8093 0.80305 0.00260302
1606400 60.2772 235.629 55.8093 0.80315 0.018555
1606600 60.2772 235.643 55.8093 0.80325 0.00473928
1606800 60.2772 235.656 55.8093 0.80335 0.0217891
1607000 60.2772 235.669 55.8093 0.80345 -0.00819373
1607200 60.2772 235.682 55.8093 0.80355 -0.00116105
1607400 60.2772 235.695 55.8093 0.80365 -0.000323338
1607600 60.2772 235.708 55.8093 0.80375 -0.00748642
1607800 60.2772 235.721 55.8093 0.80385 -0.0154935
1608000 60.2772 235.734 55.8093 0.80395 0.00146101
1608200 60.2772 235.747 55.8093 0.80405 -0.00106811
1608400 60.2772 235.76 55.8093 0.80415 -0.00956316
1608600 60.2772 235.773 55.8093 0.80425 0.00350087
1608800 60.2772 235.786 55.8093 0.80435 -0.00695276
1609000 60.2772 235.799 55.8093 0.80445 0.00289594
1609200 60.2772 235.812 55.8093 0.80455 -0.0190263
1609400 60.2772 235.825 55.8093 0.80465 -3.14973e-05
1609600 60.2772 235.839 55.8093 0.80475 0.0420037
1609800 60.2772 235.852 55.8093 0.80485 0.0210032
1610000 60.2772 235.865 55.8093 0.80495 0.0171642
1610200 60.2772 235.878 55.8093 0.80505 0.0159381
1610400 60.2772 235.891 55.8093 0.80515 0.00620349
1610600 60.2772 235.904 55.8093 0.80525 -0.00156064
1610800 60.2772 235.917 55.8093 0.80535 0.00562102
1611000 60.2772 235.93 55.8093 0.80545 0.0225169
1611200 60.2772 235.943 55.8093 0.80555 0.0309906
1611400 60.2772 235.956 55.8093 0.80565 -0.00176831
1611600 60.2772 235.969 55.8093 0.80575 -0.0212041
1611800 60.2772 235.982 55.8093 0.80585 -0.0165821
1612000 60.2772 235.995 55.8093 0.80595 -0.010258
1612200 60.2772 236.008 55.8093 0.80605 -0.0283519
1612400 60.2772 236.021 55.8093 0.80615 -0.00656409
1612600 60.2772 236.035 55.8093 0.80625 0.0170765
1612800 60.2772 236.048 55.8093 0.80635 -0.00303877
1613000 60.2772 236.061 55.8093 0.80645 -0.0172979
1613200 60.2772 236.074 55.8093 0.80655 0.00813244
1613400 60.2772 236.087 55.8093 0.80665 -0.0128274
1613600 60.2772 236.1 55.8093 0.80675 0.0117925
1613800 60.2772 236.113 55.8093 0.80685 0.0291932
1614000 60.2772 236.126 55.8093 0.80695 0.0281542
1614200 60.2772 236.139 55.8093 0.80705 0.0265866
1614400 60.2772 236.152 55.8093 0.80715 0.0214157
1614600 60.2772 236.165 55.8093 0.80725 0.00371616
1614800 60.2772 236.178 55.8093 0.80735 0.016734
1615000 60.2772 236.191 55.8093 0.80745 -0.00492825
1615200 60.2772 236.204 55.8093 0.80755 0.0150748
1615400 60.2772 236.218 55.8093 0.80765 0.000578037
1615600 60.2772 236.231 55.8093 0.80775 0.0114875
1615800 60.2772 236.244 55.8093 0.80785 -0.0199675
1616000 60.2772 236.257 55.8093 0.80795 -0.022557
1616200 60.2772 236.27 55.8093 0.80805 -0.0410411
1616400 60.2772 236.283 55.8093 0.80815 0.00139352
1616600 60.2772 236.296 55.8093 0.80825 -0.0120187
1616800 60.2772 236.309 55.8093 0.80835 0.010384
1617000 60.2772 236.322 55.8093 0.80845 0.00411104
1617200 60.2772 236.335 55.8093 0.80855 -0.00773985
1617400 60.2772 236.348 55.8093 0.80865 -0.00256254
1617600 60.2772 236.361 55.8093 0.80875 0.00666922
1617800 60.2772 236.374 55.8093 0.80885 0.0140719
1618000 60.2772 236.387 55.8093 0.80895 0.0378051
1618200 60.2772 236.4 55.8093 0.80905 0.0310351
1618400 60.2772 236.414 55.8093 0.80915 0.0202133
1618600 60.2772 236.427 55.8093 0.80925 0.0169645
1618800 60.2772 236.44 55.8093 0.80935 0.00532851
1619000 60.2772 236.453 55.8093 0.80945 -0.00481107
1619200 60.2772 236.466 55.8093 0.80955 0.0116859
1619400 60.2772 236.479 55.8093 0.80965 -0.00441556
1619600 60.2772 236.492 55.8093 0.80975 -0.00918898
1619800 60.2772 236.505 55.8093 0.80985 0.00781624
1620000 60.2772 236.518 55.8093 0.80995 -0.013041
1620200 60.2772 236.531 55.8093 0.81005 -0.0143584
1620400 60.2772 236.544 55.8093 0.81015 -0.0194975
1620600 60.2772 236.557 55.8093 0.81025 -0.0140026
1620800 60.2772 236.57 55.8093 0.81035 0.010949
1621000 60.2772 236.583 55.8093 0.81045 -0.00879911
1621200 60.2772 236.596 55.8093 0.81055 0.00666709
1621400 60.2772 236.61 55.8093 0.81065 0.00878191
1621600 60.2772 236.623 55.8093 0.81075 0.00582256
1621800 60.2772 236.636 55.8093 0.81085 0.00185567
1622000 60.2772 236.649 55.8093 0.81095 0.0225226
1622200 60.2772 236.662 55.8093 0.81105 0.0166052
1622400 60.2772 236.675 55.8093 0.81115 0.0290311
1622600 60.2772 236.688 55.8093 0.81125 0.0151729
1622800 60.2772 236.701 55.8093 0.81135 0.0125417
1623000 60.2772 236.714 55.8093 0.81145 0.000811938
1623200 60.2772 236.727 55.8093 0.81155 -0.002823
1623400 60.2772 236.74 55.8093 0.81165 -0.00384257
1623600 60.2772 236.753 55.8093 0.81175 0.00705908
1623800 60.2772 236.766 55.8093 0.81185 -0.00544068
1624000 60.2772 236.779 55.8093 0.81195 -0.0145066
1624200 60.2772 236.792 55.8093 0.81205 -0.00560984
1624400 60.2772 236.806 55.8093 0.81215 -0.0110018
1624600 60.2772 236.819 55.8093 0.81225 -0.00880444
1624800 60.2772 236.832 55.8093 0.81235 -0.0214619
1625000 60.2772 236.845 55.8093 0.81245 -0.00438716
1625200 60.2772 236.858 55.8093 0.81255 0.0256464
1625400 60.2772 236.871 55.8093 0.81265 -0.00393281
1625600 60.2772 236.884 55.8093 0.81275 0.0199572
1625800 60.2772 236.897 55.8093 0.81285 0.0236634
1626000 60.2772 236.91 55.8093 0.81295 -0.00734039
1626200 60.2772 236.923 55.8093 0.81305 0.0343058
1626400 60.2772 236.936 55.8093 0.81315 0.00871613
1626600 60.2772 236.949 55.8093 0.81325 0.00961957
1626800 60.2772 236.962 55.8093 0.81335 0.0251308
1627000 60.2772 236.975 55.8093 0.81345 0.0120688
1627200 60.2772 236.988 55.8093 0.81355 -0.000556104
1627400 60.2772 237.002 55.8093 0.81365 -0.0144731
1627600 60.2772 237.015 55.8093 0.81375 -0.0158152
1627800 60.2772 237.028 55.8093 0.81385 0.0151771
1628000 60.2772 237.041 55.8093 0.81395 -0.00283364
1628200 60.2772 237.054 55.8093 0.81405 -0.0151467
1628400 60.2772 237.067 55.8093 0.81415 -0.0069393
1628600 60.2772 237.08 55.8093 0.81425 -0.0201558
1628800 60.2772 237.093 55.8093 0.81435 -0.017402
1629000 60.2772 237.106 55.8093 0.81445 -0.000279809
1629200 60.2772 237.119 55.8093 0.81455 0.0110615
1629400 60.2772 237.132 55.8093 0.81465 0.0121446
1629600 60.2772 237.145 55.8093 0.81475 0.0124804
1629800 60.2772 237.158 55.8093 0.81485 0.0216612
1630000 60.2772 237.171 55.8093 0.81495 0.00369181
1630200 60.2772 237.185 55.8093 0.81505 0.00580455
1630400 60.2772 237.198 55.8093 0.81515 0.0217933
1630600 60.2772 237.211 55.8093 0.81525 0.0291864
1630800 60.2772 237.224 55.8093 0.81535 0.0197317
1631000 60.2772 237.237 55.8093 0.81545 0.013667
1631200 60.2772 237.25 55.8093 0.81555 0.000720599
1631400 60.2772 237.263 55.8093 0.81565 -0.00814209
1631600 60.2772 237.276 55.8093 0.81575 -0.0145151
1631800 60.2772 237.289 55.8093 0.81585 -0.0116691
1632000 60.2772 237.302 55.8093 0.81595 -0.0025158
1632200 60.2772 237.315 55.8093 0.81605 -0.0145198
1632400 60.2772 237.328 55.8093 0.81615 -0.000817182
1632600 60.2772 237.341 55.8093 0.81625 -0.0139377
1632800 60.2772 237.354 55.8093 0.81635 -0.0258067
1633000 60.2772 237.367 55.8093 0.81645 -0.00671337
1633200 60.2772 237.381 55.8093 0.81655 0.00661857
1633400 60.2772 237.394 55.8093 0.81665 0.00939212
1633600 60.2772 237.407 55.8093 0.81675 0.0287415
1633800 60.2772 237.42 55.8093 0.81685 0.0216254
1634000 60.2772 237.433 55.8093 0.81695 0.00172874
1634200 60.2772 237.446 55.8093 0.81705 0.0200247
1634400 60.2772 237.459 55.8093 0.81715 0.0216132
1634600 60.2772 237.472 55.8093 0.81725 0.0300877
1634800 60.2772 237.485 55.8093 0.81735 0.014793
1635000 60.2772 237.498 55.8093 0.81745 0.00358719
1635200 60.2772 237.511 55.8093 0.81755 -0.00776664
1635400 60.2772 237.524 55.8093 0.81765 -0.00582983
1635600 60.2772 237.537 55.8093 0.81775 -0.0186783
1635800 60.2772 237.55 55.8093 0.81785 -0.0106883
1636000 60.2772 237.563 55.8093 0.81795 -0.0216471
1636200 60.2772 237.577 55.8093 0.81805 -0.00226678
1636400 60.2772 237.59 55.8093 0.81815 0.0121712
1636600 60.2772 237.603 55.8093 0.81825 -0.013116
1636800 60.2772 237.616 55.8093 0.81835 -0.00210415
1637000 60.2772 237.629 55.8093 0.81845 -0.0148222
1637200 60.2772 237.642 55.8093 0.81855 0.0132886
1637400 60.2772 237.655 55.8093 0.81865 0.0153416
1637600 60.2772 237.668 55.8093 0.81875 0.0236068
1637800 60.2772 237.681 55.8093 0.81885 0.0124328
1638000 60.2772 237.694 55.8093 0.81895 0.0080291
1638200 60.2772 237.707 55.8093 0.81905 0.0154153
1638400 60.2772 237.72 55.8093 0.81915 0.0158654
1638600 60.2772 237.733 55.8093 0.81925 0.0158202
1638800 60.2772 237.746 55.8093 0.81935 0.00729383
1639000 60.2772 237.759 55.8093 0.81945 0.00308065
1639200 60.2772 237.773 55.8093 0.81955 0.00767
1639400 60.2772 237.786 55.8093 0.81965 0.00426247
1639600 60.2772 237.799 55.8093 0.81975 -0.0295124
1639800 60.2772 237.812 55.8093 0.81985 -0.0206083
1640000 60.2772 237.825 55.8093 0.81995 0.0119494
1640200 60.2772 237.838 55.8093 0.82005 -0.0140129
1640400 60.2772 237.851 55.8093 0.82015 -0.0115729
1640600 60.2772 237.864 55.8093 0.82025 -0.0132273
1640800 60.2772 237.877 55.8093 0.82035 0.00528291
1641000 60.2772 237.89 55.8093 0.82045 0.0115091
1641200 60.2772 237.903 55.8093 0.82055 0.0132192
1641400 60.2772 237.916 55.8093 0.82065 0.000224761
1641600 60.2772 237.929 55.8093 0.82075 0.00730587
1641800 60.2772 237.942 55.8093 0.82085 0.00954598
1642000 60.2772 237.956 55.8093 0.82095 0.0163728
1642200 60.2772 237.969 55.8093 0.82105 0.0337432
1642400 60.2772 237.982 55.8093 0.82115 0.00565625
1642600 60.2772 237.995 55.8093 0.82125 0.024261
1642800 60.2772 238.008 55.8093 0.82135 -0.00887952
1643000 60.2772 238.021 55.8093 0.82145 9.47949e-05
1643200 60.2772 238.034 55.8093 0.82155 0.00043596
1643400 60.2772 238.047 55.8093 0.82165 0.0070738
1643600 60.2772 238.06 55.8093 0.82175 0.0111206
1643800 60.2772 238.073 55.8093 0.82185 0.00221757
1644000 60.2772 238.086 55.8093 0.82195 -0.0315073
1644200 60.2772 238.099 55.8093 0.82205 -0.0146976
1644400 60.2772 238.112 55.8093 0.82215 -0.0116983
1644600 60.2772 238.125 55.8093 0.82225 0.0107073
1644800 60.2772 238.138 55.8093 0.82235 -0.0188535
1645000 60.2772 238.152 55.8093 0.82245 -0.00569762
1645200 60.2772 238.165 55.8093 0.82255 0.0178121
1645400 60.2772 238.178 55.8093 0.82265 0.0169868
1645600 60.2772 238.191 55.8093 0.82275 0.000399805
1645800 60.2772 238.204 55.8093 0.82285 0.00129517
1646000 60.2772 238.217 55.8093 0.82295 0.0136248
1646200 60.2772 238.23 55.8093 0.82305 0.0103174
1646400 60.2772 238.243 55.8093 0.82315 0.0261086
1646600 60.2772 238.256 55.8093 0.82325 0.0240195
1646800 60.2772 238.269 55.8093 0.82335 -0.00142011
1647000 60.2772 238.282 55.8093 0.82345 0.0112469
1647200 60.2772 238.295 55.8093 0.82355 -0.0136384
1647400 60.2772 238.308 55.8093 0.82365 0.00275598
1647600 60.2772 238.321 55.8093 0.82375 0.00284553
1647800 60.2772 238.334 55.8093 0.82385 0.00485164
1648000 60.2772 238.348 55.8093 0.82395 -0.00632546
1648200 60.2772 238.361 55.8093 0.82405 -0.0320345
1648400 60.2772 238.374 55.8093 0.82415 0.00895279
1648600 60.2772 238.387 55.8093 0.82425 -0.0164464
1648800 60.2772 238.4 55.8093 0.82435 -0.00225396
1649000 60.2772 238.413 55.8093 0.82445 0.0105212
1649200 60.2772 238.426 55.8093 0.82455 -0.00211402
1649400 60.2772 238.439 55.8093 0.82465 0.0136402
1649600 60.2772 238.452 55.8093 0.82475 0.0111894
1649800 60.2772 238.465 55.8093 0.82485 0.00927343
1650000 60.2772 238.478 55.8093 0.82495 0.019224
1650200 60.2772 238.491 55.8093 0.82505 0.00662089
1650400 60.2772 238.504 55.8093 0.82515 0.0255713
1650600 60.2772 238.517 55.8093 0.82525 0.0136571
1650800 60.2772 238.53 55.8093 0.82535 0.00525553
1651000 60.2772 238.544 55.8093 0.82545 0.0232172
1651200 60.2772 238.557 55.8093 0.82555 -0.0110257
1651400 60.2772 238.57 55.8093 0.82565 0.00275423
1651600 60.2772 238.583 55.8093 0.82575 -0.00792762
1651800 60.2772 238.596 55.8093 0.82585 -0.0145313
1652000 60.2772 238.609 55.8093 0.82595 -0.00895785
1652200 60.2772 238.622 55.8093 0.82605 -0.0144718
1652400 60.2772 238.635 55.8093 0.82615 -0.0195784
1652600 60.2772 238.648 55.8093 0.82625 -0.00825328
1652800 60.2772 238.661 55.8093 0.82635 0.000427305
1653000 60.2772 238.674 55.8093 0.82645 -0.00197779
1653200 60.2772 238.687 55.8093 0.82655 0.00957225
1653400 60.2772 238.7 55.8093 0.82665 0.00604731
1653600 60.2772 238.713 55.8093 0.82675 0.00839534
1653800 60.2772 238.726 55.8093 0.82685 0.0332317
1654000 60.2772 238.74 55.8093 0.82695 0.010192
1654200 60.2772 238.753 55.8093 0.82705 0.0244087
1654400 60.2772 238.766 55.8093 0.82715 0.0110067
1654600 60.2772 238.779 55.8093 0.82725 0.0129916
1654800 60.2772 238.792 55.8093 0.82735 0.0211222
1655000 60.2772 238.805 55.8093 0.82745 0.0104797
1655200 60.2772 238.818 55.8093 0.82755 0.00149962
1655400 60.2772 238.831 55.8093 0.82765 -0.00858884
1655600 60.2772 238.844 55.8093 0.82775 -0.0120661
1655800 60.2772 238.857 55.8093 0.82785 -0.00680876
1656000 60.2772 238.87 55.8093 0.82795 -0.0203105
1656200 60.2772 238.883 55.8093 0.82805 0.00244597
1656400 60.2772 238.896 55.8093 0.82815 -0.00704954
1656600 60.2772 238.909 55.8093 0.82825 -0.0137504
1656800 60.2772 238.923 55.8093 0.82835 -0.0270487
1657000 60.2772 238.936 55.8093 0.82845 0.00037699
1657200 60.2772 238.949 55.8093 0.82855 0.00475016
1657400 60.2772 238.962 55.8093 0.82865 0.0249806
1657600 60.2772 238.975 55.8093 0.82875 0.015401
1657800 60.2772 238.988 55.8093 0.82885 0.0125688
1658000 60.2772 239.001 55.8093 0.82895 0.020392
1658200 60.2772 239.014 55.8093 0.82905 0.0119889
1658400 60.2772 239.027 55.8093 0.82915 0.0225613
1658600 60.2772 239.04 55.8093 0.82925 0.0117717
1658800 60.2772 239.053 55.8093 0.82935 0.00477571
1659000 60.2772 239.066 55.8093 0.82945 0.0144722
1659200 60.2772 239.079 55.8093 0.82955 0.014225
1659400 60.2772 239.092 55.8093 0.82965 -0.00442486
1659600 60.2772 239.105 55.8093 0.82975 -0.00476794
1659800 60.2772 239.119 55.8093 0.82985 0.0027183
1660000 60.2772 239.132 55.8093 0.82995 -0.0224589
1660200 60.2772 239.145 55.8093 0.83005 -0.016679
1660400 60.2772 239.158 55.8093 0.83015 -0.00559553
1660600 60.2772 239.171 55.8093 0.83025 -0.0161075
1660800 60.2772 239.184 55.8093 0.83035 -0.00101925
1661000 60.2772 239.197 55.8093 0.83045 -0.00327158
1661200 60.2772 239.21 55.8093 0.83055 0.000500132
1661400 60.2772 239.223 55.8093 0.83065 -0.00772486
1661600 60.2772 239.236 55.8093 0.83075 0.0125375
1661800 60.2772 239.249 55.8093 0.83085 0.0109224
1662000 60.2772 239.262 55.8093 0.83095 0.0328631
1662200 60.2772 239.275 55.8093 0.83105 0.0239635
1662400 60.2772 239.288 55.8093 0.83115 0.0124017
1662600 60.2772 239.301 55.8093 0.83125 0.0188796
1662800 60.2772 239.315 55.8093 0.83135 0.00577822
1663000 60.2772 239.328 55.8093 0.83145 0.0106347
1663200 60.2772 239.341 55.8093 0.83155 0.00699005
1663400 60.2772 239.354 55.8093 0.83165 0.0106947
1663600 60.2772 239.367 55.8093 0.83175 -0.000879478
1663800 60.2772 239.38 55.8093 0.83185 -0.0105912
1664000 60.2772 239.393 55.8093 0.83195 -0.0327725
1664200 60.2772 239.406 55.8093 0.83205 0.00575446
1664400 60.2772 239.419 55.8093 0.83215 -0.0187781
1664600 60.2772 239.432 55.8093 0.83225 -0.00730958
1664800 60.2772 239.445 55.8093 0.83235 -0.0143459
1665000 60.2772 239.458 55.8093 0.83245 0.0113525
1665200 60.2772 239.471 55.8093 0.83255 0.00054126
1665400 60.2772 239.484 55.8093 0.83265 -0.00165115
1665600 60.2772 239.497 55.8093 0.83275 0.0127292
1665800 60.2772 239.511 55.8093 0.83285 0.0196657
1666000 60.2772 239.524 55.8093 0.83295 0.00544631
1666200 60.2772 239.537 55.8093 0.83305 0.0174659
1666400 60.2772 239.55 55.8093 0.83315 0.0163107
1666600 60.2772 239.563 55.8093 0.83325 0.0305286
1666800 60.2772 239.576 55.8093 0.83335 0.00430812
1667000 60.2772 239.589 55.8093 0.83345 0.00370312
1667200 60.2772 239.602 55.8093 0.83355 -0.00274906
1667400 60.2772 239.615 55.8093 0.83365 -0.00825148
1667600 60.2772 239.628 55.8093 0.83375 0.0171422
1667800 60.2772 239.641 55.8093 0.83385 0.00269903
1668000 60.2772 239.654 55.8093 0.83395 -0.00371045
1668200 60.2772 239.667 55.8093 0.83405 -0.0116986
1668400 60.2772 239.68 55.8093 0.83415 -0.0200849
1668600 60.2772 239.694 55.8093 0.83425 -0.00948234
1668800 60.2772 239.707 55.8093 0.83435 -0.0168715
1669000 60.2772 239.72 55.8093 0.83445 0.00331491
1669200 60.2772 239.733 55.8093 0.83455 0.00590491
1669400 60.2772 239.746 55.8093 0.83465 0.00980305
1669600 60.2772 239.759 55.8093 0.83475 0.00611662
1669800 60.2772 239.772 55.8093 0.83485 0.00274968
1670000 60.2772 239.785 55.8093 0.83495 0.00748709
1670200 60.2772 239.798 55.8093 0.83505 0.02125
1670400 60.2772 239.811 55.8093 0.83515 0.0435123
1670600 60.2772 239.824 55.8093 0.83525 0.0123171
1670800 60.2772 239.837 55.8093 0.83535 0.00242922
1671000 60.2772 239.85 55.8093 0.83545 0.00559052
1671200 60.2772 239.863 55.8093 0.83555 0.00250259
1671400 60.2772 239.876 55.8093 0.83565 0.0181167
1671600 60.2772 239.89 55.8093 0.83575 0.00568377
1671800 60.2772 239.903 55.8093 0.83585 -0.0148753
1672000 60.2772 239.916 55.8093 0.83595 -0.00810263
1672200 60.2772 239.929 55.8093 0.83605 -0.0270743
1672400 60.2772 239.942 55.8093 0.83615 -0.00997826
1672600 60.2772 239.955 55.8093 0.83625 -0.0198828
1672800 60.2772 239.968 55.8093 0.83635 -4.24334e-05
1673000 60.2772 239.981 55.8093 0.83645 -0.000317575
1673200 60.2772 239.994 55.8093 0.83655 0.00287237
1673400 60.2772 240.007 55.8093 0.83665 0.016698
1673600 60.2772 240.02 55.8093 0.83675 -0.00333691
1673800 60.2772 240.033 55.8093 0.83685 0.0124401
1674000 60.2772 240.046 55.8093 0.83695 0.0135058
1674200 60.2772 240.059 55.8093 0.83705 0.0165382
1674400 60.2772 240.072 55.8093 0.83715 0.0334589
1674600 60.2772 240.086 55.8093 0.83725 0.0183678
1674800 60.2772 240.099 55.8093 0.83735 0.0191437
1675000 60.2772 240.112 55.8093 0.83745 0.00681896
1675200 60.2772 240.125 55.8093 0.83755 0.00606761
1675400 60.2772 240.138 55.8093 0.83765 -0.0147115
1675600 60.2772 240.151 55.8093 0.83775 -0.0107987
1675800 60.2772 240.164 55.8093 0.83785 -0.00408142
1676000 60.2772 240.177 55.8093 0.83795 -0.00191256
1676200 60.2772 240.19 55.8093 0.83805 -0.00826656
1676400 60.2772 240.203 55.8093 0.83815 -0.0241707
1676600 60.2772 240.216 55.8093 0.83825 -0.0122979
1676800 60.2772 240.229 55.8093 0.83835 -0.0102046
1677000 60.2772 240.242 55.8093 0.83845 0.00872398
1677200 60.2772 240.255 55.8093 0.83855 0.00736175
1677400 60.2772 240.268 55.8093 0.83865 0.00156006
1677600 60.2772 240.282 55.8093 0.83875 0.00828085
1677800 60.2772 240.295 55.8093 0.83885 0.0296887
1678000 60.2772 240.308 55.8093 0.83895 0.00921109
1678200 60.2772 240.321 55.8093 0.83905 0.0163526
1678400 60.2772 240.334 55.8093 0.83915 0.0298223
1678600 60.2772 240.347 55.8093 0.83925 0.0353667
1678800 60.2772 240.36 55.8093 0.83935 0.00550976
1679000 60.2772 240.373 55.8093 0.83945 0.0052511
1679200 60.2772 240.386 55.8093 0.83955 -0.00749113
1679400 60.2772 240.399 55.8093 0.83965 -0.0171819
1679600 60.2772 240.412 55.8093 0.83975 0.00550837
1679800 60.2772 240.425 55.8093 0.83985 -0.0225931
1680000 60.2772 240.438 55.8093 0.83995 -0.0151648
1680200 60.2772 240.451 55.8093 0.84005 -0.000145584
1680400 60.2772 240.464 55.8093 0.84015 -0.0168129
1680600 60.2772 240.478 55.8093 0.84025 -0.00976303
1680800 60.2772 240.491 55.8093 0.84035 -0.00461839
1681000 60.2772 240.504 55.8093 0.84045 -0.00423882
1681200 60.2772 240.517 55.8093 0.84055 0.0176636
1681400 60.2772 240.53 55.8093 0.84065 0.00664806
1681600 60.2772 240.543 55.8093 0.84075 0.0285866
1681800 60.2772 240.556 55.8093 0.84085 0.0167278
1682000 60.2772 240.569 55.8093 0.84095 0.0138521
1682200 60.2772 240.582 55.8093 0.84105 0.0193199
1682400 60.2772 240.595 55.8093 0.84115 0.0157891
1682600 60.2772 240.608 55.8093 0.84125 0.00427859
1682800 60.2772 240.621 55.8093 0.84135 0.0057535
1683000 60.2772 240.634 55.8093 0.84145 0.00515136
1683200 60.2772 240.647 55.8093 0.84155 0.0186916
1683400 60.2772 240.661 55.8093 0.84165 -0.0131072
1683600 60.2772 240.674 55.8093 0.84175 -0.0237723
1683800 60.2772 240.687 55.8093 0.84185 -0.00599122
1684000 60.2772 240.7 55.8093 0.84195 -0.00588597
1684200 60.2772 240.713 55.8093 0.84205 -0.00833746
1684400 60.2772 240.726 55.8093 0.84215 -0.00715582
1684600 60.2772 240.739 55.8093 0.84225 0.00428464
1684800 60.2772 240.752 55.8093 0.84235 -0.0171999
1685000 60.2772 240.765 55.8093 0.84245 0.017962
1685200 60.2772 240.778 55.8093 0.84255 -0.00467748
1685400 60.2772 240.791 55.8093 0.84265 0.0208791
1685600 60.2772 240.804 55.8093 0.84275 0.0043475
1685800 60.2772 240.817 55.8093 0.84285 0.00985012
1686000 60.2772 240.83 55.8093 0.84295 0.0170119
1686200 60.2772 240.843 55.8093 0.84305 0.0134502
1686400 60.2772 240.857 55.8093 0.84315 0.014796
1686600 60.2772 240.87 55.8093 0.84325 0.0158715
1686800 60.2772 240.883 55.8093 0.84335 -0.00357009
1687000 60.2772 240.896 55.8093 0.84345 0.0150256
1687200 60.2772 240.909 55.8093 0.84355 0.00422034
1687400 60.2772 240.922 55.8093 0.84365 -0.000519029
1687600 60.2772 240.935 55.8093 0.84375 -0.000474336
1687800 60.2772 240.948 55.8093 0.84385 -0.00570719
1688000 60.2772 240.961 55.8093 0.84395 -0.0120403
1688200 60.2772 240.974 55.8093 0.84405 -0.00683411
1688400 60.2772 240.987 55.8093 0.84415 -0.00275142
1688600 60.2772 241 55.8093 0.84425 0.00337562
1688800 60.2772 241.013 55.8093 0.84435 -0.0171022
1689000 60.2772 241.026 55.8093 0.84445 0.00484106
1689200 60.2772 241.039 55.8093 0.84455 -0.00690664
1689400 60.2772 241.053 55.8093 0.84465 -0.00253974
1689600 60.2772 241.066 55.8093 0.84475 0.00883594
1689800 60.2772 241.079 55.8093 0.84485 0.0171205
1690000 60.2772 241.092 55.8093 0.84495 0.0149892
1690200 60.2772 241.105 55.8093 0.84505 0.00862378
1690400 60.2772 241.118 55.8093 0.84515 0.0134153
1690600 60.2772 241.131 55.8093 0.84525 0.0331818
1690800 60.2772 241.144 55.8093 0.84535 0.00348791
1691000 60.2772 241.157 55.8093 0.84545 0.00847077
1691200 60.2772 241.17 55.8093 0.84555 0.0131903
1691400 60.2772 241.183 55.8093 0.84565 0.00786009
1691600 60.2772 241.196 55.8093 0.84575 -0.00707333
1691800 60.2772 241.209 55.8093 0.84585 -0.00642607
1692000 60.2772 241.222 55.8093 0.84595 -0.0200197
1692200 60.2772 241.235 55.8093 0.84605 -0.0187069
1692400 60.2772 241.249 55.8093 0.84615 -0.00461866
1692600 60.2772 241.262 55.8093 0.84625 -0.00522912
1692800 60.2772 241.275 55.8093 0.84635 0.00751278
1693000 60.2772 241.288 55.8093 0.84645 0.00110819
1693200 60.2772 241.301 55.8093 0.84655 0.00163453
1693400 60.2772 241.314 55.8093 0.84665 0.00226706
1693600 60.2772 241.327 55.8093 0.84675 0.00353596
1693800 60.2772 241.34 55.8093 0.84685 0.00740546
1694000 60.2772 241.353 55.8093 0.84695 0.00824334
1694200 60.2772 241.366 55.8093 0.84705 0.0272533
1694400 60.2772 241.379 55.8093 0.84715 0.0333242
1694600 60.2772 241.392 55.8093 0.84725 0.017494
1694800 60.2772 241.405 55.8093 0.84735 -0.00630006
1695000 60.2772 241.418 55.8093 0.84745 0.00824704
1695200 60.2772 241.431 55.8093 0.84755 -0.00434947
1695400 60.2772 241.445 55.8093 0.84765 -0.00433591
1695600 60.2772 241.458 55.8093 0.84775 0.00206657
1695800 60.2772 241.471 55.8093 0.84785 -0.00907965
1696000 60.2772 241.484 55.8093 0.84795 -0.00941877
1696200 60.2772 241.497 55.8093 0.84805 -0.00335527
1696400 60.2772 241.51 55.8093 0.84815 -0.00184624
1696600 60.2772 241.523 55.8093 0.84825 -0.0154502
1696800 60.2772 241.536 55.8093 0.84835 -0.00726544
1697000 60.2772 241.549 55.8093 0.84845 0.00359511
1697200 60.2772 241.562 55.8093 0.84855 0.0133011
1697400 60.2772 241.575 55.8093 0.84865 0.0101474
1697600 60.2772 241.588 55.8093 0.84875 0.000451138
1697800 60.2772 241.601 55.8093 0.84885 0.0115804
1698000 60.2772 241.614 55.8093 0.84895 -0.00707914
1698200 60.2772 241.628 55.8093 0.84905 0.0277209
1698400 60.2772 241.641 55.8093 0.84915 0.0198159
1698600 60.2772 241.654 55.8093 0.84925 0.0173758
1698800 60.2772 241.667 55.8093 0.84935 0.000445129
1699000 60.2772 241.68 55.8093 0.84945 0.00225779
1699200 60.2772 241.693 55.8093 0.84955 0.020864
1699400 60.2772 241.706 55.8093 0.84965 -0.000288121
1699600 60.2772 241.719 55.8093 0.84975 -0.0140328
1699800 60.2772 241.732 55.8093 0.84985 7.69423e-05
1700000 60.2772 241.745 55.8093 0.84995 -0.00415805
1700200 60.2772 241.758 55.8093 0.85005 0.0113004
1700400 60.2772 241.771 55.8093 0.85015 -0.0198434
1700600 60.2772 241.784 55.8093 0.85025 -0.00484232
1700800 60.2772 241.797 55.8093 0.85035 -0.0143604
1701000 60.2772 241.81 55.8093 0.85045 -0.00557514
1701200 60.2772 241.824 55.8093 0.85055 0.00905695
1701400 60.2772 241.837 55.8093 0.85065 -0.000675022
1701600 60.2772 241.85 55.8093 0.85075 0.021015
1701800 60.2772 241.863 55.8093 0.85085 -0.000186393
1702000 60.2772 241.876 55.8093 0.85095 0.00708473
1702200 60.2772 241.889 55.8093 0.85105 0.0149767
1702400 60.2772 241.902 55.8093 0.85115 0.0099447
1702600 60.2772 241.915 55.8093 0.85125 0.00698033
1702800 60.2772 241.928 55.8093 0.85135 0.0131773
1703000 60.2772 241.941 55.8093 0.85145 0.0167766
1703200 60.2772 241.954 55.8093 0.85155 0.00648174
1703400 60.2772 241.967 55.8093 0.85165 -0.00535882
1703600 60.2772 241.98 55.8093 0.85175 -0.00859817
1703800 60.2772 241.993 55.8093 0.85185 0.0181879
1704000 60.2772 242.006 55.8093 0.85195 0.00453704
1704200 60.2772 242.02 55.8093 0.85205 0.00400144
1704400 60.2772 242.033 55.8093 0.85215 -0.027576
1704600 60.2772 242.046 55.8093 0.85225 0.0066904
1704800 60.2772 242.059 55.8093 0.85235 -0.0219795
1705000 60.2772 242.072 55.8093 0.85245 0.00553529
1705200 60.2772 242.085 55.8093 0.85255 -0.00749226
1705400 60.2772 242.098 55.8093 0.85265 0.00619665
1705600 60.2772 242.111 55.8093 0.85275 0.00515026
1705800 60.2772 242.124 55.8093 0.85285 -0.00859286
1706000 60.2772 242.137 55.8093 0.85295 0.00725345
1706200 60.2772 242.15 55.8093 0.85305 0.0158013
1706400 60.2772 242.163 55.8093 0.85315 0.0122639
1706600 60.2772 242.176 55.8093 0.85325 0.0188486
1706800 60.2772 242.189 55.8093 0.85335 0.012059
1707000 60.2772 242.202 55.8093 0.85345 0.00947139
1707200 60.2772 242.216 55.8093 0.85355 0.00635937
1707400 60.2772 242.229 55.8093 0.85365 0.0147168
1707600 60.2772 242.242 55.8093 0.85375 -0.00328301
1707800 60.2772 242.255 55.8093 0.85385 -0.0111721
1708000 60.2772 242.268 55.8093 0.85395 0.0106291
1708200 60.2772 242.281 55.8093 0.85405 0.000251736
1708400 60.2772 242.294 55.8093 0.85415 -0.00052292
1708600 60.2772 242.307 55.8093 0.85425 -0.0110413
1708800 60.2772 242.32 55.8093 0.85435 -0.0076408
1709000 60.2772 242.333 55.8093 0.85445 -0.00655204
1709200 60.2772 242.346 55.8093 0.85455 0.0145069
1709400 60.2772 242.359 55.8093 0.85465 -0.0104939
1709600 60.2772 242.372 55.8093 0.85475 0.00252605
1709800 60.2772 242.385 55.8093 0.85485 0.00642732
1710000 60.2772 242.399 55.8093 0.85495 0.0074705
1710200 60.2772 242.412 55.8093 0.85505 -0.000174652
1710400 60.2772 242.425 55.8093 0.85515 0.0081151
1710600 60.2772 242.438 55.8093 0.85525 0.0303486
1710800 60.2772 242.451 55.8093 0.85535 0.0193036
1711000 60.2772 242.464 55.8093 0.85545 0.0110913
1711200 60.2772 242.477 55.8093 0.85555 -0.0074038
1711400 60.2772 242.49 55.8093 0.85565 0.00592446
1711600 60.2772 242.503 55.8093 0.85575 -0.0145743
1711800 60.2772 242.516 55.8093 0.85585 0.00464875
1712000 60.2772 242.529 55.8093 0.85595 0.00283939
1712200 60.2772 242.542 55.8093 0.85605 0.000899069
1712400 60.2772 242.555 55.8093 0.85615 0.000173113
1712600 60.2772 242.568 55.8093 0.85625 -0.00967705
1712800 60.2772 242.581 55.8093 0.85635 -0.00528064
1713000 60.2772 242.595 55.8093 0.85645 -0.00280507
1713200 60.2772 242.608 55.8093 0.85655 -0.0324806
1713400 60.2772 242.621 55.8093 0.85665 0.0141421
1713600 60.2772 242.634 55.8093 0.85675 0.0106356
1713800 60.2772 242.647 55.8093 0.85685 0.0181772
1714000 60.2772 242.66 55.8093 0.85695 0.0147879
1714200 60.2772 242.673 55.8093 0.85705 0.00231001
1714400 60.2772 242.686 55.8093 0.85715 0.0171392
1714600 60.2772 242.699 55.8093 0.85725 0.00454422
1714800 60.2772 242.712 55.8093 0.85735 0.00620218
1715000 60.2772 242.725 55.8093 0.85745 0.0070398
1715200 60.2772 242.738 55.8093 0.85755 0.0215862
1715400 60.2772 242.751 55.8093 0.85765 0.00976023
1715600 60.2772 242.764 55.8093 0.85775 0.00578329
1715800 60.2772 242.777 55.8093 0.85785 -0.0111236
1716000 60.2772 242.791 55.8093 0.85795 -0.0151468
1716200 60.2772 242.804 55.8093 0.85805 -0.00884083
1716400 60.2772 242.817 55.8093 0.85815 0.000913587
1716600 60.2772 242.83 55.8093 0.85825 0.00836604
1716800 60.2772 242.843 55.8093 0.85835 -0.00492295
1717000 60.2772 242.856 55.8093 0.85845 -0.00133045
1717200 60.2772 242.869 55.8093 0.85855 -0.00465044
1717400 60.2772 242.882 55.8093 0.85865 -0.0200654
1717600 60.2772 242.895 55.8093 0.85875 0.000866345
1717800 60.2772 242.908 55.8093 0.85885 0.0294046
1718000 60.2772 242.921 55.8093 0.85895 0.00725149
1718200 60.2772 242.934 55.8093 0.85905 0.0126603
1718400 60.2772 242.947 55.8093 0.85915 0.0122073
1718600 60.2772 242.96 55.8093 0.85925 0.0169076
1718800 60.2772 242.973 55.8093 0.85935 -0.00761564
1719000 60.2772 242.987 55.8093 0.85945 0.0127527
1719200 60.2772 243 55.8093 0.85955 0.0177705
1719400 60.2772 243.013 55.8093 0.85965 0.00647441
1719600 60.2772 243.026 55.8093 0.85975 -0.00116203
1719800 60.2772 243.039 55.8093 0.85985 0.00246271
1720000 60.2772 243.052 55.8093 0.85995 -0.0042473
1720200 60.2772 243.065 55.8093 0.86005 -0.0189337
1720400 60.2772 243.078 55.8093 0.86015 0.000792294
1720600 60.2772 243.091 55.8093 0.86025 -0.0225538
1720800 60.2772 243.104 55.8093 0.86035 0.00259866
1721000 60.2772 243.117 55.8093 0.86045 0.00305698
1721200 60.2772 243.13 55.8093 0.86055 0.019996
1721400 60.2772 243.143 55.8093 0.86065 -0.0229781
1721600 60.2772 243.156 55.8093 0.86075 0.00333722
1721800 60.2772 243.169 55.8093 0.86085 -0.0040758
1722000 60.2772 243.183 55.8093 0.86095 0.0124217
1722200 60.2772 243.196 55.8093 0.86105 0.0248202
1722400 60.2772 243.209 55.8093 0.86115 0.00194254
1722600 60.2772 243.222 55.8093 0.86125 0.0200531
1722800 60.2772 243.235 55.8093 0.86135 0.0277346
1723000 60.2772 243.248 55.8093 0.86145 0.0205838
1723200 60.2772 243.261 55.8093 0.86155 -0.0128373
1723400 60.2772 243.274 55.8093 0.86165 0.00668474
1723600 60.2772 243.287 55.8093 0.86175 0.00262029
1723800 60.2772 243.3 55.8093 0.86185 0.00973944
1724000 60.2772 243.313 55.8093 0.86195 0.00623462
1724200 60.2772 243.326 55.8093 0.86205 -0.0221087
1724400 60.2772 243.339 55.8093 0.86215 -0.0109063
1724600 60.2772 243.352 55.8093 0.86225 -1.08742e-06
1724800 60.2772 243.366 55.8093 0.86235 -0.0284351
1725000 60.2772 243.379 55.8093 0.86245 0.000884898
1725200 60.2772 243.392 55.8093 0.86255 0.00597083
1725400 60.2772 243.405 55.8093 0.86265 -0.020148
1725600 60.2772 243.418 55.8093 0.86275 0.0204404
1725800 60.2772 243.431 55.8093 0.86285 0.00582342
1726000 60.2772 243.444 55.8093 0.86295 0.00145056
1726200 60.2772 243.457 55.8093 0.86305 0.00894318
1726400 60.2772 243.47 55.8093 0.86315 0.0102518
1726600 60.2772 243.483 55.8093 0.86325 0.00988338
1726800 60.2772 243.496 55.8093 0.86335 0.0276446
1727000 60.2772 243.509 55.8093 0.86345 0.0172689
1727200 60.2772 243.522 55.8093 0.86355 0.00604119
1727400 60.2772 243.535 55.8093 0.86365 0.0106374
1727600 60.2772 243.548 55.8093 0.86375 0.00236477
1727800 60.2772 243.562 55.8093 0.86385 0.00113957
1728000 60.2772 243.575 55.8093 0.86395 0.0118006
1728200 60.2772 243.588 55.8093 0.86405 0.00221563
1728400 60.2772 243.601 55.8093 0.86415 -0.00807533
1728600 60.2772 243.614 55.8093 0.86425 -0.0118167
1728800 60.2772 243.627 55.8093 0.86435 -0.0121407
1729000 60.2772 243.64 55.8093 0.86445 -0.0115878
1729200 60.2772 243.653 55.8093 0.86455 -0.00389387
1729400 60.2772 243.666 55.8093 0.86465 -0.0152961
1729600 60.2772 243.679 55.8093 0.86475 0.00872875
1729800 60.2772 243.692 55.8093 0.86485 0.00768954
1730000 60.2772 243.705 55.8093 0.86495 0.00345669
1730200 60.2772 243.718 55.8093 0.86505 -0.00918641
1730400 60.2772 243.731 55.8093 0.86515 0.00596018
1730600 60.2772 243.744 55.8093 0.86525 0.00928385
1730800 60.2772 243.758 55.8093 0.86535 0.0289413
1731000 60.2772 243.771 55.8093 0.86545 0.00890417
1731200 60.2772 243.784 55.8093 0.86555 0.0197912
1731400 60.2772 243.797 55.8093 0.86565 0.00808643
1731600 60.2772 243.81 55.8093 0.86575 0.0179406
1731800 60.2772 243.823 55.8093 0.86585 -0.00110692
1732000 60.2772 243.836 55.8093 0.86595 -0.00571607
1732200 60.2772 243.849 55.8093 0.86605 0.00555618
1732400 60.2772 243.862 55.8093 0.86615 0.00615506
1732600 60.2772 243.875 55.8093 0.86625 -0.0105932
1732800 60.2772 243.888 55.8093 0.86635 -0.0191871
1733000 60.2772 243.901 55.8093 0.86645 -0.00194646
1733200 60.2772 243.914 55.8093 0.86655 -0.00228331
1733400 60.2772 243.927 55.8093 0.86665 -0.0105664
1733600 60.2772 243.94 55.8093 0.86675 0.00753219
1733800 60.2772 243.954 55.8093 0.86685 0.0023759
1734000 60.2772 243.967 55.8093 0.86695 0.0056091
1734200 60.2772 243.98 55.8093 0.86705 0.00212793
1734400 60.2772 243.993 55.8093 0.86715 0.0114135
1734600 60.2772 244.006 55.8093 0.86725 0.00856127
1734800 60.2772 244.019 55.8093 0.86735 0.0160001
1735000 60.2772 244.032 55.8093 0.86745 0.0200854
1735200 60.2772 244.045 55.8093 0.86755 0.00221415
1735400 60.2772 244.058 55.8093 0.86765 -0.011043
1735600 60.2772 244.071 55.8093 0.86775 0.0100757
1735800 60.2772 244.084 55.8093 0.86785 0.000354991
1736000 60.2772 244.097 55.8093 0.86795 0.0120744
1736200 60.2772 244.11 55.8093 0.86805 0.00582172
1736400 60.2772 244.123 55.8093 0.86815 -0.00157079
1736600 60.2772 244.137 55.8093 0.86825 -0.00362498
1736800 60.2772 244.15 55.8093 0.86835 -0.011954
1737000 60.2772 244.163 55.8093 0.86845 -0.0169297
1737200 60.2772 244.176 55.8093 0.86855 0.011599
1737400 60.2772 244.189 55.8093 0.86865 -0.00461036
1737600 60.2772 244.202 55.8093 0.86875 0.00190539
1737800 60.2772 244.215 55.8093 0.86885 0.00619695
1738000 60.2772 244.228 55.8093 0.86895 -0.00454518
1738200 60.2772 244.241 55.8093 0.86905 0.00126209
1738400 60.2772 244.254 55.8093 0.86915 0.0178998
1738600 60.2772 244.267 55.8093 0.86925 0.0111085
1738800 60.2772 244.28 55.8093 0.86935 0.0114151
1739000 60.2772 244.293 55.8093 0.86945 0.00334125
1739200 60.2772 244.306 55.8093 0.86955 0.012754
1739400 60.2772 244.319 55.8093 0.86965 0.0052934
1739600 60.2772 244.333 55.8093 0.86975 0.00898957
1739800 60.2772 244.346 55.8093 0.86985 0.00135304
1740000 60.2772 244.359 55.8093 0.86995 0.0234444
1740200 60.2772 244.372 55.8093 0.87005 0.00760687
1740400 60.2772 244.385 55.8093 0.87015 -0.000406084
1740600 60.2772 244.398 55.8093 0.87025 -0.0153087
1740800 60.2772 244.411 55.8093 0.87035 -0.0201574
1741000 60.2772 244.424 55.8093 0.87045 -0.0100967
1741200 60.2772 244.437 55.8093 0.87055 -0.00609122
1741400 60.2772 244.45 55.8093 0.87065 0.00788018
1741600 60.2772 244.463 55.8093 0.87075 -0.000686507
1741800 60.2772 244.476 55.8093 0.87085 -0.00615443
1742000 60.2772 244.489 55.8093 0.87095 -0.00891615
1742200 60.2772 244.502 55.8093 0.87105 0.00133693
1742400 60.2772 244.515 55.8093 0.87115 0.00101062
1742600 60.2772 244.529 55.8093 0.87125 0.0187487
1742800 60.2772 244.542 55.8093 0.87135 0.0216297
1743000 60.2772 244.555 55.8093 0.87145 0.0148838
1743200 60.2772 244.568 55.8093 0.87155 0.0347337
1743400 60.2772 244.581 55.8093 0.87165 0.0115198
1743600 60.2772 244.594 55.8093 0.87175 -0.00866354
1743800 60.2772 244.607 55.8093 0.87185 0.00773364
1744000 60.2772 244.62 55.8093 0.87195 -0.000756565
1744200 60.2772 244.633 55.8093 0.87205 -0.00620977
1744400 60.2772 244.646 55.8093 0.87215 0.0144645
1744600 60.2772 244.659 55.8093 0.87225 0.000955497
1744800 60.2772 244.672 55.8093 0.87235 -0.0170115
1745000 60.2772 244.685 55.8093 0.87245 -0.0114585
1745200 60.2772 244.698 55.8093 0.87255 -0.0219179
1745400 60.2772 244.711 55.8093 0.87265 -0.00267956
1745600 60.2772 244.725 55.8093 0.87275 -0.00737548
1745800 60.2772 244.738 55.8093 0.87285 0.00744173
1746000 60.2772 244.751 55.8093 0.87295 0.00371127
1746200 60.2772 244.764 55.8093 0.87305 -0.00256937
1746400 60.2772 244.777 55.8093 0.87315 0.00796037
1746600 60.2772 244.79 55.8093 0.87325 0.00986605
1746800 60.2772 244.803 55.8093 0.87335 0.00910459
1747000 60.2772 244.816 55.8093 0.87345 0.0375004
1747200 60.2772 244.829 55.8093 0.87355 0.00415036
1747400 60.2772 244.842 55.8093 0.87365 0.0235221
1747600 60.2772 244.855 55.8093 0.87375 0.0140267
1747800 60.2772 244.868 55.8093 0.87385 0.00956069
1748000 60.2772 244.881 55.8093 0.87395 -0.00176877
1748200 60.2772 244.894 55.8093 0.87405 -0.00816697
1748400 60.2772 244.907 55.8093 0.87415 -0.00167284
1748600 60.2772 244.921 55.8093 0.87425 -0.00791554
1748800 60.2772 244.934 55.8093 0.87435 -0.0144421
1749000 60.2772 244.947 55.8093 0.87445 -0.00800971
1749200 60.2772 244.96 55.8093 0.87455 -0.00207816
1749400 60.2772 244.973 55.8093 0.87465 -0.0131541
1749600 60.2772 244.986 55.8093 0.87475 -0.0105133
1749800 60.2772 244.999 55.8093 0.87485 0.00768153
1750000 60.2772 245.012 55.8093 0.87495 0.00653731
1750200 60.2772 245.025 55.8093 0.87505 -0.00997229
1750400 60.2772 245.038 55.8093 0.87515 0.0220077
1750600 60.2772 245.051 55.8093 0.87525 0.0157761
1750800 60.2772 245.064 55.8093 0.87535 0.0194012
1751000 60.2772 245.077 55.8093 0.87545 0.0125836
1751200 60.2772 245.09 55.8093 0.87555 0.0267116
1751400 60.2772 245.104 55.8093 0.87565 0.00508811
1751600 60.2772 245.117 55.8093 0.87575 0.0064873
1751800 60.2772 245.13 55.8093 0.87585 0.0099811
1752000 60.2772 245.143 55.8093 0.87595 0.00218286
1752200 60.2772 245.156 55.8093 0.87605 -0.0119545
1752400 60.2772 245.169 55.8093 0.87615 -0.0103988
1752600 60.2772 245.182 55.8093 0.87625 0.00290343
1752800 60.2772 245.195 55.8093 0.87635 -0.0078828
1753000 60.2772 245.208 55.8093 0.87645 -0.0181533
1753200 60.2772 245.221 55.8093 0.87655 0.00476244
1753400 60.2772 245.234 55.8093 0.87665 -0.00334386
1753600 60.2772 245.247 55.8093 0.87675 -0.0111068
1753800 60.2772 245.26 55.8093 0.87685 -0.0028041
1754000 60.2772 245.273 55.8093 0.87695 -0.00256435
1754200 60.2772 245.286 55.8093 0.87705 0.00644941
1754400 60.2772 245.3 55.8093 0.87715 -0.00445998
1754600 60.2772 245.313 55.8093 0.87725 0.0337549
1754800 60.2772 245.326 55.8093 0.87735 0.016666
1755000 60.2772 245.339 55.8093 0.87745 0.027299
1755200 60.2772 245.352 55.8093 0.87755 0.0185801
1755400 60.2772 245.365 55.8093 0.87765 -0.000883682
1755600 60.2772 245.378 55.8093 0.87775 0.0141691
1755800 60.2772 245.391 55.8093 0.87785 -0.00889434
1756000 60.2772 245.404 55.8093 0.87795 -0.00611003
1756200 60.2772 245.417 55.8093 0.87805 0.00785858
1756400 60.2772 245.43 55.8093 0.87815 -0.000284742
1756600 60.2772 245.443 55.8093 0.87825 -0.00662668
1756800 60.2772 245.456 55.8093 0.87835 -0.0161321
1757000 60.2772 245.469 55.8093 0.87845 -0.00958253
1757200 60.2772 245.482 55.8093 0.87855 -0.0113816
1757400 60.2772 245.496 55.8093 0.87865 -0.00241769
1757600 60.2772 245.509 55.8093 0.87875 0.0127889
1757800 60.2772 245.522 55.8093 0.87885 0.0103623
1758000 60.2772 245.535 55.8093 0.87895 0.00557426
1758200 60.2772 245.548 55.8093 0.87905 0.0027971
1758400 60.2772 245.561 55.8093 0.87915 0.00503434
1758600 60.2772 245.574 55.8093 0.87925 -0.00287744
1758800 60.2772 245.587 55.8093 0.87935 0.0210226
1759000 60.2772 245.6 55.8093 0.87945 0.0149251
1759200 60.2772 245.613 55.8093 0.87955 0.010449
1759400 60.2772 245.626 55.8093 0.87965 0.0146463
1759600 60.2772 245.639 55.8093 0.87975 -0.00111782
1759800 60.2772 245.652 55.8093 0.87985 -0.00737997
1760000 60.2772 245.665 55.8093 0.87995 -0.00465858
1760200 60.2772 245.678 55.8093 0.88005 0.00845109
1760400 60.2772 245.692 55.8093 0.88015 -0.00992816
1760600 60.2772 245.705 55.8093 0.88025 0.00877823
1760800 60.2772 245.718 55.8093 0.88035 -0.0137976
1761000 60.2772 245.731 55.8093 0.88045 -0.00190919
1761200 60.2772 245.744 55.8093 0.88055 -0.00630033
1761400 60.2772 245.757 55.8093 0.88065 0.00180625
1761600 60.2772 245.77 55.8093 0.88075 0.00634132
1761800 60.2772 245.783 55.8093 0.88085 0.0131829
1762000 60.2772 245.796 55.8093 0.88095 0.00137459
1762200 60.2772 245.809 55.8093 0.88105 0.0190999
1762400 60.2772 245.822 55.8093 0.88115 -0.0038365
1762600 60.2772 245.835 55.8093 0.88125 0.00462772
1762800 60.2772 245.848 55.8093 0.88135 0.00234813
1763000 60.2772 245.861 55.8093 0.88145 0.0207009
1763200 60.2772 245.875 55.8093 0.88155 -0.00342412
1763400 60.2772 245.888 55.8093 0.88165 0.0015149
1763600 60.2772 245.901 55.8093 0.88175 0.00773094
1763800 60.2772 245.914 55.8093 0.88185 -0.00743857
1764000 60.2772 245.927 55.8093 0.88195 0.00402572
1764200 60.2772 245.94 55.8093 0.88205 -0.00442122
1764400 60.2772 245.953 55.8093 0.88215 0.0109721
1764600 60.2772 245.966 55.8093 0.88225 -0.00715161
1764800 60.2772 245.979 55.8093 0.88235 -0.00356655
1765000 60.2772 245.992 55.8093 0.88245 0.00257388
1765200 60.2772 246.005 55.8093 0.88255 -0.0056614
1765400 60.2772 246.018 55.8093 0.88265 -0.00483228
1765600 60.2772 246.031 55.8093 0.88275 0.0194442
1765800 60.2772 246.044 55.8093 0.88285 -0.000500951
1766000 60.2772 246.057 55.8093 0.88295 0.0115021
1766200 60.2772 246.071 55.8093 0.88305 0.00917813
1766400 60.2772 246.084 55.8093 0.88315 -0.00394155
1766600 60.2772 246.097 55.8093 0.88325 -0.00672083
1766800 60.2772 246.11 55.8093 0.88335 0.00934903
1767000 60.2772 246.123 55.8093 0.88345 0.00700148
1767200 60.2772 246.136 55.8093 0.88355 0.00299317
1767400 60.2772 246.149 55.8093 0.88365 0.0252778
1767600 60.2772 246.162 55.8093 0.88375 0.0194047
1767800 60.2772 246.175 55.8093 0.88385 -0.0148852
1768000 60.2772 246.188 55.8093 0.88395 -0.00238453
1768200 60.2772 246.201 55.8093 0.88405 -0.00932935
1768400 60.2772 246.214 55.8093 0.88415 0.0136354
1768600 60.2772 246.227 55.8093 0.88425 -0.00899689
1768800 60.2772 246.24 55.8093 0.88435 0.00148634
1769000 60.2772 246.253 55.8093 0.88445 0.00319006
1769200 60.2772 246.267 55.8093 0.88455 0.00543834
1769400 60.2772 246.28 55.8093 0.88465 -0.0192319
1769600 60.2772 246.293 55.8093 0.88475 -0.00314906
1769800 60.2772 246.306 55.8093 0.88485 -0.00983271
1770000 60.2772 246.319 55.8093 0.88495 0.00443034
1770200 60.2772 246.332 55.8093 0.88505 0.024619
1770400 60.2772 246.345 55.8093 0.88515 0.0019098
1770600 60.2772 246.358 55.8093 0.88525 0.0129337
1770800 60.2772 246.371 55.8093 0.88535 0.0065009
1771000 60.2772 246.384 55.8093 0.88545 -0.00042158
1771200 60.2772 246.397 55.8093 0.88555 0.0115107
1771400 60.2772 246.41 55.8093 0.88565 0.0152132
1771600 60.2772 246.423 55.8093 0.88575 0.00878606
1771800 60.2772 246.436 55.8093 0.88585 -0.00225137
1772000 60.2772 246.449 55.8093 0.88595 0.0174453
1772200 60.2772 246.463 55.8093 0.88605 -0.0109149
1772400 60.2772 246.476 55.8093 0.88615 -0.00972277
1772600 60.2772 246.489 55.8093 0.88625 -0.00276656
1772800 60.2772 246.502 55.8093 0.88635 0.00612991
1773000 60.2772 246.515 55.8093 0.88645 -0.00764171
1773200 60.2772 246.528 55.8093 0.88655 -0.0104327
1773400 60.2772 246.541 55.8093 0.88665 -0.0111006
1773600 60.2772 246.554 55.8093 0.88675 0.00117462
1773800 60.2772 246.567 55.8093 0.88685 0.00159558
1774000 60.2772 246.58 55.8093 0.88695 -0.00598455
1774200 60.2772 246.593 55.8093 0.88705 0.00705464
1774400 60.2772 246.606 55.8093 0.88715 0.0218127
1774600 60.2772 246.619 55.8093 0.88725 0.00834685
1774800 60.2772 246.632 55.8093 0.88735 0.0135309
1775000 60.2772 246.645 55.8093 0.88745 0.0140003
1775200 60.2772 246.659 55.8093 0.88755 0.0222223
1775400 60.2772 246.672 55.8093 0.88765 0.0139189
1775600 60.2772 246.685 55.8093 0.88775 -0.00338242
1775800 60.2772 246.698 55.8093 0.88785 0.0122135
1776000 60.2772 246.711 55.8093 0.88795 -0.0113313
1776200 60.2772 246.724 55.8093 0.88805 0.0088078
1776400 60.2772 246.737 55.8093 0.88815 -0.0164121
1776600 60.2772 246.75 55.8093 0.88825 -0.00798705
1776800 60.2772 246.763 55.8093 0.88835 -0.00461428
1777000 60.2772 246.776 55.8093 0.88845 -0.00328323
1777200 60.2772 246.789 55.8093 0.88855 -0.00549312
1777400 60.2772 246.802 55.8093 0.88865 -0.0201239
1777600 60.2772 246.815 55.8093 0.88875 0.00788027
1777800 60.2772 246.828 55.8093 0.88885 -0.00322772
1778000 60.2772 246.842 55.8093 0.88895 -0.000498951
1778200 60.2772 246.855 55.8093 0.88905 0.00360666
1778400 60.2772 246.868 55.8093 0.88915 0.0107969
1778600 60.2772 246.881 55.8093 0.88925 0.0134528
1778800 60.2772 246.894 55.8093 0.88935 0.0123805
1779000 60.2772 246.907 55.8093 0.88945 0.00635098
1779200 60.2772 246.92 55.8093 0.88955 0.00994487
1779400 60.2772 246.933 55.8093 0.88965 0.0131777
1779600 60.2772 246.946 55.8093 0.88975 0.0149755
1779800 60.2772 246.959 55.8093 0.88985 -0.000937952
1780000 60.2772 246.972 55.8093 0.88995 0.0011172
1780200 60.2772 246.985 55.8093 0.89005 0.0157321
1780400 60.2772 246.998 55.8093 0.89015 0.00691425
1780600 60.2772 247.011 55.8093 0.89025 -0.00271002
1780800 60.2772 247.024 55.8093 0.89035 0.000277957
1781000 60.2772 247.038 55.8093 0.89045 -0.00849731
1781200 60.2772 247.051 55.8093 0.89055 -0.00892901
1781400 60.2772 247.064 55.8093 0.89065 -0.0220839
1781600 60.2772 247.077 55.8093 0.89075 -0.00750555
1781800 60.2772 247.09 55.8093 0.89085 -0.00727776
1782000 60.2772 247.103 55.8093 0.89095 0.0163244
1782200 60.2772 247.116 55.8093 0.89105 -0.00837818
1782400 60.2772 247.129 55.8093 0.89115 0.00431142
1782600 60.2772 247.142 55.8093 0.89125 0.0114635
1782800 60.2772 247.155 55.8093 0.89135 -0.000704987
1783000 60.2772 247.168 55.8093 0.89145 0.0130591
1783200 60.2772 247.181 55.8093 0.89155 0.0130924
1783400 60.2772 247.194 55.8093 0.89165 -0.00402054
1783600 60.2772 247.207 55.8093 0.89175 0.0232413
1783800 60.2772 247.22 55.8093 0.89185 0.0159071
1784000 60.2772 247.234 55.8093 0.89195 0.0160347
1784200 60.2772 247.247 55.8093 0.89205 0.000672766
1784400 60.2772 247.26 55.8093 0.89215 -0.00157346
1784600 60.2772 247.273 55.8093 0.89225 -0.00287221
1784800 60.2772 247.286 55.8093 0.89235 -0.0134533
1785000 60.2772 247.299 55.8093 0.89245 0.0013965
1785200 60.2772 247.312 55.8093 0.89255 0.000844686
1785400 60.2772 247.325 55.8093 0.89265 -0.00920019
1785600 60.2772 247.338 55.8093 0.89275 -0.0202435
1785800 60.2772 247.351 55.8093 0.89285 -0.0101192
1786000 60.2772 247.364 55.8093 0.89295 0.00592502
1786200 60.2772 247.377 55.8093 0.89305 0.00308158
1786400 60.2772 247.39 55.8093 0.89315 -0.00330261
1786600 60.2772 247.403 55.8093 0.89325 -0.00415557
1786800 60.2772 247.416 55.8093 0.89335 0.0100895
1787000 60.2772 247.43 55.8093 0.89345 0.02537
1787200 60.2772 247.443 55.8093 0.89355 0.00436867
1787400 60.2772 247.456 55.8093 0.89365 0.0240213
1787600 60.2772 247.469 55.8093 0.89375 0.024131
1787800 60.2772 247.482 55.8093 0.89385 0.0184008
1788000 60.2772 247.495 55.8093 0.89395 -0.00218336
1788200 60.2772 247.508 55.8093 0.89405 -0.00188263
1788400 60.2772 247.521 55.8093 0.89415 -0.00201925
1788600 60.2772 247.534 55.8093 0.89425 0.00450205
1788800 60.2772 247.547 55.8093 0.89435 -0.0142453
1789000 60.2772 247.56 55.8093 0.89445 -0.00454237
1789200 60.2772 247.573 55.8093 0.89455 -0.0204805
1789400 60.2772 247.586 55.8093 0.89465 -0.01449
1789600 60.2772 247.599 55.8093 0.89475 -0.000780329
1789800 60.2772 247.612 55.8093 0.89485 -0.00794083
1790000 60.2772 247.626 55.8093 0.89495 0.00307948
1790200 60.2772 247.639 55.8093 0.89505 0.00696245
1790400 60.2772 247.652 55.8093 0.89515 -0.00407341
1790600 60.2772 247.665 55.8093 0.89525 0.0193732
1790800 60.2772 247.678 55.8093 0.89535 0.0129159
1791000 60.2772 247.691 55.8093 0.89545 0.0127818
1791200 60.2772 247.704 55.8093 0.89555 0.0171005
1791400 60.2772 247.717 55.8093 0.89565 0.00616711
1791600 60.2772 247.73 55.8093 0.89575 0.0130909
1791800 60.2772 247.743 55.8093 0.89585 0.0190818
1792000 60.2772 247.756 55.8093 0.89595 -0.00749107
1792200 60.2772 247.769 55.8093 0.89605 -0.00577846
1792400 60.2772 247.782 55.8093 0.89615 0.00609276
1792600 60.2772 247.795 55.8093 0.89625 -0.00340994
1792800 60.2772 247.809 55.8093 0.89635 -0.0047399
1793000 60.2772 247.822 55.8093 0.89645 -0.0245809
1793200 60.2772 247.835 55.8093 0.89655 -0.00244083
1793400 60.2772 247.848 55.8093 0.89665 -0.0120444
1793600 60.2772 247.861 55.8093 0.89675 -0.0185665
1793800 60.2772 247.874 55.8093 0.89685 0.0113262
1794000 60.2772 247.887 55.8093 0.89695 0.0182978
1794200 60.2772 247.9 55.8093 0.89705 0.00813091
1794400 60.2772 247.913 55.8093 0.89715 -0.0080441
1794600 60.2772 247.926 55.8093 0.89725 0.0119594
1794800 60.2772 247.939 55.8093 0.89735 0.00468203
1795000 60.2772 247.952 55.8093 0.89745 0.0152271
1795200 60.2772 247.965 55.8093 0.89755 0.022641
1795400 60.2772 247.978 55.8093 0.89765 0.00752805
1795600 60.2772 247.991 55.8093 0.89775 0.00571531
1795800 60.2772 248.005 55.8093 0.89785 0.00642803
1796000 60.2772 248.018 55.8093 0.89795 -0.00201639
1796200 60.2772 248.031 55.8093 0.89805 -0.00686174
1796400 60.2772 248.044 55.8093 0.89815 0.00061767
1796600 60.2772 248.057 55.8093 0.89825 0.0118055
1796800 60.2772 248.07 55.8093 0.89835 -0.000419689
1797000 60.2772 248.083 55.8093 0.89845 0.00122087
1797200 60.2772 248.096 55.8093 0.89855 -0.0117174
1797400 60.2772 248.109 55.8093 0.89865 -0.0204872
1797600 60.2772 248.122 55.8093 0.89875 -0.0144708
1797800 60.2772 248.135 55.8093 0.89885 0.00494469
1798000 60.2772 248.148 55.8093 0.89895 0.00697986
1798200 60.2772 248.161 55.8093 0.89905 0.00486071
1798400 60.2772 248.174 55.8093 0.89915 0.00539516
1798600 60.2772 248.187 55.8093 0.89925 -0.00165764
1798800 60.2772 248.201 55.8093 0.89935 0.0101143
1799000 60.2772 248.214 55.8093 0.89945 0.0086818
1799200 60.2772 248.227 55.8093 0.89955 0.00870306
1799400 60.2772 248.24 55.8093 0.89965 0.0150454
1799600 60.2772 248.253 55.8093 0.89975 0.0204899
1799800 60.2772 248.266 55.8093 0.89985 0.00127659
1800000 60.2772 248.279 55.8093 0.89995 -0.0127265
1800200 60.2772 248.292 55.8093 0.90005 0.00491823
1800400 60.2772 248.305 55.8093 0.90015 -0.00575545
1800600 60.2772 248.318 55.8093 0.90025 -0.00635299
1800800 60.2772 248.331 55.8093 0.90035 0.00360163
1801000 60.2772 248.344 55.8093 0.90045 -0.00417496
1801200 60.2772 248.357 55.8093 0.90055 -0.00728348
1801400 60.2772 248.37 55.8093 0.90065 -0.00356904
1801600 60.2772 248.383 55.8093 0.90075 -0.00139952
1801800 60.2772 248.397 55.8093 0.90085 -0.00716563
1802000 60.2772 248.41 55.8093 0.90095 0.00565427
1802200 60.2772 248.423 55.8093 0.90105 0.00478425
1802400 60.2772 248.436 55.8093 0.90115 -0.0119988
1802600 60.2772 248.449 55.8093 0.90125 0.0129405
1802800 60.2772 248.462 55.8093 0.90135 0.0165791
1803000 60.2772 248.475 55.8093 0.90145 0.0133413
1803200 60.2772 248.488 55.8093 0.90155 0.0145688
1803400 60.2772 248.501 55.8093 0.90165 0.011732
1803600 60.2772 248.514 55.8093 0.90175 0.00920775
1803800 60.2772 248.527 55.8093 0.90185 0.0126531
1804000 60.2772 248.54 55.8093 0.90195 -0.0105308
1804200 60.2772 248.553 55.8093 0.90205 0.0134133
1804400 60.2772 248.566 55.8093 0.90215 -0.0101359
1804600 60.2772 248.58 55.8093 0.90225 -0.00320672
1804800 60.2772 248.593 55.8093 0.90235 0.00700174
1805000 60.2772 248.606 55.8093 0.90245 -0.0187496
1805200 60.2772 248.619 55.8093 0.90255 -0.00767312
1805400 60.2772 248.632 55.8093 0.90265 -0.00851347
1805600 60.2772 248.645 55.8093 0.90275 -0.00841126
1805800 60.2772 248.658 55.8093 0.90285 -0.00719592
1806000 60.2772 248.671 55.8093 0.90295 -0.00376362
1806200 60.2772 248.684 55.8093 0.90305 0.00886579
1806400 60.2772 248.697 55.8093 0.90315 -0.00417759
1806600 60.2772 248.71 55.8093 0.90325 0.0161246
1806800 60.2772 248.723 55.8093 0.90335 0.0122603
1807000 60.2772 248.736 55.8093 0.90345 0.00621347
1807200 60.2772 248.749 55.8093 0.90355 0.0101499
1807400 60.2772 248.762 55.8093 0.90365 0.0120617
1807600 60.2772 248.776 55.8093 0.90375 0.0259537
1807800 60.2772 248.789 55.8093 0.90385 0.0125222
1808000 60.2772 248.802 55.8093 0.90395 0.00703867
1808200 60.2772 248.815 55.8093 0.90405 -0.00337194
1808400 60.2772 248.828 55.8093 0.90415 -0.00531357
1808600 60.2772 248.841 55.8093 0.90425 0.00123255
1808800 60.2772 248.854 55.8093 0.90435 -0.0266957
1809000 60.2772 248.867 55.8093 0.90445 -0.017523
1809200 60.2772 248.88 55.8093 0.90455 -0.00422263
1809400 60.2772 248.893 55.8093 0.90465 -0.0025976
1809600 60.2772 248.906 55.8093 0.90475 -0.00746285
1809800 60.2772 248.919 55.8093 0.90485 -0.0117682
1810000 60.2772 248.932 55.8093 0.90495 -0.000480793
1810200 60.2772 248.945 55.8093 0.90505 0.00930018
1810400 60.2772 248.958 55.8093 0.90515 0.0126069
1810600 60.2772 248.972 55.8093 0.90525 0.0132634
1810800 60.2772 248.985 55.8093 0.90535 0.0159304
1811000 60.2772 248.998 55.8093 0.90545 0.0273296
1811200 60.2772 249.011 55.8093 0.90555 0.0147879
1811400 60.2772 249.024 55.8093 0.90565 0.00791449
1811600 60.2772 249.037 55.8093 0.90575 -0.0129769
1811800 60.2772 249.05 55.8093 0.90585 0.0256654
1812000 60.2772 249.063 55.8093 0.90595 0.0118104
1812200 60.2772 249.076 55.8093 0.90605 -0.0159701
1812400 60.2772 249.089 55.8093 0.90615 -0.0141074
1812600 60.2772 249.102 55.8093 0.90625 -0.019471
1812800 60.2772 249.115 55.8093 0.90635 -0.0121272
1813000 60.2772 249.128 55.8093 0.90645 -0.000778131
1813200 60.2772 249.141 55.8093 0.90655 -0.0191532
1813400 60.2772 249.154 55.8093 0.90665 -6.62553e-05
1813600 60.2772 249.168 55.8093 0.90675 -0.0110495
1813800 60.2772 249.181 55.8093 0.90685 0.00862908
1814000 60.2772 249.194 55.8093 0.90695 0.00354206
1814200 60.2772 249.207 55.8093 0.90705 0.0107554
1814400 60.2772 249.22 55.8093 0.90715 0.0234565
1814600 60.2772 249.233 55.8093 0.90725 0.020481
1814800 60.2772 249.246 55.8093 0.90735 0.00870004
1815000 60.2772 249.259 55.8093 0.90745 0.0193188
1815200 60.2772 249.272 55.8093 0.90755 0.00227155
1815400 60.2772 249.285 55.8093 0.90765 0.0185699
1815600 60.2772 249.298 55.8093 0.90775 0.0048205
1815800 60.2772 249.311 55.8093 0.90785 -0.00446453
1816000 60.2772 249.324 55.8093 0.90795 -0.00589179
1816200 60.2772 249.337 55.8093 0.90805 -0.0127924
1816400 60.2772 249.35 55.8093 0.90815 -0.00710455
1816600 60.2772 249.364 55.8093 0.90825 -0.0116565
1816800 60.2772 249.377 55.8093 0.90835 -0.0158476
1817000 60.2772 249.39 55.8093 0.90845 -0.00578732
1817200 60.2772 249.403 55.8093 0.90855 -0.00400907
1817400 60.2772 249.416 55.8093 0.90865 -0.0116218
1817600 60.2772 249.429 55.8093 0.90875 0.00708673
1817800 60.2772 249.442 55.8093 0.90885 0.00658311
1818000 60.2772 249.455 55.8093 0.90895 0.0077358
1818200 60.2772 249.468 55.8093 0.90905 0.0137646
1818400 60.2772 249.481 55.8093 0.90915 0.0066438
1818600 60.2772 249.494 55.8093 0.90925 0.0299174
1818800 60.2772 249.507 55.8093 0.90935 0.0147017
1819000 60.2772 249.52 55.8093 0.90945 -0.00728964
1819200 60.2772 249.533 55.8093 0.90955 0.0108376
1819400 60.2772 249.547 55.8093 0.90965 0.0257824
1819600 60.2772 249.56 55.8093 0.90975 -0.00999917
1819800 60.2772 249.573 55.8093 0.90985 -0.00534311
1820000 60.2772 249.586 55.8093 0.90995 -0.00416567
1820200 60.2772 249.599 55.8093 0.91005 -0.0106588
1820400 60.2772 249.612 55.8093 0.91015 -0.00717564
1820600 60.2772 249.625 55.8093 0.91025 -0.000582737
1820800 60.2772 249.638 55.8093 0.91035 -0.0233728
1821000 60.2772 249.651 55.8093 0.91045 -0.0090188
1821200 60.2772 249.664 55.8093 0.91055 -0.00509719
1821400 60.2772 249.677 55.8093 0.91065 0.0063621
1821600 60.2772 249.69 55.8093 0.91075 0.00421742
1821800 60.2772 249.703 55.8093 0.91085 0.011473
1822000 60.2772 249.716 55.8093 0.91095 -0.0101938
1822200 60.2772 249.729 55.8093 0.91105 0.0133544
1822400 60.2772 249.743 55.8093 0.91115 0.00997511
1822600 60.2772 249.756 55.8093 0.91125 0.012993
1822800 60.2772 249.769 55.8093 0.91135 0.0177491
1823000 60.2772 249.782 55.8093 0.91145 0.0234868
1823200 60.2772 249.795 55.8093 0.91155 -0.00106488
1823400 60.2772 249.808 55.8093 0.91165 0.012212
1823600 60.2772 249.821 55.8093 0.91175 0.00216486
1823800 60.2772 249.834 55.8093 0.91185 0.00740123
1824000 60.2772 249.847 55.8093 0.91195 -0.00661383
1824200 60.2772 249.86 55.8093 0.91205 -0.0100422
1824400 60.2772 249.873 55.8093 0.91215 0.00437052
1824600 60.2772 249.886 55.8093 0.91225 -0.0288898
1824800 60.2772 249.899 55.8093 0.91235 -0.00568479
1825000 60.2772 249.912 55.8093 0.91245 -0.0134479
1825200 60.2772 249.925 55.8093 0.91255 0.000392228
1825400 60.2772 249.939 55.8093 0.91265 -0.00630865
1825600 60.2772 249.952 55.8093 0.91275 0.00291581
1825800 60.2772 249.965 55.8093 0.91285 -0.000623186
1826000 60.2772 249.978 55.8093 0.91295 0.0143895
1826200 60.2772 249.991 55.8093 0.91305 -0.000541156
1826400 60.2772 250.004 55.8093 0.91315 0.018345
1826600 60.2772 250.017 55.8093 0.91325 0.0141207
1826800 60.2772 250.03 55.8093 0.91335 0.0202235
1827000 60.2772 250.043 55.8093 0.91345 0.00688833
1827200 60.2772 250.056 55.8093 0.91355 0.00952076
1827400 60.2772 250.069 55.8093 0.91365 -0.000722488
1827600 60.2772 250.082 55.8093 0.91375 0.00298184
1827800 60.2772 250.095 55.8093 0.91385 0.000496093
1828000 60.2772 250.108 55.8093 0.91395 0.00993383
1828200 60.2772 250.121 55.8093 0.91405 -0.00924566
1828400 60.2772 250.135 55.8093 0.91415 -0.01999
1828600 60.2772 250.148 55.8093 0.91425 -0.0124383
1828800 60.2772 250.161 55.8093 0.91435 -0.0110638
1829000 60.2772 250.174 55.8093 0.91445 -0.0108608
1829200 60.2772 250.187 55.8093 0.91455 0.0136156
1829400 60.2772 250.2 55.8093 0.91465 -0.00846889
1829600 60.2772 250.213 55.8093 0.91475 0.00427424
1829800 60.2772 250.226 55.8093 0.91485 -0.00285417
1830000 60.2772 250.239 55.8093 0.91495 0.0200507
1830200 60.2772 250.252 55.8093 0.91505 0.00338612
1830400 60.2772 250.265 55.8093 0.91515 0.0112215
1830600 60.2772 250.278 55.8093 0.91525 0.0301101
1830800 60.2772 250.291 55.8093 0.91535 0.00626919
1831000 60.2772 250.304 55.8093 0.91545 0.0164949
1831200 60.2772 250.318 55.8093 0.91555 0.0119712
1831400 60.2772 250.331 55.8093 0.91565 0.000861742
1831600 60.2772 250.344 55.8093 0.91575 -0.0110521
1831800 60.2772 250.357 55.8093 0.91585 0.00384544
1832000 60.2772 250.37 55.8093 0.91595 -0.0141101
1832200 60.2772 250.383 55.8093 0.91605 -0.0131224
1832400 60.2772 250.396 55.8093 0.91615 -0.00628584
1832600 60.2772 250.409 55.8093 0.91625 -0.0177974
1832800 60.2772 250.422 55.8093 0.91635 -0.000494479
1833000 60.2772 250.435 55.8093 0.91645 -0.00474546
1833200 60.2772 250.448 55.8093 0.91655 -0.0102566
1833400 60.2772 250.461 55.8093 0.91665 0.000374995
1833600 60.2772 250.474 55.8093 0.91675 0.00341721
1833800 60.2772 250.487 55.8093 0.91685 0.0125307
1834000 60.2772 250.5 55.8093 0.91695 0.0171814
1834200 60.2772 250.514 55.8093 0.91705 0.0105061
1834400 60.2772 250.527 55.8093 0.91715 0.0126245
1834600 60.2772 250.54 55.8093 0.91725 0.0159705
1834800 60.2772 250.553 55.8093 0.91735 0.0180847
1835000 60.2772 250.566 55.8093 0.91745 0.0230671
1835200 60.2772 250.579 55.8093 0.91755 -0.003144
1835400 60.2772 250.592 55.8093 0.91765 0.00895508
1835600 60.2772 250.605 55.8093 0.91775 -0.00984968
1835800 60.2772 250.618 55.8093 0.91785 -0.00595494
1836000 60.2772 250.631 55.8093 0.91795 -0.00812427
1836200 60.2772 250.644 55.8093 0.91805 -0.00362186
1836400 60.2772 250.657 55.8093 0.91815 -0.0127083
1836600 60.2772 250.67 55.8093 0.91825 -0.0245416
1836800 60.2772 250.683 55.8093 0.91835 -0.0287482
1837000 60.2772 250.696 55.8093 0.91845 0.00165453
1837200 60.2772 250.71 55.8093 0.91855 0.00780722
1837400 60.2772 250.723 55.8093 0.91865 -0.0023081
1837600 60.2772 250.736 55.8093 0.91875 0.00364099
1837800 60.2772 250.749 55.8093 0.91885 0.0114787
1838000 60.2772 250.762 55.8093 0.91895 0.00974043
1838200 60.2772 250.775 55.8093 0.91905 0.0296562
1838400 60.2772 250.788 55.8093 0.91915 0.00917145
1838600 60.2772 250.801 55.8093 0.91925 0.0223206
1838800 60.2772 250.814 55.8093 0.91935 0.0190644
1839000 60.2772 250.827 55.8093 0.91945 0.0176412
1839200 60.2772 250.84 55.8093 0.91955 0.0197913
1839400 60.2772 250.853 55.8093 0.91965 -0.00162646
1839600 60.2772 250.866 55.8093 0.91975 -0.0191844
1839800 60.2772 250.879 55.8093 0.91985 0.0049436
1840000 60.2772 250.892 55.8093 0.91995 0.00184415
1840200 60.2772 250.906 55.8093 0.92005 -0.0246183
1840400 60.2772 250.919 55.8093 0.92015 -0.0224367
1840600 60.2772 250.932 55.8093 0.92025 -0.0208793
1840800 60.2772 250.945 55.8093 0.92035 -0.0172371
1841000 60.2772 250.958 55.8093 0.92045 -0.0106061
1841200 60.2772 250.971 55.8093 0.92055 -0.000487223
1841400 60.2772 250.984 55.8093 0.92065 0.00323137
1841600 60.2772 250.997 55.8093 0.92075 -0.00381574
1841800 60.2772 251.01 55.8093 0.92085 0.0123471
1842000 60.2772 251.023 55.8093 0.92095 0.0120836
1842200 60.2772 251.036 55.8093 0.92105 0.0187294
1842400 60.2772 251.049 55.8093 0.92115 0.0246061
1842600 60.2772 251.062 55.8093 0.92125 0.0306907
1842800 60.2772 251.075 55.8093 0.92135 0.0254483
1843000 60.2772 251.088 55.8093 0.92145 0.023233
1843200 60.2772 251.102 55.8093 0.92155 0.00393537
1843400 60.2772 251.115 55.8093 0.92165 0.0107291
1843600 60.2772 251.128 55.8093 0.92175 0.00469199
1843800 60.2772 251.141 55.8093 0.92185 -0.022152
1844000 60.2772 251.154 55.8093 0.92195 -0.0102592
1844200 60.2772 251.167 55.8093 0.92205 -0.0180126
1844400 60.2772 251.18 55.8093 0.92215 -0.0173657
1844600 60.2772 251.193 55.8093 0.92225 -0.0146011
1844800 60.2772 251.206 55.8093 0.92235 -0.0209629
1845000 60.2772 251.219 55.8093 0.92245 -0.0276152
1845200 60.2772 251.232 55.8093 0.92255 -0.00558172
1845400 60.2772 251.245 55.8093 0.92265 -0.0148614
1845600 60.2772 251.258 55.8093 0.92275 -0.00411994
1845800 60.2772 251.271 55.8093 0.92285 0.0231005
1846000 60.2772 251.285 55.8093 0.92295 0.0214718
1846200 60.2772 251.298 55.8093 0.92305 0.0286157
1846400 60.2772 251.311 55.8093 0.92315 0.0330242
1846600 60.2772 251.324 55.8093 0.92325 0.0224207
1846800 60.2772 251.337 55.8093 0.92335 0.0198079
1847000 60.2772 251.35 55.8093 0.92345 0.0286613
1847200 60.2772 251.363 55.8093 0.92355 0.019109
1847400 60.2772 251.376 55.8093 0.92365 0.016345
1847600 60.2772 251.389 55.8093 0.92375 -0.00802978
1847800 60.2772 251.402 55.8093 0.92385 -0.00471672
1848000 60.2772 251.415 55.8093 0.92395 -0.0157043
1848200 60.2772 251.428 55.8093 0.92405 -0.0245755
1848400 60.2772 251.441 55.8093 0.92415 -0.023962
1848600 60.2772 251.454 55.8093 0.92425 -0.0345814
1848800 60.2772 251.467 55.8093 0.92435 -0.0192312
1849000 60.2772 251.481 55.8093 0.92445 -0.00170266
1849200 60.2772 251.494 55.8093 0.92455 -0.0138645
1849400 60.2772 251.507 55.8093 0.92465 -0.0174597
1849600 60.2772 251.52 55.8093 0.92475 0.00460155
1849800 60.2772 251.533 55.8093 0.92485 0.00425247
1850000 60.2772 251.546 55.8093 0.92495 0.0222332
1850200 60.2772 251.559 55.8093 0.92505 0.0261043
1850400 60.2772 251.572 55.8093 0.92515 0.0385096
1850600 60.2772 251.585 55.8093 0.92525 0.0333022
1850800 60.2772 251.598 55.8093 0.92535 0.0407466
1851000 60.2772 251.611 55.8093 0.92545 0.00553526
1851200 60.2772 251.624 55.8093 0.92555 0.00983571
1851400 60.2772 251.637 55.8093 0.92565 -0.00114418
1851600 60.2772 251.65 55.8093 0.92575 0.00899365
1851800 60.2772 251.663 55.8093 0.92585 -0.00921509
1852000 60.2772 251.677 55.8093 0.92595 -0.0105295
1852200 60.2772 251.69 55.8093 0.92605 -0.0185998
1852400 60.2772 251.703 55.8093 0.92615 -0.0327825
1852600 60.2772 251.716 55.8093 0.92625 -0.0283222
1852800 60.2772 251.729 55.8093 0.92635 -0.0201597
1853000 60.2772 251.742 55.8093 0.92645 -0.0110487
1853200 60.2772 251.755 55.8093 0.92655 -0.0107371
1853400 60.2772 251.768 55.8093 0.92665 0.00413841
1853600 60.2772 251.781 55.8093 0.92675 0.00367167
1853800 60.2772 251.794 55.8093 0.92685 0.0249162
1854000 60.2772 251.807 55.8093 0.92695 0.0139848
1854200 60.2772 251.82 55.8093 0.92705 0.0196029
1854400 60.2772 251.833 55.8093 0.92715 0.0275055
1854600 60.2772 251.846 55.8093 0.92725 0.0372595
1854800 60.2772 251.859 55.8093 0.92735 0.0114631
1855000 60.2772 251.873 55.8093 0.92745 0.0163064
1855200 60.2772 251.886 55.8093 0.92755 0.0214864
1855400 60.2772 251.899 55.8093 0.92765 0.00732862
1855600 60.2772 251.912 55.8093 0.92775 -0.0182415
1855800 60.2772 251.925 55.8093 0.92785 -0.0205949
1856000 60.2772 251.938 55.8093 0.92795 -0.00235785
1856200 60.2772 251.951 55.8093 0.92805 -0.00840144
1856400 60.2772 251.964 55.8093 0.92815 -0.0248472
1856600 60.2772 251.977 55.8093 0.92825 -0.0235802
1856800 60.2772 251.99 55.8093 0.92835 -0.017806
1857000 60.2772 252.003 55.8093 0.92845 -0.012612
1857200 60.2772 252.016 55.8093 0.92855 -0.0148552
1857400 60.2772 252.029 55.8093 0.92865 0.0129889
1857600 60.2772 252.042 55.8093 0.92875 0.0171558
1857800 60.2772 252.056 55.8093 0.92885 0.0135381
1858000 60.2772 252.069 55.8093 0.92895 0.0190861
1858200 60.2772 252.082 55.8093 0.92905 0.0184807
1858400 60.2772 252.095 55.8093 0.92915 0.0186132
1858600 60.2772 252.108 55.8093 0.92925 0.0214698
1858800 60.2772 252.121 55.8093 0.92935 0.0294839
1859000 60.2772 252.134 55.8093 0.92945 0.0211506
1859200 60.2772 252.147 55.8093 0.92955 -0.000312245
1859400 60.2772 252.16 55.8093 0.92965 0.00831916
1859600 60.2772 252.173 55.8093 0.92975 -0.0161558
1859800 60.2772 252.186 55.8093 0.92985 -0.00216715
1860000 60.2772 252.199 55.8093 0.92995 -0.0263264
1860200 60.2772 252.212 55.8093 0.93005 -0.0349855
1860400 60.2772 252.225 55.8093 0.93015 -0.0122799
1860600 60.2772 252.238 55.8093 0.93025 0.00818899
1860800 60.2772 252.252 55.8093 0.93035 -0.0304775
1861000 60.2772 252.265 55.8093 0.93045 -0.016721
1861200 60.2772 252.278 55.8093 0.93055 0.00593339
1861400 60.2772 252.291 55.8093 0.93065 0.00624128
1861600 60.2772 252.304 55.8093 0.93075 0.012594
1861800 60.2772 252.317 55.8093 0.93085 0.0296595
1862000 60.2772 252.33 55.8093 0.93095 0.00225968
1862200 60.2772 252.343 55.8093 0.93105 0.0209772
1862400 60.2772 252.356 55.8093 0.93115 0.0425805
1862600 60.2772 252.369 55.8093 0.93125 0.030863
1862800 60.2772 252.382 55.8093 0.93135 0.0199306
1863000 60.2772 252.395 55.8093 0.93145 0.0133627
1863200 60.2772 252.408 55.8093 0.93155 0.000270998
1863400 60.2772 252.421 55.8093 0.93165 -0.00514143
1863600 60.2772 252.434 55.8093 0.93175 -0.0119082
1863800 60.2772 252.448 55.8093 0.93185 -0.0302466
1864000 60.2772 252.461 55.8093 0.93195 -0.00891917
1864200 60.2772 252.474 55.8093 0.93205 -0.0112165
1864400 60.2772 252.487 55.8093 0.93215 -0.021311
1864600 60.2772 252.5 55.8093 0.93225 -0.0159133
1864800 60.2772 252.513 55.8093 0.93235 -0.0382234
1865000 60.2772 252.526 55.8093 0.93245 -0.011241
1865200 60.2772 252.539 55.8093 0.93255 0.00478285
1865400 60.2772 252.552 55.8093 0.93265 0.0240405
1865600 60.2772 252.565 55.8093 0.93275 0.00714726
1865800 60.2772 252.578 55.8093 0.93285 0.0288998
1866000 60.2772 252.591 55.8093 0.93295 0.0223797
1866200 60.2772 252.604 55.8093 0.93305 0.0234959
1866400 60.2772 252.617 55.8093 0.93315 0.0143844
1866600 60.2772 252.63 55.8093 0.93325 0.0222893
1866800 60.2772 252.644 55.8093 0.93335 0.0350214
1867000 60.2772 252.657 55.8093 0.93345 0.024725
1867200 60.2772 252.67 55.8093 0.93355 0.0137952
1867400 60.2772 252.683 55.8093 0.93365 -0.0026481
1867600 60.2772 252.696 55.8093 0.93375 -0.0281209
1867800 60.2772 252.709 55.8093 0.93385 -0.013291
1868000 60.2772 252.722 55.8093 0.93395 -0.0230594
1868200 60.2772 252.735 55.8093 0.93405 -0.01607
1868400 60.2772 252.748 55.8093 0.93415 -0.0205926
1868600 60.2772 252.761 55.8093 0.93425 -0.0244832
1868800 60.2772 252.774 55.8093 0.93435 -0.0101692
1869000 60.2772 252.787 55.8093 0.93445 -0.0184905
1869200 60.2772 252.8 55.8093 0.93455 -0.0105871
1869400 60.2772 252.813 55.8093 0.93465 0.00437962
1869600 60.2772 252.826 55.8093 0.93475 0.0147391
1869800 60.2772 252.84 55.8093 0.93485 0.0256559
1870000 60.2772 252.853 55.8093 0.93495 0.019996
1870200 60.2772 252.866 55.8093 0.93505 0.0355216
1870400 60.2772 252.879 55.8093 0.93515 0.0230094
1870600 60.2772 252.892 55.8093 0.93525 0.019918
1870800 60.2772 252.905 55.8093 0.93535 0.0282629
1871000 60.2772 252.918 55.8093 0.93545 0.025619
1871200 60.2772 252.931 55.8093 0.93555 0.00625026
1871400 60.2772 252.944 55.8093 0.93565 0.0156995
1871600 60.2772 252.957 55.8093 0.93575 -0.0172847
1871800 60.2772 252.97 55.8093 0.93585 -0.0228786
1872000 60.2772 252.983 55.8093 0.93595 -0.00823479
1872200 60.2772 252.996 55.8093 0.93605 -0.0176551
1872400 60.2772 253.009 55.8093 0.93615 -0.033377
1872600 60.2772 253.023 55.8093 0.93625 -0.0203579
1872800 60.2772 253.036 55.8093 0.93635 -0.0279171
1873000 60.2772 253.049 55.8093 0.93645 -0.00861061
1873200 60.2772 253.062 55.8093 0.93655 0.00537176
1873400 60.2772 253.075 55.8093 0.93665 -0.0141058
1873600 60.2772 253.088 55.8093 0.93675 -0.00134706
1873800 60.2772 253.101 55.8093 0.93685 0.0252418
1874000 60.2772 253.114 55.8093 0.93695 0.0363215
1874200 60.2772 253.127 55.8093 0.93705 0.0283955
1874400 60.2772 253.14 55.8093 0.93715 0.0150923
1874600 60.2772 253.153 55.8093 0.93725 0.0405553
1874800 60.2772 253.166 55.8093 0.93735 0.0129836
1875000 60.2772 253.179 55.8093 0.93745 0.032083
1875200 60.2772 253.192 55.8093 0.93755 0.00465653
1875400 60.2772 253.205 55.8093 0.93765 0.00339489
1875600 60.2772 253.219 55.8093 0.93775 -0.00721982
1875800 60.2772 253.232 55.8093 0.93785 -0.00382668
1876000 60.2772 253.245 55.8093 0.93795 -0.0168561
1876200 60.2772 253.258 55.8093 0.93805 -0.0312031
1876400 60.2772 253.271 55.8093 0.93815 -0.0264099
1876600 60.2772 253.284 55.8093 0.93825 -0.0248394
1876800 60.2772 253.297 55.8093 0.93835 -0.00559835
1877000 60.2772 253.31 55.8093 0.93845 -0.0246754
1877200 60.2772 253.323 55.8093 0.93855 -0.00744189
1877400 60.2772 253.336 55.8093 0.93865 -0.00410358
1877600 60.2772 253.349 55.8093 0.93875 0.0203298
1877800 60.2772 253.362 55.8093 0.93885 0.0236288
1878000 60.2772 253.375 55.8093 0.93895 0.01663
1878200 60.2772 253.388 55.8093 0.93905 0.041626
1878400 60.2772 253.401 55.8093 0.93915 0.0316177
1878600 60.2772 253.415 55.8093 0.93925 0.03043
1878800 60.2772 253.428 55.8093 0.93935 0.0130047
1879000 60.2772 253.441 55.8093 0.93945 0.0179596
1879200 60.2772 253.454 55.8093 0.93955 0.00691961
1879400 60.2772 253.467 55.8093 0.93965 0.0162933
1879600 60.2772 253.48 55.8093 0.93975 -0.00638321
1879800 60.2772 253.493 55.8093 0.93985 -0.020432
1880000 60.2772 253.506 55.8093 0.93995 -0.0386989
1880200 60.2772 253.519 55.8093 0.94005 -0.0377029
1880400 60.2772 253.532 55.8093 0.94015 -0.0325529
1880600 60.2772 253.545 55.8093 0.94025 -0.0193609
1880800 60.2772 253.558 55.8093 0.94035 -0.0219477
1881000 60.2772 253.571 55.8093 0.94045 0.00680414
1881200 60.2772 253.584 55.8093 0.94055 0.0170595
1881400 60.2772 253.597 55.8093 0.94065 -0.00700947
1881600 60.2772 253.611 55.8093 0.94075 0.00983721
1881800 60.2772 253.624 55.8093 0.94085 0.0257539
1882000 60.2772 253.637 55.8093 0.94095 0.0418874
1882200 60.2772 253.65 55.8093 0.94105 0.0397107
1882400 60.2772 253.663 55.8093 0.94115 0.0301047
1882600 60.2772 253.676 55.8093 0.94125 0.0290117
1882800 60.2772 253.689 55.8093 0.94135 0.00828401
1883000 60.2772 253.702 55.8093 0.94145 0.00987411
1883200 60.2772 253.715 55.8093 0.94155 0.00215158
1883400 60.2772 253.728 55.8093 0.94165 0.00377728
1883600 60.2772 253.741 55.8093 0.94175 -0.0194682
1883800 60.2772 253.754 55.8093 0.94185 -0.00156496
1884000 60.2772 253.767 55.8093 0.94195 -0.0341968
1884200 60.2772 253.78 55.8093 0.94205 -0.0440053
1884400 60.2772 253.794 55.8093 0.94215 -0.0251493
1884600 60.2772 253.807 55.8093 0.94225 -0.0240235
1884800 60.2772 253.82 55.8093 0.94235 -0.00535075
1885000 60.2772 253.833 55.8093 0.94245 0.000625053
1885200 60.2772 253.846 55.8093 0.94255 0.0258165
1885400 60.2772 253.859 55.8093 0.94265 0.00248588
1885600 60.2772 253.872 55.8093 0.94275 0.00652513
1885800 60.2772 253.885 55.8093 0.94285 0.0133244
1886000 60.2772 253.898 55.8093 0.94295 0.0353591
1886200 60.2772 253.911 55.8093 0.94305 0.0285433
1886400 60.2772 253.924 55.8093 0.94315 0.0368792
1886600 60.2772 253.937 55.8093 0.94325 0.0323468
1886800 60.2772 253.95 55.8093 0.94335 -0.00352912
1887000 60.2772 253.963 55.8093 0.94345 0.0159871
1887200 60.2772 253.976 55.8093 0.94355 -0.00186214
1887400 60.2772 253.99 55.8093 0.94365 -0.0125468
1887600 60.2772 254.003 55.8093 0.94375 -0.00388843
1887800 60.2772 254.016 55.8093 0.94385 -0.010324
1888000 60.2772 254.029 55.8093 0.94395 -0.0267315
1888200 60.2772 254.042 55.8093 0.94405 -0.0261247
1888400 60.2772 254.055 55.8093 0.94415 -0.0303194
1888600 60.2772 254.068 55.8093 0.94425 -0.00706461
1888800 60.2772 254.081 55.8093 0.94435 -0.0129126
1889000 60.2772 254.094 55.8093 0.94445 0.00772246
1889200 60.2772 254.107 55.8093 0.94455 -0.0023221
1889400 60.2772 254.12 55.8093 0.94465 0.0290926
1889600 60.2772 254.133 55.8093 0.94475 0.000121322
1889800 60.2772 254.146 55.8093 0.94485 0.0138954
1890000 60.2772 254.159 55.8093 0.94495 0.0180398
1890200 60.2772 254.172 55.8093 0.94505 0.0167405
1890400 60.2772 254.186 55.8093 0.94515 0.0383571
1890600 60.2772 254.199 55.8093 0.94525 0.0331988
1890800 60.2772 254.212 55.8093 0.94535 0.0210795
1891000 60.2772 254.225 55.8093 0.94545 0.00849255
1891200 60.2772 254.238 55.8093 0.94555 -0.0184819
1891400 60.2772 254.251 55.8093 0.94565 -0.00711726
1891600 60.2772 254.264 55.8093 0.94575 -0.00610874
1891800 60.2772 254.277 55.8093 0.94585 -0.0151692
1892000 60.2772 254.29 55.8093 0.94595 -0.0151905
1892200 60.2772 254.303 55.8093 0.94605 -0.016265
1892400 60.2772 254.316 55.8093 0.94615 -0.017313
1892600 60.2772 254.329 55.8093 0.94625 -0.0276063
1892800 60.2772 254.342 55.8093 0.94635 -0.00304096
1893000 60.2772 254.355 55.8093 0.94645 0.00649471
1893200 60.2772 254.368 55.8093 0.94655 0.00318782
1893400 60.2772 254.382 55.8093 0.94665 0.00594487
1893600 60.2772 254.395 55.8093 0.94675 0.0107998
1893800 60.2772 254.408 55.8093 0.94685 0.0226178
1894000 60.2772 254.421 55.8093 0.94695 0.00854408
1894200 60.2772 254.434 55.8093 0.94705 0.0240023
1894400 60.2772 254.447 55.8093 0.94715 0.0135478
1894600 60.2772 254.46 55.8093 0.94725 0.0304619
1894800 60.2772 254.473 55.8093 0.94735 0.0122674
1895000 60.2772 254.486 55.8093 0.94745 0.00598454
1895200 60.2772 254.499 55.8093 0.94755 0.00661472
1895400 60.2772 254.512 55.8093 0.94765 0.0033751
1895600 60.2772 254.525 55.8093 0.94775 -0.00839857
1895800 60.2772 254.538 55.8093 0.94785 -0.0133233
1896000 60.2772 254.551 55.8093 0.94795 -0.0106831
1896200 60.2772 254.564 55.8093 0.94805 -0.000257001
1896400 60.2772 254.578 55.8093 0.94815 -0.0260028
1896600 60.2772 254.591 55.8093 0.94825 -0.0164589
1896800 60.2772 254.604 55.8093 0.94835 -0.0144058
1897000 60.2772 254.617 55.8093 0.94845 -0.0137466
1897200 60.2772 254.63 55.8093 0.94855 0.00171985
1897400 60.2772 254.643 55.8093 0.94865 0.0171341
1897600 60.2772 254.656 55.8093 0.94875 0.0172985
1897800 60.2772 254.669 55.8093 0.94885 0.00857466
1898000 60.2772 254.682 55.8093 0.94895 0.0151425
1898200 60.2772 254.695 55.8093 0.94905 0.0100236
1898400 60.2772 254.708 55.8093 0.94915 0.0316155
1898600 60.2772 254.721 55.8093 0.94925 0.0271236
1898800 60.2772 254.734 55.8093 0.94935 0.0124904
1899000 60.2772 254.747 55.8093 0.94945 0.0112109
1899200 60.2772 254.761 55.8093 0.94955 0.00671363
1899400 60.2772 254.774 55.8093 0.94965 -0.0122931
1899600 60.2772 254.787 55.8093 0.94975 -0.0065937
1899800 60.2772 254.8 55.8093 0.94985 -0.0115319
1900000 60.2772 254.813 55.8093 0.94995 -0.00830119
1900200 60.2772 254.826 55.8093 0.95005 -0.00806387
1900400 60.2772 254.839 55.8093 0.95015 -0.0290934
1900600 60.2772 254.852 55.8093 0.95025 -0.0130758
1900800 60.2772 254.865 55.8093 0.95035 -0.0134832
1901000 60.2772 254.878 55.8093 0.95045 -0.00229316
1901200 60.2772 254.891 55.8093 0.95055 0.00338365
1901400 60.2772 254.904 55.8093 0.95065 0.0220499
1901600 60.2772 254.917 55.8093 0.95075 0.00311695
1901800 60.2772 254.93 55.8093 0.95085 0.0186331
1902000 60.2772 254.943 55.8093 0.95095 0.00805688
1902200 60.2772 254.957 55.8093 0.95105 0.0131245
1902400 60.2772 254.97 55.8093 0.95115 0.0154602
1902600 60.2772 254.983 55.8093 0.95125 0.0364935
1902800 60.2772 254.996 55.8093 0.95135 0.00788231
1903000 60.2772 255.009 55.8093 0.95145 -0.00437942
1903200 60.2772 255.022 55.8093 0.95155 0.00269119
1903400 60.2772 255.035 55.8093 0.95165 0.00297834
1903600 60.2772 255.048 55.8093 0.95175 -0.0104965
1903800 60.2772 255.061 55.8093 0.95185 0.00640977
1904000 60.2772 255.074 55.8093 0.95195 -0.00724163
1904200 60.2772 255.087 55.8093 0.95205 -0.0102074
1904400 60.2772 255.1 55.8093 0.95215 -0.0131733
1904600 60.2772 255.113 55.8093 0.95225 -0.0107719
1904800 60.2772 255.126 55.8093 0.95235 -0.0231288
1905000 60.2772 255.139 55.8093 0.95245 0.00346749
1905200 60.2772 255.153 55.8093 0.95255 0.0118597
1905400 60.2772 255.166 55.8093 0.95265 0.00642947
1905600 60.2772 255.179 55.8093 0.95275 0.00887584
1905800 60.2772 255.192 55.8093 0.95285 0.0192107
1906000 60.2772 255.205 55.8093 0.95295 0.00582778
1906200 60.2772 255.218 55.8093 0.95305 -0.00521205
1906400 60.2772 255.231 55.8093 0.95315 0.0141491
1906600 60.2772 255.244 55.8093 0.95325 0.0180659
1906800 60.2772 255.257 55.8093 0.95335 0.0223754
1907000 60.2772 255.27 55.8093 0.95345 0.0169157
1907200 60.2772 255.283 55.8093 0.95355 0.000638825
1907400 60.2772 255.296 55.8093 0.95365 0.00160565
1907600 60.2772 255.309 55.8093 0.95375 -0.0215091
1907800 60.2772 255.322 55.8093 0.95385 -0.0144746
1908000 60.2772 255.335 55.8093 0.95395 -0.016542
1908200 60.2772 255.349 55.8093 0.95405 0.0147452
1908400 60.2772 255.362 55.8093 0.95415 -0.00184237
1908600 60.2772 255.375 55.8093 0.95425 -0.0108742
1908800 60.2772 255.388 55.8093 0.95435 -0.0204498
1909000 60.2772 255.401 55.8093 0.95445 -0.00899986
1909200 60.2772 255.414 55.8093 0.95455 0.0113503
1909400 60.2772 255.427 55.8093 0.95465 -0.00301991
1909600 60.2772 255.44 55.8093 0.95475 0.0191578
1909800 60.2772 255.453 55.8093 0.95485 0.0275623
1910000 60.2772 255.466 55.8093 0.95495 -0.00152255
1910200 60.2772 255.479 55.8093 0.95505 0.0113524
1910400 60.2772 255.492 55.8093 0.95515 0.00757361
1910600 60.2772 255.505 55.8093 0.95525 0.0162003
1910800 60.2772 255.518 55.8093 0.95535 0.0126588
1911000 60.2772 255.531 55.8093 0.95545 0.019998
1911200 60.2772 255.545 55.8093 0.95555 -0.00468674
1911400 60.2772 255.558 55.8093 0.95565 0.0114285
1911600 60.2772 255.571 55.8093 0.95575 -0.0279231
1911800 60.2772 255.584 55.8093 0.95585 -0.0113041
1912000 60.2772 255.597 55.8093 0.95595 -0.00920769
1912200 60.2772 255.61 55.8093 0.95605 7.14943e-05
1912400 60.2772 255.623 55.8093 0.95615 0.00489961
1912600 60.2772 255.636 55.8093 0.95625 -0.00667694
1912800 60.2772 255.649 55.8093 0.95635 -0.0131165
1913000 60.2772 255.662 55.8093 0.95645 -0.0151301
1913200 60.2772 255.675 55.8093 0.95655 0.000596719
1913400 60.2772 255.688 55.8093 0.95665 0.00209398
1913600 60.2772 255.701 55.8093 0.95675 0.00831453
1913800 60.2772 255.714 55.8093 0.95685 0.0309465
1914000 60.2772 255.728 55.8093 0.95695 0.00972426
1914200 60.2772 255.741 55.8093 0.95705 0.0217299
1914400 60.2772 255.754 55.8093 0.95715 0.00498019
1914600 60.2772 255.767 55.8093 0.95725 0.0130053
1914800 60.2772 255.78 55.8093 0.95735 0.00480171
1915000 60.2772 255.793 55.8093 0.95745 0.0129274
1915200 60.2772 255.806 55.8093 0.95755 0.0037447
1915400 60.2772 255.819 55.8093 0.95765 0.000363464
1915600 60.2772 255.832 55.8093 0.95775 -0.00570325
1915800 60.2772 255.845 55.8093 0.95785 -0.00615811
1916000 60.2772 255.858 55.8093 0.95795 -0.0127758
1916200 60.2772 255.871 55.8093 0.95805 -0.0176284
1916400 60.2772 255.884 55.8093 0.95815 -0.0194769
1916600 60.2772 255.897 55.8093 0.95825 -0.00615709
1916800 60.2772 255.91 55.8093 0.95835 0.0116158
1917000 60.2772 255.924 55.8093 0.95845 -0.00655098
1917200 60.2772 255.937 55.8093 0.95855 0.0039349
1917400 60.2772 255.95 55.8093 0.95865 -0.00473771
1917600 60.2772 255.963 55.8093 0.95875 0.00348709
1917800 60.2772 255.976 55.8093 0.95885 0.0264673
1918000 60.2772 255.989 55.8093 0.95895 0.0264832
1918200 60.2772 256.002 55.8093 0.95905 0.00721812
1918400 60.2772 256.015 55.8093 0.95915 0.0149596
1918600 60.2772 256.028 55.8093 0.95925 0.0105445
1918800 60.2772 256.041 55.8093 0.95935 0.00840762
1919000 60.2772 256.054 55.8093 0.95945 -0.00194437
1919200 60.2772 256.067 55.8093 0.95955 0.00863402
1919400 60.2772 256.08 55.8093 0.95965 0.00517335
1919600 60.2772 256.093 55.8093 0.95975 0.00719974
1919800 60.2772 256.106 55.8093 0.95985 -0.0177705
1920000 60.2772 256.12 55.8093 0.95995 -0.0123582
1920200 60.2772 256.133 55.8093 0.96005 -0.0149766
1920400 60.2772 256.146 55.8093 0.96015 -0.0104406
1920600 60.2772 256.159 55.8093 0.96025 -0.0134335
1920800 60.2772 256.172 55.8093 0.96035 -0.00487682
1921000 60.2772 256.185 55.8093 0.96045 -0.00430589
1921200 60.2772 256.198 55.8093 0.96055 0.00873378
1921400 60.2772 256.211 55.8093 0.96065 0.00576637
1921600 60.2772 256.224 55.8093 0.96075 0.0130994
1921800 60.2772 256.237 55.8093 0.96085 0.00626305
1922000 60.2772 256.25 55.8093 0.96095 0.0167281
1922200 60.2772 256.263 55.8093 0.96105 0.0180913
1922400 60.2772 256.276 55.8093 0.96115 0.0133173
1922600 60.2772 256.289 55.8093 0.96125 0.0112122
1922800 60.2772 256.302 55.8093 0.96135 0.016202
1923000 60.2772 256.316 55.8093 0.96145 -0.00265183
1923200 60.2772 256.329 55.8093 0.96155 -0.00221256
1923400 60.2772 256.342 55.8093 0.96165 0.0105698
1923600 60.2772 256.355 55.8093 0.96175 -0.00107874
1923800 60.2772 256.368 55.8093 0.96185 -0.0155564
1924000 60.2772 256.381 55.8093 0.96195 -0.0121664
1924200 60.2772 256.394 55.8093 0.96205 -0.00444999
1924400 60.2772 256.407 55.8093 0.96215 -0.0233833
1924600 60.2772 256.42 55.8093 0.96225 -0.0129662
1924800 60.2772 256.433 55.8093 0.96235 -0.000795627
1925000 60.2772 256.446 55.8093 0.96245 -0.00338738
1925200 60.2772 256.459 55.8093 0.96255 0.00857386
1925400 60.2772 256.472 55.8093 0.96265 0.00722992
1925600 60.2772 256.485 55.8093 0.96275 0.0047389
1925800 60.2772 256.499 55.8093 0.96285 0.0115358
1926000 60.2772 256.512 55.8093 0.96295 0.0210049
1926200 60.2772 256.525 55.8093 0.96305 0.0161134
1926400 60.2772 256.538 55.8093 0.96315 0.0208813
1926600 60.2772 256.551 55.8093 0.96325 0.0137562
1926800 60.2772 256.564 55.8093 0.96335 0.000209676
1927000 60.2772 256.577 55.8093 0.96345 0.00687403
1927200 60.2772 256.59 55.8093 0.96355 -0.00263115
1927400 60.2772 256.603 55.8093 0.96365 -0.00314391
1927600 60.2772 256.616 55.8093 0.96375 0.000689488
1927800 60.2772 256.629 55.8093 0.96385 -0.00910847
1928000 60.2772 256.642 55.8093 0.96395 -0.0190999
1928200 60.2772 256.655 55.8093 0.96405 -0.000200747
1928400 60.2772 256.668 55.8093 0.96415 -0.0132493
1928600 60.2772 256.681 55.8093 0.96425 -0.0255767
1928800 60.2772 256.695 55.8093 0.96435 -0.0172959
1929000 60.2772 256.708 55.8093 0.96445 0.000933455
1929200 60.2772 256.721 55.8093 0.96455 0.0262119
1929400 60.2772 256.734 55.8093 0.96465 -0.00695261
1929600 60.2772 256.747 55.8093 0.96475 0.00374028
1929800 60.2772 256.76 55.8093 0.96485 0.0336288
1930000 60.2772 256.773 55.8093 0.96495 0.0220047
1930200 60.2772 256.786 55.8093 0.96505 0.0211386
1930400 60.2772 256.799 55.8093 0.96515 0.0130887
1930600 60.2772 256.812 55.8093 0.96525 0.00876596
1930800 60.2772 256.825 55.8093 0.96535 0.0113153
1931000 60.2772 256.838 55.8093 0.96545 0.0156232
1931200 60.2772 256.851 55.8093 0.96555 -0.00416726
1931400 60.2772 256.864 55.8093 0.96565 -0.0123798
1931600 60.2772 256.877 55.8093 0.96575 -0.0128058
1931800 60.2772 256.891 55.8093 0.96585 -0.008756
1932000 60.2772 256.904 55.8093 0.96595 -0.0157964
1932200 60.2772 256.917 55.8093 0.96605 -0.0260054
1932400 60.2772 256.93 55.8093 0.96615 -0.00977502
1932600 60.2772 256.943 55.8093 0.96625 -0.000180849
1932800 60.2772 256.956 55.8093 0.96635 -0.00294768
1933000 60.2772 256.969 55.8093 0.96645 -0.0026886
1933200 60.2772 256.982 55.8093 0.96655 0.00419435
1933400 60.2772 256.995 55.8093 0.96665 0.0141435
1933600 60.2772 257.008 55.8093 0.96675 0.0208581
1933800 60.2772 257.021 55.8093 0.96685 0.0141159
1934000 60.2772 257.034 55.8093 0.96695 0.0232332
1934200 60.2772 257.047 55.8093 0.96705 0.013363
1934400 60.2772 257.06 55.8093 0.96715 0.00949136
1934600 60.2772 257.073 55.8093 0.96725 0.0108485
1934800 60.2772 257.087 55.8093 0.96735 0.0147906
1935000 60.2772 257.1 55.8093 0.96745 -0.0022179
1935200 60.2772 257.113 55.8093 0.96755 -0.0115841
1935400 60.2772 257.126 55.8093 0.96765 -0.0039388
1935600 60.2772 257.139 55.8093 0.96775 -0.0169077
1935800 60.2772 257.152 55.8093 0.96785 -0.00311311
1936000 60.2772 257.165 55.8093 0.96795 -0.011037
1936200 60.2772 257.178 55.8093 0.96805 -0.0156132
1936400 60.2772 257.191 55.8093 0.96815 -0.00540815
1936600 60.2772 257.204 55.8093 0.96825 -0.00643047
1936800 60.2772 257.217 55.8093 0.96835 -0.00201402
1937000 60.2772 257.23 55.8093 0.96845 0.00851666
1937200 60.2772 257.243 55.8093 0.96855 -0.000782467
1937400 60.2772 257.256 55.8093 0.96865 0.00728902
1937600 60.2772 257.269 55.8093 0.96875 0.025405
1937800 60.2772 257.283 55.8093 0.96885 0.017474
1938000 60.2772 257.296 55.8093 0.96895 0.00740927
1938200 60.2772 257.309 55.8093 0.96905 0.0153181
1938400 60.2772 257.322 55.8093 0.96915 0.0154205
1938600 60.2772 257.335 55.8093 0.96925 0.00803138
1938800 60.2772 257.348 55.8093 0.96935 0.00981683
1939000 60.2772 257.361 55.8093 0.96945 0.00267574
1939200 60.2772 257.374 55.8093 0.96955 -0.00951291
1939400 60.2772 257.387 55.8093 0.96965 -0.0163493
1939600 60.2772 257.4 55.8093 0.96975 -0.0198087
1939800 60.2772 257.413 55.8093 0.96985 -0.008771
1940000 60.2772 257.426 55.8093 0.96995 -0.00821864
1940200 60.2772 257.439 55.8093 0.97005 -0.00251041
1940400 60.2772 257.452 55.8093 0.97015 -0.0206806
1940600 60.2772 257.466 55.8093 0.97025 -0.00326234
1940800 60.2772 257.479 55.8093 0.97035 -0.00262609
1941000 60.2772 257.492 55.8093 0.97045 0.00825346
1941200 60.2772 257.505 55.8093 0.97055 0.0200555
1941400 60.2772 257.518 55.8093 0.97065 0.0112643
1941600 60.2772 257.531 55.8093 0.97075 0.0166482
1941800 60.2772 257.544 55.8093 0.97085 0.0187797
1942000 60.2772 257.557 55.8093 0.97095 0.0125741
1942200 60.2772 257.57 55.8093 0.97105 0.00869027
1942400 60.2772 257.583 55.8093 0.97115 0.0122157
1942600 60.2772 257.596 55.8093 0.97125 0.000412444
1942800 60.2772 257.609 55.8093 0.97135 0.00614867
1943000 60.2772 257.622 55.8093 0.97145 0.00788011
1943200 60.2772 257.635 55.8093 0.97155 -0.0171475
1943400 60.2772 257.648 55.8093 0.97165 -0.0236763
1943600 60.2772 257.662 55.8093 0.97175 0.00533034
1943800 60.2772 257.675 55.8093 0.97185 -0.00747213
1944000 60.2772 257.688 55.8093 0.97195 0.00155425
1944200 60.2772 257.701 55.8093 0.97205 -0.0236945
1944400 60.2772 257.714 55.8093 0.97215 -0.00789859
1944600 60.2772 257.727 55.8093 0.97225 -0.00441532
1944800 60.2772 257.74 55.8093 0.97235 -0.00444855
1945000 60.2772 257.753 55.8093 0.97245 0.0106143
1945200 60.2772 257.766 55.8093 0.97255 0.00858311
1945400 60.2772 257.779 55.8093 0.97265 0.0178574
1945600 60.2772 257.792 55.8093 0.97275 0.00851881
1945800 60.2772 257.805 55.8093 0.97285 0.0108459
1946000 60.2772 257.818 55.8093 0.97295 0.022344
1946200 60.2772 257.831 55.8093 0.97305 0.011978
1946400 60.2772 257.844 55.8093 0.97315 0.0134207
1946600 60.2772 257.858 55.8093 0.97325 0.0193393
1946800 60.2772 257.871 55.8093 0.97335 -0.00181203
1947000 60.2772 257.884 55.8093 0.97345 -0.0040912
1947200 60.2772 257.897 55.8093 0.97355 -0.0107043
1947400 60.2772 257.91 55.8093 0.97365 -0.0161897
1947600 60.2772 257.923 55.8093 0.97375 -0.0282807
1947800 60.2772 257.936 55.8093 0.97385 0.00985634
1948000 60.2772 257.949 55.8093 0.97395 0.00152993
1948200 60.2772 257.962 55.8093 0.97405 -0.0186327
1948400 60.2772 257.975 55.8093 0.97415 -0.00842008
1948600 60.2772 257.988 55.8093 0.97425 -0.0138599
1948800 60.2772 258.001 55.8093 0.97435 -0.00443642
1949000 60.2772 258.014 55.8093 0.97445 0.00195059
1949200 60.2772 258.027 55.8093 0.97455 0.0189279
1949400 60.2772 258.04 55.8093 0.97465 0.0256911
1949600 60.2772 258.054 55.8093 0.97475 0.00760773
1949800 60.2772 258.067 55.8093 0.97485 0.0201331
1950000 60.2772 258.08 55.8093 0.97495 0.00912662
1950200 60.2772 258.093 55.8093 0.97505 -0.00693495
1950400 60.2772 258.106 55.8093 0.97515 0.0145589
1950600 60.2772 258.119 55.8093 0.97525 0.021449
1950800 60.2772 258.132 55.8093 0.97535 0.026411
1951000 60.2772 258.145 55.8093 0.97545 -0.00872847
1951200 60.2772 258.158 55.8093 0.97555 -0.0194514
1951400 60.2772 258.171 55.8093 0.97565 -0.00625736
1951600 60.2772 258.184 55.8093 0.97575 -0.019696
1951800 60.2772 258.197 55.8093 0.97585 -0.0150304
1952000 60.2772 258.21 55.8093 0.97595 0.00804692
1952200 60.2772 258.223 55.8093 0.97605 -0.0163435
1952400 60.2772 258.237 55.8093 0.97615 0.000395151
1952600 60.2772 258.25 55.8093 0.97625 -0.00463771
1952800 60.2772 258.263 55.8093 0.97635 -0.0139073
1953000 60.2772 258.276 55.8093 0.97645 -0.0113938
1953200 60.2772 258.289 55.8093 0.97655 0.0131265
1953400 60.2772 258.302 55.8093 0.97665 0.0240126
1953600 60.2772 258.315 55.8093 0.97675 0.0163815
1953800 60.2772 258.328 55.8093 0.97685 0.0130898
1954000 60.2772 258.341 55.8093 0.97695 0.0137913
1954200 60.2772 258.354 55.8093 0.97705 0.0184757
1954400 60.2772 258.367 55.8093 0.97715 0.0075971
1954600 60.2772 258.38 55.8093 0.97725 0.000598458
1954800 60.2772 258.393 55.8093 0.97735 0.00340315
1955000 60.2772 258.406 55.8093 0.97745 0.00662952
1955200 60.2772 258.419 55.8093 0.97755 0.00577292
1955400 60.2772 258.433 55.8093 0.97765 -0.0141459
1955600 60.2772 258.446 55.8093 0.97775 -0.0166871
1955800 60.2772 258.459 55.8093 0.97785 -0.00441304
1956000 60.2772 258.472 55.8093 0.97795 -0.0109676
1956200 60.2772 258.485 55.8093 0.97805 -0.0155525
1956400 60.2772 258.498 55.8093 0.97815 -0.0064338
1956600 60.2772 258.511 55.8093 0.97825 -0.00983542
1956800 60.2772 258.524 55.8093 0.97835 0.0127604
1957000 60.2772 258.537 55.8093 0.97845 0.00174794
1957200 60.2772 258.55 55.8093 0.97855 0.00145763
1957400 60.2772 258.563 55.8093 0.97865 0.0132617
1957600 60.2772 258.576 55.8093 0.97875 0.0164117
1957800 60.2772 258.589 55.8093 0.97885 0.0142208
1958000 60.2772 258.602 55.8093 0.97895 0.0185583
1958200 60.2772 258.615 55.8093 0.97905 0.00748051
1958400 60.2772 258.629 55.8093 0.97915 0.0196666
1958600 60.2772 258.642 55.8093 0.97925 -0.00704433
1958800 60.2772 258.655 55.8093 0.97935 -0.00656484
1959000 60.2772 258.668 55.8093 0.97945 0.00824001
1959200 60.2772 258.681 55.8093 0.97955 -0.00119173
1959400 60.2772 258.694 55.8093 0.97965 -7.88179e-06
1959600 60.2772 258.707 55.8093 0.97975 -0.0285208
1959800 60.2772 258.72 55.8093 0.97985 -0.0112191
1960000 60.2772 258.733 55.8093 0.97995 -0.00589798
1960200 60.2772 258.746 55.8093 0.98005 -0.0148894
1960400 60.2772 258.759 55.8093 0.98015 -0.00874312
1960600 60.2772 258.772 55.8093 0.98025 0.00417225
1960800 60.2772 258.785 55.8093 0.98035 0.0063415
1961000 60.2772 258.798 55.8093 0.98045 0.00802459
1961200 60.2772 258.811 55.8093 0.98055 0.00468628
1961400 60.2772 258.825 55.8093 0.98065 0.0135477
1961600 60.2772 258.838 55.8093 0.98075 0.0162277
1961800 60.2772 258.851 55.8093 0.98085 0.0211444
1962000 60.2772 258.864 55.8093 0.98095 0.00816349
1962200 60.2772 258.877 55.8093 0.98105 0.0127282
1962400 60.2772 258.89 55.8093 0.98115 -0.00559593
1962600 60.2772 258.903 55.8093 0.98125 -0.00357404
1962800 60.2772 258.916 55.8093 0.98135 0.0192408
1963000 60.2772 258.929 55.8093 0.98145 -0.00239456
1963200 60.2772 258.942 55.8093 0.98155 -0.00135485
1963400 60.2772 258.955 55.8093 0.98165 -0.0174317
1963600 60.2772 258.968 55.8093 0.98175 0.00286309
1963800 60.2772 258.981 55.8093 0.98185 -0.0124529
1964000 60.2772 258.994 55.8093 0.98195 -0.0228381
1964200 60.2772 259.007 55.8093 0.98205 -0.000632366
1964400 60.2772 259.021 55.8093 0.98215 -0.00269713
1964600 60.2772 259.034 55.8093 0.98225 0.00400167
1964800 60.2772 259.047 55.8093 0.98235 -0.00416762
1965000 60.2772 259.06 55.8093 0.98245 -0.0109842
1965200 60.2772 259.073 55.8093 0.98255 0.011703
1965400 60.2772 259.086 55.8093 0.98265 0.0100437
1965600 60.2772 259.099 55.8093 0.98275 -0.000336257
1965800 60.2772 259.112 55.8093 0.98285 0.0206147
1966000 60.2772 259.125 55.8093 0.98295 0.00993398
1966200 60.2772 259.138 55.8093 0.98305 0.0228429
1966400 60.2772 259.151 55.8093 0.98315 0.0107434
1966600 60.2772 259.164 55.8093 0.98325 0.013799
1966800 60.2772 259.177 55.8093 0.98335 -0.0117211
1967000 60.2772 259.19 55.8093 0.98345 0.0128853
1967200 60.2772 259.204 55.8093 0.98355 0.00854484
1967400 60.2772 259.217 55.8093 0.98365 -0.0121772
1967600 60.2772 259.23 55.8093 0.98375 -0.0022858
1967800 60.2772 259.243 55.8093 0.98385 -0.00354154
1968000 60.2772 259.256 55.8093 0.98395 -0.0108211
1968200 60.2772 259.269 55.8093 0.98405 -0.0210483
1968400 60.2772 259.282 55.8093 0.98415 -0.0290332
1968600 60.2772 259.295 55.8093 0.98425 0.00593729
1968800 60.2772 259.308 55.8093 0.98435 -0.00412427
1969000 60.2772 259.321 55.8093 0.98445 0.00788839
1969200 60.2772 259.334 55.8093 0.98455 -0.00541366
1969400 60.2772 259.347 55.8093 0.98465 0.00863793
1969600 60.2772 259.36 55.8093 0.98475 0.010778
1969800 60.2772 259.373 55.8093 0.98485 0.00951911
1970000 60.2772 259.386 55.8093 0.98495 0.0193492
1970200 60.2772 259.4 55.8093 0.98505 0.0234872
1970400 60.2772 259.413 55.8093 0.98515 0.0126912
1970600 60.2772 259.426 55.8093 0.98525 0.0155807
1970800 60.2772 259.439 55.8093 0.98535 -0.00117319
1971000 60.2772 259.452 55.8093 0.98545 -0.000857205
1971200 60.2772 259.465 55.8093 0.98555 -0.00501389
1971400 60.2772 259.478 55.8093 0.98565 0.00636645
1971600 60.2772 259.491 55.8093 0.98575 0.00133698
1971800 60.2772 259.504 55.8093 0.98585 -0.0181736
1972000 60.2772 259.517 55.8093 0.98595 -0.0260819
1972200 60.2772 259.53 55.8093 0.98605 -0.00808185
1972400 60.2772 259.543 55.8093 0.98615 -0.0154277
1972600 60.2772 259.556 55.8093 0.98625 -0.00473513
1972800 60.2772 259.569 55.8093 0.98635 -0.00420541
1973000 60.2772 259.582 55.8093 0.98645 0.00564049
1973200 60.2772 259.596 55.8093 0.98655 0.00806038
1973400 60.2772 259.609 55.8093 0.98665 0.00467866
1973600 60.2772 259.622 55.8093 0.98675 0.00992169
1973800 60.2772 259.635 55.8093 0.98685 0.022955
1974000 60.2772 259.648 55.8093 0.98695 0.00607146
1974200 60.2772 259.661 55.8093 0.98705 0.0162119
1974400 60.2772 259.674 55.8093 0.98715 0.0113808
1974600 60.2772 259.687 55.8093 0.98725 0.0135764
1974800 60.2772 259.7 55.8093 0.98735 0.0180727
1975000 60.2772 259.713 55.8093 0.98745 -0.0069437
1975200 60.2772 259.726 55.8093 0.98755 -0.0135123
1975400 60.2772 259.739 55.8093 0.98765 0.000207195
1975600 60.2772 259.752 55.8093 0.98775 -0.0025288
1975800 60.2772 259.765 55.8093 0.98785 -0.0184151
1976000 60.2772 259.778 55.8093 0.98795 -0.0109613
1976200 60.2772 259.792 55.8093 0.98805 -0.000480857
1976400 60.2772 259.805 55.8093 0.98815 -0.00902308
1976600 60.2772 259.818 55.8093 0.98825 -0.021789
1976800 60.2772 259.831 55.8093 0.98835 0.000510495
1977000 60.2772 259.844 55.8093 0.98845 0.00293505
1977200 60.2772 259.857 55.8093 0.98855 0.0042023
1977400 60.2772 259.87 55.8093 0.98865 0.0161454
1977600 60.2772 259.883 55.8093 0.98875 0.00631149
1977800 60.2772 259.896 55.8093 0.98885 0.0137626
1978000 60.2772 259.909 55.8093 0.98895 0.00825111
1978200 60.2772 259.922 55.8093 0.98905 0.00347165
1978400 60.2772 259.935 55.8093 0.98915 0.0100026
1978600 60.2772 259.948 55.8093 0.98925 0.0141156
1978800 60.2772 259.961 55.8093 0.98935 0.0191009
1979000 60.2772 259.975 55.8093 0.98945 0.00849634
1979200 60.2772 259.988 55.8093 0.98955 0.00638202
1979400 60.2772 260.001 55.8093 0.98965 -0.00761691
1979600 60.2772 260.014 55.8093 0.98975 -0.0165135
1979800 60.2772 260.027 55.8093 0.98985 -0.0083271
1980000 60.2772 260.04 55.8093 0.98995 -0.00898805
1980200 60.2772 260.053 55.8093 0.99005 -0.00777273
1980400 60.2772 260.066 55.8093 0.99015 -0.0136979
1980600 60.2772 260.079 55.8093 0.99025 0.0103984
1980800 60.2772 260.092 55.8093 0.99035 -0.0214318
1981000 60.2772 260.105 55.8093 0.99045 -0.0118872
1981200 60.2772 260.118 55.8093 0.99055 0.0141407
1981400 60.2772 260.131 55.8093 0.99065 -0.00263239
1981600 60.2772 260.144 55.8093 0.99075 0.0125161
1981800 60.2772 260.157 55.8093 0.99085 0.00795721
1982000 60.2772 260.171 55.8093 0.99095 0.0158139
1982200 60.2772 260.184 55.8093 0.99105 0.0120595
1982400 60.2772 260.197 55.8093 0.99115 0.0149975
1982600 60.2772 260.21 55.8093 0.99125 0.021342
1982800 60.2772 260.223 55.8093 0.99135 0.00670657
1983000 60.2772 260.236 55.8093 0.99145 0.000242893
1983200 60.2772 260.249 55.8093 0.99155 0.00367619
1983400 60.2772 260.262 55.8093 0.99165 -0.00809145
1983600 60.2772 260.275 55.8093 0.99175 -0.0122535
1983800 60.2772 260.288 55.8093 0.99185 -0.0115105
1984000 60.2772 260.301 55.8093 0.99195 -0.00228896
1984200 60.2772 260.314 55.8093 0.99205 0.0094701
1984400 60.2772 260.327 55.8093 0.99215 -0.0285087
1984600 60.2772 260.34 55.8093 0.99225 -0.00991524
1984800 60.2772 260.353 55.8093 0.99235 0.000775982
1985000 60.2772 260.367 55.8093 0.99245 -0.011515
1985200 60.2772 260.38 55.8093 0.99255 0.00898987
1985400 60.2772 260.393 55.8093 0.99265 -0.00520556
1985600 60.2772 260.406 55.8093 0.99275 0.016919
1985800 60.2772 260.419 55.8093 0.99285 0.0231217
1986000 60.2772 260.432 55.8093 0.99295 0.0326509
1986200 60.2772 260.445 55.8093 0.99305 -0.0130237
1986400 60.2772 260.458 55.8093 0.99315 0.0134527
1986600 60.2772 260.471 55.8093 0.99325 0.0107019
1986800 60.2772 260.484 55.8093 0.99335 -0.00206757
1987000 60.2772 260.497 55.8093 0.99345 0.019239
1987200 60.2772 260.51 55.8093 0.99355 -0.00496282
1987400 60.2772 260.523 55.8093 0.99365 0.00589088
1987600 60.2772 260.536 55.8093 0.99375 -0.00665757
1987800 60.2772 260.549 55.8093 0.99385 -0.0160225
1988000 60.2772 260.563 55.8093 0.99395 -0.0153975
1988200 60.2772 260.576 55.8093 0.99405 -0.0195487
1988400 60.2772 260.589 55.8093 0.99415 -0.00282308
1988600 60.2772 260.602 55.8093 0.99425 0.00296465
1988800 60.2772 260.615 55.8093 0.99435 -0.00732002
1989000 60.2772 260.628 55.8093 0.99445 0.00350357
1989200 60.2772 260.641 55.8093 0.99455 -0.0139137
1989400 60.2772 260.654 55.8093 0.99465 0.012319
1989600 60.2772 260.667 55.8093 0.99475 0.00515913
1989800 60.2772 260.68 55.8093 0.99485 0.0154641
1990000 60.2772 260.693 55.8093 0.99495 0.0157451
1990200 60.2772 260.706 55.8093 0.99505 0.0143389
1990400 60.2772 260.719 55.8093 0.99515 0.0187459
1990600 60.2772 260.732 55.8093 0.99525 0.0051014
1990800 60.2772 260.745 55.8093 0.99535 0.00659667
1991000 60.2772 260.759 55.8093 0.99545 0.00905378
1991200 60.2772 260.772 55.8093 0.99555 -0.00441485
1991400 60.2772 260.785 55.8093 0.99565 0.00917693
1991600 60.2772 260.798 55.8093 0.99575 0.00169446
1991800 60.2772 260.811 55.8093 0.99585 -0.0132046
1992000 60.2772 260.824 55.8093 0.99595 -0.0191715
1992200 60.2772 260.837 55.8093 0.99605 -0.0167129
1992400 60.2772 260.85 55.8093 0.99615 -0.0059602
1992600 60.2772 260.863 55.8093 0.99625 -0.0114482
1992800 60.2772 260.876 55.8093 0.99635 -0.0104545
1993000 60.2772 260.889 55.8093 0.99645 -0.0121016
1993200 60.2772 260.902 55.8093 0.99655 0.0124091
1993400 60.2772 260.915 55.8093 0.99665 -0.00348143
1993600 60.2772 260.928 55.8093 0.99675 0.0207036
1993800 60.2772 260.942 55.8093 0.99685 0.00849318
1994000 60.2772 260.955 55.8093 0.99695 0.0189571
1994200 60.2772 260.968 55.8093 0.99705 0.0256788
1994400 60.2772 260.981 55.8093 0.99715 0.0135669
1994600 60.2772 260.994 55.8093 0.99725 0.013796
1994800 60.2772 261.007 55.8093 0.99735 0.0107175
1995000 60.2772 261.02 55.8093 0.99745 0.00906028
1995200 60.2772 261.033 55.8093 0.99755 0.00467761
1995400 60.2772 261.046 55.8093 0.99765 -0.0134792
1995600 60.2772 261.059 55.8093 0.99775 -0.010757
1995800 60.2772 261.072 55.8093 0.99785 -0.0212889
1996000 60.2772 261.085 55.8093 0.99795 0.00645715
1996200 60.2772 261.098 55.8093 0.99805 -0.0216117
1996400 60.2772 261.111 55.8093 0.99815 -0.0179291
1996600 60.2772 261.124 55.8093 0.99825 -0.00751826
1996800 60.2772 261.138 55.8093 0.99835 -0.0231444
1997000 60.2772 261.151 55.8093 0.99845 -0.00726484
1997200 60.2772 261.164 55.8093 0.99855 0.00696334
1997400 60.2772 261.177 55.8093 0.99865 0.00845982
1997600 60.2772 261.19 55.8093 0.99875 0.01916
1997800 60.2772 261.203 55.8093 0.99885 0.00995716
1998000 60.2772 261.216 55.8093 0.99895 0.0114553
1998200 60.2772 261.229 55.8093 0.99905 0.0398419
1998400 60.2772 261.242 55.8093 0.99915 0.0135092
1998600 60.2772 261.255 55.8093 0.99925 0.013825
1998800 60.2772 261.268 55.8093 0.99935 0.0209309
1999000 60.2772 261.281 55.8093 0.99945 0.00235369
1999200 60.2772 261.294 55.8093 0.99955 0.00590595
1999400 60.2772 261.307 55.8093 0.99965 -0.00485743
1999600 60.2772 261.32 55.8093 0.99975 -0.0196143
1999800 60.2772 261.334 55.8093 0.99985 -0.0237825
2000000 60.2772 261.347 55.8093 0.99995 0.0035023
