# Time-averaged data for fix Re_Primary
Step Lx Ly Lz StrainY StressYY
200 60.4159 130.37 55.8132 5.025e-05 0.0411869
400 60.4159 130.383 55.8132 0.00015025 0.0512226
600 60.4159 130.396 55.8132 0.00025025 0.0756486
800 60.4159 130.409 55.8132 0.00035025 0.0970945
1000 60.4159 130.422 55.8132 0.00045025 0.0842392
1200 60.4159 130.435 55.8132 0.00055025 0.074947
1400 60.4159 130.448 55.8132 0.00065025 0.11058
1600 60.4159 130.461 55.8132 0.00075025 0.126108
1800 60.4159 130.474 55.8132 0.00085025 0.12126
2000 60.4159 130.487 55.8132 0.00095025 0.133532
2200 60.4159 130.5 55.8132 0.00105025 0.123595
2400 60.4159 130.513 55.8132 0.00115025 0.174768
2600 60.4159 130.526 55.8132 0.00125025 0.153137
2800 60.4159 130.539 55.8132 0.00135025 0.171855
3000 60.4159 130.552 55.8132 0.00145025 0.203684
3200 60.4159 130.565 55.8132 0.00155025 0.202563
3400 60.4159 130.579 55.8132 0.00165025 0.200688
3600 60.4159 130.592 55.8132 0.00175025 0.23582
3800 60.4159 130.605 55.8132 0.00185025 0.207668
4000 60.4159 130.618 55.8132 0.00195025 0.239932
4200 60.4159 130.631 55.8132 0.00205025 0.241098
4400 60.4159 130.644 55.8132 0.00215025 0.256229
4600 60.4159 130.657 55.8132 0.00225025 0.278566
4800 60.4159 130.67 55.8132 0.00235025 0.279353
5000 60.4159 130.683 55.8132 0.00245025 0.267609
5200 60.4159 130.696 55.8132 0.00255025 0.297867
5400 60.4159 130.709 55.8132 0.00265025 0.312297
5600 60.4159 130.722 55.8132 0.00275025 0.315276
5800 60.4159 130.735 55.8132 0.00285025 0.33673
6000 60.4159 130.748 55.8132 0.00295025 0.342648
6200 60.4159 130.761 55.8132 0.00305025 0.349811
6400 60.4159 130.774 55.8132 0.00315025 0.362757
6600 60.4159 130.787 55.8132 0.00325025 0.376618
6800 60.4159 130.8 55.8132 0.00335025 0.382847
7000 60.4159 130.813 55.8132 0.00345025 0.385148
7200 60.4159 130.826 55.8132 0.00355025 0.404261
7400 60.4159 130.839 55.8132 0.00365025 0.422762
7600 60.4159 130.852 55.8132 0.00375025 0.426115
7800 60.4159 130.865 55.8132 0.00385025 0.431921
8000 60.4159 130.878 55.8132 0.00395025 0.447126
8200 60.4159 130.891 55.8132 0.00405025 0.455596
8400 60.4159 130.904 55.8132 0.00415025 0.467234
8600 60.4159 130.917 55.8132 0.00425025 0.464706
8800 60.4159 130.931 55.8132 0.00435025 0.499169
9000 60.4159 130.944 55.8132 0.00445025 0.481976
9200 60.4159 130.957 55.8132 0.00455025 0.498019
9400 60.4159 130.97 55.8132 0.00465025 0.516925
9600 60.4159 130.983 55.8132 0.00475025 0.509115
9800 60.4159 130.996 55.8132 0.00485025 0.546621
10000 60.4159 131.009 55.8132 0.00495025 0.54162
10200 60.4159 131.022 55.8132 0.00505025 0.568311
10400 60.4159 131.035 55.8132 0.00515025 0.552158
10600 60.4159 131.048 55.8132 0.00525025 0.586628
10800 60.4159 131.061 55.8132 0.00535025 0.574963
11000 60.4159 131.074 55.8132 0.00545025 0.614009
11200 60.4159 131.087 55.8132 0.00555025 0.612077
11400 60.4159 131.1 55.8132 0.00565025 0.616513
11600 60.4159 131.113 55.8132 0.00575025 0.638431
11800 60.4159 131.126 55.8132 0.00585025 0.622699
12000 60.4159 131.139 55.8132 0.00595025 0.663946
12200 60.4159 131.152 55.8132 0.00605025 0.659982
12400 60.4159 131.165 55.8132 0.00615025 0.675579
12600 60.4159 131.178 55.8132 0.00625025 0.657536
12800 60.4159 131.191 55.8132 0.00635025 0.72112
13000 60.4159 131.204 55.8132 0.00645025 0.707197
13200 60.4159 131.217 55.8132 0.00655025 0.714098
13400 60.4159 131.23 55.8132 0.00665025 0.706461
13600 60.4159 131.243 55.8132 0.00675025 0.732108
13800 60.4159 131.256 55.8132 0.00685025 0.761028
14000 60.4159 131.269 55.8132 0.00695025 0.75216
14200 60.4159 131.282 55.8132 0.00705025 0.754118
14400 60.4159 131.296 55.8132 0.00715025 0.781499
14600 60.4159 131.309 55.8132 0.00725025 0.773415
14800 60.4159 131.322 55.8132 0.00735025 0.803212
15000 60.4159 131.335 55.8132 0.00745025 0.80488
15200 60.4159 131.348 55.8132 0.00755025 0.834846
15400 60.4159 131.361 55.8132 0.00765025 0.795233
15600 60.4159 131.374 55.8132 0.00775025 0.853703
15800 60.4159 131.387 55.8132 0.00785025 0.849558
16000 60.4159 131.4 55.8132 0.00795025 0.873686
16200 60.4159 131.413 55.8132 0.00805025 0.882101
16400 60.4159 131.426 55.8132 0.00815025 0.861233
16600 60.4159 131.439 55.8132 0.00825025 0.899405
16800 60.4159 131.452 55.8132 0.00835025 0.903857
17000 60.4159 131.465 55.8132 0.00845025 0.917885
17200 60.4159 131.478 55.8132 0.00855025 0.921415
17400 60.4159 131.491 55.8132 0.00865025 0.923545
17600 60.4159 131.504 55.8132 0.00875025 0.953534
17800 60.4159 131.517 55.8132 0.00885025 0.950686
18000 60.4159 131.53 55.8132 0.00895025 0.95942
18200 60.4159 131.543 55.8132 0.00905025 0.983219
18400 60.4159 131.556 55.8132 0.00915025 1.00381
18600 60.4159 131.569 55.8132 0.00925025 0.984439
18800 60.4159 131.582 55.8132 0.00935025 1.00474
19000 60.4159 131.595 55.8132 0.00945025 1.01171
19200 60.4159 131.608 55.8132 0.00955025 1.01505
19400 60.4159 131.621 55.8132 0.00965025 1.03442
19600 60.4159 131.634 55.8132 0.00975025 1.07682
19800 60.4159 131.648 55.8132 0.00985025 1.07199
20000 60.4159 131.661 55.8132 0.00995025 1.04443
20200 60.4159 131.674 55.8132 0.0100502 1.0752
20400 60.4159 131.687 55.8132 0.0101502 1.11286
20600 60.4159 131.7 55.8132 0.0102502 1.08458
20800 60.4159 131.713 55.8132 0.0103502 1.1344
21000 60.4159 131.726 55.8132 0.0104502 1.10087
21200 60.4159 131.739 55.8132 0.0105502 1.11327
21400 60.4159 131.752 55.8132 0.0106502 1.15748
21600 60.4159 131.765 55.8132 0.0107502 1.15419
21800 60.4159 131.778 55.8132 0.0108502 1.14681
22000 60.4159 131.791 55.8132 0.0109502 1.16417
22200 60.4159 131.804 55.8132 0.0110502 1.17977
22400 60.4159 131.817 55.8132 0.0111502 1.19995
22600 60.4159 131.83 55.8132 0.0112502 1.19469
22800 60.4159 131.843 55.8132 0.0113502 1.21791
23000 60.4159 131.856 55.8132 0.0114502 1.21525
23200 60.4159 131.869 55.8132 0.0115502 1.25236
23400 60.4159 131.882 55.8132 0.0116502 1.24335
23600 60.4159 131.895 55.8132 0.0117502 1.26818
23800 60.4159 131.908 55.8132 0.0118502 1.26133
24000 60.4159 131.921 55.8132 0.0119502 1.28353
24200 60.4159 131.934 55.8132 0.0120502 1.26958
24400 60.4159 131.947 55.8132 0.0121502 1.31761
24600 60.4159 131.96 55.8132 0.0122502 1.28826
24800 60.4159 131.973 55.8132 0.0123502 1.35084
25000 60.4159 131.986 55.8132 0.0124502 1.30926
25200 60.4159 131.999 55.8132 0.0125502 1.35736
25400 60.4159 132.013 55.8132 0.0126502 1.34905
25600 60.4159 132.026 55.8132 0.0127502 1.36877
25800 60.4159 132.039 55.8132 0.0128502 1.38478
26000 60.4159 132.052 55.8132 0.0129502 1.37869
26200 60.4159 132.065 55.8132 0.0130502 1.41022
26400 60.4159 132.078 55.8132 0.0131502 1.39866
26600 60.4159 132.091 55.8132 0.0132502 1.42224
26800 60.4159 132.104 55.8132 0.0133502 1.41752
27000 60.4159 132.117 55.8132 0.0134502 1.46735
27200 60.4159 132.13 55.8132 0.0135502 1.44078
27400 60.4159 132.143 55.8132 0.0136502 1.46951
27600 60.4159 132.156 55.8132 0.0137502 1.4901
27800 60.4159 132.169 55.8132 0.0138502 1.48143
28000 60.4159 132.182 55.8132 0.0139502 1.49396
28200 60.4159 132.195 55.8132 0.0140502 1.52412
28400 60.4159 132.208 55.8132 0.0141502 1.51713
28600 60.4159 132.221 55.8132 0.0142502 1.50776
28800 60.4159 132.234 55.8132 0.0143502 1.55817
29000 60.4159 132.247 55.8132 0.0144502 1.55305
29200 60.4159 132.26 55.8132 0.0145502 1.54914
29400 60.4159 132.273 55.8132 0.0146502 1.58992
29600 60.4159 132.286 55.8132 0.0147502 1.59397
29800 60.4159 132.299 55.8132 0.0148502 1.56615
30000 60.4159 132.312 55.8132 0.0149502 1.63371
30200 60.4159 132.325 55.8132 0.0150502 1.60373
30400 60.4159 132.338 55.8132 0.0151502 1.6381
30600 60.4159 132.351 55.8132 0.0152502 1.63303
30800 60.4159 132.365 55.8132 0.0153502 1.65653
31000 60.4159 132.378 55.8132 0.0154502 1.64615
31200 60.4159 132.391 55.8132 0.0155502 1.68951
31400 60.4159 132.404 55.8132 0.0156502 1.68268
31600 60.4159 132.417 55.8132 0.0157502 1.6822
31800 60.4159 132.43 55.8132 0.0158502 1.71844
32000 60.4159 132.443 55.8132 0.0159502 1.6914
32200 60.4159 132.456 55.8132 0.0160502 1.75097
32400 60.4159 132.469 55.8132 0.0161502 1.72004
32600 60.4159 132.482 55.8132 0.0162502 1.74821
32800 60.4159 132.495 55.8132 0.0163502 1.76131
33000 60.4159 132.508 55.8132 0.0164502 1.77187
33200 60.4159 132.521 55.8132 0.0165502 1.77602
33400 60.4159 132.534 55.8132 0.0166502 1.78533
33600 60.4159 132.547 55.8132 0.0167502 1.79559
33800 60.4159 132.56 55.8132 0.0168502 1.82673
34000 60.4159 132.573 55.8132 0.0169502 1.81274
34200 60.4159 132.586 55.8132 0.0170502 1.83578
34400 60.4159 132.599 55.8132 0.0171502 1.8484
34600 60.4159 132.612 55.8132 0.0172502 1.86278
34800 60.4159 132.625 55.8132 0.0173502 1.87559
35000 60.4159 132.638 55.8132 0.0174502 1.86681
35200 60.4159 132.651 55.8132 0.0175502 1.89993
35400 60.4159 132.664 55.8132 0.0176502 1.90339
35600 60.4159 132.677 55.8132 0.0177502 1.91329
35800 60.4159 132.69 55.8132 0.0178502 1.9293
36000 60.4159 132.703 55.8132 0.0179502 1.94279
36200 60.4159 132.716 55.8132 0.0180502 1.92869
36400 60.4159 132.73 55.8132 0.0181502 1.98932
36600 60.4159 132.743 55.8132 0.0182502 1.95778
36800 60.4159 132.756 55.8132 0.0183502 1.98719
37000 60.4159 132.769 55.8132 0.0184502 1.99668
37200 60.4159 132.782 55.8132 0.0185502 2.03068
37400 60.4159 132.795 55.8132 0.0186502 1.98957
37600 60.4159 132.808 55.8132 0.0187502 2.03014
37800 60.4159 132.821 55.8132 0.0188502 2.0381
38000 60.4159 132.834 55.8132 0.0189502 2.04898
38200 60.4159 132.847 55.8132 0.0190502 2.04299
38400 60.4159 132.86 55.8132 0.0191502 2.08632
38600 60.4159 132.873 55.8132 0.0192502 2.07789
38800 60.4159 132.886 55.8132 0.0193502 2.09753
39000 60.4159 132.899 55.8132 0.0194502 2.09018
39200 60.4159 132.912 55.8132 0.0195502 2.11379
39400 60.4159 132.925 55.8132 0.0196502 2.10853
39600 60.4159 132.938 55.8132 0.0197502 2.13547
39800 60.4159 132.951 55.8132 0.0198502 2.15476
40000 60.4159 132.964 55.8132 0.0199502 2.16078
40200 60.4159 132.977 55.8132 0.0200502 2.1568
40400 60.4159 132.99 55.8132 0.0201502 2.17665
40600 60.4159 133.003 55.8132 0.0202502 2.19517
40800 60.4159 133.016 55.8132 0.0203502 2.18921
41000 60.4159 133.029 55.8132 0.0204502 2.20429
41200 60.4159 133.042 55.8132 0.0205502 2.22168
41400 60.4159 133.055 55.8132 0.0206502 2.21356
41600 60.4159 133.068 55.8132 0.0207502 2.24762
41800 60.4159 133.082 55.8132 0.0208502 2.24442
42000 60.4159 133.095 55.8132 0.0209502 2.26502
42200 60.4159 133.108 55.8132 0.0210502 2.26593
42400 60.4159 133.121 55.8132 0.0211502 2.28184
42600 60.4159 133.134 55.8132 0.0212502 2.27778
42800 60.4159 133.147 55.8132 0.0213502 2.32335
43000 60.4159 133.16 55.8132 0.0214502 2.33474
43200 60.4159 133.173 55.8132 0.0215502 2.32038
43400 60.4159 133.186 55.8132 0.0216502 2.3363
43600 60.4159 133.199 55.8132 0.0217502 2.34989
43800 60.4159 133.212 55.8132 0.0218502 2.3628
44000 60.4159 133.225 55.8132 0.0219502 2.36716
44200 60.4159 133.238 55.8132 0.0220502 2.40053
44400 60.4159 133.251 55.8132 0.0221502 2.38091
44600 60.4159 133.264 55.8132 0.0222502 2.39647
44800 60.4159 133.277 55.8132 0.0223502 2.42511
45000 60.4159 133.29 55.8132 0.0224502 2.41745
45200 60.4159 133.303 55.8132 0.0225502 2.44257
45400 60.4159 133.316 55.8132 0.0226502 2.43509
45600 60.4159 133.329 55.8132 0.0227502 2.48422
45800 60.4159 133.342 55.8132 0.0228502 2.45708
46000 60.4159 133.355 55.8132 0.0229502 2.49117
46200 60.4159 133.368 55.8132 0.0230502 2.4877
46400 60.4159 133.381 55.8132 0.0231502 2.51956
46600 60.4159 133.394 55.8132 0.0232502 2.48768
46800 60.4159 133.407 55.8132 0.0233502 2.54051
47000 60.4159 133.42 55.8132 0.0234502 2.53868
47200 60.4159 133.433 55.8132 0.0235502 2.55198
47400 60.4159 133.447 55.8132 0.0236502 2.56188
47600 60.4159 133.46 55.8132 0.0237502 2.58936
47800 60.4159 133.473 55.8132 0.0238502 2.56197
48000 60.4159 133.486 55.8132 0.0239502 2.6069
48200 60.4159 133.499 55.8132 0.0240502 2.6187
48400 60.4159 133.512 55.8132 0.0241502 2.6041
48600 60.4159 133.525 55.8132 0.0242502 2.65331
48800 60.4159 133.538 55.8132 0.0243502 2.60827
49000 60.4159 133.551 55.8132 0.0244502 2.66797
49200 60.4159 133.564 55.8132 0.0245502 2.67247
49400 60.4159 133.577 55.8132 0.0246502 2.67527
49600 60.4159 133.59 55.8132 0.0247502 2.68372
49800 60.4159 133.603 55.8132 0.0248502 2.71688
50000 60.4159 133.616 55.8132 0.0249502 2.69543
50200 60.4159 133.629 55.8132 0.0250502 2.71224
50400 60.4159 133.642 55.8132 0.0251502 2.7444
50600 60.4159 133.655 55.8132 0.0252502 2.73937
50800 60.4159 133.668 55.8132 0.0253502 2.78473
51000 60.4159 133.681 55.8132 0.0254502 2.74519
51200 60.4159 133.694 55.8132 0.0255502 2.78351
51400 60.4159 133.707 55.8132 0.0256502 2.80096
51600 60.4159 133.72 55.8132 0.0257502 2.7948
51800 60.4159 133.733 55.8132 0.0258502 2.81561
52000 60.4159 133.746 55.8132 0.0259502 2.82609
52200 60.4159 133.759 55.8132 0.0260502 2.8268
52400 60.4159 133.772 55.8132 0.0261502 2.8449
52600 60.4159 133.785 55.8132 0.0262502 2.86935
52800 60.4159 133.799 55.8132 0.0263502 2.87317
53000 60.4159 133.812 55.8132 0.0264502 2.86854
53200 60.4159 133.825 55.8132 0.0265502 2.89305
53400 60.4159 133.838 55.8132 0.0266502 2.89556
53600 60.4159 133.851 55.8132 0.0267502 2.90494
53800 60.4159 133.864 55.8132 0.0268502 2.94212
54000 60.4159 133.877 55.8132 0.0269502 2.92538
54200 60.4159 133.89 55.8132 0.0270502 2.93996
54400 60.4159 133.903 55.8132 0.0271502 2.96935
54600 60.4159 133.916 55.8132 0.0272502 2.97863
54800 60.4159 133.929 55.8132 0.0273502 2.96898
55000 60.4159 133.942 55.8132 0.0274502 2.99415
55200 60.4159 133.955 55.8132 0.0275502 3.01802
55400 60.4159 133.968 55.8132 0.0276502 3.01484
55600 60.4159 133.981 55.8132 0.0277502 3.00928
55800 60.4159 133.994 55.8132 0.0278502 3.06861
56000 60.4159 134.007 55.8132 0.0279502 3.04984
56200 60.4159 134.02 55.8132 0.0280502 3.05754
56400 60.4159 134.033 55.8132 0.0281502 3.0731
56600 60.4159 134.046 55.8132 0.0282502 3.11265
56800 60.4159 134.059 55.8132 0.0283502 3.07189
57000 60.4159 134.072 55.8132 0.0284502 3.12609
57200 60.4159 134.085 55.8132 0.0285502 3.11992
57400 60.4159 134.098 55.8132 0.0286502 3.1331
57600 60.4159 134.111 55.8132 0.0287502 3.13912
57800 60.4159 134.124 55.8132 0.0288502 3.15784
58000 60.4159 134.137 55.8132 0.0289502 3.16884
58200 60.4159 134.15 55.8132 0.0290502 3.17627
58400 60.4159 134.164 55.8132 0.0291502 3.18297
58600 60.4159 134.177 55.8132 0.0292502 3.20505
58800 60.4159 134.19 55.8132 0.0293502 3.22418
59000 60.4159 134.203 55.8132 0.0294502 3.20137
59200 60.4159 134.216 55.8132 0.0295502 3.22575
59400 60.4159 134.229 55.8132 0.0296502 3.25511
59600 60.4159 134.242 55.8132 0.0297502 3.23665
59800 60.4159 134.255 55.8132 0.0298502 3.26586
60000 60.4159 134.268 55.8132 0.0299502 3.30025
60200 60.4159 134.281 55.8132 0.0300502 3.28788
60400 60.4159 134.294 55.8132 0.0301502 3.28944
60600 60.4159 134.307 55.8132 0.0302502 3.32558
60800 60.4159 134.32 55.8132 0.0303502 3.31678
61000 60.4159 134.333 55.8132 0.0304502 3.35059
61200 60.4159 134.346 55.8132 0.0305502 3.35737
61400 60.4159 134.359 55.8132 0.0306502 3.35417
61600 60.4159 134.372 55.8132 0.0307502 3.37972
61800 60.4159 134.385 55.8132 0.0308502 3.38947
62000 60.4159 134.398 55.8132 0.0309502 3.40825
62200 60.4159 134.411 55.8132 0.0310502 3.39237
62400 60.4159 134.424 55.8132 0.0311502 3.4323
62600 60.4159 134.437 55.8132 0.0312502 3.44004
62800 60.4159 134.45 55.8132 0.0313502 3.44807
63000 60.4159 134.463 55.8132 0.0314502 3.45023
63200 60.4159 134.476 55.8132 0.0315502 3.46804
63400 60.4159 134.489 55.8132 0.0316502 3.49237
63600 60.4159 134.502 55.8132 0.0317502 3.50087
63800 60.4159 134.516 55.8132 0.0318502 3.4758
64000 60.4159 134.529 55.8132 0.0319502 3.53914
64200 60.4159 134.542 55.8132 0.0320502 3.53745
64400 60.4159 134.555 55.8132 0.0321502 3.53002
64600 60.4159 134.568 55.8132 0.0322502 3.54053
64800 60.4159 134.581 55.8132 0.0323502 3.56634
65000 60.4159 134.594 55.8132 0.0324502 3.58659
65200 60.4159 134.607 55.8132 0.0325502 3.57797
65400 60.4159 134.62 55.8132 0.0326502 3.60219
65600 60.4159 134.633 55.8132 0.0327502 3.60311
65800 60.4159 134.646 55.8132 0.0328502 3.62976
66000 60.4159 134.659 55.8132 0.0329502 3.63161
66200 60.4159 134.672 55.8132 0.0330502 3.64669
66400 60.4159 134.685 55.8132 0.0331502 3.65747
66600 60.4159 134.698 55.8132 0.0332502 3.66386
66800 60.4159 134.711 55.8132 0.0333502 3.69133
67000 60.4159 134.724 55.8132 0.0334502 3.68417
67200 60.4159 134.737 55.8132 0.0335502 3.71175
67400 60.4159 134.75 55.8132 0.0336502 3.72812
67600 60.4159 134.763 55.8132 0.0337502 3.72122
67800 60.4159 134.776 55.8132 0.0338502 3.74256
68000 60.4159 134.789 55.8132 0.0339502 3.72772
68200 60.4159 134.802 55.8132 0.0340502 3.78088
68400 60.4159 134.815 55.8132 0.0341502 3.76091
68600 60.4159 134.828 55.8132 0.0342502 3.78755
68800 60.4159 134.841 55.8132 0.0343502 3.80243
69000 60.4159 134.854 55.8132 0.0344502 3.80912
69200 60.4159 134.867 55.8132 0.0345502 3.81541
69400 60.4159 134.881 55.8132 0.0346502 3.86614
69600 60.4159 134.894 55.8132 0.0347502 3.83114
69800 60.4159 134.907 55.8132 0.0348502 3.88746
70000 60.4159 134.92 55.8132 0.0349502 3.85439
70200 60.4159 134.933 55.8132 0.0350502 3.87899
70400 60.4159 134.946 55.8132 0.0351502 3.89893
70600 60.4159 134.959 55.8132 0.0352502 3.91726
70800 60.4159 134.972 55.8132 0.0353502 3.92156
71000 60.4159 134.985 55.8132 0.0354502 3.92622
71200 60.4159 134.998 55.8132 0.0355502 3.94281
71400 60.4159 135.011 55.8132 0.0356502 3.96046
71600 60.4159 135.024 55.8132 0.0357502 3.98219
71800 60.4159 135.037 55.8132 0.0358502 3.97998
72000 60.4159 135.05 55.8132 0.0359502 3.97876
72200 60.4159 135.063 55.8132 0.0360502 4.0057
72400 60.4159 135.076 55.8132 0.0361502 4.03398
72600 60.4159 135.089 55.8132 0.0362502 4.00735
72800 60.4159 135.102 55.8132 0.0363502 4.05453
73000 60.4159 135.115 55.8132 0.0364502 4.04617
73200 60.4159 135.128 55.8132 0.0365502 4.07593
73400 60.4159 135.141 55.8132 0.0366502 4.06082
73600 60.4159 135.154 55.8132 0.0367502 4.10222
73800 60.4159 135.167 55.8132 0.0368502 4.10662
74000 60.4159 135.18 55.8132 0.0369502 4.09505
74200 60.4159 135.193 55.8132 0.0370502 4.14315
74400 60.4159 135.206 55.8132 0.0371502 4.13919
74600 60.4159 135.219 55.8132 0.0372502 4.1379
74800 60.4159 135.233 55.8132 0.0373502 4.18761
75000 60.4159 135.246 55.8132 0.0374502 4.1604
75200 60.4159 135.259 55.8132 0.0375502 4.19199
75400 60.4159 135.272 55.8132 0.0376502 4.18878
75600 60.4159 135.285 55.8132 0.0377502 4.2262
75800 60.4159 135.298 55.8132 0.0378502 4.22532
76000 60.4159 135.311 55.8132 0.0379502 4.22562
76200 60.4159 135.324 55.8132 0.0380502 4.25243
76400 60.4159 135.337 55.8132 0.0381502 4.25863
76600 60.4159 135.35 55.8132 0.0382502 4.28195
76800 60.4159 135.363 55.8132 0.0383502 4.27852
77000 60.4159 135.376 55.8132 0.0384502 4.28253
77200 60.4159 135.389 55.8132 0.0385502 4.31715
77400 60.4159 135.402 55.8132 0.0386502 4.31016
77600 60.4159 135.415 55.8132 0.0387502 4.34053
77800 60.4159 135.428 55.8132 0.0388502 4.35614
78000 60.4159 135.441 55.8132 0.0389502 4.35856
78200 60.4159 135.454 55.8132 0.0390502 4.34652
78400 60.4159 135.467 55.8132 0.0391502 4.38007
78600 60.4159 135.48 55.8132 0.0392502 4.37727
78800 60.4159 135.493 55.8132 0.0393502 4.41826
79000 60.4159 135.506 55.8132 0.0394502 4.42016
79200 60.4159 135.519 55.8132 0.0395502 4.42842
79400 60.4159 135.532 55.8132 0.0396502 4.42697
79600 60.4159 135.545 55.8132 0.0397502 4.44931
79800 60.4159 135.558 55.8132 0.0398502 4.46547
80000 60.4159 135.571 55.8132 0.0399502 4.48524
80200 60.4159 135.584 55.8132 0.0400502 4.47424
80400 60.4159 135.598 55.8132 0.0401502 4.5046
80600 60.4159 135.611 55.8132 0.0402502 4.50389
80800 60.4159 135.624 55.8132 0.0403502 4.52456
81000 60.4159 135.637 55.8132 0.0404502 4.54865
81200 60.4159 135.65 55.8132 0.0405502 4.54476
81400 60.4159 135.663 55.8132 0.0406502 4.56961
81600 60.4159 135.676 55.8132 0.0407502 4.56297
81800 60.4159 135.689 55.8132 0.0408502 4.56795
82000 60.4159 135.702 55.8132 0.0409502 4.61816
82200 60.4159 135.715 55.8132 0.0410502 4.59649
82400 60.4159 135.728 55.8132 0.0411502 4.59881
82600 60.4159 135.741 55.8132 0.0412502 4.6551
82800 60.4159 135.754 55.8132 0.0413502 4.63824
83000 60.4159 135.767 55.8132 0.0414502 4.65403
83200 60.4159 135.78 55.8132 0.0415502 4.66493
83400 60.4159 135.793 55.8132 0.0416502 4.66654
83600 60.4159 135.806 55.8132 0.0417502 4.70142
83800 60.4159 135.819 55.8132 0.0418502 4.69306
84000 60.4159 135.832 55.8132 0.0419502 4.72735
84200 60.4159 135.845 55.8132 0.0420502 4.7287
84400 60.4159 135.858 55.8132 0.0421502 4.72582
84600 60.4159 135.871 55.8132 0.0422502 4.75935
84800 60.4159 135.884 55.8132 0.0423502 4.78
85000 60.4159 135.897 55.8132 0.0424502 4.77017
85200 60.4159 135.91 55.8132 0.0425502 4.80567
85400 60.4159 135.923 55.8132 0.0426502 4.79971
85600 60.4159 135.936 55.8132 0.0427502 4.8331
85800 60.4159 135.95 55.8132 0.0428502 4.83388
86000 60.4159 135.963 55.8132 0.0429502 4.84553
86200 60.4159 135.976 55.8132 0.0430502 4.85892
86400 60.4159 135.989 55.8132 0.0431502 4.87932
86600 60.4159 136.002 55.8132 0.0432502 4.89226
86800 60.4159 136.015 55.8132 0.0433502 4.88268
87000 60.4159 136.028 55.8132 0.0434502 4.90329
87200 60.4159 136.041 55.8132 0.0435502 4.94306
87400 60.4159 136.054 55.8132 0.0436502 4.92408
87600 60.4159 136.067 55.8132 0.0437502 4.94833
87800 60.4159 136.08 55.8132 0.0438502 4.95299
88000 60.4159 136.093 55.8132 0.0439502 4.96781
88200 60.4159 136.106 55.8132 0.0440502 4.98366
88400 60.4159 136.119 55.8132 0.0441502 4.98496
88600 60.4159 136.132 55.8132 0.0442502 5.01846
88800 60.4159 136.145 55.8132 0.0443502 5.00179
89000 60.4159 136.158 55.8132 0.0444502 5.02145
89200 60.4159 136.171 55.8132 0.0445502 5.05053
89400 60.4159 136.184 55.8132 0.0446502 5.03653
89600 60.4159 136.197 55.8132 0.0447502 5.05666
89800 60.4159 136.21 55.8132 0.0448502 5.07352
90000 60.4159 136.223 55.8132 0.0449502 5.09776
90200 60.4159 136.236 55.8132 0.0450502 5.08955
90400 60.4159 136.249 55.8132 0.0451502 5.14718
90600 60.4159 136.262 55.8132 0.0452502 5.11451
90800 60.4159 136.275 55.8132 0.0453502 5.15116
91000 60.4159 136.288 55.8132 0.0454502 5.14781
91200 60.4159 136.301 55.8132 0.0455502 5.16277
91400 60.4159 136.315 55.8132 0.0456502 5.18805
91600 60.4159 136.328 55.8132 0.0457502 5.20078
91800 60.4159 136.341 55.8132 0.0458502 5.18683
92000 60.4159 136.354 55.8132 0.0459502 5.20789
92200 60.4159 136.367 55.8132 0.0460502 5.24523
92400 60.4159 136.38 55.8132 0.0461502 5.2316
92600 60.4159 136.393 55.8132 0.0462502 5.25003
92800 60.4159 136.406 55.8132 0.0463502 5.2666
93000 60.4159 136.419 55.8132 0.0464502 5.27499
93200 60.4159 136.432 55.8132 0.0465502 5.2844
93400 60.4159 136.445 55.8132 0.0466502 5.30502
93600 60.4159 136.458 55.8132 0.0467502 5.29987
93800 60.4159 136.471 55.8132 0.0468502 5.32751
94000 60.4159 136.484 55.8132 0.0469502 5.35058
94200 60.4159 136.497 55.8132 0.0470502 5.33022
94400 60.4159 136.51 55.8132 0.0471502 5.35944
94600 60.4159 136.523 55.8132 0.0472502 5.38235
94800 60.4159 136.536 55.8132 0.0473502 5.38932
95000 60.4159 136.549 55.8132 0.0474502 5.38304
95200 60.4159 136.562 55.8132 0.0475502 5.4152
95400 60.4159 136.575 55.8132 0.0476502 5.43176
95600 60.4159 136.588 55.8132 0.0477502 5.45053
95800 60.4159 136.601 55.8132 0.0478502 5.43481
96000 60.4159 136.614 55.8132 0.0479502 5.47776
96200 60.4159 136.627 55.8132 0.0480502 5.46603
96400 60.4159 136.64 55.8132 0.0481502 5.4907
96600 60.4159 136.653 55.8132 0.0482502 5.4994
96800 60.4159 136.667 55.8132 0.0483502 5.50709
97000 60.4159 136.68 55.8132 0.0484502 5.5242
97200 60.4159 136.693 55.8132 0.0485502 5.55062
97400 60.4159 136.706 55.8132 0.0486502 5.53145
97600 60.4159 136.719 55.8132 0.0487502 5.58769
97800 60.4159 136.732 55.8132 0.0488502 5.56544
98000 60.4159 136.745 55.8132 0.0489502 5.58354
98200 60.4159 136.758 55.8132 0.0490502 5.58691
98400 60.4159 136.771 55.8132 0.0491502 5.62733
98600 60.4159 136.784 55.8132 0.0492502 5.62342
98800 60.4159 136.797 55.8132 0.0493502 5.63779
99000 60.4159 136.81 55.8132 0.0494502 5.66184
99200 60.4159 136.823 55.8132 0.0495502 5.66072
99400 60.4159 136.836 55.8132 0.0496502 5.66159
99600 60.4159 136.849 55.8132 0.0497502 5.68324
99800 60.4159 136.862 55.8132 0.0498502 5.72163
100000 60.4159 136.875 55.8132 0.0499502 5.70002
100200 60.4159 136.888 55.8132 0.0500502 5.72481
100400 60.4159 136.901 55.8132 0.0501502 5.73691
100600 60.4159 136.914 55.8132 0.0502502 5.748
100800 60.4159 136.927 55.8132 0.0503502 5.76859
101000 60.4159 136.94 55.8132 0.0504502 5.7561
101200 60.4159 136.953 55.8132 0.0505502 5.80811
101400 60.4159 136.966 55.8132 0.0506502 5.79106
101600 60.4159 136.979 55.8132 0.0507502 5.82809
101800 60.4159 136.992 55.8132 0.0508502 5.81689
102000 60.4159 137.005 55.8132 0.0509502 5.8559
102200 60.4159 137.018 55.8132 0.0510502 5.83572
102400 60.4159 137.032 55.8132 0.0511502 5.86861
102600 60.4159 137.045 55.8132 0.0512502 5.88307
102800 60.4159 137.058 55.8132 0.0513502 5.88723
103000 60.4159 137.071 55.8132 0.0514502 5.87422
103200 60.4159 137.084 55.8132 0.0515502 5.9456
103400 60.4159 137.097 55.8132 0.0516502 5.91416
103600 60.4159 137.11 55.8132 0.0517502 5.93534
103800 60.4159 137.123 55.8132 0.0518502 5.95004
104000 60.4159 137.136 55.8132 0.0519502 5.96866
104200 60.4159 137.149 55.8132 0.0520502 5.99476
104400 60.4159 137.162 55.8132 0.0521502 5.99558
104600 60.4159 137.175 55.8132 0.0522502 5.99264
104800 60.4159 137.188 55.8132 0.0523502 6.02057
105000 60.4159 137.201 55.8132 0.0524502 6.03438
105200 60.4159 137.214 55.8132 0.0525502 6.05094
105400 60.4159 137.227 55.8132 0.0526502 6.05841
105600 60.4159 137.24 55.8132 0.0527502 6.06311
105800 60.4159 137.253 55.8132 0.0528502 6.09547
106000 60.4159 137.266 55.8132 0.0529502 6.08717
106200 60.4159 137.279 55.8132 0.0530502 6.10863
106400 60.4159 137.292 55.8132 0.0531502 6.13482
106600 60.4159 137.305 55.8132 0.0532502 6.12819
106800 60.4159 137.318 55.8132 0.0533502 6.16198
107000 60.4159 137.331 55.8132 0.0534502 6.14829
107200 60.4159 137.344 55.8132 0.0535502 6.16212
107400 60.4159 137.357 55.8132 0.0536502 6.17367
107600 60.4159 137.37 55.8132 0.0537502 6.21179
107800 60.4159 137.384 55.8132 0.0538502 6.20331
108000 60.4159 137.397 55.8132 0.0539502 6.21643
108200 60.4159 137.41 55.8132 0.0540502 6.23422
108400 60.4159 137.423 55.8132 0.0541502 6.23701
108600 60.4159 137.436 55.8132 0.0542502 6.25628
108800 60.4159 137.449 55.8132 0.0543502 6.29079
109000 60.4159 137.462 55.8132 0.0544502 6.28884
109200 60.4159 137.475 55.8132 0.0545502 6.28788
109400 60.4159 137.488 55.8132 0.0546502 6.31824
109600 60.4159 137.501 55.8132 0.0547502 6.31171
109800 60.4159 137.514 55.8132 0.0548502 6.33276
110000 60.4159 137.527 55.8132 0.0549502 6.34139
110200 60.4159 137.54 55.8132 0.0550502 6.36889
110400 60.4159 137.553 55.8132 0.0551502 6.37841
110600 60.4159 137.566 55.8132 0.0552502 6.38073
110800 60.4159 137.579 55.8132 0.0553502 6.39101
111000 60.4159 137.592 55.8132 0.0554502 6.42849
111200 60.4159 137.605 55.8132 0.0555502 6.40993
111400 60.4159 137.618 55.8132 0.0556502 6.44528
111600 60.4159 137.631 55.8132 0.0557502 6.46637
111800 60.4159 137.644 55.8132 0.0558502 6.43898
112000 60.4159 137.657 55.8132 0.0559502 6.49321
112200 60.4159 137.67 55.8132 0.0560502 6.48431
112400 60.4159 137.683 55.8132 0.0561502 6.50018
112600 60.4159 137.696 55.8132 0.0562502 6.52383
112800 60.4159 137.709 55.8132 0.0563502 6.53927
113000 60.4159 137.722 55.8132 0.0564502 6.53512
113200 60.4159 137.735 55.8132 0.0565502 6.54383
113400 60.4159 137.749 55.8132 0.0566502 6.56558
113600 60.4159 137.762 55.8132 0.0567502 6.58423
113800 60.4159 137.775 55.8132 0.0568502 6.59633
114000 60.4159 137.788 55.8132 0.0569502 6.61805
114200 60.4159 137.801 55.8132 0.0570502 6.61805
114400 60.4159 137.814 55.8132 0.0571502 6.63063
114600 60.4159 137.827 55.8132 0.0572502 6.63292
114800 60.4159 137.84 55.8132 0.0573502 6.67152
115000 60.4159 137.853 55.8132 0.0574502 6.6748
115200 60.4159 137.866 55.8132 0.0575502 6.69166
115400 60.4159 137.879 55.8132 0.0576502 6.69642
115600 60.4159 137.892 55.8132 0.0577502 6.71015
115800 60.4159 137.905 55.8132 0.0578502 6.71782
116000 60.4159 137.918 55.8132 0.0579502 6.7346
116200 60.4159 137.931 55.8132 0.0580502 6.73858
116400 60.4159 137.944 55.8132 0.0581502 6.77119
116600 60.4159 137.957 55.8132 0.0582502 6.76413
116800 60.4159 137.97 55.8132 0.0583502 6.77802
117000 60.4159 137.983 55.8132 0.0584502 6.80527
117200 60.4159 137.996 55.8132 0.0585502 6.81472
117400 60.4159 138.009 55.8132 0.0586502 6.81212
117600 60.4159 138.022 55.8132 0.0587502 6.83346
117800 60.4159 138.035 55.8132 0.0588502 6.85693
118000 60.4159 138.048 55.8132 0.0589502 6.84213
118200 60.4159 138.061 55.8132 0.0590502 6.86866
118400 60.4159 138.074 55.8132 0.0591502 6.87943
118600 60.4159 138.087 55.8132 0.0592502 6.89144
118800 60.4159 138.101 55.8132 0.0593502 6.90937
119000 60.4159 138.114 55.8132 0.0594502 6.91555
119200 60.4159 138.127 55.8132 0.0595502 6.92675
119400 60.4159 138.14 55.8132 0.0596502 6.93805
119600 60.4159 138.153 55.8132 0.0597502 6.96979
119800 60.4159 138.166 55.8132 0.0598502 6.96336
120000 60.4159 138.179 55.8132 0.0599502 6.98272
120200 60.4159 138.192 55.8132 0.0600502 6.98144
120400 60.4159 138.205 55.8132 0.0601502 7.02773
120600 60.4159 138.218 55.8132 0.0602502 7.01028
120800 60.4159 138.231 55.8132 0.0603502 7.03825
121000 60.4159 138.244 55.8132 0.0604502 7.0644
121200 60.4159 138.257 55.8132 0.0605502 7.03961
121400 60.4159 138.27 55.8132 0.0606502 7.07392
121600 60.4159 138.283 55.8132 0.0607502 7.09146
121800 60.4159 138.296 55.8132 0.0608502 7.09382
122000 60.4159 138.309 55.8132 0.0609502 7.11717
122200 60.4159 138.322 55.8132 0.0610502 7.1179
122400 60.4159 138.335 55.8132 0.0611502 7.14423
122600 60.4159 138.348 55.8132 0.0612502 7.13503
122800 60.4159 138.361 55.8132 0.0613502 7.16577
123000 60.4159 138.374 55.8132 0.0614502 7.17331
123200 60.4159 138.387 55.8132 0.0615502 7.17981
123400 60.4159 138.4 55.8132 0.0616502 7.20067
123600 60.4159 138.413 55.8132 0.0617502 7.23207
123800 60.4159 138.426 55.8132 0.0618502 7.22069
124000 60.4159 138.439 55.8132 0.0619502 7.23286
124200 60.4159 138.452 55.8132 0.0620502 7.23556
124400 60.4159 138.466 55.8132 0.0621502 7.29097
124600 60.4159 138.479 55.8132 0.0622502 7.28254
124800 60.4159 138.492 55.8132 0.0623502 7.28153
125000 60.4159 138.505 55.8132 0.0624502 7.30607
125200 60.4159 138.518 55.8132 0.0625502 7.30293
125400 60.4159 138.531 55.8132 0.0626502 7.3199
125600 60.4159 138.544 55.8132 0.0627502 7.35794
125800 60.4159 138.557 55.8132 0.0628502 7.34269
126000 60.4159 138.57 55.8132 0.0629502 7.36172
126200 60.4159 138.583 55.8132 0.0630502 7.38535
126400 60.4159 138.596 55.8132 0.0631502 7.40891
126600 60.4159 138.609 55.8132 0.0632502 7.39382
126800 60.4159 138.622 55.8132 0.0633502 7.45053
127000 60.4159 138.635 55.8132 0.0634502 7.41193
127200 60.4159 138.648 55.8132 0.0635502 7.4584
127400 60.4159 138.661 55.8132 0.0636502 7.47247
127600 60.4159 138.674 55.8132 0.0637502 7.49269
127800 60.4159 138.687 55.8132 0.0638502 7.49088
128000 60.4159 138.7 55.8132 0.0639502 7.50988
128200 60.4159 138.713 55.8132 0.0640502 7.50513
128400 60.4159 138.726 55.8132 0.0641502 7.52652
128600 60.4159 138.739 55.8132 0.0642502 7.52785
128800 60.4159 138.752 55.8132 0.0643502 7.55773
129000 60.4159 138.765 55.8132 0.0644502 7.55504
129200 60.4159 138.778 55.8132 0.0645502 7.56932
129400 60.4159 138.791 55.8132 0.0646502 7.58862
129600 60.4159 138.804 55.8132 0.0647502 7.60147
129800 60.4159 138.817 55.8132 0.0648502 7.61366
130000 60.4159 138.831 55.8132 0.0649502 7.62166
130200 60.4159 138.844 55.8132 0.0650502 7.64165
130400 60.4159 138.857 55.8132 0.0651502 7.65034
130600 60.4159 138.87 55.8132 0.0652502 7.68165
130800 60.4159 138.883 55.8132 0.0653502 7.6614
131000 60.4159 138.896 55.8132 0.0654502 7.68935
131200 60.4159 138.909 55.8132 0.0655502 7.70668
131400 60.4159 138.922 55.8132 0.0656502 7.71405
131600 60.4159 138.935 55.8132 0.0657502 7.7224
131800 60.4159 138.948 55.8132 0.0658502 7.74114
132000 60.4159 138.961 55.8132 0.0659502 7.76084
132200 60.4159 138.974 55.8132 0.0660502 7.7787
132400 60.4159 138.987 55.8132 0.0661502 7.77233
132600 60.4159 139 55.8132 0.0662502 7.80733
132800 60.4159 139.013 55.8132 0.0663502 7.79932
133000 60.4159 139.026 55.8132 0.0664502 7.81722
133200 60.4159 139.039 55.8132 0.0665502 7.84598
133400 60.4159 139.052 55.8132 0.0666502 7.83032
133600 60.4159 139.065 55.8132 0.0667502 7.88294
133800 60.4159 139.078 55.8132 0.0668502 7.8606
134000 60.4159 139.091 55.8132 0.0669502 7.88873
134200 60.4159 139.104 55.8132 0.0670502 7.90636
134400 60.4159 139.117 55.8132 0.0671502 7.90052
134600 60.4159 139.13 55.8132 0.0672502 7.92717
134800 60.4159 139.143 55.8132 0.0673502 7.94943
135000 60.4159 139.156 55.8132 0.0674502 7.93255
135200 60.4159 139.169 55.8132 0.0675502 7.9757
135400 60.4159 139.183 55.8132 0.0676502 7.96752
135600 60.4159 139.196 55.8132 0.0677502 8.00549
135800 60.4159 139.209 55.8132 0.0678502 7.99064
136000 60.4159 139.222 55.8132 0.0679502 8.01041
136200 60.4159 139.235 55.8132 0.0680502 8.0336
136400 60.4159 139.248 55.8132 0.0681502 8.03244
136600 60.4159 139.261 55.8132 0.0682502 8.0541
136800 60.4159 139.274 55.8132 0.0683502 8.06115
137000 60.4159 139.287 55.8132 0.0684502 8.0819
137200 60.4159 139.3 55.8132 0.0685502 8.1093
137400 60.4159 139.313 55.8132 0.0686502 8.09295
137600 60.4159 139.326 55.8132 0.0687502 8.12017
137800 60.4159 139.339 55.8132 0.0688502 8.1098
138000 60.4159 139.352 55.8132 0.0689502 8.16569
138200 60.4159 139.365 55.8132 0.0690502 8.14579
138400 60.4159 139.378 55.8132 0.0691502 8.16163
138600 60.4159 139.391 55.8132 0.0692502 8.19095
138800 60.4159 139.404 55.8132 0.0693502 8.18855
139000 60.4159 139.417 55.8132 0.0694502 8.22185
139200 60.4159 139.43 55.8132 0.0695502 8.22201
139400 60.4159 139.443 55.8132 0.0696502 8.22618
139600 60.4159 139.456 55.8132 0.0697502 8.26429
139800 60.4159 139.469 55.8132 0.0698502 8.25424
140000 60.4159 139.482 55.8132 0.0699502 8.27284
140200 60.4159 139.495 55.8132 0.0700502 8.30714
140400 60.4159 139.508 55.8132 0.0701502 8.28741
140600 60.4159 139.521 55.8132 0.0702502 8.31658
140800 60.4159 139.534 55.8132 0.0703502 8.32559
141000 60.4159 139.548 55.8132 0.0704502 8.33549
141200 60.4159 139.561 55.8132 0.0705502 8.34482
141400 60.4159 139.574 55.8132 0.0706502 8.36793
141600 60.4159 139.587 55.8132 0.0707502 8.3964
141800 60.4159 139.6 55.8132 0.0708502 8.37142
142000 60.4159 139.613 55.8132 0.0709502 8.42198
142200 60.4159 139.626 55.8132 0.0710502 8.39781
142400 60.4159 139.639 55.8132 0.0711502 8.43986
142600 60.4159 139.652 55.8132 0.0712502 8.44165
142800 60.4159 139.665 55.8132 0.0713502 8.45479
143000 60.4159 139.678 55.8132 0.0714502 8.45573
143200 60.4159 139.691 55.8132 0.0715502 8.48764
143400 60.4159 139.704 55.8132 0.0716502 8.49421
143600 60.4159 139.717 55.8132 0.0717502 8.52042
143800 60.4159 139.73 55.8132 0.0718502 8.51505
144000 60.4159 139.743 55.8132 0.0719502 8.52916
144200 60.4159 139.756 55.8132 0.0720502 8.54849
144400 60.4159 139.769 55.8132 0.0721502 8.56444
144600 60.4159 139.782 55.8132 0.0722502 8.57378
144800 60.4159 139.795 55.8132 0.0723502 8.58631
145000 60.4159 139.808 55.8132 0.0724502 8.58918
145200 60.4159 139.821 55.8132 0.0725502 8.62081
145400 60.4159 139.834 55.8132 0.0726502 8.63747
145600 60.4159 139.847 55.8132 0.0727502 8.62177
145800 60.4159 139.86 55.8132 0.0728502 8.65847
146000 60.4159 139.873 55.8132 0.0729502 8.66974
146200 60.4159 139.886 55.8132 0.0730502 8.68632
146400 60.4159 139.9 55.8132 0.0731502 8.69148
146600 60.4159 139.913 55.8132 0.0732502 8.69852
146800 60.4159 139.926 55.8132 0.0733502 8.70656
147000 60.4159 139.939 55.8132 0.0734502 8.73233
147200 60.4159 139.952 55.8132 0.0735502 8.73965
147400 60.4159 139.965 55.8132 0.0736502 8.76374
147600 60.4159 139.978 55.8132 0.0737502 8.7742
147800 60.4159 139.991 55.8132 0.0738502 8.77358
148000 60.4159 140.004 55.8132 0.0739502 8.80807
148200 60.4159 140.017 55.8132 0.0740502 8.79529
148400 60.4159 140.03 55.8132 0.0741502 8.84778
148600 60.4159 140.043 55.8132 0.0742502 8.83616
148800 60.4159 140.056 55.8132 0.0743502 8.85759
149000 60.4159 140.069 55.8132 0.0744502 8.84551
149200 60.4159 140.082 55.8132 0.0745502 8.89353
149400 60.4159 140.095 55.8132 0.0746502 8.88301
149600 60.4159 140.108 55.8132 0.0747502 8.91437
149800 60.4159 140.121 55.8132 0.0748502 8.91771
150000 60.4159 140.134 55.8132 0.0749502 8.92355
150200 60.4159 140.147 55.8132 0.0750502 8.96218
150400 60.4159 140.16 55.8132 0.0751502 8.9447
150600 60.4159 140.173 55.8132 0.0752502 8.98578
150800 60.4159 140.186 55.8132 0.0753502 8.97751
151000 60.4159 140.199 55.8132 0.0754502 8.99772
151200 60.4159 140.212 55.8132 0.0755502 9.03023
151400 60.4159 140.225 55.8132 0.0756502 9.02589
151600 60.4159 140.238 55.8132 0.0757502 9.04672
151800 60.4159 140.251 55.8132 0.0758502 9.03637
152000 60.4159 140.265 55.8132 0.0759502 9.07963
152200 60.4159 140.278 55.8132 0.0760502 9.0711
152400 60.4159 140.291 55.8132 0.0761502 9.10195
152600 60.4159 140.304 55.8132 0.0762502 9.11088
152800 60.4159 140.317 55.8132 0.0763502 9.10224
153000 60.4159 140.33 55.8132 0.0764502 9.14518
153200 60.4159 140.343 55.8132 0.0765502 9.1409
153400 60.4159 140.356 55.8132 0.0766502 9.14836
153600 60.4159 140.369 55.8132 0.0767502 9.17029
153800 60.4159 140.382 55.8132 0.0768502 9.17762
154000 60.4159 140.395 55.8132 0.0769502 9.19503
154200 60.4159 140.408 55.8132 0.0770502 9.20408
154400 60.4159 140.421 55.8132 0.0771502 9.21806
154600 60.4159 140.434 55.8132 0.0772502 9.24149
154800 60.4159 140.447 55.8132 0.0773502 9.24904
155000 60.4159 140.46 55.8132 0.0774502 9.25466
155200 60.4159 140.473 55.8132 0.0775502 9.27782
155400 60.4159 140.486 55.8132 0.0776502 9.28166
155600 60.4159 140.499 55.8132 0.0777502 9.30387
155800 60.4159 140.512 55.8132 0.0778502 9.31525
156000 60.4159 140.525 55.8132 0.0779502 9.32587
156200 60.4159 140.538 55.8132 0.0780502 9.33689
156400 60.4159 140.551 55.8132 0.0781502 9.36149
156600 60.4159 140.564 55.8132 0.0782502 9.36305
156800 60.4159 140.577 55.8132 0.0783502 9.38709
157000 60.4159 140.59 55.8132 0.0784502 9.38959
157200 60.4159 140.603 55.8132 0.0785502 9.41789
157400 60.4159 140.617 55.8132 0.0786502 9.41334
157600 60.4159 140.63 55.8132 0.0787502 9.42776
157800 60.4159 140.643 55.8132 0.0788502 9.42743
158000 60.4159 140.656 55.8132 0.0789502 9.46951
158200 60.4159 140.669 55.8132 0.0790502 9.48075
158400 60.4159 140.682 55.8132 0.0791502 9.47587
158600 60.4159 140.695 55.8132 0.0792502 9.50253
158800 60.4159 140.708 55.8132 0.0793502 9.51748
159000 60.4159 140.721 55.8132 0.0794502 9.53599
159200 60.4159 140.734 55.8132 0.0795502 9.53751
159400 60.4159 140.747 55.8132 0.0796502 9.53945
159600 60.4159 140.76 55.8132 0.0797502 9.57914
159800 60.4159 140.773 55.8132 0.0798502 9.56037
160000 60.4159 140.786 55.8132 0.0799502 9.58225
160200 60.4159 140.799 55.8132 0.0800502 9.61726
160400 60.4159 140.812 55.8132 0.0801502 9.61497
160600 60.4159 140.825 55.8132 0.0802502 9.62989
160800 60.4159 140.838 55.8132 0.0803502 9.64118
161000 60.4159 140.851 55.8132 0.0804502 9.6595
161200 60.4159 140.864 55.8132 0.0805502 9.67264
161400 60.4159 140.877 55.8132 0.0806502 9.67196
161600 60.4159 140.89 55.8132 0.0807502 9.70371
161800 60.4159 140.903 55.8132 0.0808502 9.7088
162000 60.4159 140.916 55.8132 0.0809502 9.71799
162200 60.4159 140.929 55.8132 0.0810502 9.73967
162400 60.4159 140.942 55.8132 0.0811502 9.76026
162600 60.4159 140.955 55.8132 0.0812502 9.7479
162800 60.4159 140.968 55.8132 0.0813502 9.78061
163000 60.4159 140.982 55.8132 0.0814502 9.80052
163200 60.4159 140.995 55.8132 0.0815502 9.79581
163400 60.4159 141.008 55.8132 0.0816502 9.83135
163600 60.4159 141.021 55.8132 0.0817502 9.82738
163800 60.4159 141.034 55.8132 0.0818502 9.83971
164000 60.4159 141.047 55.8132 0.0819502 9.8654
164200 60.4159 141.06 55.8132 0.0820502 9.88155
164400 60.4159 141.073 55.8132 0.0821502 9.87779
164600 60.4159 141.086 55.8132 0.0822502 9.89839
164800 60.4159 141.099 55.8132 0.0823502 9.90515
165000 60.4159 141.112 55.8132 0.0824502 9.92002
165200 60.4159 141.125 55.8132 0.0825502 9.91957
165400 60.4159 141.138 55.8132 0.0826502 9.94455
165600 60.4159 141.151 55.8132 0.0827502 9.94904
165800 60.4159 141.164 55.8132 0.0828502 9.98285
166000 60.4159 141.177 55.8132 0.0829502 9.99698
166200 60.4159 141.19 55.8132 0.0830502 9.99814
166400 60.4159 141.203 55.8132 0.0831502 10.0143
166600 60.4159 141.216 55.8132 0.0832502 10.019
166800 60.4159 141.229 55.8132 0.0833502 10.0361
167000 60.4159 141.242 55.8132 0.0834502 10.0662
167200 60.4159 141.255 55.8132 0.0835502 10.0587
167400 60.4159 141.268 55.8132 0.0836502 10.0768
167600 60.4159 141.281 55.8132 0.0837502 10.0769
167800 60.4159 141.294 55.8132 0.0838502 10.1077
168000 60.4159 141.307 55.8132 0.0839502 10.1306
168200 60.4159 141.32 55.8132 0.0840502 10.1075
168400 60.4159 141.334 55.8132 0.0841502 10.1446
168600 60.4159 141.347 55.8132 0.0842502 10.1735
168800 60.4159 141.36 55.8132 0.0843502 10.1874
169000 60.4159 141.373 55.8132 0.0844502 10.1759
169200 60.4159 141.386 55.8132 0.0845502 10.2025
169400 60.4159 141.399 55.8132 0.0846502 10.2101
169600 60.4159 141.412 55.8132 0.0847502 10.2343
169800 60.4159 141.425 55.8132 0.0848502 10.2446
170000 60.4159 141.438 55.8132 0.0849502 10.2614
170200 60.4159 141.451 55.8132 0.0850502 10.2564
170400 60.4159 141.464 55.8132 0.0851502 10.2789
170600 60.4159 141.477 55.8132 0.0852502 10.303
170800 60.4159 141.49 55.8132 0.0853502 10.3041
171000 60.4159 141.503 55.8132 0.0854502 10.3314
171200 60.4159 141.516 55.8132 0.0855502 10.3172
171400 60.4159 141.529 55.8132 0.0856502 10.3623
171600 60.4159 141.542 55.8132 0.0857502 10.3475
171800 60.4159 141.555 55.8132 0.0858502 10.3829
172000 60.4159 141.568 55.8132 0.0859502 10.3805
172200 60.4159 141.581 55.8132 0.0860502 10.4091
172400 60.4159 141.594 55.8132 0.0861502 10.4135
172600 60.4159 141.607 55.8132 0.0862502 10.4362
172800 60.4159 141.62 55.8132 0.0863502 10.4474
173000 60.4159 141.633 55.8132 0.0864502 10.4577
173200 60.4159 141.646 55.8132 0.0865502 10.4667
173400 60.4159 141.659 55.8132 0.0866502 10.4861
173600 60.4159 141.672 55.8132 0.0867502 10.4993
173800 60.4159 141.685 55.8132 0.0868502 10.5168
174000 60.4159 141.699 55.8132 0.0869502 10.5244
174200 60.4159 141.712 55.8132 0.0870502 10.5339
174400 60.4159 141.725 55.8132 0.0871502 10.5564
174600 60.4159 141.738 55.8132 0.0872502 10.5511
174800 60.4159 141.751 55.8132 0.0873502 10.5878
175000 60.4159 141.764 55.8132 0.0874502 10.5756
175200 60.4159 141.777 55.8132 0.0875502 10.6043
175400 60.4159 141.79 55.8132 0.0876502 10.6261
175600 60.4159 141.803 55.8132 0.0877502 10.6306
175800 60.4159 141.816 55.8132 0.0878502 10.6428
176000 60.4159 141.829 55.8132 0.0879502 10.6485
176200 60.4159 141.842 55.8132 0.0880502 10.6837
176400 60.4159 141.855 55.8132 0.0881502 10.6586
176600 60.4159 141.868 55.8132 0.0882502 10.7096
176800 60.4159 141.881 55.8132 0.0883502 10.7148
177000 60.4159 141.894 55.8132 0.0884502 10.7112
177200 60.4159 141.907 55.8132 0.0885502 10.7504
177400 60.4159 141.92 55.8132 0.0886502 10.7444
177600 60.4159 141.933 55.8132 0.0887502 10.7648
177800 60.4159 141.946 55.8132 0.0888502 10.7803
178000 60.4159 141.959 55.8132 0.0889502 10.7756
178200 60.4159 141.972 55.8132 0.0890502 10.8037
178400 60.4159 141.985 55.8132 0.0891502 10.8264
178600 60.4159 141.998 55.8132 0.0892502 10.8326
178800 60.4159 142.011 55.8132 0.0893502 10.8378
179000 60.4159 142.024 55.8132 0.0894502 10.8635
179200 60.4159 142.037 55.8132 0.0895502 10.8709
179400 60.4159 142.051 55.8132 0.0896502 10.8873
179600 60.4159 142.064 55.8132 0.0897502 10.8882
179800 60.4159 142.077 55.8132 0.0898502 10.9088
180000 60.4159 142.09 55.8132 0.0899502 10.927
180200 60.4159 142.103 55.8132 0.0900502 10.9275
180400 60.4159 142.116 55.8132 0.0901502 10.9449
180600 60.4159 142.129 55.8132 0.0902502 10.9537
180800 60.4159 142.142 55.8132 0.0903502 10.9757
181000 60.4159 142.155 55.8132 0.0904502 10.996
181200 60.4159 142.168 55.8132 0.0905502 11.0075
181400 60.4159 142.181 55.8132 0.0906502 11.015
181600 60.4159 142.194 55.8132 0.0907502 11.0313
181800 60.4159 142.207 55.8132 0.0908502 11.0355
182000 60.4159 142.22 55.8132 0.0909502 11.055
182200 60.4159 142.233 55.8132 0.0910502 11.0758
182400 60.4159 142.246 55.8132 0.0911502 11.0855
182600 60.4159 142.259 55.8132 0.0912502 11.0955
182800 60.4159 142.272 55.8132 0.0913502 11.1259
183000 60.4159 142.285 55.8132 0.0914502 11.1059
183200 60.4159 142.298 55.8132 0.0915502 11.1435
183400 60.4159 142.311 55.8132 0.0916502 11.1492
183600 60.4159 142.324 55.8132 0.0917502 11.1594
183800 60.4159 142.337 55.8132 0.0918502 11.192
184000 60.4159 142.35 55.8132 0.0919502 11.1952
184200 60.4159 142.363 55.8132 0.0920502 11.2045
184400 60.4159 142.376 55.8132 0.0921502 11.229
184600 60.4159 142.389 55.8132 0.0922502 11.2207
184800 60.4159 142.402 55.8132 0.0923502 11.2618
185000 60.4159 142.416 55.8132 0.0924502 11.2553
185200 60.4159 142.429 55.8132 0.0925502 11.2929
185400 60.4159 142.442 55.8132 0.0926502 11.2847
185600 60.4159 142.455 55.8132 0.0927502 11.302
185800 60.4159 142.468 55.8132 0.0928502 11.326
186000 60.4159 142.481 55.8132 0.0929502 11.3281
186200 60.4159 142.494 55.8132 0.0930502 11.3389
186400 60.4159 142.507 55.8132 0.0931502 11.3557
186600 60.4159 142.52 55.8132 0.0932502 11.3739
186800 60.4159 142.533 55.8132 0.0933502 11.3724
187000 60.4159 142.546 55.8132 0.0934502 11.3602
187200 60.4159 142.559 55.8132 0.0935502 11.3577
187400 60.4159 142.572 55.8132 0.0936502 11.355
187600 60.4159 142.585 55.8132 0.0937502 11.3778
187800 60.4159 142.598 55.8132 0.0938502 11.3878
188000 60.4159 142.611 55.8132 0.0939502 11.4078
188200 60.4159 142.624 55.8132 0.0940502 11.4052
188400 60.4159 142.637 55.8132 0.0941502 11.4316
188600 60.4159 142.65 55.8132 0.0942502 11.4371
188800 60.4159 142.663 55.8132 0.0943502 11.4643
189000 60.4159 142.676 55.8132 0.0944502 11.4646
189200 60.4159 142.689 55.8132 0.0945502 11.4934
189400 60.4159 142.702 55.8132 0.0946502 11.5037
189600 60.4159 142.715 55.8132 0.0947502 11.5075
189800 60.4159 142.728 55.8132 0.0948502 11.5312
190000 60.4159 142.741 55.8132 0.0949502 11.5421
190200 60.4159 142.754 55.8132 0.0950502 11.5235
190400 60.4159 142.768 55.8132 0.0951502 11.5501
190600 60.4159 142.781 55.8132 0.0952502 11.5571
190800 60.4159 142.794 55.8132 0.0953502 11.5791
191000 60.4159 142.807 55.8132 0.0954502 11.5752
191200 60.4159 142.82 55.8132 0.0955502 11.6062
191400 60.4159 142.833 55.8132 0.0956502 11.6119
191600 60.4159 142.846 55.8132 0.0957502 11.6153
191800 60.4159 142.859 55.8132 0.0958502 11.6303
192000 60.4159 142.872 55.8132 0.0959502 11.6233
192200 60.4159 142.885 55.8132 0.0960502 11.634
192400 60.4159 142.898 55.8132 0.0961502 11.6529
192600 60.4159 142.911 55.8132 0.0962502 11.6713
192800 60.4159 142.924 55.8132 0.0963502 11.6839
193000 60.4159 142.937 55.8132 0.0964502 11.6824
193200 60.4159 142.95 55.8132 0.0965502 11.7267
193400 60.4159 142.963 55.8132 0.0966502 11.7152
193600 60.4159 142.976 55.8132 0.0967502 11.7341
193800 60.4159 142.989 55.8132 0.0968502 11.7461
194000 60.4159 143.002 55.8132 0.0969502 11.7463
194200 60.4159 143.015 55.8132 0.0970502 11.7644
194400 60.4159 143.028 55.8132 0.0971502 11.7861
194600 60.4159 143.041 55.8132 0.0972502 11.7987
194800 60.4159 143.054 55.8132 0.0973502 11.7997
195000 60.4159 143.067 55.8132 0.0974502 11.8219
195200 60.4159 143.08 55.8132 0.0975502 11.8403
195400 60.4159 143.093 55.8132 0.0976502 11.8433
195600 60.4159 143.106 55.8132 0.0977502 11.8599
195800 60.4159 143.119 55.8132 0.0978502 11.8756
196000 60.4159 143.133 55.8132 0.0979502 11.8613
196200 60.4159 143.146 55.8132 0.0980502 11.8892
196400 60.4159 143.159 55.8132 0.0981502 11.8932
196600 60.4159 143.172 55.8132 0.0982502 11.9218
196800 60.4159 143.185 55.8132 0.0983502 11.9095
197000 60.4159 143.198 55.8132 0.0984502 11.9367
197200 60.4159 143.211 55.8132 0.0985502 11.9513
197400 60.4159 143.224 55.8132 0.0986502 11.9647
197600 60.4159 143.237 55.8132 0.0987502 11.9853
197800 60.4159 143.25 55.8132 0.0988502 11.9979
198000 60.4159 143.263 55.8132 0.0989502 12.0084
198200 60.4159 143.276 55.8132 0.0990502 12.0114
198400 60.4159 143.289 55.8132 0.0991502 12.0202
198600 60.4159 143.302 55.8132 0.0992502 12.0421
198800 60.4159 143.315 55.8132 0.0993502 12.0502
199000 60.4159 143.328 55.8132 0.0994502 12.0493
199200 60.4159 143.341 55.8132 0.0995502 12.0883
199400 60.4159 143.354 55.8132 0.0996502 12.0922
199600 60.4159 143.367 55.8132 0.0997502 12.0938
199800 60.4159 143.38 55.8132 0.0998502 12.1222
200000 60.4159 143.393 55.8132 0.0999502 12.1297
200200 60.4159 143.406 55.8132 0.10005 12.1398
200400 60.4159 143.419 55.8132 0.10015 12.151
200600 60.4159 143.432 55.8132 0.10025 12.1759
200800 60.4159 143.445 55.8132 0.10035 12.1725
201000 60.4159 143.458 55.8132 0.10045 12.2153
201200 60.4159 143.471 55.8132 0.10055 12.2045
201400 60.4159 143.485 55.8132 0.10065 12.229
201600 60.4159 143.498 55.8132 0.10075 12.2418
201800 60.4159 143.511 55.8132 0.10085 12.259
202000 60.4159 143.524 55.8132 0.10095 12.2586
202200 60.4159 143.537 55.8132 0.10105 12.2736
202400 60.4159 143.55 55.8132 0.10115 12.3114
202600 60.4159 143.563 55.8132 0.10125 12.2949
202800 60.4159 143.576 55.8132 0.10135 12.338
203000 60.4159 143.589 55.8132 0.10145 12.3261
203200 60.4159 143.602 55.8132 0.10155 12.3443
203400 60.4159 143.615 55.8132 0.10165 12.371
203600 60.4159 143.628 55.8132 0.10175 12.3734
203800 60.4159 143.641 55.8132 0.10185 12.3931
204000 60.4159 143.654 55.8132 0.10195 12.4054
204200 60.4159 143.667 55.8132 0.10205 12.3969
204400 60.4159 143.68 55.8132 0.10215 12.4116
204600 60.4159 143.693 55.8132 0.10225 12.4405
204800 60.4159 143.706 55.8132 0.10235 12.4336
205000 60.4159 143.719 55.8132 0.10245 12.4706
205200 60.4159 143.732 55.8132 0.10255 12.4669
205400 60.4159 143.745 55.8132 0.10265 12.4735
205600 60.4159 143.758 55.8132 0.10275 12.4981
205800 60.4159 143.771 55.8132 0.10285 12.5156
206000 60.4159 143.784 55.8132 0.10295 12.5132
206200 60.4159 143.797 55.8132 0.10305 12.5376
206400 60.4159 143.81 55.8132 0.10315 12.5417
206600 60.4159 143.823 55.8132 0.10325 12.5678
206800 60.4159 143.836 55.8132 0.10335 12.5747
207000 60.4159 143.85 55.8132 0.10345 12.5887
207200 60.4159 143.863 55.8132 0.10355 12.6071
207400 60.4159 143.876 55.8132 0.10365 12.614
207600 60.4159 143.889 55.8132 0.10375 12.6396
207800 60.4159 143.902 55.8132 0.10385 12.6574
208000 60.4159 143.915 55.8132 0.10395 12.6556
208200 60.4159 143.928 55.8132 0.10405 12.6621
208400 60.4159 143.941 55.8132 0.10415 12.6981
208600 60.4159 143.954 55.8132 0.10425 12.7189
208800 60.4159 143.967 55.8132 0.10435 12.6911
209000 60.4159 143.98 55.8132 0.10445 12.7453
209200 60.4159 143.993 55.8132 0.10455 12.7443
209400 60.4159 144.006 55.8132 0.10465 12.7775
209600 60.4159 144.019 55.8132 0.10475 12.7724
209800 60.4159 144.032 55.8132 0.10485 12.7941
210000 60.4159 144.045 55.8132 0.10495 12.7971
210200 60.4159 144.058 55.8132 0.10505 12.8262
210400 60.4159 144.071 55.8132 0.10515 12.8348
210600 60.4159 144.084 55.8132 0.10525 12.839
210800 60.4159 144.097 55.8132 0.10535 12.8581
211000 60.4159 144.11 55.8132 0.10545 12.8769
211200 60.4159 144.123 55.8132 0.10555 12.8965
211400 60.4159 144.136 55.8132 0.10565 12.8916
211600 60.4159 144.149 55.8132 0.10575 12.9122
211800 60.4159 144.162 55.8132 0.10585 12.9161
212000 60.4159 144.175 55.8132 0.10595 12.9017
212200 60.4159 144.188 55.8132 0.10605 12.9221
212400 60.4159 144.202 55.8132 0.10615 12.9309
212600 60.4159 144.215 55.8132 0.10625 12.9466
212800 60.4159 144.228 55.8132 0.10635 12.9681
213000 60.4159 144.241 55.8132 0.10645 12.9649
213200 60.4159 144.254 55.8132 0.10655 12.9948
213400 60.4159 144.267 55.8132 0.10665 13.0077
213600 60.4159 144.28 55.8132 0.10675 13.0104
213800 60.4159 144.293 55.8132 0.10685 13.0294
214000 60.4159 144.306 55.8132 0.10695 13.0357
214200 60.4159 144.319 55.8132 0.10705 13.0638
214400 60.4159 144.332 55.8132 0.10715 13.0727
214600 60.4159 144.345 55.8132 0.10725 13.0819
214800 60.4159 144.358 55.8132 0.10735 13.093
215000 60.4159 144.371 55.8132 0.10745 13.1065
215200 60.4159 144.384 55.8132 0.10755 13.1363
215400 60.4159 144.397 55.8132 0.10765 13.1256
215600 60.4159 144.41 55.8132 0.10775 13.154
215800 60.4159 144.423 55.8132 0.10785 13.1722
216000 60.4159 144.436 55.8132 0.10795 13.1742
216200 60.4159 144.449 55.8132 0.10805 13.2168
216400 60.4159 144.462 55.8132 0.10815 13.2077
216600 60.4159 144.475 55.8132 0.10825 13.2153
216800 60.4159 144.488 55.8132 0.10835 13.2576
217000 60.4159 144.501 55.8132 0.10845 13.2375
217200 60.4159 144.514 55.8132 0.10855 13.2604
217400 60.4159 144.527 55.8132 0.10865 13.2957
217600 60.4159 144.54 55.8132 0.10875 13.2891
217800 60.4159 144.553 55.8132 0.10885 13.3157
218000 60.4159 144.567 55.8132 0.10895 13.2913
218200 60.4159 144.58 55.8132 0.10905 13.3128
218400 60.4159 144.593 55.8132 0.10915 13.3188
218600 60.4159 144.606 55.8132 0.10925 13.348
218800 60.4159 144.619 55.8132 0.10935 13.3292
219000 60.4159 144.632 55.8132 0.10945 13.3572
219200 60.4159 144.645 55.8132 0.10955 13.3439
219400 60.4159 144.658 55.8132 0.10965 13.346
219600 60.4159 144.671 55.8132 0.10975 13.3773
219800 60.4159 144.684 55.8132 0.10985 13.3925
220000 60.4159 144.697 55.8132 0.10995 13.3911
220200 60.4159 144.71 55.8132 0.11005 13.4032
220400 60.4159 144.723 55.8132 0.11015 13.4256
220600 60.4159 144.736 55.8132 0.11025 13.4413
220800 60.4159 144.749 55.8132 0.11035 13.4568
221000 60.4159 144.762 55.8132 0.11045 13.465
221200 60.4159 144.775 55.8132 0.11055 13.4834
221400 60.4159 144.788 55.8132 0.11065 13.4924
221600 60.4159 144.801 55.8132 0.11075 13.5232
221800 60.4159 144.814 55.8132 0.11085 13.5141
222000 60.4159 144.827 55.8132 0.11095 13.537
222200 60.4159 144.84 55.8132 0.11105 13.5261
222400 60.4159 144.853 55.8132 0.11115 13.5385
222600 60.4159 144.866 55.8132 0.11125 13.5424
222800 60.4159 144.879 55.8132 0.11135 13.5751
223000 60.4159 144.892 55.8132 0.11145 13.5865
223200 60.4159 144.905 55.8132 0.11155 13.599
223400 60.4159 144.919 55.8132 0.11165 13.5937
223600 60.4159 144.932 55.8132 0.11175 13.6354
223800 60.4159 144.945 55.8132 0.11185 13.6354
224000 60.4159 144.958 55.8132 0.11195 13.6506
224200 60.4159 144.971 55.8132 0.11205 13.6764
224400 60.4159 144.984 55.8132 0.11215 13.6633
224600 60.4159 144.997 55.8132 0.11225 13.6966
224800 60.4159 145.01 55.8132 0.11235 13.7046
225000 60.4159 145.023 55.8132 0.11245 13.7187
225200 60.4159 145.036 55.8132 0.11255 13.7254
225400 60.4159 145.049 55.8132 0.11265 13.7542
225600 60.4159 145.062 55.8132 0.11275 13.7547
225800 60.4159 145.075 55.8132 0.11285 13.7568
226000 60.4159 145.088 55.8132 0.11295 13.7825
226200 60.4159 145.101 55.8132 0.11305 13.7967
226400 60.4159 145.114 55.8132 0.11315 13.801
226600 60.4159 145.127 55.8132 0.11325 13.8185
226800 60.4159 145.14 55.8132 0.11335 13.8183
227000 60.4159 145.153 55.8132 0.11345 13.8254
227200 60.4159 145.166 55.8132 0.11355 13.8388
227400 60.4159 145.179 55.8132 0.11365 13.8629
227600 60.4159 145.192 55.8132 0.11375 13.8693
227800 60.4159 145.205 55.8132 0.11385 13.8936
228000 60.4159 145.218 55.8132 0.11395 13.8836
228200 60.4159 145.231 55.8132 0.11405 13.9293
228400 60.4159 145.244 55.8132 0.11415 13.9117
228600 60.4159 145.257 55.8132 0.11425 13.9392
228800 60.4159 145.27 55.8132 0.11435 13.9552
229000 60.4159 145.284 55.8132 0.11445 13.9596
229200 60.4159 145.297 55.8132 0.11455 13.9577
229400 60.4159 145.31 55.8132 0.11465 13.9865
229600 60.4159 145.323 55.8132 0.11475 13.9814
229800 60.4159 145.336 55.8132 0.11485 14.008
230000 60.4159 145.349 55.8132 0.11495 14.0227
230200 60.4159 145.362 55.8132 0.11505 14.0306
230400 60.4159 145.375 55.8132 0.11515 14.047
230600 60.4159 145.388 55.8132 0.11525 14.0534
230800 60.4159 145.401 55.8132 0.11535 14.0739
231000 60.4159 145.414 55.8132 0.11545 14.0634
231200 60.4159 145.427 55.8132 0.11555 14.0683
231400 60.4159 145.44 55.8132 0.11565 14.0738
231600 60.4159 145.453 55.8132 0.11575 14.0846
231800 60.4159 145.466 55.8132 0.11585 14.0868
232000 60.4159 145.479 55.8132 0.11595 14.1236
232200 60.4159 145.492 55.8132 0.11605 14.127
232400 60.4159 145.505 55.8132 0.11615 14.1297
232600 60.4159 145.518 55.8132 0.11625 14.1515
232800 60.4159 145.531 55.8132 0.11635 14.172
233000 60.4159 145.544 55.8132 0.11645 14.1776
233200 60.4159 145.557 55.8132 0.11655 14.2006
233400 60.4159 145.57 55.8132 0.11665 14.207
233600 60.4159 145.583 55.8132 0.11675 14.2221
233800 60.4159 145.596 55.8132 0.11685 14.2408
234000 60.4159 145.609 55.8132 0.11695 14.2453
234200 60.4159 145.622 55.8132 0.11705 14.259
234400 60.4159 145.636 55.8132 0.11715 14.276
234600 60.4159 145.649 55.8132 0.11725 14.288
234800 60.4159 145.662 55.8132 0.11735 14.3012
235000 60.4159 145.675 55.8132 0.11745 14.2995
235200 60.4159 145.688 55.8132 0.11755 14.3155
235400 60.4159 145.701 55.8132 0.11765 14.3251
235600 60.4159 145.714 55.8132 0.11775 14.3496
235800 60.4159 145.727 55.8132 0.11785 14.3515
236000 60.4159 145.74 55.8132 0.11795 14.3751
236200 60.4159 145.753 55.8132 0.11805 14.3827
236400 60.4159 145.766 55.8132 0.11815 14.4025
236600 60.4159 145.779 55.8132 0.11825 14.4069
236800 60.4159 145.792 55.8132 0.11835 14.4166
237000 60.4159 145.805 55.8132 0.11845 14.4411
237200 60.4159 145.818 55.8132 0.11855 14.4539
237400 60.4159 145.831 55.8132 0.11865 14.4576
237600 60.4159 145.844 55.8132 0.11875 14.4751
237800 60.4159 145.857 55.8132 0.11885 14.5022
238000 60.4159 145.87 55.8132 0.11895 14.4913
238200 60.4159 145.883 55.8132 0.11905 14.5313
238400 60.4159 145.896 55.8132 0.11915 14.5376
238600 60.4159 145.909 55.8132 0.11925 14.5437
238800 60.4159 145.922 55.8132 0.11935 14.5636
239000 60.4159 145.935 55.8132 0.11945 14.5718
239200 60.4159 145.948 55.8132 0.11955 14.5859
239400 60.4159 145.961 55.8132 0.11965 14.6055
239600 60.4159 145.974 55.8132 0.11975 14.6129
239800 60.4159 145.987 55.8132 0.11985 14.6318
240000 60.4159 146.001 55.8132 0.11995 14.6018
240200 60.4159 146.014 55.8132 0.12005 14.6387
240400 60.4159 146.027 55.8132 0.12015 14.6334
240600 60.4159 146.04 55.8132 0.12025 14.6345
240800 60.4159 146.053 55.8132 0.12035 14.639
241000 60.4159 146.066 55.8132 0.12045 14.652
241200 60.4159 146.079 55.8132 0.12055 14.6472
241400 60.4159 146.092 55.8132 0.12065 14.6777
241600 60.4159 146.105 55.8132 0.12075 14.6866
241800 60.4159 146.118 55.8132 0.12085 14.6827
242000 60.4159 146.131 55.8132 0.12095 14.6823
242200 60.4159 146.144 55.8132 0.12105 14.7223
242400 60.4159 146.157 55.8132 0.12115 14.7202
242600 60.4159 146.17 55.8132 0.12125 14.7292
242800 60.4159 146.183 55.8132 0.12135 14.7527
243000 60.4159 146.196 55.8132 0.12145 14.7395
243200 60.4159 146.209 55.8132 0.12155 14.7478
243400 60.4159 146.222 55.8132 0.12165 14.7672
243600 60.4159 146.235 55.8132 0.12175 14.7685
243800 60.4159 146.248 55.8132 0.12185 14.7746
244000 60.4159 146.261 55.8132 0.12195 14.8126
244200 60.4159 146.274 55.8132 0.12205 14.7941
244400 60.4159 146.287 55.8132 0.12215 14.8288
244600 60.4159 146.3 55.8132 0.12225 14.8538
244800 60.4159 146.313 55.8132 0.12235 14.8262
245000 60.4159 146.326 55.8132 0.12245 14.8594
245200 60.4159 146.339 55.8132 0.12255 14.8888
245400 60.4159 146.353 55.8132 0.12265 14.8939
245600 60.4159 146.366 55.8132 0.12275 14.9
245800 60.4159 146.379 55.8132 0.12285 14.9307
246000 60.4159 146.392 55.8132 0.12295 14.9234
246200 60.4159 146.405 55.8132 0.12305 14.9564
246400 60.4159 146.418 55.8132 0.12315 14.9682
246600 60.4159 146.431 55.8132 0.12325 14.9721
246800 60.4159 146.444 55.8132 0.12335 14.9823
247000 60.4159 146.457 55.8132 0.12345 15.0138
247200 60.4159 146.47 55.8132 0.12355 14.9941
247400 60.4159 146.483 55.8132 0.12365 15.0086
247600 60.4159 146.496 55.8132 0.12375 15.0266
247800 60.4159 146.509 55.8132 0.12385 15.0236
248000 60.4159 146.522 55.8132 0.12395 15.0402
248200 60.4159 146.535 55.8132 0.12405 15.0667
248400 60.4159 146.548 55.8132 0.12415 15.071
248600 60.4159 146.561 55.8132 0.12425 15.0766
248800 60.4159 146.574 55.8132 0.12435 15.1094
249000 60.4159 146.587 55.8132 0.12445 15.1203
249200 60.4159 146.6 55.8132 0.12455 15.1229
249400 60.4159 146.613 55.8132 0.12465 15.1316
249600 60.4159 146.626 55.8132 0.12475 15.1755
249800 60.4159 146.639 55.8132 0.12485 15.1667
250000 60.4159 146.652 55.8132 0.12495 15.1849
250200 60.4159 146.665 55.8132 0.12505 15.2094
250400 60.4159 146.678 55.8132 0.12515 15.1938
250600 60.4159 146.691 55.8132 0.12525 15.2304
250800 60.4159 146.704 55.8132 0.12535 15.2378
251000 60.4159 146.718 55.8132 0.12545 15.2546
251200 60.4159 146.731 55.8132 0.12555 15.2668
251400 60.4159 146.744 55.8132 0.12565 15.2905
251600 60.4159 146.757 55.8132 0.12575 15.2816
251800 60.4159 146.77 55.8132 0.12585 15.3141
252000 60.4159 146.783 55.8132 0.12595 15.3092
252200 60.4159 146.796 55.8132 0.12605 15.2961
252400 60.4159 146.809 55.8132 0.12615 15.3098
252600 60.4159 146.822 55.8132 0.12625 15.3123
252800 60.4159 146.835 55.8132 0.12635 15.3244
253000 60.4159 146.848 55.8132 0.12645 15.2923
253200 60.4159 146.861 55.8132 0.12655 15.3188
253400 60.4159 146.874 55.8132 0.12665 15.314
253600 60.4159 146.887 55.8132 0.12675 15.3474
253800 60.4159 146.9 55.8132 0.12685 15.345
254000 60.4159 146.913 55.8132 0.12695 15.3251
254200 60.4159 146.926 55.8132 0.12705 15.3104
254400 60.4159 146.939 55.8132 0.12715 15.3185
254600 60.4159 146.952 55.8132 0.12725 15.3249
254800 60.4159 146.965 55.8132 0.12735 15.3427
255000 60.4159 146.978 55.8132 0.12745 15.3503
255200 60.4159 146.991 55.8132 0.12755 15.323
255400 60.4159 147.004 55.8132 0.12765 15.3227
255600 60.4159 147.017 55.8132 0.12775 15.3244
255800 60.4159 147.03 55.8132 0.12785 15.3463
256000 60.4159 147.043 55.8132 0.12795 15.3418
256200 60.4159 147.056 55.8132 0.12805 15.3789
256400 60.4159 147.07 55.8132 0.12815 15.3715
256600 60.4159 147.083 55.8132 0.12825 15.4042
256800 60.4159 147.096 55.8132 0.12835 15.4021
257000 60.4159 147.109 55.8132 0.12845 15.4072
257200 60.4159 147.122 55.8132 0.12855 15.4283
257400 60.4159 147.135 55.8132 0.12865 15.4506
257600 60.4159 147.148 55.8132 0.12875 15.4464
257800 60.4159 147.161 55.8132 0.12885 15.4632
258000 60.4159 147.174 55.8132 0.12895 15.4966
258200 60.4159 147.187 55.8132 0.12905 15.499
258400 60.4159 147.2 55.8132 0.12915 15.5127
258600 60.4159 147.213 55.8132 0.12925 15.5184
258800 60.4159 147.226 55.8132 0.12935 15.5432
259000 60.4159 147.239 55.8132 0.12945 15.5458
259200 60.4159 147.252 55.8132 0.12955 15.5642
259400 60.4159 147.265 55.8132 0.12965 15.5736
259600 60.4159 147.278 55.8132 0.12975 15.5888
259800 60.4159 147.291 55.8132 0.12985 15.5693
260000 60.4159 147.304 55.8132 0.12995 15.6109
260200 60.4159 147.317 55.8132 0.13005 15.6205
260400 60.4159 147.33 55.8132 0.13015 15.6241
260600 60.4159 147.343 55.8132 0.13025 15.6492
260800 60.4159 147.356 55.8132 0.13035 15.6455
261000 60.4159 147.369 55.8132 0.13045 15.6722
261200 60.4159 147.382 55.8132 0.13055 15.6858
261400 60.4159 147.395 55.8132 0.13065 15.7034
261600 60.4159 147.408 55.8132 0.13075 15.7083
261800 60.4159 147.421 55.8132 0.13085 15.7262
262000 60.4159 147.435 55.8132 0.13095 15.7335
262200 60.4159 147.448 55.8132 0.13105 15.7476
262400 60.4159 147.461 55.8132 0.13115 15.7671
262600 60.4159 147.474 55.8132 0.13125 15.7669
262800 60.4159 147.487 55.8132 0.13135 15.7777
263000 60.4159 147.5 55.8132 0.13145 15.7822
263200 60.4159 147.513 55.8132 0.13155 15.805
263400 60.4159 147.526 55.8132 0.13165 15.806
263600 60.4159 147.539 55.8132 0.13175 15.8312
263800 60.4159 147.552 55.8132 0.13185 15.8282
264000 60.4159 147.565 55.8132 0.13195 15.8098
264200 60.4159 147.578 55.8132 0.13205 15.8468
264400 60.4159 147.591 55.8132 0.13215 15.853
264600 60.4159 147.604 55.8132 0.13225 15.8592
264800 60.4159 147.617 55.8132 0.13235 15.8719
265000 60.4159 147.63 55.8132 0.13245 15.8758
265200 60.4159 147.643 55.8132 0.13255 15.8845
265400 60.4159 147.656 55.8132 0.13265 15.89
265600 60.4159 147.669 55.8132 0.13275 15.91
265800 60.4159 147.682 55.8132 0.13285 15.918
266000 60.4159 147.695 55.8132 0.13295 15.9353
266200 60.4159 147.708 55.8132 0.13305 15.9342
266400 60.4159 147.721 55.8132 0.13315 15.9231
266600 60.4159 147.734 55.8132 0.13325 15.9347
266800 60.4159 147.747 55.8132 0.13335 15.9264
267000 60.4159 147.76 55.8132 0.13345 15.9532
267200 60.4159 147.773 55.8132 0.13355 15.9674
267400 60.4159 147.787 55.8132 0.13365 15.9619
267600 60.4159 147.8 55.8132 0.13375 15.9842
267800 60.4159 147.813 55.8132 0.13385 15.9833
268000 60.4159 147.826 55.8132 0.13395 15.9908
268200 60.4159 147.839 55.8132 0.13405 15.9793
268400 60.4159 147.852 55.8132 0.13415 15.996
268600 60.4159 147.865 55.8132 0.13425 15.9962
268800 60.4159 147.878 55.8132 0.13435 16.0209
269000 60.4159 147.891 55.8132 0.13445 15.9844
269200 60.4159 147.904 55.8132 0.13455 15.9927
269400 60.4159 147.917 55.8132 0.13465 16.0276
269600 60.4159 147.93 55.8132 0.13475 16.0235
269800 60.4159 147.943 55.8132 0.13485 16.0154
270000 60.4159 147.956 55.8132 0.13495 16.01
270200 60.4159 147.969 55.8132 0.13505 16.0053
270400 60.4159 147.982 55.8132 0.13515 15.9958
270600 60.4159 147.995 55.8132 0.13525 16.015
270800 60.4159 148.008 55.8132 0.13535 15.9956
271000 60.4159 148.021 55.8132 0.13545 16.0033
271200 60.4159 148.034 55.8132 0.13555 16.0134
271400 60.4159 148.047 55.8132 0.13565 16.0251
271600 60.4159 148.06 55.8132 0.13575 16.0123
271800 60.4159 148.073 55.8132 0.13585 16.001
272000 60.4159 148.086 55.8132 0.13595 16.0168
272200 60.4159 148.099 55.8132 0.13605 16.0244
272400 60.4159 148.112 55.8132 0.13615 16.0549
272600 60.4159 148.125 55.8132 0.13625 16.0571
272800 60.4159 148.138 55.8132 0.13635 16.0639
273000 60.4159 148.152 55.8132 0.13645 16.084
273200 60.4159 148.165 55.8132 0.13655 16.0848
273400 60.4159 148.178 55.8132 0.13665 16.1232
273600 60.4159 148.191 55.8132 0.13675 16.1122
273800 60.4159 148.204 55.8132 0.13685 16.1386
274000 60.4159 148.217 55.8132 0.13695 16.1472
274200 60.4159 148.23 55.8132 0.13705 16.15
274400 60.4159 148.243 55.8132 0.13715 16.1805
274600 60.4159 148.256 55.8132 0.13725 16.1777
274800 60.4159 148.269 55.8132 0.13735 16.1761
275000 60.4159 148.282 55.8132 0.13745 16.2116
275200 60.4159 148.295 55.8132 0.13755 16.2
275400 60.4159 148.308 55.8132 0.13765 16.2069
275600 60.4159 148.321 55.8132 0.13775 16.2349
275800 60.4159 148.334 55.8132 0.13785 16.2284
276000 60.4159 148.347 55.8132 0.13795 16.2706
276200 60.4159 148.36 55.8132 0.13805 16.24
276400 60.4159 148.373 55.8132 0.13815 16.2805
276600 60.4159 148.386 55.8132 0.13825 16.2692
276800 60.4159 148.399 55.8132 0.13835 16.2956
277000 60.4159 148.412 55.8132 0.13845 16.3029
277200 60.4159 148.425 55.8132 0.13855 16.2995
277400 60.4159 148.438 55.8132 0.13865 16.298
277600 60.4159 148.451 55.8132 0.13875 16.3194
277800 60.4159 148.464 55.8132 0.13885 16.3301
278000 60.4159 148.477 55.8132 0.13895 16.3379
278200 60.4159 148.49 55.8132 0.13905 16.3677
278400 60.4159 148.503 55.8132 0.13915 16.3564
278600 60.4159 148.517 55.8132 0.13925 16.3868
278800 60.4159 148.53 55.8132 0.13935 16.363
279000 60.4159 148.543 55.8132 0.13945 16.35
279200 60.4159 148.556 55.8132 0.13955 16.3491
279400 60.4159 148.569 55.8132 0.13965 16.3589
279600 60.4159 148.582 55.8132 0.13975 16.3816
279800 60.4159 148.595 55.8132 0.13985 16.3956
280000 60.4159 148.608 55.8132 0.13995 16.3904
280200 60.4159 148.621 55.8132 0.14005 16.4045
280400 60.4159 148.634 55.8132 0.14015 16.4142
280600 60.4159 148.647 55.8132 0.14025 16.4067
280800 60.4159 148.66 55.8132 0.14035 16.4243
281000 60.4159 148.673 55.8132 0.14045 16.3951
281200 60.4159 148.686 55.8132 0.14055 16.4326
281400 60.4159 148.699 55.8132 0.14065 16.4101
281600 60.4159 148.712 55.8132 0.14075 16.4569
281800 60.4159 148.725 55.8132 0.14085 16.443
282000 60.4159 148.738 55.8132 0.14095 16.4723
282200 60.4159 148.751 55.8132 0.14105 16.4965
282400 60.4159 148.764 55.8132 0.14115 16.4797
282600 60.4159 148.777 55.8132 0.14125 16.5015
282800 60.4159 148.79 55.8132 0.14135 16.4806
283000 60.4159 148.803 55.8132 0.14145 16.4715
283200 60.4159 148.816 55.8132 0.14155 16.4762
283400 60.4159 148.829 55.8132 0.14165 16.4283
283600 60.4159 148.842 55.8132 0.14175 16.4345
283800 60.4159 148.855 55.8132 0.14185 16.3993
284000 60.4159 148.869 55.8132 0.14195 16.4231
284200 60.4159 148.882 55.8132 0.14205 16.4459
284400 60.4159 148.895 55.8132 0.14215 16.4508
284600 60.4159 148.908 55.8132 0.14225 16.4619
284800 60.4159 148.921 55.8132 0.14235 16.4771
285000 60.4159 148.934 55.8132 0.14245 16.4661
285200 60.4159 148.947 55.8132 0.14255 16.4967
285400 60.4159 148.96 55.8132 0.14265 16.4937
285600 60.4159 148.973 55.8132 0.14275 16.4852
285800 60.4159 148.986 55.8132 0.14285 16.4772
286000 60.4159 148.999 55.8132 0.14295 16.4851
286200 60.4159 149.012 55.8132 0.14305 16.5095
286400 60.4159 149.025 55.8132 0.14315 16.5072
286600 60.4159 149.038 55.8132 0.14325 16.5226
286800 60.4159 149.051 55.8132 0.14335 16.5539
287000 60.4159 149.064 55.8132 0.14345 16.5232
287200 60.4159 149.077 55.8132 0.14355 16.5522
287400 60.4159 149.09 55.8132 0.14365 16.5526
287600 60.4159 149.103 55.8132 0.14375 16.5577
287800 60.4159 149.116 55.8132 0.14385 16.5671
288000 60.4159 149.129 55.8132 0.14395 16.5827
288200 60.4159 149.142 55.8132 0.14405 16.5651
288400 60.4159 149.155 55.8132 0.14415 16.5618
288600 60.4159 149.168 55.8132 0.14425 16.5715
288800 60.4159 149.181 55.8132 0.14435 16.5775
289000 60.4159 149.194 55.8132 0.14445 16.6049
289200 60.4159 149.207 55.8132 0.14455 16.5961
289400 60.4159 149.22 55.8132 0.14465 16.5972
289600 60.4159 149.234 55.8132 0.14475 16.6288
289800 60.4159 149.247 55.8132 0.14485 16.6144
290000 60.4159 149.26 55.8132 0.14495 16.6047
290200 60.4159 149.273 55.8132 0.14505 16.6326
290400 60.4159 149.286 55.8132 0.14515 16.6115
290600 60.4159 149.299 55.8132 0.14525 16.6157
290800 60.4159 149.312 55.8132 0.14535 16.6321
291000 60.4159 149.325 55.8132 0.14545 16.6381
291200 60.4159 149.338 55.8132 0.14555 16.6515
291400 60.4159 149.351 55.8132 0.14565 16.6402
291600 60.4159 149.364 55.8132 0.14575 16.6787
291800 60.4159 149.377 55.8132 0.14585 16.6754
292000 60.4159 149.39 55.8132 0.14595 16.6804
292200 60.4159 149.403 55.8132 0.14605 16.7101
292400 60.4159 149.416 55.8132 0.14615 16.7032
292600 60.4159 149.429 55.8132 0.14625 16.7197
292800 60.4159 149.442 55.8132 0.14635 16.7402
293000 60.4159 149.455 55.8132 0.14645 16.7522
293200 60.4159 149.468 55.8132 0.14655 16.7554
293400 60.4159 149.481 55.8132 0.14665 16.7316
293600 60.4159 149.494 55.8132 0.14675 16.7378
293800 60.4159 149.507 55.8132 0.14685 16.7138
294000 60.4159 149.52 55.8132 0.14695 16.6842
294200 60.4159 149.533 55.8132 0.14705 16.6881
294400 60.4159 149.546 55.8132 0.14715 16.6824
294600 60.4159 149.559 55.8132 0.14725 16.6893
294800 60.4159 149.572 55.8132 0.14735 16.6976
295000 60.4159 149.586 55.8132 0.14745 16.6859
295200 60.4159 149.599 55.8132 0.14755 16.6921
295400 60.4159 149.612 55.8132 0.14765 16.7001
295600 60.4159 149.625 55.8132 0.14775 16.72
295800 60.4159 149.638 55.8132 0.14785 16.7218
296000 60.4159 149.651 55.8132 0.14795 16.7469
296200 60.4159 149.664 55.8132 0.14805 16.7082
296400 60.4159 149.677 55.8132 0.14815 16.6635
296600 60.4159 149.69 55.8132 0.14825 16.6466
296800 60.4159 149.703 55.8132 0.14835 16.6497
297000 60.4159 149.716 55.8132 0.14845 16.6426
297200 60.4159 149.729 55.8132 0.14855 16.6066
297400 60.4159 149.742 55.8132 0.14865 16.5923
297600 60.4159 149.755 55.8132 0.14875 16.5836
297800 60.4159 149.768 55.8132 0.14885 16.589
298000 60.4159 149.781 55.8132 0.14895 16.5469
298200 60.4159 149.794 55.8132 0.14905 16.5747
298400 60.4159 149.807 55.8132 0.14915 16.5695
298600 60.4159 149.82 55.8132 0.14925 16.5706
298800 60.4159 149.833 55.8132 0.14935 16.6092
299000 60.4159 149.846 55.8132 0.14945 16.5789
299200 60.4159 149.859 55.8132 0.14955 16.5768
299400 60.4159 149.872 55.8132 0.14965 16.5467
299600 60.4159 149.885 55.8132 0.14975 16.508
299800 60.4159 149.898 55.8132 0.14985 16.45
300000 60.4159 149.911 55.8132 0.14995 16.393
300200 60.4159 149.924 55.8132 0.15005 16.3364
300400 60.4159 149.937 55.8132 0.15015 16.3014
300600 60.4159 149.951 55.8132 0.15025 16.312
300800 60.4159 149.964 55.8132 0.15035 16.2985
301000 60.4159 149.977 55.8132 0.15045 16.2642
301200 60.4159 149.99 55.8132 0.15055 16.2277
301400 60.4159 150.003 55.8132 0.15065 16.2088
301600 60.4159 150.016 55.8132 0.15075 16.2114
301800 60.4159 150.029 55.8132 0.15085 16.2254
302000 60.4159 150.042 55.8132 0.15095 16.2168
302200 60.4159 150.055 55.8132 0.15105 16.2551
302400 60.4159 150.068 55.8132 0.15115 16.2472
302600 60.4159 150.081 55.8132 0.15125 16.2517
302800 60.4159 150.094 55.8132 0.15135 16.2902
303000 60.4159 150.107 55.8132 0.15145 16.2581
303200 60.4159 150.12 55.8132 0.15155 16.2657
303400 60.4159 150.133 55.8132 0.15165 16.244
303600 60.4159 150.146 55.8132 0.15175 16.2592
303800 60.4159 150.159 55.8132 0.15185 16.2377
304000 60.4159 150.172 55.8132 0.15195 16.2192
304200 60.4159 150.185 55.8132 0.15205 16.2329
304400 60.4159 150.198 55.8132 0.15215 16.2386
304600 60.4159 150.211 55.8132 0.15225 16.257
304800 60.4159 150.224 55.8132 0.15235 16.2713
305000 60.4159 150.237 55.8132 0.15245 16.2503
305200 60.4159 150.25 55.8132 0.15255 16.2511
305400 60.4159 150.263 55.8132 0.15265 16.2183
305600 60.4159 150.276 55.8132 0.15275 16.2619
305800 60.4159 150.289 55.8132 0.15285 16.2452
306000 60.4159 150.303 55.8132 0.15295 16.2448
306200 60.4159 150.316 55.8132 0.15305 16.2592
306400 60.4159 150.329 55.8132 0.15315 16.2702
306600 60.4159 150.342 55.8132 0.15325 16.2453
306800 60.4159 150.355 55.8132 0.15335 16.2577
307000 60.4159 150.368 55.8132 0.15345 16.245
307200 60.4159 150.381 55.8132 0.15355 16.1862
307400 60.4159 150.394 55.8132 0.15365 16.1572
307600 60.4159 150.407 55.8132 0.15375 16.1555
307800 60.4159 150.42 55.8132 0.15385 16.1195
308000 60.4159 150.433 55.8132 0.15395 16.1025
308200 60.4159 150.446 55.8132 0.15405 16.0894
308400 60.4159 150.459 55.8132 0.15415 16.0699
308600 60.4159 150.472 55.8132 0.15425 16.0065
308800 60.4159 150.485 55.8132 0.15435 15.9724
309000 60.4159 150.498 55.8132 0.15445 15.9026
309200 60.4159 150.511 55.8132 0.15455 15.867
309400 60.4159 150.524 55.8132 0.15465 15.7981
309600 60.4159 150.537 55.8132 0.15475 15.6621
309800 60.4159 150.55 55.8132 0.15485 15.5064
310000 60.4159 150.563 55.8132 0.15495 15.2541
310200 60.4159 150.576 55.8132 0.15505 15.0031
310400 60.4159 150.589 55.8132 0.15515 14.6652
310600 60.4159 150.602 55.8132 0.15525 14.1382
310800 60.4159 150.615 55.8132 0.15535 13.4612
311000 60.4159 150.628 55.8132 0.15545 12.2776
311200 60.4159 150.641 55.8132 0.15555 10.6876
311400 60.4159 150.654 55.8132 0.15565 8.68971
311600 60.4159 150.668 55.8132 0.15575 6.62067
311800 60.4159 150.681 55.8132 0.15585 4.62992
312000 60.4159 150.694 55.8132 0.15595 2.73891
312200 60.4159 150.707 55.8132 0.15605 1.15928
312400 60.4159 150.72 55.8132 0.15615 -0.121509
312600 60.4159 150.733 55.8132 0.15625 -1.16819
312800 60.4159 150.746 55.8132 0.15635 -2.11564
313000 60.4159 150.759 55.8132 0.15645 -2.81502
313200 60.4159 150.772 55.8132 0.15655 -3.16432
313400 60.4159 150.785 55.8132 0.15665 -3.28586
313600 60.4159 150.798 55.8132 0.15675 -3.24258
313800 60.4159 150.811 55.8132 0.15685 -2.98879
314000 60.4159 150.824 55.8132 0.15695 -2.58276
314200 60.4159 150.837 55.8132 0.15705 -2.08483
314400 60.4159 150.85 55.8132 0.15715 -1.48042
314600 60.4159 150.863 55.8132 0.15725 -0.686071
314800 60.4159 150.876 55.8132 0.15735 0.306689
315000 60.4159 150.889 55.8132 0.15745 1.49195
315200 60.4159 150.902 55.8132 0.15755 2.71341
315400 60.4159 150.915 55.8132 0.15765 3.73439
315600 60.4159 150.928 55.8132 0.15775 4.21216
315800 60.4159 150.941 55.8132 0.15785 4.04469
316000 60.4159 150.954 55.8132 0.15795 3.37824
316200 60.4159 150.967 55.8132 0.15805 2.3987
316400 60.4159 150.98 55.8132 0.15815 1.34824
316600 60.4159 150.993 55.8132 0.15825 0.34399
316800 60.4159 151.006 55.8132 0.15835 -0.642728
317000 60.4159 151.02 55.8132 0.15845 -1.56651
317200 60.4159 151.033 55.8132 0.15855 -2.20125
317400 60.4159 151.046 55.8132 0.15865 -2.68037
317600 60.4159 151.059 55.8132 0.15875 -2.9097
317800 60.4159 151.072 55.8132 0.15885 -2.89938
318000 60.4159 151.085 55.8132 0.15895 -2.73186
318200 60.4159 151.098 55.8132 0.15905 -2.40143
318400 60.4159 151.111 55.8132 0.15915 -2.03989
318600 60.4159 151.124 55.8132 0.15925 -1.42989
318800 60.4159 151.137 55.8132 0.15935 -0.689396
319000 60.4159 151.15 55.8132 0.15945 0.240273
319200 60.4159 151.163 55.8132 0.15955 1.28508
319400 60.4159 151.176 55.8132 0.15965 2.34728
319600 60.4159 151.189 55.8132 0.15975 3.2032
319800 60.4159 151.202 55.8132 0.15985 3.68406
320000 60.4159 151.215 55.8132 0.15995 3.61647
320200 60.4159 151.228 55.8132 0.16005 3.11652
320400 60.4159 151.241 55.8132 0.16015 2.24841
320600 60.4159 151.254 55.8132 0.16025 1.30246
320800 60.4159 151.267 55.8132 0.16035 0.319178
321000 60.4159 151.28 55.8132 0.16045 -0.590771
321200 60.4159 151.293 55.8132 0.16055 -1.37829
321400 60.4159 151.306 55.8132 0.16065 -2.0029
321600 60.4159 151.319 55.8132 0.16075 -2.4058
321800 60.4159 151.332 55.8132 0.16085 -2.65488
322000 60.4159 151.345 55.8132 0.16095 -2.66238
322200 60.4159 151.358 55.8132 0.16105 -2.52195
322400 60.4159 151.371 55.8132 0.16115 -2.24175
322600 60.4159 151.385 55.8132 0.16125 -1.8427
322800 60.4159 151.398 55.8132 0.16135 -1.23829
323000 60.4159 151.411 55.8132 0.16145 -0.518791
323200 60.4159 151.424 55.8132 0.16155 0.354327
323400 60.4159 151.437 55.8132 0.16165 1.33619
323600 60.4159 151.45 55.8132 0.16175 2.23354
323800 60.4159 151.463 55.8132 0.16185 2.98375
324000 60.4159 151.476 55.8132 0.16195 3.38371
324200 60.4159 151.489 55.8132 0.16205 3.27315
324400 60.4159 151.502 55.8132 0.16215 2.74653
324600 60.4159 151.515 55.8132 0.16225 1.93557
324800 60.4159 151.528 55.8132 0.16235 1.07302
325000 60.4159 151.541 55.8132 0.16245 0.171017
325200 60.4159 151.554 55.8132 0.16255 -0.677784
325400 60.4159 151.567 55.8132 0.16265 -1.37289
325600 60.4159 151.58 55.8132 0.16275 -1.89694
325800 60.4159 151.593 55.8132 0.16285 -2.26305
326000 60.4159 151.606 55.8132 0.16295 -2.48773
326200 60.4159 151.619 55.8132 0.16305 -2.50966
326400 60.4159 151.632 55.8132 0.16315 -2.32302
326600 60.4159 151.645 55.8132 0.16325 -2.03812
326800 60.4159 151.658 55.8132 0.16335 -1.57042
327000 60.4159 151.671 55.8132 0.16345 -0.993579
327200 60.4159 151.684 55.8132 0.16355 -0.272093
327400 60.4159 151.697 55.8132 0.16365 0.568268
327600 60.4159 151.71 55.8132 0.16375 1.45342
327800 60.4159 151.723 55.8132 0.16385 2.28896
328000 60.4159 151.737 55.8132 0.16395 2.86852
328200 60.4159 151.75 55.8132 0.16405 3.14467
328400 60.4159 151.763 55.8132 0.16415 2.91565
328600 60.4159 151.776 55.8132 0.16425 2.37533
328800 60.4159 151.789 55.8132 0.16435 1.59559
329000 60.4159 151.802 55.8132 0.16445 0.703397
329200 60.4159 151.815 55.8132 0.16455 -0.0930901
329400 60.4159 151.828 55.8132 0.16465 -0.81567
329600 60.4159 151.841 55.8132 0.16475 -1.43659
329800 60.4159 151.854 55.8132 0.16485 -1.88739
330000 60.4159 151.867 55.8132 0.16495 -2.20358
330200 60.4159 151.88 55.8132 0.16505 -2.36539
330400 60.4159 151.893 55.8132 0.16515 -2.33372
330600 60.4159 151.906 55.8132 0.16525 -2.10199
330800 60.4159 151.919 55.8132 0.16535 -1.7405
331000 60.4159 151.932 55.8132 0.16545 -1.29337
331200 60.4159 151.945 55.8132 0.16555 -0.620896
331400 60.4159 151.958 55.8132 0.16565 0.07584
331600 60.4159 151.971 55.8132 0.16575 0.893663
331800 60.4159 151.984 55.8132 0.16585 1.67436
332000 60.4159 151.997 55.8132 0.16595 2.3621
332200 60.4159 152.01 55.8132 0.16605 2.78973
332400 60.4159 152.023 55.8132 0.16615 2.83649
332600 60.4159 152.036 55.8132 0.16625 2.51706
332800 60.4159 152.049 55.8132 0.16635 1.90584
333000 60.4159 152.062 55.8132 0.16645 1.11729
333200 60.4159 152.075 55.8132 0.16655 0.336705
333400 60.4159 152.088 55.8132 0.16665 -0.400662
333600 60.4159 152.102 55.8132 0.16675 -1.04438
333800 60.4159 152.115 55.8132 0.16685 -1.57091
334000 60.4159 152.128 55.8132 0.16695 -1.90773
334200 60.4159 152.141 55.8132 0.16705 -2.14298
334400 60.4159 152.154 55.8132 0.16715 -2.19424
334600 60.4159 152.167 55.8132 0.16725 -2.06953
334800 60.4159 152.18 55.8132 0.16735 -1.79981
335000 60.4159 152.193 55.8132 0.16745 -1.37747
335200 60.4159 152.206 55.8132 0.16755 -0.890639
335400 60.4159 152.219 55.8132 0.16765 -0.211572
335600 60.4159 152.232 55.8132 0.16775 0.497917
335800 60.4159 152.245 55.8132 0.16785 1.2699
336000 60.4159 152.258 55.8132 0.16795 1.89204
336200 60.4159 152.271 55.8132 0.16805 2.42621
336400 60.4159 152.284 55.8132 0.16815 2.6068
336600 60.4159 152.297 55.8132 0.16825 2.45859
336800 60.4159 152.31 55.8132 0.16835 2.00316
337000 60.4159 152.323 55.8132 0.16845 1.34613
337200 60.4159 152.336 55.8132 0.16855 0.593783
337400 60.4159 152.349 55.8132 0.16865 -0.12863
337600 60.4159 152.362 55.8132 0.16875 -0.722434
337800 60.4159 152.375 55.8132 0.16885 -1.25764
338000 60.4159 152.388 55.8132 0.16895 -1.63514
338200 60.4159 152.401 55.8132 0.16905 -1.9073
338400 60.4159 152.414 55.8132 0.16915 -2.02966
338600 60.4159 152.427 55.8132 0.16925 -1.95392
338800 60.4159 152.44 55.8132 0.16935 -1.77919
339000 60.4159 152.454 55.8132 0.16945 -1.45461
339200 60.4159 152.467 55.8132 0.16955 -1.0001
339400 60.4159 152.48 55.8132 0.16965 -0.384898
339600 60.4159 152.493 55.8132 0.16975 0.29004
339800 60.4159 152.506 55.8132 0.16985 0.939299
340000 60.4159 152.519 55.8132 0.16995 1.58887
340200 60.4159 152.532 55.8132 0.17005 2.10628
340400 60.4159 152.545 55.8132 0.17015 2.35053
340600 60.4159 152.558 55.8132 0.17025 2.30857
340800 60.4159 152.571 55.8132 0.17035 2.00116
341000 60.4159 152.584 55.8132 0.17045 1.44837
341200 60.4159 152.597 55.8132 0.17055 0.798702
341400 60.4159 152.61 55.8132 0.17065 0.0769873
341600 60.4159 152.623 55.8132 0.17075 -0.537234
341800 60.4159 152.636 55.8132 0.17085 -1.04222
342000 60.4159 152.649 55.8132 0.17095 -1.4706
342200 60.4159 152.662 55.8132 0.17105 -1.72168
342400 60.4159 152.675 55.8132 0.17115 -1.83141
342600 60.4159 152.688 55.8132 0.17125 -1.86894
342800 60.4159 152.701 55.8132 0.17135 -1.71058
343000 60.4159 152.714 55.8132 0.17145 -1.43484
343200 60.4159 152.727 55.8132 0.17155 -1.01335
343400 60.4159 152.74 55.8132 0.17165 -0.507966
343600 60.4159 152.753 55.8132 0.17175 0.0994825
343800 60.4159 152.766 55.8132 0.17185 0.774354
344000 60.4159 152.779 55.8132 0.17195 1.36621
344200 60.4159 152.792 55.8132 0.17205 1.85358
344400 60.4159 152.805 55.8132 0.17215 2.10674
344600 60.4159 152.819 55.8132 0.17225 2.13956
344800 60.4159 152.832 55.8132 0.17235 1.93208
345000 60.4159 152.845 55.8132 0.17245 1.45
345200 60.4159 152.858 55.8132 0.17255 0.875637
345400 60.4159 152.871 55.8132 0.17265 0.256162
345600 60.4159 152.884 55.8132 0.17275 -0.363389
345800 60.4159 152.897 55.8132 0.17285 -0.901502
346000 60.4159 152.91 55.8132 0.17295 -1.30008
346200 60.4159 152.923 55.8132 0.17305 -1.56381
346400 60.4159 152.936 55.8132 0.17315 -1.69909
346600 60.4159 152.949 55.8132 0.17325 -1.72912
346800 60.4159 152.962 55.8132 0.17335 -1.6173
347000 60.4159 152.975 55.8132 0.17345 -1.4036
347200 60.4159 152.988 55.8132 0.17355 -1.04768
347400 60.4159 153.001 55.8132 0.17365 -0.596847
347600 60.4159 153.014 55.8132 0.17375 0.0146846
347800 60.4159 153.027 55.8132 0.17385 0.604507
348000 60.4159 153.04 55.8132 0.17395 1.18206
348200 60.4159 153.053 55.8132 0.17405 1.67833
348400 60.4159 153.066 55.8132 0.17415 1.9494
348600 60.4159 153.079 55.8132 0.17425 2.0034
348800 60.4159 153.092 55.8132 0.17435 1.83671
349000 60.4159 153.105 55.8132 0.17445 1.46814
349200 60.4159 153.118 55.8132 0.17455 0.895184
349400 60.4159 153.131 55.8132 0.17465 0.363571
349600 60.4159 153.144 55.8132 0.17475 -0.247941
349800 60.4159 153.157 55.8132 0.17485 -0.750985
350000 60.4159 153.171 55.8132 0.17495 -1.16161
350200 60.4159 153.184 55.8132 0.17505 -1.48374
350400 60.4159 153.197 55.8132 0.17515 -1.60716
350600 60.4159 153.21 55.8132 0.17525 -1.63989
350800 60.4159 153.223 55.8132 0.17535 -1.5511
351000 60.4159 153.236 55.8132 0.17545 -1.3518
351200 60.4159 153.249 55.8132 0.17555 -1.02667
351400 60.4159 153.262 55.8132 0.17565 -0.592988
351600 60.4159 153.275 55.8132 0.17575 -0.0705082
351800 60.4159 153.288 55.8132 0.17585 0.487853
352000 60.4159 153.301 55.8132 0.17595 1.06871
352200 60.4159 153.314 55.8132 0.17605 1.53599
352400 60.4159 153.327 55.8132 0.17615 1.82611
352600 60.4159 153.34 55.8132 0.17625 1.90677
352800 60.4159 153.353 55.8132 0.17635 1.76765
353000 60.4159 153.366 55.8132 0.17645 1.37353
353200 60.4159 153.379 55.8132 0.17655 0.947698
353400 60.4159 153.392 55.8132 0.17665 0.366582
353600 60.4159 153.405 55.8132 0.17675 -0.17197
353800 60.4159 153.418 55.8132 0.17685 -0.629117
354000 60.4159 153.431 55.8132 0.17695 -1.08014
354200 60.4159 153.444 55.8132 0.17705 -1.37382
354400 60.4159 153.457 55.8132 0.17715 -1.53239
354600 60.4159 153.47 55.8132 0.17725 -1.57309
354800 60.4159 153.483 55.8132 0.17735 -1.49457
355000 60.4159 153.496 55.8132 0.17745 -1.27087
355200 60.4159 153.509 55.8132 0.17755 -0.991942
355400 60.4159 153.522 55.8132 0.17765 -0.566589
355600 60.4159 153.536 55.8132 0.17775 -0.0904897
355800 60.4159 153.549 55.8132 0.17785 0.428998
356000 60.4159 153.562 55.8132 0.17795 0.966714
356200 60.4159 153.575 55.8132 0.17805 1.41965
356400 60.4159 153.588 55.8132 0.17815 1.71986
356600 60.4159 153.601 55.8132 0.17825 1.80554
356800 60.4159 153.614 55.8132 0.17835 1.66333
357000 60.4159 153.627 55.8132 0.17845 1.35766
357200 60.4159 153.64 55.8132 0.17855 0.902762
357400 60.4159 153.653 55.8132 0.17865 0.395471
357600 60.4159 153.666 55.8132 0.17875 -0.142106
357800 60.4159 153.679 55.8132 0.17885 -0.612732
358000 60.4159 153.692 55.8132 0.17895 -0.992383
358200 60.4159 153.705 55.8132 0.17905 -1.26266
358400 60.4159 153.718 55.8132 0.17915 -1.47218
358600 60.4159 153.731 55.8132 0.17925 -1.48897
358800 60.4159 153.744 55.8132 0.17935 -1.44338
359000 60.4159 153.757 55.8132 0.17945 -1.21113
359200 60.4159 153.77 55.8132 0.17955 -0.92676
359400 60.4159 153.783 55.8132 0.17965 -0.551422
359600 60.4159 153.796 55.8132 0.17975 -0.108499
359800 60.4159 153.809 55.8132 0.17985 0.419081
360000 60.4159 153.822 55.8132 0.17995 0.907686
360200 60.4159 153.835 55.8132 0.18005 1.3348
360400 60.4159 153.848 55.8132 0.18015 1.62669
360600 60.4159 153.861 55.8132 0.18025 1.70058
360800 60.4159 153.874 55.8132 0.18035 1.58976
361000 60.4159 153.888 55.8132 0.18045 1.28918
361200 60.4159 153.901 55.8132 0.18055 0.854838
361400 60.4159 153.914 55.8132 0.18065 0.368007
361600 60.4159 153.927 55.8132 0.18075 -0.0997969
361800 60.4159 153.94 55.8132 0.18085 -0.569848
362000 60.4159 153.953 55.8132 0.18095 -0.950889
362200 60.4159 153.966 55.8132 0.18105 -1.20618
362400 60.4159 153.979 55.8132 0.18115 -1.389
362600 60.4159 153.992 55.8132 0.18125 -1.42063
362800 60.4159 154.005 55.8132 0.18135 -1.37582
363000 60.4159 154.018 55.8132 0.18145 -1.18643
363200 60.4159 154.031 55.8132 0.18155 -0.891187
363400 60.4159 154.044 55.8132 0.18165 -0.506083
363600 60.4159 154.057 55.8132 0.18175 -0.0611569
363800 60.4159 154.07 55.8132 0.18185 0.401728
364000 60.4159 154.083 55.8132 0.18195 0.8781
364200 60.4159 154.096 55.8132 0.18205 1.2649
364400 60.4159 154.109 55.8132 0.18215 1.55421
364600 60.4159 154.122 55.8132 0.18225 1.62822
364800 60.4159 154.135 55.8132 0.18235 1.49562
365000 60.4159 154.148 55.8132 0.18245 1.23388
365200 60.4159 154.161 55.8132 0.18255 0.799049
365400 60.4159 154.174 55.8132 0.18265 0.358712
365600 60.4159 154.187 55.8132 0.18275 -0.128053
365800 60.4159 154.2 55.8132 0.18285 -0.562724
366000 60.4159 154.213 55.8132 0.18295 -0.90869
366200 60.4159 154.226 55.8132 0.18305 -1.15858
366400 60.4159 154.239 55.8132 0.18315 -1.326
366600 60.4159 154.253 55.8132 0.18325 -1.36962
366800 60.4159 154.266 55.8132 0.18335 -1.28912
367000 60.4159 154.279 55.8132 0.18345 -1.12658
367200 60.4159 154.292 55.8132 0.18355 -0.84968
367400 60.4159 154.305 55.8132 0.18365 -0.513555
367600 60.4159 154.318 55.8132 0.18375 -0.0061612
367800 60.4159 154.331 55.8132 0.18385 0.421882
368000 60.4159 154.344 55.8132 0.18395 0.835609
368200 60.4159 154.357 55.8132 0.18405 1.23956
368400 60.4159 154.37 55.8132 0.18415 1.45523
368600 60.4159 154.383 55.8132 0.18425 1.54135
368800 60.4159 154.396 55.8132 0.18435 1.42533
369000 60.4159 154.409 55.8132 0.18445 1.15897
369200 60.4159 154.422 55.8132 0.18455 0.781979
369400 60.4159 154.435 55.8132 0.18465 0.317058
369600 60.4159 154.448 55.8132 0.18475 -0.12481
369800 60.4159 154.461 55.8132 0.18485 -0.565707
370000 60.4159 154.474 55.8132 0.18495 -0.890135
370200 60.4159 154.487 55.8132 0.18505 -1.0962
370400 60.4159 154.5 55.8132 0.18515 -1.26521
370600 60.4159 154.513 55.8132 0.18525 -1.29869
370800 60.4159 154.526 55.8132 0.18535 -1.2287
371000 60.4159 154.539 55.8132 0.18545 -1.07005
371200 60.4159 154.552 55.8132 0.18555 -0.810511
371400 60.4159 154.565 55.8132 0.18565 -0.450276
371600 60.4159 154.578 55.8132 0.18575 -0.0403261
371800 60.4159 154.591 55.8132 0.18585 0.433704
372000 60.4159 154.605 55.8132 0.18595 0.847538
372200 60.4159 154.618 55.8132 0.18605 1.17678
372400 60.4159 154.631 55.8132 0.18615 1.36985
372600 60.4159 154.644 55.8132 0.18625 1.49552
372800 60.4159 154.657 55.8132 0.18635 1.37385
373000 60.4159 154.67 55.8132 0.18645 1.08388
373200 60.4159 154.683 55.8132 0.18655 0.73112
373400 60.4159 154.696 55.8132 0.18665 0.29278
373600 60.4159 154.709 55.8132 0.18675 -0.127701
373800 60.4159 154.722 55.8132 0.18685 -0.552975
374000 60.4159 154.735 55.8132 0.18695 -0.867133
374200 60.4159 154.748 55.8132 0.18705 -1.08782
374400 60.4159 154.761 55.8132 0.18715 -1.22452
374600 60.4159 154.774 55.8132 0.18725 -1.25597
374800 60.4159 154.787 55.8132 0.18735 -1.186
375000 60.4159 154.8 55.8132 0.18745 -1.01878
375200 60.4159 154.813 55.8132 0.18755 -0.744545
375400 60.4159 154.826 55.8132 0.18765 -0.420422
375600 60.4159 154.839 55.8132 0.18775 0.0324237
375800 60.4159 154.852 55.8132 0.18785 0.435618
376000 60.4159 154.865 55.8132 0.18795 0.820674
376200 60.4159 154.878 55.8132 0.18805 1.17991
376400 60.4159 154.891 55.8132 0.18815 1.35978
376600 60.4159 154.904 55.8132 0.18825 1.40537
376800 60.4159 154.917 55.8132 0.18835 1.29985
377000 60.4159 154.93 55.8132 0.18845 1.03746
377200 60.4159 154.943 55.8132 0.18855 0.672315
377400 60.4159 154.956 55.8132 0.18865 0.235233
377600 60.4159 154.97 55.8132 0.18875 -0.175786
377800 60.4159 154.983 55.8132 0.18885 -0.554291
378000 60.4159 154.996 55.8132 0.18895 -0.839672
378200 60.4159 155.009 55.8132 0.18905 -1.05138
378400 60.4159 155.022 55.8132 0.18915 -1.1808
378600 60.4159 155.035 55.8132 0.18925 -1.20954
378800 60.4159 155.048 55.8132 0.18935 -1.14573
379000 60.4159 155.061 55.8132 0.18945 -0.94238
379200 60.4159 155.074 55.8132 0.18955 -0.712149
379400 60.4159 155.087 55.8132 0.18965 -0.338538
379600 60.4159 155.1 55.8132 0.18975 0.0455724
379800 60.4159 155.113 55.8132 0.18985 0.461871
380000 60.4159 155.126 55.8132 0.18995 0.819173
380200 60.4159 155.139 55.8132 0.19005 1.13442
380400 60.4159 155.152 55.8132 0.19015 1.32268
380600 60.4159 155.165 55.8132 0.19025 1.36265
380800 60.4159 155.178 55.8132 0.19035 1.21827
381000 60.4159 155.191 55.8132 0.19045 0.984263
381200 60.4159 155.204 55.8132 0.19055 0.622577
381400 60.4159 155.217 55.8132 0.19065 0.170041
381600 60.4159 155.23 55.8132 0.19075 -0.19275
381800 60.4159 155.243 55.8132 0.19085 -0.53616
382000 60.4159 155.256 55.8132 0.19095 -0.843348
382200 60.4159 155.269 55.8132 0.19105 -1.04865
382400 60.4159 155.282 55.8132 0.19115 -1.16572
382600 60.4159 155.295 55.8132 0.19125 -1.1592
382800 60.4159 155.308 55.8132 0.19135 -1.0976
383000 60.4159 155.322 55.8132 0.19145 -0.906506
383200 60.4159 155.335 55.8132 0.19155 -0.644148
383400 60.4159 155.348 55.8132 0.19165 -0.278053
383600 60.4159 155.361 55.8132 0.19175 0.0832195
383800 60.4159 155.374 55.8132 0.19185 0.496623
384000 60.4159 155.387 55.8132 0.19195 0.835056
384200 60.4159 155.4 55.8132 0.19205 1.12832
384400 60.4159 155.413 55.8132 0.19215 1.29244
384600 60.4159 155.426 55.8132 0.19225 1.3355
384800 60.4159 155.439 55.8132 0.19235 1.16053
385000 60.4159 155.452 55.8132 0.19245 0.909289
385200 60.4159 155.465 55.8132 0.19255 0.550916
385400 60.4159 155.478 55.8132 0.19265 0.140958
385600 60.4159 155.491 55.8132 0.19275 -0.225107
385800 60.4159 155.504 55.8132 0.19285 -0.588256
386000 60.4159 155.517 55.8132 0.19295 -0.852234
386200 60.4159 155.53 55.8132 0.19305 -1.05318
386400 60.4159 155.543 55.8132 0.19315 -1.14246
386600 60.4159 155.556 55.8132 0.19325 -1.14512
386800 60.4159 155.569 55.8132 0.19335 -1.02086
387000 60.4159 155.582 55.8132 0.19345 -0.85799
387200 60.4159 155.595 55.8132 0.19355 -0.581592
387400 60.4159 155.608 55.8132 0.19365 -0.249958
387600 60.4159 155.621 55.8132 0.19375 0.161549
387800 60.4159 155.634 55.8132 0.19385 0.534852
388000 60.4159 155.647 55.8132 0.19395 0.863267
388200 60.4159 155.66 55.8132 0.19405 1.12576
388400 60.4159 155.673 55.8132 0.19415 1.26884
388600 60.4159 155.687 55.8132 0.19425 1.25107
388800 60.4159 155.7 55.8132 0.19435 1.0969
389000 60.4159 155.713 55.8132 0.19445 0.852697
389200 60.4159 155.726 55.8132 0.19455 0.490992
389400 60.4159 155.739 55.8132 0.19465 0.101757
389600 60.4159 155.752 55.8132 0.19475 -0.263955
389800 60.4159 155.765 55.8132 0.19485 -0.634579
390000 60.4159 155.778 55.8132 0.19495 -0.867014
390200 60.4159 155.791 55.8132 0.19505 -1.03475
390400 60.4159 155.804 55.8132 0.19515 -1.11554
390600 60.4159 155.817 55.8132 0.19525 -1.08134
390800 60.4159 155.83 55.8132 0.19535 -0.989963
391000 60.4159 155.843 55.8132 0.19545 -0.795172
391200 60.4159 155.856 55.8132 0.19555 -0.525734
391400 60.4159 155.869 55.8132 0.19565 -0.174938
391600 60.4159 155.882 55.8132 0.19575 0.193957
391800 60.4159 155.895 55.8132 0.19585 0.544702
392000 60.4159 155.908 55.8132 0.19595 0.880752
392200 60.4159 155.921 55.8132 0.19605 1.12888
392400 60.4159 155.934 55.8132 0.19615 1.22821
392600 60.4159 155.947 55.8132 0.19625 1.19315
392800 60.4159 155.96 55.8132 0.19635 1.04188
393000 60.4159 155.973 55.8132 0.19645 0.793457
393200 60.4159 155.986 55.8132 0.19655 0.390108
393400 60.4159 155.999 55.8132 0.19665 0.0837926
393600 60.4159 156.012 55.8132 0.19675 -0.300207
393800 60.4159 156.025 55.8132 0.19685 -0.617314
394000 60.4159 156.039 55.8132 0.19695 -0.86791
394200 60.4159 156.052 55.8132 0.19705 -1.02858
394400 60.4159 156.065 55.8132 0.19715 -1.07735
394600 60.4159 156.078 55.8132 0.19725 -1.0665
394800 60.4159 156.091 55.8132 0.19735 -0.93784
395000 60.4159 156.104 55.8132 0.19745 -0.745741
395200 60.4159 156.117 55.8132 0.19755 -0.448355
395400 60.4159 156.13 55.8132 0.19765 -0.150966
395600 60.4159 156.143 55.8132 0.19775 0.222293
395800 60.4159 156.156 55.8132 0.19785 0.56516
396000 60.4159 156.169 55.8132 0.19795 0.884279
396200 60.4159 156.182 55.8132 0.19805 1.10987
396400 60.4159 156.195 55.8132 0.19815 1.20909
396600 60.4159 156.208 55.8132 0.19825 1.15307
396800 60.4159 156.221 55.8132 0.19835 0.979389
397000 60.4159 156.234 55.8132 0.19845 0.714806
397200 60.4159 156.247 55.8132 0.19855 0.375472
397400 60.4159 156.26 55.8132 0.19865 0.00180719
397600 60.4159 156.273 55.8132 0.19875 -0.33144
397800 60.4159 156.286 55.8132 0.19885 -0.602144
398000 60.4159 156.299 55.8132 0.19895 -0.857153
398200 60.4159 156.312 55.8132 0.19905 -1.01177
398400 60.4159 156.325 55.8132 0.19915 -1.07097
398600 60.4159 156.338 55.8132 0.19925 -1.01941
398800 60.4159 156.351 55.8132 0.19935 -0.887483
399000 60.4159 156.364 55.8132 0.19945 -0.690855
399200 60.4159 156.377 55.8132 0.19955 -0.410316
399400 60.4159 156.39 55.8132 0.19965 -0.083901
399600 60.4159 156.404 55.8132 0.19975 0.275289
399800 60.4159 156.417 55.8132 0.19985 0.5972
400000 60.4159 156.43 55.8132 0.19995 0.901234
400200 60.4159 156.443 55.8132 0.20005 1.092
400400 60.4159 156.456 55.8132 0.20015 1.15935
400600 60.4159 156.469 55.8132 0.20025 1.11668
400800 60.4159 156.482 55.8132 0.20035 0.946878
401000 60.4159 156.495 55.8132 0.20045 0.650994
401200 60.4159 156.508 55.8132 0.20055 0.307978
401400 60.4159 156.521 55.8132 0.20065 -0.0505424
401600 60.4159 156.534 55.8132 0.20075 -0.366991
401800 60.4159 156.547 55.8132 0.20085 -0.6494
402000 60.4159 156.56 55.8132 0.20095 -0.867765
402200 60.4159 156.573 55.8132 0.20105 -1.00659
402400 60.4159 156.586 55.8132 0.20115 -1.01611
402600 60.4159 156.599 55.8132 0.20125 -1.0224
402800 60.4159 156.612 55.8132 0.20135 -0.851271
403000 60.4159 156.625 55.8132 0.20145 -0.641008
403200 60.4159 156.638 55.8132 0.20155 -0.355443
403400 60.4159 156.651 55.8132 0.20165 -0.0414624
403600 60.4159 156.664 55.8132 0.20175 0.341583
403800 60.4159 156.677 55.8132 0.20185 0.65347
404000 60.4159 156.69 55.8132 0.20195 0.917686
404200 60.4159 156.703 55.8132 0.20205 1.08658
404400 60.4159 156.716 55.8132 0.20215 1.13615
404600 60.4159 156.729 55.8132 0.20225 1.06953
404800 60.4159 156.742 55.8132 0.20235 0.901988
405000 60.4159 156.756 55.8132 0.20245 0.573102
405200 60.4159 156.769 55.8132 0.20255 0.254614
405400 60.4159 156.782 55.8132 0.20265 -0.0777976
405600 60.4159 156.795 55.8132 0.20275 -0.419229
405800 60.4159 156.808 55.8132 0.20285 -0.675396
406000 60.4159 156.821 55.8132 0.20295 -0.865878
406200 60.4159 156.834 55.8132 0.20305 -0.992624
406400 60.4159 156.847 55.8132 0.20315 -0.994384
406600 60.4159 156.86 55.8132 0.20325 -0.961518
406800 60.4159 156.873 55.8132 0.20335 -0.849985
407000 60.4159 156.886 55.8132 0.20345 -0.588667
407200 60.4159 156.899 55.8132 0.20355 -0.271702
407400 60.4159 156.912 55.8132 0.20365 0.0475292
407600 60.4159 156.925 55.8132 0.20375 0.361852
407800 60.4159 156.938 55.8132 0.20385 0.659196
408000 60.4159 156.951 55.8132 0.20395 0.930269
408200 60.4159 156.964 55.8132 0.20405 1.07166
408400 60.4159 156.977 55.8132 0.20415 1.11471
408600 60.4159 156.99 55.8132 0.20425 1.02749
408800 60.4159 157.003 55.8132 0.20435 0.839066
409000 60.4159 157.016 55.8132 0.20445 0.485447
409200 60.4159 157.029 55.8132 0.20455 0.19398
409400 60.4159 157.042 55.8132 0.20465 -0.168592
409600 60.4159 157.055 55.8132 0.20475 -0.441523
409800 60.4159 157.068 55.8132 0.20485 -0.670802
410000 60.4159 157.081 55.8132 0.20495 -0.872092
410200 60.4159 157.094 55.8132 0.20505 -0.970134
410400 60.4159 157.107 55.8132 0.20515 -0.998641
410600 60.4159 157.121 55.8132 0.20525 -0.908765
410800 60.4159 157.134 55.8132 0.20535 -0.753464
411000 60.4159 157.147 55.8132 0.20545 -0.521529
411200 60.4159 157.16 55.8132 0.20555 -0.2432
411400 60.4159 157.173 55.8132 0.20565 0.0988701
411600 60.4159 157.186 55.8132 0.20575 0.439298
411800 60.4159 157.199 55.8132 0.20585 0.706974
412000 60.4159 157.212 55.8132 0.20595 0.936616
412200 60.4159 157.225 55.8132 0.20605 1.05468
412400 60.4159 157.238 55.8132 0.20615 1.08276
412600 60.4159 157.251 55.8132 0.20625 0.954327
412800 60.4159 157.264 55.8132 0.20635 0.740478
413000 60.4159 157.277 55.8132 0.20645 0.456807
413200 60.4159 157.29 55.8132 0.20655 0.130082
413400 60.4159 157.303 55.8132 0.20665 -0.218392
413600 60.4159 157.316 55.8132 0.20675 -0.482357
413800 60.4159 157.329 55.8132 0.20685 -0.697101
414000 60.4159 157.342 55.8132 0.20695 -0.866585
414200 60.4159 157.355 55.8132 0.20705 -0.970854
414400 60.4159 157.368 55.8132 0.20715 -0.930652
414600 60.4159 157.381 55.8132 0.20725 -0.860416
414800 60.4159 157.394 55.8132 0.20735 -0.706978
415000 60.4159 157.407 55.8132 0.20745 -0.470197
415200 60.4159 157.42 55.8132 0.20755 -0.179765
415400 60.4159 157.433 55.8132 0.20765 0.155187
415600 60.4159 157.446 55.8132 0.20775 0.466039
415800 60.4159 157.459 55.8132 0.20785 0.732442
416000 60.4159 157.473 55.8132 0.20795 0.926417
416200 60.4159 157.486 55.8132 0.20805 1.04257
416400 60.4159 157.499 55.8132 0.20815 1.03436
416600 60.4159 157.512 55.8132 0.20825 0.906405
416800 60.4159 157.525 55.8132 0.20835 0.700943
417000 60.4159 157.538 55.8132 0.20845 0.375871
417200 60.4159 157.551 55.8132 0.20855 0.0700012
417400 60.4159 157.564 55.8132 0.20865 -0.245226
417600 60.4159 157.577 55.8132 0.20875 -0.49394
417800 60.4159 157.59 55.8132 0.20885 -0.719447
418000 60.4159 157.603 55.8132 0.20895 -0.854094
418200 60.4159 157.616 55.8132 0.20905 -0.977605
418400 60.4159 157.629 55.8132 0.20915 -0.918345
418600 60.4159 157.642 55.8132 0.20925 -0.822484
418800 60.4159 157.655 55.8132 0.20935 -0.638331
419000 60.4159 157.668 55.8132 0.20945 -0.394669
419200 60.4159 157.681 55.8132 0.20955 -0.11364
419400 60.4159 157.694 55.8132 0.20965 0.181344
419600 60.4159 157.707 55.8132 0.20975 0.493017
419800 60.4159 157.72 55.8132 0.20985 0.751615
420000 60.4159 157.733 55.8132 0.20995 0.955406
420200 60.4159 157.746 55.8132 0.21005 1.02973
420400 60.4159 157.759 55.8132 0.21015 1.00753
420600 60.4159 157.772 55.8132 0.21025 0.842287
420800 60.4159 157.785 55.8132 0.21035 0.626788
421000 60.4159 157.798 55.8132 0.21045 0.325206
421200 60.4159 157.811 55.8132 0.21055 0.00950519
421400 60.4159 157.824 55.8132 0.21065 -0.272879
421600 60.4159 157.838 55.8132 0.21075 -0.528248
421800 60.4159 157.851 55.8132 0.21085 -0.746228
422000 60.4159 157.864 55.8132 0.21095 -0.858625
422200 60.4159 157.877 55.8132 0.21105 -0.925205
422400 60.4159 157.89 55.8132 0.21115 -0.874265
422600 60.4159 157.903 55.8132 0.21125 -0.798724
422800 60.4159 157.916 55.8132 0.21135 -0.600696
423000 60.4159 157.929 55.8132 0.21145 -0.366253
423200 60.4159 157.942 55.8132 0.21155 -0.0745317
423400 60.4159 157.955 55.8132 0.21165 0.255335
423600 60.4159 157.968 55.8132 0.21175 0.526002
423800 60.4159 157.981 55.8132 0.21185 0.777315
424000 60.4159 157.994 55.8132 0.21195 0.91985
424200 60.4159 158.007 55.8132 0.21205 1.02303
424400 60.4159 158.02 55.8132 0.21215 0.963648
424600 60.4159 158.033 55.8132 0.21225 0.80906
424800 60.4159 158.046 55.8132 0.21235 0.573532
425000 60.4159 158.059 55.8132 0.21245 0.293729
425200 60.4159 158.072 55.8132 0.21255 -0.0277218
425400 60.4159 158.085 55.8132 0.21265 -0.319275
425600 60.4159 158.098 55.8132 0.21275 -0.552987
425800 60.4159 158.111 55.8132 0.21285 -0.742985
426000 60.4159 158.124 55.8132 0.21295 -0.867668
426200 60.4159 158.137 55.8132 0.21305 -0.875838
426400 60.4159 158.15 55.8132 0.21315 -0.873822
426600 60.4159 158.163 55.8132 0.21325 -0.739539
426800 60.4159 158.176 55.8132 0.21335 -0.528445
427000 60.4159 158.19 55.8132 0.21345 -0.337654
427200 60.4159 158.203 55.8132 0.21355 -0.0349817
427400 60.4159 158.216 55.8132 0.21365 0.274644
427600 60.4159 158.229 55.8132 0.21375 0.560616
427800 60.4159 158.242 55.8132 0.21385 0.768978
428000 60.4159 158.255 55.8132 0.21395 0.937246
428200 60.4159 158.268 55.8132 0.21405 0.970041
428400 60.4159 158.281 55.8132 0.21415 0.902654
428600 60.4159 158.294 55.8132 0.21425 0.766825
428800 60.4159 158.307 55.8132 0.21435 0.510271
429000 60.4159 158.32 55.8132 0.21445 0.221657
429200 60.4159 158.333 55.8132 0.21455 -0.0612931
429400 60.4159 158.346 55.8132 0.21465 -0.32242
429600 60.4159 158.359 55.8132 0.21475 -0.571742
429800 60.4159 158.372 55.8132 0.21485 -0.763747
430000 60.4159 158.385 55.8132 0.21495 -0.862034
430200 60.4159 158.398 55.8132 0.21505 -0.846545
430400 60.4159 158.411 55.8132 0.21515 -0.841065
430600 60.4159 158.424 55.8132 0.21525 -0.698629
430800 60.4159 158.437 55.8132 0.21535 -0.497311
431000 60.4159 158.45 55.8132 0.21545 -0.267001
431200 60.4159 158.463 55.8132 0.21555 0.0245254
431400 60.4159 158.476 55.8132 0.21565 0.301937
431600 60.4159 158.489 55.8132 0.21575 0.582965
431800 60.4159 158.502 55.8132 0.21585 0.790102
432000 60.4159 158.515 55.8132 0.21595 0.923472
432200 60.4159 158.528 55.8132 0.21605 0.965868
432400 60.4159 158.541 55.8132 0.21615 0.883333
432600 60.4159 158.555 55.8132 0.21625 0.710841
432800 60.4159 158.568 55.8132 0.21635 0.435416
433000 60.4159 158.581 55.8132 0.21645 0.179904
433200 60.4159 158.594 55.8132 0.21655 -0.0829813
433400 60.4159 158.607 55.8132 0.21665 -0.373953
433600 60.4159 158.62 55.8132 0.21675 -0.600385
433800 60.4159 158.633 55.8132 0.21685 -0.765815
434000 60.4159 158.646 55.8132 0.21695 -0.815636
434200 60.4159 158.659 55.8132 0.21705 -0.861137
434400 60.4159 158.672 55.8132 0.21715 -0.785566
434600 60.4159 158.685 55.8132 0.21725 -0.657392
434800 60.4159 158.698 55.8132 0.21735 -0.468559
435000 60.4159 158.711 55.8132 0.21745 -0.192979
435200 60.4159 158.724 55.8132 0.21755 0.0550327
435400 60.4159 158.737 55.8132 0.21765 0.351082
435600 60.4159 158.75 55.8132 0.21775 0.594243
435800 60.4159 158.763 55.8132 0.21785 0.807752
436000 60.4159 158.776 55.8132 0.21795 0.896996
436200 60.4159 158.789 55.8132 0.21805 0.94177
436400 60.4159 158.802 55.8132 0.21815 0.821536
436600 60.4159 158.815 55.8132 0.21825 0.622858
436800 60.4159 158.828 55.8132 0.21835 0.391424
437000 60.4159 158.841 55.8132 0.21845 0.149692
437200 60.4159 158.854 55.8132 0.21855 -0.134833
437400 60.4159 158.867 55.8132 0.21865 -0.392309
437600 60.4159 158.88 55.8132 0.21875 -0.619212
437800 60.4159 158.893 55.8132 0.21885 -0.732581
438000 60.4159 158.906 55.8132 0.21895 -0.859411
438200 60.4159 158.92 55.8132 0.21905 -0.83558
438400 60.4159 158.933 55.8132 0.21915 -0.739186
438600 60.4159 158.946 55.8132 0.21925 -0.597114
438800 60.4159 158.959 55.8132 0.21935 -0.389002
439000 60.4159 158.972 55.8132 0.21945 -0.143232
439200 60.4159 158.985 55.8132 0.21955 0.117407
439400 60.4159 158.998 55.8132 0.21965 0.383452
439600 60.4159 159.011 55.8132 0.21975 0.633857
439800 60.4159 159.024 55.8132 0.21985 0.821186
440000 60.4159 159.037 55.8132 0.21995 0.88304
440200 60.4159 159.05 55.8132 0.22005 0.888859
440400 60.4159 159.063 55.8132 0.22015 0.777268
440600 60.4159 159.076 55.8132 0.22025 0.562933
440800 60.4159 159.089 55.8132 0.22035 0.340827
441000 60.4159 159.102 55.8132 0.22045 0.0616134
441200 60.4159 159.115 55.8132 0.22055 -0.183057
441400 60.4159 159.128 55.8132 0.22065 -0.430278
441600 60.4159 159.141 55.8132 0.22075 -0.607341
441800 60.4159 159.154 55.8132 0.22085 -0.759627
442000 60.4159 159.167 55.8132 0.22095 -0.806131
442200 60.4159 159.18 55.8132 0.22105 -0.813854
442400 60.4159 159.193 55.8132 0.22115 -0.703032
442600 60.4159 159.206 55.8132 0.22125 -0.572248
442800 60.4159 159.219 55.8132 0.22135 -0.345706
443000 60.4159 159.232 55.8132 0.22145 -0.0885494
443200 60.4159 159.245 55.8132 0.22155 0.165334
443400 60.4159 159.258 55.8132 0.22165 0.423962
443600 60.4159 159.272 55.8132 0.22175 0.676372
443800 60.4159 159.285 55.8132 0.22185 0.808644
444000 60.4159 159.298 55.8132 0.22195 0.908143
444200 60.4159 159.311 55.8132 0.22205 0.856526
444400 60.4159 159.324 55.8132 0.22215 0.738432
444600 60.4159 159.337 55.8132 0.22225 0.528126
444800 60.4159 159.35 55.8132 0.22235 0.280215
445000 60.4159 159.363 55.8132 0.22245 0.0349901
445200 60.4159 159.376 55.8132 0.22255 -0.238906
445400 60.4159 159.389 55.8132 0.22265 -0.485757
445600 60.4159 159.402 55.8132 0.22275 -0.663005
445800 60.4159 159.415 55.8132 0.22285 -0.74598
446000 60.4159 159.428 55.8132 0.22295 -0.810754
446200 60.4159 159.441 55.8132 0.22305 -0.768434
446400 60.4159 159.454 55.8132 0.22315 -0.685087
446600 60.4159 159.467 55.8132 0.22325 -0.527522
446800 60.4159 159.48 55.8132 0.22335 -0.293303
447000 60.4159 159.493 55.8132 0.22345 -0.0339837
447200 60.4159 159.506 55.8132 0.22355 0.222859
447400 60.4159 159.519 55.8132 0.22365 0.474854
447600 60.4159 159.532 55.8132 0.22375 0.713177
447800 60.4159 159.545 55.8132 0.22385 0.820049
448000 60.4159 159.558 55.8132 0.22395 0.874817
448200 60.4159 159.571 55.8132 0.22405 0.826468
448400 60.4159 159.584 55.8132 0.22415 0.681865
448600 60.4159 159.597 55.8132 0.22425 0.484589
448800 60.4159 159.61 55.8132 0.22435 0.234138
449000 60.4159 159.623 55.8132 0.22445 -0.0296261
449200 60.4159 159.637 55.8132 0.22455 -0.301011
449400 60.4159 159.65 55.8132 0.22465 -0.550105
449600 60.4159 159.663 55.8132 0.22475 -0.630323
449800 60.4159 159.676 55.8132 0.22485 -0.759505
450000 60.4159 159.689 55.8132 0.22495 -0.805018
450200 60.4159 159.702 55.8132 0.22505 -0.744534
450400 60.4159 159.715 55.8132 0.22515 -0.620938
450600 60.4159 159.728 55.8132 0.22525 -0.452156
450800 60.4159 159.741 55.8132 0.22535 -0.25745
451000 60.4159 159.754 55.8132 0.22545 0.0329477
451200 60.4159 159.767 55.8132 0.22555 0.278481
451400 60.4159 159.78 55.8132 0.22565 0.515565
451600 60.4159 159.793 55.8132 0.22575 0.706566
451800 60.4159 159.806 55.8132 0.22585 0.831762
452000 60.4159 159.819 55.8132 0.22595 0.864342
452200 60.4159 159.832 55.8132 0.22605 0.77461
452400 60.4159 159.845 55.8132 0.22615 0.626873
452600 60.4159 159.858 55.8132 0.22625 0.428305
452800 60.4159 159.871 55.8132 0.22635 0.155419
453000 60.4159 159.884 55.8132 0.22645 -0.105919
453200 60.4159 159.897 55.8132 0.22655 -0.306216
453400 60.4159 159.91 55.8132 0.22665 -0.52332
453600 60.4159 159.923 55.8132 0.22675 -0.675772
453800 60.4159 159.936 55.8132 0.22685 -0.782591
454000 60.4159 159.949 55.8132 0.22695 -0.781981
454200 60.4159 159.962 55.8132 0.22705 -0.698345
454400 60.4159 159.975 55.8132 0.22715 -0.575545
454600 60.4159 159.989 55.8132 0.22725 -0.407348
454800 60.4159 160.002 55.8132 0.22735 -0.173587
455000 60.4159 160.015 55.8132 0.22745 0.046666
455200 60.4159 160.028 55.8132 0.22755 0.3209
455400 60.4159 160.041 55.8132 0.22765 0.539665
455600 60.4159 160.054 55.8132 0.22775 0.737182
455800 60.4159 160.067 55.8132 0.22785 0.805529
456000 60.4159 160.08 55.8132 0.22795 0.835954
456200 60.4159 160.093 55.8132 0.22805 0.744183
456400 60.4159 160.106 55.8132 0.22815 0.583802
456600 60.4159 160.119 55.8132 0.22825 0.326499
456800 60.4159 160.132 55.8132 0.22835 0.108414
457000 60.4159 160.145 55.8132 0.22845 -0.114596
457200 60.4159 160.158 55.8132 0.22855 -0.352636
457400 60.4159 160.171 55.8132 0.22865 -0.559715
457600 60.4159 160.184 55.8132 0.22875 -0.667313
457800 60.4159 160.197 55.8132 0.22885 -0.75209
458000 60.4159 160.21 55.8132 0.22895 -0.743651
458200 60.4159 160.223 55.8132 0.22905 -0.67406
458400 60.4159 160.236 55.8132 0.22915 -0.553265
458600 60.4159 160.249 55.8132 0.22925 -0.335989
458800 60.4159 160.262 55.8132 0.22935 -0.12032
459000 60.4159 160.275 55.8132 0.22945 0.128091
459200 60.4159 160.288 55.8132 0.22955 0.363332
459400 60.4159 160.301 55.8132 0.22965 0.573569
459600 60.4159 160.314 55.8132 0.22975 0.714625
459800 60.4159 160.327 55.8132 0.22985 0.814422
460000 60.4159 160.34 55.8132 0.22995 0.808743
460200 60.4159 160.354 55.8132 0.23005 0.685094
460400 60.4159 160.367 55.8132 0.23015 0.50896
460600 60.4159 160.38 55.8132 0.23025 0.290176
460800 60.4159 160.393 55.8132 0.23035 0.036758
461000 60.4159 160.406 55.8132 0.23045 -0.202548
461200 60.4159 160.419 55.8132 0.23055 -0.389412
461400 60.4159 160.432 55.8132 0.23065 -0.554678
461600 60.4159 160.445 55.8132 0.23075 -0.665846
461800 60.4159 160.458 55.8132 0.23085 -0.760483
462000 60.4159 160.471 55.8132 0.23095 -0.708193
462200 60.4159 160.484 55.8132 0.23105 -0.620832
462400 60.4159 160.497 55.8132 0.23115 -0.509367
462600 60.4159 160.51 55.8132 0.23125 -0.293663
462800 60.4159 160.523 55.8132 0.23135 -0.0501186
463000 60.4159 160.536 55.8132 0.23145 0.180612
463200 60.4159 160.549 55.8132 0.23155 0.402958
463400 60.4159 160.562 55.8132 0.23165 0.599091
463600 60.4159 160.575 55.8132 0.23175 0.739146
463800 60.4159 160.588 55.8132 0.23185 0.769118
464000 60.4159 160.601 55.8132 0.23195 0.768945
464200 60.4159 160.614 55.8132 0.23205 0.651583
464400 60.4159 160.627 55.8132 0.23215 0.471479
464600 60.4159 160.64 55.8132 0.23225 0.237382
464800 60.4159 160.653 55.8132 0.23235 0.00180923
465000 60.4159 160.666 55.8132 0.23245 -0.246403
465200 60.4159 160.679 55.8132 0.23255 -0.418979
465400 60.4159 160.692 55.8132 0.23265 -0.600539
465600 60.4159 160.706 55.8132 0.23275 -0.692337
465800 60.4159 160.719 55.8132 0.23285 -0.732856
466000 60.4159 160.732 55.8132 0.23295 -0.688588
466200 60.4159 160.745 55.8132 0.23305 -0.581059
466400 60.4159 160.758 55.8132 0.23315 -0.451119
466600 60.4159 160.771 55.8132 0.23325 -0.227401
466800 60.4159 160.784 55.8132 0.23335 -0.00899233
467000 60.4159 160.797 55.8132 0.23345 0.221407
467200 60.4159 160.81 55.8132 0.23355 0.466231
467400 60.4159 160.823 55.8132 0.23365 0.610164
467600 60.4159 160.836 55.8132 0.23375 0.75241
467800 60.4159 160.849 55.8132 0.23385 0.78581
468000 60.4159 160.862 55.8132 0.23395 0.704823
468200 60.4159 160.875 55.8132 0.23405 0.600068
468400 60.4159 160.888 55.8132 0.23415 0.401268
468600 60.4159 160.901 55.8132 0.23425 0.174583
468800 60.4159 160.914 55.8132 0.23435 -0.0442526
469000 60.4159 160.927 55.8132 0.23445 -0.281186
469200 60.4159 160.94 55.8132 0.23455 -0.456759
469400 60.4159 160.953 55.8132 0.23465 -0.636954
469600 60.4159 160.966 55.8132 0.23475 -0.700156
469800 60.4159 160.979 55.8132 0.23485 -0.701082
470000 60.4159 160.992 55.8132 0.23495 -0.622668
470200 60.4159 161.005 55.8132 0.23505 -0.532549
470400 60.4159 161.018 55.8132 0.23515 -0.419609
470600 60.4159 161.031 55.8132 0.23525 -0.17681
470800 60.4159 161.044 55.8132 0.23535 0.064411
471000 60.4159 161.057 55.8132 0.23545 0.272357
471200 60.4159 161.071 55.8132 0.23555 0.478374
471400 60.4159 161.084 55.8132 0.23565 0.652164
471600 60.4159 161.097 55.8132 0.23575 0.735049
471800 60.4159 161.11 55.8132 0.23585 0.747144
472000 60.4159 161.123 55.8132 0.23595 0.69872
472200 60.4159 161.136 55.8132 0.23605 0.518899
472400 60.4159 161.149 55.8132 0.23615 0.32723
472600 60.4159 161.162 55.8132 0.23625 0.125217
472800 60.4159 161.175 55.8132 0.23635 -0.092727
473000 60.4159 161.188 55.8132 0.23645 -0.322384
473200 60.4159 161.201 55.8132 0.23655 -0.49265
473400 60.4159 161.214 55.8132 0.23665 -0.596943
473600 60.4159 161.227 55.8132 0.23675 -0.695279
473800 60.4159 161.24 55.8132 0.23685 -0.677406
474000 60.4159 161.253 55.8132 0.23695 -0.63897
474200 60.4159 161.266 55.8132 0.23705 -0.492811
474400 60.4159 161.279 55.8132 0.23715 -0.311095
474600 60.4159 161.292 55.8132 0.23725 -0.128424
474800 60.4159 161.305 55.8132 0.23735 0.0854416
475000 60.4159 161.318 55.8132 0.23745 0.321042
475200 60.4159 161.331 55.8132 0.23755 0.498019
475400 60.4159 161.344 55.8132 0.23765 0.669159
475600 60.4159 161.357 55.8132 0.23775 0.715282
475800 60.4159 161.37 55.8132 0.23785 0.71837
476000 60.4159 161.383 55.8132 0.23795 0.652724
476200 60.4159 161.396 55.8132 0.23805 0.478656
476400 60.4159 161.409 55.8132 0.23815 0.277972
476600 60.4159 161.423 55.8132 0.23825 0.0692916
476800 60.4159 161.436 55.8132 0.23835 -0.157635
477000 60.4159 161.449 55.8132 0.23845 -0.324737
477200 60.4159 161.462 55.8132 0.23855 -0.522451
477400 60.4159 161.475 55.8132 0.23865 -0.6152
477600 60.4159 161.488 55.8132 0.23875 -0.659315
477800 60.4159 161.501 55.8132 0.23885 -0.680922
478000 60.4159 161.514 55.8132 0.23895 -0.583903
478200 60.4159 161.527 55.8132 0.23905 -0.455623
478400 60.4159 161.54 55.8132 0.23915 -0.279488
478600 60.4159 161.553 55.8132 0.23925 -0.0456846
478800 60.4159 161.566 55.8132 0.23935 0.129636
479000 60.4159 161.579 55.8132 0.23945 0.344544
479200 60.4159 161.592 55.8132 0.23955 0.512379
479400 60.4159 161.605 55.8132 0.23965 0.674222
479600 60.4159 161.618 55.8132 0.23975 0.718649
479800 60.4159 161.631 55.8132 0.23985 0.701441
480000 60.4159 161.644 55.8132 0.23995 0.596999
480200 60.4159 161.657 55.8132 0.24005 0.46607
480400 60.4159 161.67 55.8132 0.24015 0.242893
480600 60.4159 161.683 55.8132 0.24025 0.0108011
480800 60.4159 161.696 55.8132 0.24035 -0.198995
481000 60.4159 161.709 55.8132 0.24045 -0.386594
481200 60.4159 161.722 55.8132 0.24055 -0.523512
481400 60.4159 161.735 55.8132 0.24065 -0.610855
481600 60.4159 161.748 55.8132 0.24075 -0.674414
481800 60.4159 161.761 55.8132 0.24085 -0.645741
482000 60.4159 161.774 55.8132 0.24095 -0.573945
482200 60.4159 161.788 55.8132 0.24105 -0.422192
482400 60.4159 161.801 55.8132 0.24115 -0.226673
482600 60.4159 161.814 55.8132 0.24125 -0.0267812
482800 60.4159 161.827 55.8132 0.24135 0.186627
483000 60.4159 161.84 55.8132 0.24145 0.403149
483200 60.4159 161.853 55.8132 0.24155 0.545943
483400 60.4159 161.866 55.8132 0.24165 0.664623
483600 60.4159 161.879 55.8132 0.24175 0.709232
483800 60.4159 161.892 55.8132 0.24185 0.665473
484000 60.4159 161.905 55.8132 0.24195 0.588355
484200 60.4159 161.918 55.8132 0.24205 0.399821
484400 60.4159 161.931 55.8132 0.24215 0.202983
484600 60.4159 161.944 55.8132 0.24225 -0.0344251
484800 60.4159 161.957 55.8132 0.24235 -0.213802
485000 60.4159 161.97 55.8132 0.24245 -0.43132
485200 60.4159 161.983 55.8132 0.24255 -0.558624
485400 60.4159 161.996 55.8132 0.24265 -0.603431
485600 60.4159 162.009 55.8132 0.24275 -0.649305
485800 60.4159 162.022 55.8132 0.24285 -0.612701
486000 60.4159 162.035 55.8132 0.24295 -0.545594
486200 60.4159 162.048 55.8132 0.24305 -0.366048
486400 60.4159 162.061 55.8132 0.24315 -0.20905
486600 60.4159 162.074 55.8132 0.24325 0.00854663
486800 60.4159 162.087 55.8132 0.24335 0.254842
487000 60.4159 162.1 55.8132 0.24345 0.403714
487200 60.4159 162.113 55.8132 0.24355 0.615372
487400 60.4159 162.126 55.8132 0.24365 0.672106
487600 60.4159 162.14 55.8132 0.24375 0.686118
487800 60.4159 162.153 55.8132 0.24385 0.651216
488000 60.4159 162.166 55.8132 0.24395 0.540705
488200 60.4159 162.179 55.8132 0.24405 0.350298
488400 60.4159 162.192 55.8132 0.24415 0.135087
488600 60.4159 162.205 55.8132 0.24425 -0.0698849
488800 60.4159 162.218 55.8132 0.24435 -0.261498
489000 60.4159 162.231 55.8132 0.24445 -0.452965
489200 60.4159 162.244 55.8132 0.24455 -0.577285
489400 60.4159 162.257 55.8132 0.24465 -0.640245
489600 60.4159 162.27 55.8132 0.24475 -0.644658
489800 60.4159 162.283 55.8132 0.24485 -0.597104
490000 60.4159 162.296 55.8132 0.24495 -0.48212
490200 60.4159 162.309 55.8132 0.24505 -0.328428
490400 60.4159 162.322 55.8132 0.24515 -0.146147
490600 60.4159 162.335 55.8132 0.24525 0.0621464
490800 60.4159 162.348 55.8132 0.24535 0.300237
491000 60.4159 162.361 55.8132 0.24545 0.468974
491200 60.4159 162.374 55.8132 0.24555 0.588005
491400 60.4159 162.387 55.8132 0.24565 0.70823
491600 60.4159 162.4 55.8132 0.24575 0.697539
491800 60.4159 162.413 55.8132 0.24585 0.599203
492000 60.4159 162.426 55.8132 0.24595 0.471073
492200 60.4159 162.439 55.8132 0.24605 0.278923
492400 60.4159 162.452 55.8132 0.24615 0.0801356
492600 60.4159 162.465 55.8132 0.24625 -0.122718
492800 60.4159 162.478 55.8132 0.24635 -0.282765
493000 60.4159 162.491 55.8132 0.24645 -0.471517
493200 60.4159 162.505 55.8132 0.24655 -0.591667
493400 60.4159 162.518 55.8132 0.24665 -0.632955
493600 60.4159 162.531 55.8132 0.24675 -0.617801
493800 60.4159 162.544 55.8132 0.24685 -0.555113
494000 60.4159 162.557 55.8132 0.24695 -0.478822
494200 60.4159 162.57 55.8132 0.24705 -0.253379
494400 60.4159 162.583 55.8132 0.24715 -0.0772588
494600 60.4159 162.596 55.8132 0.24725 0.135189
494800 60.4159 162.609 55.8132 0.24735 0.299101
495000 60.4159 162.622 55.8132 0.24745 0.477482
495200 60.4159 162.635 55.8132 0.24755 0.622476
495400 60.4159 162.648 55.8132 0.24765 0.657066
495600 60.4159 162.661 55.8132 0.24775 0.681447
495800 60.4159 162.674 55.8132 0.24785 0.567606
496000 60.4159 162.687 55.8132 0.24795 0.414427
496200 60.4159 162.7 55.8132 0.24805 0.237083
496400 60.4159 162.713 55.8132 0.24815 0.0438293
496600 60.4159 162.726 55.8132 0.24825 -0.185498
496800 60.4159 162.739 55.8132 0.24835 -0.33823
497000 60.4159 162.752 55.8132 0.24845 -0.485331
497200 60.4159 162.765 55.8132 0.24855 -0.561136
497400 60.4159 162.778 55.8132 0.24865 -0.603563
497600 60.4159 162.791 55.8132 0.24875 -0.596457
497800 60.4159 162.804 55.8132 0.24885 -0.529579
498000 60.4159 162.817 55.8132 0.24895 -0.409488
498200 60.4159 162.83 55.8132 0.24905 -0.231708
498400 60.4159 162.843 55.8132 0.24915 -0.0389004
498600 60.4159 162.857 55.8132 0.24925 0.165291
498800 60.4159 162.87 55.8132 0.24935 0.353941
499000 60.4159 162.883 55.8132 0.24945 0.506969
499200 60.4159 162.896 55.8132 0.24955 0.625592
499400 60.4159 162.909 55.8132 0.24965 0.626859
499600 60.4159 162.922 55.8132 0.24975 0.641037
499800 60.4159 162.935 55.8132 0.24985 0.52709
500000 60.4159 162.948 55.8132 0.24995 0.37434
500200 60.4159 162.961 55.8132 0.25005 0.21633
500400 60.4159 162.974 55.8132 0.25015 -0.0172378
500600 60.4159 162.987 55.8132 0.25025 -0.200529
500800 60.4159 163 55.8132 0.25035 -0.380011
501000 60.4159 163.013 55.8132 0.25045 -0.487745
501200 60.4159 163.026 55.8132 0.25055 -0.575256
501400 60.4159 163.039 55.8132 0.25065 -0.6059
501600 60.4159 163.052 55.8132 0.25075 -0.564176
501800 60.4159 163.065 55.8132 0.25085 -0.478107
502000 60.4159 163.078 55.8132 0.25095 -0.376615
502200 60.4159 163.091 55.8132 0.25105 -0.195747
502400 60.4159 163.104 55.8132 0.25115 0.00180456
502600 60.4159 163.117 55.8132 0.25125 0.205874
502800 60.4159 163.13 55.8132 0.25135 0.366835
503000 60.4159 163.143 55.8132 0.25145 0.526228
503200 60.4159 163.156 55.8132 0.25155 0.635438
503400 60.4159 163.169 55.8132 0.25165 0.628629
503600 60.4159 163.182 55.8132 0.25175 0.593682
503800 60.4159 163.195 55.8132 0.25185 0.487396
504000 60.4159 163.208 55.8132 0.25195 0.336833
504200 60.4159 163.222 55.8132 0.25205 0.129515
504400 60.4159 163.235 55.8132 0.25215 -0.035473
504600 60.4159 163.248 55.8132 0.25225 -0.222834
504800 60.4159 163.261 55.8132 0.25235 -0.401324
505000 60.4159 163.274 55.8132 0.25245 -0.487852
505200 60.4159 163.287 55.8132 0.25255 -0.584376
505400 60.4159 163.3 55.8132 0.25265 -0.590682
505600 60.4159 163.313 55.8132 0.25275 -0.556011
505800 60.4159 163.326 55.8132 0.25285 -0.448796
506000 60.4159 163.339 55.8132 0.25295 -0.318295
506200 60.4159 163.352 55.8132 0.25305 -0.13992
506400 60.4159 163.365 55.8132 0.25315 0.0583934
506600 60.4159 163.378 55.8132 0.25325 0.246168
506800 60.4159 163.391 55.8132 0.25335 0.40745
507000 60.4159 163.404 55.8132 0.25345 0.538452
507200 60.4159 163.417 55.8132 0.25355 0.616542
507400 60.4159 163.43 55.8132 0.25365 0.625272
507600 60.4159 163.443 55.8132 0.25375 0.578283
507800 60.4159 163.456 55.8132 0.25385 0.440692
508000 60.4159 163.469 55.8132 0.25395 0.267567
508200 60.4159 163.482 55.8132 0.25405 0.0961577
508400 60.4159 163.495 55.8132 0.25415 -0.0982544
508600 60.4159 163.508 55.8132 0.25425 -0.267518
508800 60.4159 163.521 55.8132 0.25435 -0.421863
509000 60.4159 163.534 55.8132 0.25445 -0.516866
509200 60.4159 163.547 55.8132 0.25455 -0.58371
509400 60.4159 163.56 55.8132 0.25465 -0.58822
509600 60.4159 163.574 55.8132 0.25475 -0.528076
509800 60.4159 163.587 55.8132 0.25485 -0.414604
510000 60.4159 163.6 55.8132 0.25495 -0.258127
510200 60.4159 163.613 55.8132 0.25505 -0.0722639
510400 60.4159 163.626 55.8132 0.25515 0.0766798
510600 60.4159 163.639 55.8132 0.25525 0.28615
510800 60.4159 163.652 55.8132 0.25535 0.43744
511000 60.4159 163.665 55.8132 0.25545 0.574534
511200 60.4159 163.678 55.8132 0.25555 0.607802
511400 60.4159 163.691 55.8132 0.25565 0.637619
511600 60.4159 163.704 55.8132 0.25575 0.565411
511800 60.4159 163.717 55.8132 0.25585 0.393091
512000 60.4159 163.73 55.8132 0.25595 0.203834
512200 60.4159 163.743 55.8132 0.25605 0.027703
512400 60.4159 163.756 55.8132 0.25615 -0.13658
512600 60.4159 163.769 55.8132 0.25625 -0.319371
512800 60.4159 163.782 55.8132 0.25635 -0.422785
513000 60.4159 163.795 55.8132 0.25645 -0.538243
513200 60.4159 163.808 55.8132 0.25655 -0.580318
513400 60.4159 163.821 55.8132 0.25665 -0.554724
513600 60.4159 163.834 55.8132 0.25675 -0.509143
513800 60.4159 163.847 55.8132 0.25685 -0.384855
514000 60.4159 163.86 55.8132 0.25695 -0.207477
514200 60.4159 163.873 55.8132 0.25705 -0.0416602
514400 60.4159 163.886 55.8132 0.25715 0.165172
514600 60.4159 163.899 55.8132 0.25725 0.32689
514800 60.4159 163.912 55.8132 0.25735 0.4796
515000 60.4159 163.925 55.8132 0.25745 0.550241
515200 60.4159 163.939 55.8132 0.25755 0.605203
515400 60.4159 163.952 55.8132 0.25765 0.588688
515600 60.4159 163.965 55.8132 0.25775 0.517071
515800 60.4159 163.978 55.8132 0.25785 0.343871
516000 60.4159 163.991 55.8132 0.25795 0.19781
516200 60.4159 164.004 55.8132 0.25805 -0.0208517
516400 60.4159 164.017 55.8132 0.25815 -0.199417
516600 60.4159 164.03 55.8132 0.25825 -0.345394
516800 60.4159 164.043 55.8132 0.25835 -0.468211
517000 60.4159 164.056 55.8132 0.25845 -0.522629
517200 60.4159 164.069 55.8132 0.25855 -0.560015
517400 60.4159 164.082 55.8132 0.25865 -0.539392
517600 60.4159 164.095 55.8132 0.25875 -0.450446
517800 60.4159 164.108 55.8132 0.25885 -0.329851
518000 60.4159 164.121 55.8132 0.25895 -0.186672
518200 60.4159 164.134 55.8132 0.25905 0.0132694
518400 60.4159 164.147 55.8132 0.25915 0.202461
518600 60.4159 164.16 55.8132 0.25925 0.365626
518800 60.4159 164.173 55.8132 0.25935 0.509008
519000 60.4159 164.186 55.8132 0.25945 0.563629
519200 60.4159 164.199 55.8132 0.25955 0.587784
519400 60.4159 164.212 55.8132 0.25965 0.541518
519600 60.4159 164.225 55.8132 0.25975 0.449262
519800 60.4159 164.238 55.8132 0.25985 0.301662
520000 60.4159 164.251 55.8132 0.25995 0.162045
520200 60.4159 164.264 55.8132 0.26005 -0.0635098
520400 60.4159 164.277 55.8132 0.26015 -0.212735
520600 60.4159 164.291 55.8132 0.26025 -0.394127
520800 60.4159 164.304 55.8132 0.26035 -0.483284
521000 60.4159 164.317 55.8132 0.26045 -0.542196
521200 60.4159 164.33 55.8132 0.26055 -0.545163
521400 60.4159 164.343 55.8132 0.26065 -0.490209
521600 60.4159 164.356 55.8132 0.26075 -0.430798
521800 60.4159 164.369 55.8132 0.26085 -0.289566
522000 60.4159 164.382 55.8132 0.26095 -0.125754
522200 60.4159 164.395 55.8132 0.26105 0.0411681
522400 60.4159 164.408 55.8132 0.26115 0.228131
522600 60.4159 164.421 55.8132 0.26125 0.390321
522800 60.4159 164.434 55.8132 0.26135 0.515851
523000 60.4159 164.447 55.8132 0.26145 0.581665
523200 60.4159 164.46 55.8132 0.26155 0.558656
523400 60.4159 164.473 55.8132 0.26165 0.519992
523600 60.4159 164.486 55.8132 0.26175 0.411507
523800 60.4159 164.499 55.8132 0.26185 0.276257
524000 60.4159 164.512 55.8132 0.26195 0.0999796
524200 60.4159 164.525 55.8132 0.26205 -0.0815044
524400 60.4159 164.538 55.8132 0.26215 -0.277369
524600 60.4159 164.551 55.8132 0.26225 -0.378463
524800 60.4159 164.564 55.8132 0.26235 -0.455314
525000 60.4159 164.577 55.8132 0.26245 -0.56671
525200 60.4159 164.59 55.8132 0.26255 -0.525995
525400 60.4159 164.603 55.8132 0.26265 -0.473267
525600 60.4159 164.616 55.8132 0.26275 -0.38446
525800 60.4159 164.629 55.8132 0.26285 -0.25297
526000 60.4159 164.642 55.8132 0.26295 -0.0998465
526200 60.4159 164.656 55.8132 0.26305 0.0880437
526400 60.4159 164.669 55.8132 0.26315 0.270675
526600 60.4159 164.682 55.8132 0.26325 0.394659
526800 60.4159 164.695 55.8132 0.26335 0.532649
527000 60.4159 164.708 55.8132 0.26345 0.578901
527200 60.4159 164.721 55.8132 0.26355 0.560727
527400 60.4159 164.734 55.8132 0.26365 0.494293
527600 60.4159 164.747 55.8132 0.26375 0.373041
527800 60.4159 164.76 55.8132 0.26385 0.216023
528000 60.4159 164.773 55.8132 0.26395 0.04029
528200 60.4159 164.786 55.8132 0.26405 -0.114571
528400 60.4159 164.799 55.8132 0.26415 -0.277536
528600 60.4159 164.812 55.8132 0.26425 -0.410446
528800 60.4159 164.825 55.8132 0.26435 -0.508928
529000 60.4159 164.838 55.8132 0.26445 -0.514061
529200 60.4159 164.851 55.8132 0.26455 -0.529473
529400 60.4159 164.864 55.8132 0.26465 -0.455344
529600 60.4159 164.877 55.8132 0.26475 -0.342347
529800 60.4159 164.89 55.8132 0.26485 -0.19925
530000 60.4159 164.903 55.8132 0.26495 -0.0492082
530200 60.4159 164.916 55.8132 0.26505 0.148173
530400 60.4159 164.929 55.8132 0.26515 0.269986
530600 60.4159 164.942 55.8132 0.26525 0.446409
530800 60.4159 164.955 55.8132 0.26535 0.530584
531000 60.4159 164.968 55.8132 0.26545 0.547643
531200 60.4159 164.981 55.8132 0.26555 0.53791
531400 60.4159 164.994 55.8132 0.26565 0.480489
531600 60.4159 165.008 55.8132 0.26575 0.318195
531800 60.4159 165.021 55.8132 0.26585 0.178432
532000 60.4159 165.034 55.8132 0.26595 -0.00665853
532200 60.4159 165.047 55.8132 0.26605 -0.160801
532400 60.4159 165.06 55.8132 0.26615 -0.315515
532600 60.4159 165.073 55.8132 0.26625 -0.414363
532800 60.4159 165.086 55.8132 0.26635 -0.48177
533000 60.4159 165.099 55.8132 0.26645 -0.533154
533200 60.4159 165.112 55.8132 0.26655 -0.499511
533400 60.4159 165.125 55.8132 0.26665 -0.41202
533600 60.4159 165.138 55.8132 0.26675 -0.33017
533800 60.4159 165.151 55.8132 0.26685 -0.154928
534000 60.4159 165.164 55.8132 0.26695 0.0104776
534200 60.4159 165.177 55.8132 0.26705 0.181839
534400 60.4159 165.19 55.8132 0.26715 0.330696
534600 60.4159 165.203 55.8132 0.26725 0.451647
534800 60.4159 165.216 55.8132 0.26735 0.516798
535000 60.4159 165.229 55.8132 0.26745 0.562022
535200 60.4159 165.242 55.8132 0.26755 0.515795
535400 60.4159 165.255 55.8132 0.26765 0.428874
535600 60.4159 165.268 55.8132 0.26775 0.294631
535800 60.4159 165.281 55.8132 0.26785 0.115689
536000 60.4159 165.294 55.8132 0.26795 -0.0523786
536200 60.4159 165.307 55.8132 0.26805 -0.192391
536400 60.4159 165.32 55.8132 0.26815 -0.356605
536600 60.4159 165.333 55.8132 0.26825 -0.445057
536800 60.4159 165.346 55.8132 0.26835 -0.495903
537000 60.4159 165.359 55.8132 0.26845 -0.510347
537200 60.4159 165.373 55.8132 0.26855 -0.470841
537400 60.4159 165.386 55.8132 0.26865 -0.399493
537600 60.4159 165.399 55.8132 0.26875 -0.279734
537800 60.4159 165.412 55.8132 0.26885 -0.097326
538000 60.4159 165.425 55.8132 0.26895 0.0359655
538200 60.4159 165.438 55.8132 0.26905 0.219988
538400 60.4159 165.451 55.8132 0.26915 0.35904
538600 60.4159 165.464 55.8132 0.26925 0.478236
538800 60.4159 165.477 55.8132 0.26935 0.54717
539000 60.4159 165.49 55.8132 0.26945 0.548291
539200 60.4159 165.503 55.8132 0.26955 0.471634
539400 60.4159 165.516 55.8132 0.26965 0.384853
539600 60.4159 165.529 55.8132 0.26975 0.254279
539800 60.4159 165.542 55.8132 0.26985 0.0825484
540000 60.4159 165.555 55.8132 0.26995 -0.0814121
540200 60.4159 165.568 55.8132 0.27005 -0.230837
540400 60.4159 165.581 55.8132 0.27015 -0.367401
540600 60.4159 165.594 55.8132 0.27025 -0.459284
540800 60.4159 165.607 55.8132 0.27035 -0.519552
541000 60.4159 165.62 55.8132 0.27045 -0.526362
541200 60.4159 165.633 55.8132 0.27055 -0.423456
541400 60.4159 165.646 55.8132 0.27065 -0.341991
541600 60.4159 165.659 55.8132 0.27075 -0.253723
541800 60.4159 165.672 55.8132 0.27085 -0.0920055
542000 60.4159 165.685 55.8132 0.27095 0.0773052
542200 60.4159 165.698 55.8132 0.27105 0.258567
542400 60.4159 165.711 55.8132 0.27115 0.385341
542600 60.4159 165.725 55.8132 0.27125 0.504205
542800 60.4159 165.738 55.8132 0.27135 0.529606
543000 60.4159 165.751 55.8132 0.27145 0.530275
543200 60.4159 165.764 55.8132 0.27155 0.474763
543400 60.4159 165.777 55.8132 0.27165 0.332769
543600 60.4159 165.79 55.8132 0.27175 0.191522
543800 60.4159 165.803 55.8132 0.27185 0.0567645
544000 60.4159 165.816 55.8132 0.27195 -0.108063
544200 60.4159 165.829 55.8132 0.27205 -0.256364
544400 60.4159 165.842 55.8132 0.27215 -0.392353
544600 60.4159 165.855 55.8132 0.27225 -0.466823
544800 60.4159 165.868 55.8132 0.27235 -0.492129
545000 60.4159 165.881 55.8132 0.27245 -0.492654
545200 60.4159 165.894 55.8132 0.27255 -0.423164
545400 60.4159 165.907 55.8132 0.27265 -0.325456
545600 60.4159 165.92 55.8132 0.27275 -0.190294
545800 60.4159 165.933 55.8132 0.27285 -0.0305102
546000 60.4159 165.946 55.8132 0.27295 0.124294
546200 60.4159 165.959 55.8132 0.27305 0.260318
546400 60.4159 165.972 55.8132 0.27315 0.412082
546600 60.4159 165.985 55.8132 0.27325 0.496144
546800 60.4159 165.998 55.8132 0.27335 0.5367
547000 60.4159 166.011 55.8132 0.27345 0.48506
547200 60.4159 166.024 55.8132 0.27355 0.441652
547400 60.4159 166.037 55.8132 0.27365 0.322463
547600 60.4159 166.05 55.8132 0.27375 0.141977
547800 60.4159 166.063 55.8132 0.27385 -0.00198731
548000 60.4159 166.076 55.8132 0.27395 -0.158256
548200 60.4159 166.09 55.8132 0.27405 -0.276544
548400 60.4159 166.103 55.8132 0.27415 -0.380157
548600 60.4159 166.116 55.8132 0.27425 -0.472784
548800 60.4159 166.129 55.8132 0.27435 -0.506832
549000 60.4159 166.142 55.8132 0.27445 -0.447883
549200 60.4159 166.155 55.8132 0.27455 -0.408099
549400 60.4159 166.168 55.8132 0.27465 -0.272286
549600 60.4159 166.181 55.8132 0.27475 -0.159419
549800 60.4159 166.194 55.8132 0.27485 -0.00577158
550000 60.4159 166.207 55.8132 0.27495 0.150061
550200 60.4159 166.22 55.8132 0.27505 0.293289
550400 60.4159 166.233 55.8132 0.27515 0.443601
550600 60.4159 166.246 55.8132 0.27525 0.480079
550800 60.4159 166.259 55.8132 0.27535 0.497161
551000 60.4159 166.272 55.8132 0.27545 0.499336
551200 60.4159 166.285 55.8132 0.27555 0.409543
551400 60.4159 166.298 55.8132 0.27565 0.258649
551600 60.4159 166.311 55.8132 0.27575 0.12638
551800 60.4159 166.324 55.8132 0.27585 -0.0250617
552000 60.4159 166.337 55.8132 0.27595 -0.173851
552200 60.4159 166.35 55.8132 0.27605 -0.309793
552400 60.4159 166.363 55.8132 0.27615 -0.405146
552600 60.4159 166.376 55.8132 0.27625 -0.458399
552800 60.4159 166.389 55.8132 0.27635 -0.504997
553000 60.4159 166.402 55.8132 0.27645 -0.428394
553200 60.4159 166.415 55.8132 0.27655 -0.372051
553400 60.4159 166.428 55.8132 0.27665 -0.245344
553600 60.4159 166.442 55.8132 0.27675 -0.0987007
553800 60.4159 166.455 55.8132 0.27685 0.0155527
554000 60.4159 166.468 55.8132 0.27695 0.213959
554200 60.4159 166.481 55.8132 0.27705 0.317922
554400 60.4159 166.494 55.8132 0.27715 0.436096
554600 60.4159 166.507 55.8132 0.27725 0.497752
554800 60.4159 166.52 55.8132 0.27735 0.486971
555000 60.4159 166.533 55.8132 0.27745 0.465441
555200 60.4159 166.546 55.8132 0.27755 0.363853
555400 60.4159 166.559 55.8132 0.27765 0.224979
555600 60.4159 166.572 55.8132 0.27775 0.0798028
555800 60.4159 166.585 55.8132 0.27785 -0.069862
556000 60.4159 166.598 55.8132 0.27795 -0.227311
556200 60.4159 166.611 55.8132 0.27805 -0.327335
556400 60.4159 166.624 55.8132 0.27815 -0.4134
556600 60.4159 166.637 55.8132 0.27825 -0.479695
556800 60.4159 166.65 55.8132 0.27835 -0.457996
557000 60.4159 166.663 55.8132 0.27845 -0.399854
557200 60.4159 166.676 55.8132 0.27855 -0.32201
557400 60.4159 166.689 55.8132 0.27865 -0.247744
557600 60.4159 166.702 55.8132 0.27875 -0.0743838
557800 60.4159 166.715 55.8132 0.27885 0.0926477
558000 60.4159 166.728 55.8132 0.27895 0.252487
558200 60.4159 166.741 55.8132 0.27905 0.361631
558400 60.4159 166.754 55.8132 0.27915 0.454012
558600 60.4159 166.767 55.8132 0.27925 0.485206
558800 60.4159 166.78 55.8132 0.27935 0.47375
559000 60.4159 166.793 55.8132 0.27945 0.416526
559200 60.4159 166.807 55.8132 0.27955 0.317334
559400 60.4159 166.82 55.8132 0.27965 0.206258
559600 60.4159 166.833 55.8132 0.27975 0.0535528
559800 60.4159 166.846 55.8132 0.27985 -0.115611
560000 60.4159 166.859 55.8132 0.27995 -0.249168
560200 60.4159 166.872 55.8132 0.28005 -0.373081
560400 60.4159 166.885 55.8132 0.28015 -0.427638
560600 60.4159 166.898 55.8132 0.28025 -0.465292
560800 60.4159 166.911 55.8132 0.28035 -0.434505
561000 60.4159 166.924 55.8132 0.28045 -0.391559
561200 60.4159 166.937 55.8132 0.28055 -0.289701
561400 60.4159 166.95 55.8132 0.28065 -0.164505
561600 60.4159 166.963 55.8132 0.28075 -0.0417209
561800 60.4159 166.976 55.8132 0.28085 0.0888625
562000 60.4159 166.989 55.8132 0.28095 0.264637
562200 60.4159 167.002 55.8132 0.28105 0.388612
562400 60.4159 167.015 55.8132 0.28115 0.46532
562600 60.4159 167.028 55.8132 0.28125 0.461576
562800 60.4159 167.041 55.8132 0.28135 0.462107
563000 60.4159 167.054 55.8132 0.28145 0.390813
563200 60.4159 167.067 55.8132 0.28155 0.292508
563400 60.4159 167.08 55.8132 0.28165 0.115513
563600 60.4159 167.093 55.8132 0.28175 0.0151877
563800 60.4159 167.106 55.8132 0.28185 -0.106632
564000 60.4159 167.119 55.8132 0.28195 -0.277065
564200 60.4159 167.132 55.8132 0.28205 -0.370363
564400 60.4159 167.145 55.8132 0.28215 -0.412826
564600 60.4159 167.159 55.8132 0.28225 -0.441154
564800 60.4159 167.172 55.8132 0.28235 -0.435298
565000 60.4159 167.185 55.8132 0.28245 -0.363014
565200 60.4159 167.198 55.8132 0.28255 -0.26112
565400 60.4159 167.211 55.8132 0.28265 -0.1284
565600 60.4159 167.224 55.8132 0.28275 0.021224
565800 60.4159 167.237 55.8132 0.28285 0.13769
566000 60.4159 167.25 55.8132 0.28295 0.263571
566200 60.4159 167.263 55.8132 0.28305 0.382983
566400 60.4159 167.276 55.8132 0.28315 0.45442
566600 60.4159 167.289 55.8132 0.28325 0.464315
566800 60.4159 167.302 55.8132 0.28335 0.447973
567000 60.4159 167.315 55.8132 0.28345 0.348598
567200 60.4159 167.328 55.8132 0.28355 0.239528
567400 60.4159 167.341 55.8132 0.28365 0.10698
567600 60.4159 167.354 55.8132 0.28375 -0.0210047
567800 60.4159 167.367 55.8132 0.28385 -0.197852
568000 60.4159 167.38 55.8132 0.28395 -0.289721
568200 60.4159 167.393 55.8132 0.28405 -0.343658
568400 60.4159 167.406 55.8132 0.28415 -0.407164
568600 60.4159 167.419 55.8132 0.28425 -0.433967
568800 60.4159 167.432 55.8132 0.28435 -0.412378
569000 60.4159 167.445 55.8132 0.28445 -0.336168
569200 60.4159 167.458 55.8132 0.28455 -0.23443
569400 60.4159 167.471 55.8132 0.28465 -0.100746
569600 60.4159 167.484 55.8132 0.28475 0.035945
569800 60.4159 167.497 55.8132 0.28485 0.185031
570000 60.4159 167.51 55.8132 0.28495 0.311298
570200 60.4159 167.524 55.8132 0.28505 0.384423
570400 60.4159 167.537 55.8132 0.28515 0.448987
570600 60.4159 167.55 55.8132 0.28525 0.45706
570800 60.4159 167.563 55.8132 0.28535 0.40928
571000 60.4159 167.576 55.8132 0.28545 0.343814
571200 60.4159 167.589 55.8132 0.28555 0.221775
571400 60.4159 167.602 55.8132 0.28565 0.0679203
571600 60.4159 167.615 55.8132 0.28575 -0.0735147
571800 60.4159 167.628 55.8132 0.28585 -0.210724
572000 60.4159 167.641 55.8132 0.28595 -0.29368
572200 60.4159 167.654 55.8132 0.28605 -0.389597
572400 60.4159 167.667 55.8132 0.28615 -0.401557
572600 60.4159 167.68 55.8132 0.28625 -0.420766
572800 60.4159 167.693 55.8132 0.28635 -0.391035
573000 60.4159 167.706 55.8132 0.28645 -0.290243
573200 60.4159 167.719 55.8132 0.28655 -0.207093
573400 60.4159 167.732 55.8132 0.28665 -0.0746441
573600 60.4159 167.745 55.8132 0.28675 0.0864616
573800 60.4159 167.758 55.8132 0.28685 0.215672
574000 60.4159 167.771 55.8132 0.28695 0.310847
574200 60.4159 167.784 55.8132 0.28705 0.401186
574400 60.4159 167.797 55.8132 0.28715 0.453347
574600 60.4159 167.81 55.8132 0.28725 0.436993
574800 60.4159 167.823 55.8132 0.28735 0.384505
575000 60.4159 167.836 55.8132 0.28745 0.313284
575200 60.4159 167.849 55.8132 0.28755 0.169476
575400 60.4159 167.862 55.8132 0.28765 0.0429671
575600 60.4159 167.876 55.8132 0.28775 -0.102824
575800 60.4159 167.889 55.8132 0.28785 -0.22155
576000 60.4159 167.902 55.8132 0.28795 -0.343544
576200 60.4159 167.915 55.8132 0.28805 -0.396176
576400 60.4159 167.928 55.8132 0.28815 -0.408207
576600 60.4159 167.941 55.8132 0.28825 -0.398274
576800 60.4159 167.954 55.8132 0.28835 -0.350346
577000 60.4159 167.967 55.8132 0.28845 -0.280552
577200 60.4159 167.98 55.8132 0.28855 -0.166383
577400 60.4159 167.993 55.8132 0.28865 -0.0166536
577600 60.4159 168.006 55.8132 0.28875 0.0975202
577800 60.4159 168.019 55.8132 0.28885 0.246584
578000 60.4159 168.032 55.8132 0.28895 0.354484
578200 60.4159 168.045 55.8132 0.28905 0.404125
578400 60.4159 168.058 55.8132 0.28915 0.443737
578600 60.4159 168.071 55.8132 0.28925 0.407713
578800 60.4159 168.084 55.8132 0.28935 0.374114
579000 60.4159 168.097 55.8132 0.28945 0.253759
579200 60.4159 168.11 55.8132 0.28955 0.14935
579400 60.4159 168.123 55.8132 0.28965 -0.009164
579600 60.4159 168.136 55.8132 0.28975 -0.121061
579800 60.4159 168.149 55.8132 0.28985 -0.237123
580000 60.4159 168.162 55.8132 0.28995 -0.359546
580200 60.4159 168.175 55.8132 0.29005 -0.39618
580400 60.4159 168.188 55.8132 0.29015 -0.399636
580600 60.4159 168.201 55.8132 0.29025 -0.380041
580800 60.4159 168.214 55.8132 0.29035 -0.32507
581000 60.4159 168.227 55.8132 0.29045 -0.247369
581200 60.4159 168.241 55.8132 0.29055 -0.130462
581400 60.4159 168.254 55.8132 0.29065 0.0059214
581600 60.4159 168.267 55.8132 0.29075 0.145314
581800 60.4159 168.28 55.8132 0.29085 0.251798
582000 60.4159 168.293 55.8132 0.29095 0.365882
582200 60.4159 168.306 55.8132 0.29105 0.430093
582400 60.4159 168.319 55.8132 0.29115 0.427919
582600 60.4159 168.332 55.8132 0.29125 0.397174
582800 60.4159 168.345 55.8132 0.29135 0.323186
583000 60.4159 168.358 55.8132 0.29145 0.214046
583200 60.4159 168.371 55.8132 0.29155 0.105172
583400 60.4159 168.384 55.8132 0.29165 -0.0458232
583600 60.4159 168.397 55.8132 0.29175 -0.151673
583800 60.4159 168.41 55.8132 0.29185 -0.260046
584000 60.4159 168.423 55.8132 0.29195 -0.349228
584200 60.4159 168.436 55.8132 0.29205 -0.38744
584400 60.4159 168.449 55.8132 0.29215 -0.405
584600 60.4159 168.462 55.8132 0.29225 -0.381096
584800 60.4159 168.475 55.8132 0.29235 -0.294655
585000 60.4159 168.488 55.8132 0.29245 -0.190416
585200 60.4159 168.501 55.8132 0.29255 -0.0862779
585400 60.4159 168.514 55.8132 0.29265 0.0453169
585600 60.4159 168.527 55.8132 0.29275 0.168441
585800 60.4159 168.54 55.8132 0.29285 0.286486
586000 60.4159 168.553 55.8132 0.29295 0.355273
586200 60.4159 168.566 55.8132 0.29305 0.422528
586400 60.4159 168.579 55.8132 0.29315 0.407975
586600 60.4159 168.592 55.8132 0.29325 0.39899
586800 60.4159 168.606 55.8132 0.29335 0.295242
587000 60.4159 168.619 55.8132 0.29345 0.18707
587200 60.4159 168.632 55.8132 0.29355 0.0596564
587400 60.4159 168.645 55.8132 0.29365 -0.068076
587600 60.4159 168.658 55.8132 0.29375 -0.201752
587800 60.4159 168.671 55.8132 0.29385 -0.270415
588000 60.4159 168.684 55.8132 0.29395 -0.353691
588200 60.4159 168.697 55.8132 0.29405 -0.398843
588400 60.4159 168.71 55.8132 0.29415 -0.391271
588600 60.4159 168.723 55.8132 0.29425 -0.339885
588800 60.4159 168.736 55.8132 0.29435 -0.274873
589000 60.4159 168.749 55.8132 0.29445 -0.167027
589200 60.4159 168.762 55.8132 0.29455 -0.0711094
589400 60.4159 168.775 55.8132 0.29465 0.0861766
589600 60.4159 168.788 55.8132 0.29475 0.218243
589800 60.4159 168.801 55.8132 0.29485 0.300233
590000 60.4159 168.814 55.8132 0.29495 0.361567
590200 60.4159 168.827 55.8132 0.29505 0.413738
590400 60.4159 168.84 55.8132 0.29515 0.399105
590600 60.4159 168.853 55.8132 0.29525 0.361621
590800 60.4159 168.866 55.8132 0.29535 0.269407
591000 60.4159 168.879 55.8132 0.29545 0.137601
591200 60.4159 168.892 55.8132 0.29555 0.0355819
591400 60.4159 168.905 55.8132 0.29565 -0.102419
591600 60.4159 168.918 55.8132 0.29575 -0.192623
591800 60.4159 168.931 55.8132 0.29585 -0.303476
592000 60.4159 168.944 55.8132 0.29595 -0.356159
592200 60.4159 168.958 55.8132 0.29605 -0.381668
592400 60.4159 168.971 55.8132 0.29615 -0.379631
592600 60.4159 168.984 55.8132 0.29625 -0.316648
592800 60.4159 168.997 55.8132 0.29635 -0.243263
593000 60.4159 169.01 55.8132 0.29645 -0.135136
593200 60.4159 169.023 55.8132 0.29655 -0.0155071
593400 60.4159 169.036 55.8132 0.29665 0.0842401
593600 60.4159 169.049 55.8132 0.29675 0.228961
593800 60.4159 169.062 55.8132 0.29685 0.331007
594000 60.4159 169.075 55.8132 0.29695 0.395771
594200 60.4159 169.088 55.8132 0.29705 0.412445
594400 60.4159 169.101 55.8132 0.29715 0.354015
594600 60.4159 169.114 55.8132 0.29725 0.326762
594800 60.4159 169.127 55.8132 0.29735 0.233698
595000 60.4159 169.14 55.8132 0.29745 0.101415
595200 60.4159 169.153 55.8132 0.29755 0.011565
595400 60.4159 169.166 55.8132 0.29765 -0.124846
595600 60.4159 169.179 55.8132 0.29775 -0.234384
595800 60.4159 169.192 55.8132 0.29785 -0.325081
596000 60.4159 169.205 55.8132 0.29795 -0.363738
596200 60.4159 169.218 55.8132 0.29805 -0.362049
596400 60.4159 169.231 55.8132 0.29815 -0.362813
596600 60.4159 169.244 55.8132 0.29825 -0.292863
596800 60.4159 169.257 55.8132 0.29835 -0.208183
597000 60.4159 169.27 55.8132 0.29845 -0.105375
597200 60.4159 169.283 55.8132 0.29855 0.00950475
597400 60.4159 169.296 55.8132 0.29865 0.14598
597600 60.4159 169.309 55.8132 0.29875 0.237506
597800 60.4159 169.323 55.8132 0.29885 0.330764
598000 60.4159 169.336 55.8132 0.29895 0.383389
598200 60.4159 169.349 55.8132 0.29905 0.416991
598400 60.4159 169.362 55.8132 0.29915 0.379289
598600 60.4159 169.375 55.8132 0.29925 0.283356
598800 60.4159 169.388 55.8132 0.29935 0.197182
599000 60.4159 169.401 55.8132 0.29945 0.0730948
599200 60.4159 169.414 55.8132 0.29955 -0.0415141
599400 60.4159 169.427 55.8132 0.29965 -0.142503
599600 60.4159 169.44 55.8132 0.29975 -0.241812
599800 60.4159 169.453 55.8132 0.29985 -0.335471
600000 60.4159 169.466 55.8132 0.29995 -0.37426
600200 60.4159 169.479 55.8132 0.30005 -0.375319
600400 60.4159 169.492 55.8132 0.30015 -0.325114
600600 60.4159 169.505 55.8132 0.30025 -0.26317
600800 60.4159 169.518 55.8132 0.30035 -0.177839
601000 60.4159 169.531 55.8132 0.30045 -0.0566103
601200 60.4159 169.544 55.8132 0.30055 0.0505066
601400 60.4159 169.557 55.8132 0.30065 0.180849
601600 60.4159 169.57 55.8132 0.30075 0.248124
601800 60.4159 169.583 55.8132 0.30085 0.350162
602000 60.4159 169.596 55.8132 0.30095 0.401221
602200 60.4159 169.609 55.8132 0.30105 0.362717
602400 60.4159 169.622 55.8132 0.30115 0.342425
602600 60.4159 169.635 55.8132 0.30125 0.242542
602800 60.4159 169.648 55.8132 0.30135 0.149394
603000 60.4159 169.661 55.8132 0.30145 0.0544294
603200 60.4159 169.675 55.8132 0.30155 -0.0794021
603400 60.4159 169.688 55.8132 0.30165 -0.179833
603600 60.4159 169.701 55.8132 0.30175 -0.26896
603800 60.4159 169.714 55.8132 0.30185 -0.328935
604000 60.4159 169.727 55.8132 0.30195 -0.352324
604200 60.4159 169.74 55.8132 0.30205 -0.347484
604400 60.4159 169.753 55.8132 0.30215 -0.319621
604600 60.4159 169.766 55.8132 0.30225 -0.243162
604800 60.4159 169.779 55.8132 0.30235 -0.129044
605000 60.4159 169.792 55.8132 0.30245 -0.0256125
605200 60.4159 169.805 55.8132 0.30255 0.101802
605400 60.4159 169.818 55.8132 0.30265 0.208928
605600 60.4159 169.831 55.8132 0.30275 0.278065
605800 60.4159 169.844 55.8132 0.30285 0.347629
606000 60.4159 169.857 55.8132 0.30295 0.380481
606200 60.4159 169.87 55.8132 0.30305 0.364951
606400 60.4159 169.883 55.8132 0.30315 0.316552
606600 60.4159 169.896 55.8132 0.30325 0.229641
606800 60.4159 169.909 55.8132 0.30335 0.118861
607000 60.4159 169.922 55.8132 0.30345 0.00121396
607200 60.4159 169.935 55.8132 0.30355 -0.120344
607400 60.4159 169.948 55.8132 0.30365 -0.200073
607600 60.4159 169.961 55.8132 0.30375 -0.292414
607800 60.4159 169.974 55.8132 0.30385 -0.353286
608000 60.4159 169.987 55.8132 0.30395 -0.344641
608200 60.4159 170 55.8132 0.30405 -0.331163
608400 60.4159 170.013 55.8132 0.30415 -0.284693
608600 60.4159 170.026 55.8132 0.30425 -0.215032
608800 60.4159 170.04 55.8132 0.30435 -0.111446
609000 60.4159 170.053 55.8132 0.30445 0.0218671
609200 60.4159 170.066 55.8132 0.30455 0.112876
609400 60.4159 170.079 55.8132 0.30465 0.23262
609600 60.4159 170.092 55.8132 0.30475 0.317796
609800 60.4159 170.105 55.8132 0.30485 0.361084
610000 60.4159 170.118 55.8132 0.30495 0.364111
610200 60.4159 170.131 55.8132 0.30505 0.350986
610400 60.4159 170.144 55.8132 0.30515 0.299295
610600 60.4159 170.157 55.8132 0.30525 0.182318
610800 60.4159 170.17 55.8132 0.30535 0.0819182
611000 60.4159 170.183 55.8132 0.30545 -0.0312812
611200 60.4159 170.196 55.8132 0.30555 -0.139073
611400 60.4159 170.209 55.8132 0.30565 -0.241104
611600 60.4159 170.222 55.8132 0.30575 -0.302559
611800 60.4159 170.235 55.8132 0.30585 -0.344494
612000 60.4159 170.248 55.8132 0.30595 -0.319472
612200 60.4159 170.261 55.8132 0.30605 -0.341975
612400 60.4159 170.274 55.8132 0.30615 -0.269545
612600 60.4159 170.287 55.8132 0.30625 -0.16499
612800 60.4159 170.3 55.8132 0.30635 -0.0785061
613000 60.4159 170.313 55.8132 0.30645 0.0553503
613200 60.4159 170.326 55.8132 0.30655 0.157015
613400 60.4159 170.339 55.8132 0.30665 0.254779
613600 60.4159 170.352 55.8132 0.30675 0.329265
613800 60.4159 170.365 55.8132 0.30685 0.358395
614000 60.4159 170.378 55.8132 0.30695 0.352103
614200 60.4159 170.392 55.8132 0.30705 0.329383
614400 60.4159 170.405 55.8132 0.30715 0.254876
614600 60.4159 170.418 55.8132 0.30725 0.149078
614800 60.4159 170.431 55.8132 0.30735 0.0592845
615000 60.4159 170.444 55.8132 0.30745 -0.0555828
615200 60.4159 170.457 55.8132 0.30755 -0.180799
615400 60.4159 170.47 55.8132 0.30765 -0.261911
615600 60.4159 170.483 55.8132 0.30775 -0.30808
615800 60.4159 170.496 55.8132 0.30785 -0.354268
616000 60.4159 170.509 55.8132 0.30795 -0.340125
616200 60.4159 170.522 55.8132 0.30805 -0.302349
616400 60.4159 170.535 55.8132 0.30815 -0.228043
616600 60.4159 170.548 55.8132 0.30825 -0.134972
616800 60.4159 170.561 55.8132 0.30835 -0.0333817
617000 60.4159 170.574 55.8132 0.30845 0.0778126
617200 60.4159 170.587 55.8132 0.30855 0.173324
617400 60.4159 170.6 55.8132 0.30865 0.295573
617600 60.4159 170.613 55.8132 0.30875 0.314513
617800 60.4159 170.626 55.8132 0.30885 0.385774
618000 60.4159 170.639 55.8132 0.30895 0.362156
618200 60.4159 170.652 55.8132 0.30905 0.296799
618400 60.4159 170.665 55.8132 0.30915 0.215208
618600 60.4159 170.678 55.8132 0.30925 0.118691
618800 60.4159 170.691 55.8132 0.30935 0.0226407
619000 60.4159 170.704 55.8132 0.30945 -0.0927786
619200 60.4159 170.717 55.8132 0.30955 -0.20067
619400 60.4159 170.73 55.8132 0.30965 -0.259386
619600 60.4159 170.743 55.8132 0.30975 -0.347415
619800 60.4159 170.757 55.8132 0.30985 -0.337057
620000 60.4159 170.77 55.8132 0.30995 -0.332467
620200 60.4159 170.783 55.8132 0.31005 -0.282641
620400 60.4159 170.796 55.8132 0.31015 -0.215144
620600 60.4159 170.809 55.8132 0.31025 -0.107917
620800 60.4159 170.822 55.8132 0.31035 0.0164439
621000 60.4159 170.835 55.8132 0.31045 0.133622
621200 60.4159 170.848 55.8132 0.31055 0.199126
621400 60.4159 170.861 55.8132 0.31065 0.272646
621600 60.4159 170.874 55.8132 0.31075 0.352125
621800 60.4159 170.887 55.8132 0.31085 0.380208
622000 60.4159 170.9 55.8132 0.31095 0.352806
622200 60.4159 170.913 55.8132 0.31105 0.257646
622400 60.4159 170.926 55.8132 0.31115 0.213105
622600 60.4159 170.939 55.8132 0.31125 0.0720201
622800 60.4159 170.952 55.8132 0.31135 -0.0145675
623000 60.4159 170.965 55.8132 0.31145 -0.122542
623200 60.4159 170.978 55.8132 0.31155 -0.252294
623400 60.4159 170.991 55.8132 0.31165 -0.258146
623600 60.4159 171.004 55.8132 0.31175 -0.339941
623800 60.4159 171.017 55.8132 0.31185 -0.342999
624000 60.4159 171.03 55.8132 0.31195 -0.320536
624200 60.4159 171.043 55.8132 0.31205 -0.251795
624400 60.4159 171.056 55.8132 0.31215 -0.190439
624600 60.4159 171.069 55.8132 0.31225 -0.0599421
624800 60.4159 171.082 55.8132 0.31235 0.0130427
625000 60.4159 171.095 55.8132 0.31245 0.16972
625200 60.4159 171.109 55.8132 0.31255 0.227602
625400 60.4159 171.122 55.8132 0.31265 0.313959
625600 60.4159 171.135 55.8132 0.31275 0.37509
625800 60.4159 171.148 55.8132 0.31285 0.346936
626000 60.4159 171.161 55.8132 0.31295 0.329824
626200 60.4159 171.174 55.8132 0.31305 0.256566
626400 60.4159 171.187 55.8132 0.31315 0.139354
626600 60.4159 171.2 55.8132 0.31325 0.0666851
626800 60.4159 171.213 55.8132 0.31335 -0.077331
627000 60.4159 171.226 55.8132 0.31345 -0.156719
627200 60.4159 171.239 55.8132 0.31355 -0.248156
627400 60.4159 171.252 55.8132 0.31365 -0.2929
627600 60.4159 171.265 55.8132 0.31375 -0.330116
627800 60.4159 171.278 55.8132 0.31385 -0.327569
628000 60.4159 171.291 55.8132 0.31395 -0.300535
628200 60.4159 171.304 55.8132 0.31405 -0.237279
628400 60.4159 171.317 55.8132 0.31415 -0.134479
628600 60.4159 171.33 55.8132 0.31425 -0.0284005
628800 60.4159 171.343 55.8132 0.31435 0.0923656
629000 60.4159 171.356 55.8132 0.31445 0.162543
629200 60.4159 171.369 55.8132 0.31455 0.23039
629400 60.4159 171.382 55.8132 0.31465 0.326304
629600 60.4159 171.395 55.8132 0.31475 0.364217
629800 60.4159 171.408 55.8132 0.31485 0.318783
630000 60.4159 171.421 55.8132 0.31495 0.320535
630200 60.4159 171.434 55.8132 0.31505 0.207018
630400 60.4159 171.447 55.8132 0.31515 0.12783
630600 60.4159 171.46 55.8132 0.31525 0.0079294
630800 60.4159 171.474 55.8132 0.31535 -0.0953407
631000 60.4159 171.487 55.8132 0.31545 -0.169642
631200 60.4159 171.5 55.8132 0.31555 -0.249157
631400 60.4159 171.513 55.8132 0.31565 -0.29419
631600 60.4159 171.526 55.8132 0.31575 -0.328101
631800 60.4159 171.539 55.8132 0.31585 -0.305307
632000 60.4159 171.552 55.8132 0.31595 -0.276272
632200 60.4159 171.565 55.8132 0.31605 -0.208624
632400 60.4159 171.578 55.8132 0.31615 -0.0984541
632600 60.4159 171.591 55.8132 0.31625 -0.00302176
632800 60.4159 171.604 55.8132 0.31635 0.1095
633000 60.4159 171.617 55.8132 0.31645 0.200926
633200 60.4159 171.63 55.8132 0.31655 0.262858
633400 60.4159 171.643 55.8132 0.31665 0.313401
633600 60.4159 171.656 55.8132 0.31675 0.346915
633800 60.4159 171.669 55.8132 0.31685 0.30164
634000 60.4159 171.682 55.8132 0.31695 0.270902
634200 60.4159 171.695 55.8132 0.31705 0.207835
634400 60.4159 171.708 55.8132 0.31715 0.0771251
634600 60.4159 171.721 55.8132 0.31725 -0.0343206
634800 60.4159 171.734 55.8132 0.31735 -0.114128
635000 60.4159 171.747 55.8132 0.31745 -0.197342
635200 60.4159 171.76 55.8132 0.31755 -0.264648
635400 60.4159 171.773 55.8132 0.31765 -0.293385
635600 60.4159 171.786 55.8132 0.31775 -0.322907
635800 60.4159 171.799 55.8132 0.31785 -0.283337
636000 60.4159 171.812 55.8132 0.31795 -0.248005
636200 60.4159 171.826 55.8132 0.31805 -0.198033
636400 60.4159 171.839 55.8132 0.31815 -0.0641563
636600 60.4159 171.852 55.8132 0.31825 0.0558985
636800 60.4159 171.865 55.8132 0.31835 0.133584
637000 60.4159 171.878 55.8132 0.31845 0.204857
637200 60.4159 171.891 55.8132 0.31855 0.292439
637400 60.4159 171.904 55.8132 0.31865 0.327456
637600 60.4159 171.917 55.8132 0.31875 0.313293
637800 60.4159 171.93 55.8132 0.31885 0.304661
638000 60.4159 171.943 55.8132 0.31895 0.246867
638200 60.4159 171.956 55.8132 0.31905 0.170732
638400 60.4159 171.969 55.8132 0.31915 0.0464278
638600 60.4159 171.982 55.8132 0.31925 -0.061946
638800 60.4159 171.995 55.8132 0.31935 -0.13372
639000 60.4159 172.008 55.8132 0.31945 -0.232322
639200 60.4159 172.021 55.8132 0.31955 -0.258366
639400 60.4159 172.034 55.8132 0.31965 -0.306589
639600 60.4159 172.047 55.8132 0.31975 -0.315135
639800 60.4159 172.06 55.8132 0.31985 -0.270968
640000 60.4159 172.073 55.8132 0.31995 -0.229017
640200 60.4159 172.086 55.8132 0.32005 -0.141668
640400 60.4159 172.099 55.8132 0.32015 -0.0408493
640600 60.4159 172.112 55.8132 0.32025 0.0638494
640800 60.4159 172.125 55.8132 0.32035 0.151922
641000 60.4159 172.138 55.8132 0.32045 0.245362
641200 60.4159 172.151 55.8132 0.32055 0.298448
641400 60.4159 172.164 55.8132 0.32065 0.31738
641600 60.4159 172.177 55.8132 0.32075 0.327423
641800 60.4159 172.191 55.8132 0.32085 0.282289
642000 60.4159 172.204 55.8132 0.32095 0.218579
642200 60.4159 172.217 55.8132 0.32105 0.127089
642400 60.4159 172.23 55.8132 0.32115 0.0237926
642600 60.4159 172.243 55.8132 0.32125 -0.0887416
642800 60.4159 172.256 55.8132 0.32135 -0.160204
643000 60.4159 172.269 55.8132 0.32145 -0.24672
643200 60.4159 172.282 55.8132 0.32155 -0.296605
643400 60.4159 172.295 55.8132 0.32165 -0.263417
643600 60.4159 172.308 55.8132 0.32175 -0.30075
643800 60.4159 172.321 55.8132 0.32185 -0.285552
644000 60.4159 172.334 55.8132 0.32195 -0.17597
644200 60.4159 172.347 55.8132 0.32205 -0.106528
644400 60.4159 172.36 55.8132 0.32215 -0.0105917
644600 60.4159 172.373 55.8132 0.32225 0.0875832
644800 60.4159 172.386 55.8132 0.32235 0.186444
645000 60.4159 172.399 55.8132 0.32245 0.252133
645200 60.4159 172.412 55.8132 0.32255 0.309327
645400 60.4159 172.425 55.8132 0.32265 0.312953
645600 60.4159 172.438 55.8132 0.32275 0.289645
645800 60.4159 172.451 55.8132 0.32285 0.257773
646000 60.4159 172.464 55.8132 0.32295 0.204377
646200 60.4159 172.477 55.8132 0.32305 0.0907035
646400 60.4159 172.49 55.8132 0.32315 0.00349723
646600 60.4159 172.503 55.8132 0.32325 -0.120456
646800 60.4159 172.516 55.8132 0.32335 -0.164676
647000 60.4159 172.529 55.8132 0.32345 -0.256087
647200 60.4159 172.543 55.8132 0.32355 -0.273796
647400 60.4159 172.556 55.8132 0.32365 -0.298051
647600 60.4159 172.569 55.8132 0.32375 -0.303784
647800 60.4159 172.582 55.8132 0.32385 -0.232991
648000 60.4159 172.595 55.8132 0.32395 -0.160716
648200 60.4159 172.608 55.8132 0.32405 -0.0946922
648400 60.4159 172.621 55.8132 0.32415 0.0243655
648600 60.4159 172.634 55.8132 0.32425 0.119609
648800 60.4159 172.647 55.8132 0.32435 0.19806
649000 60.4159 172.66 55.8132 0.32445 0.248857
649200 60.4159 172.673 55.8132 0.32455 0.30283
649400 60.4159 172.686 55.8132 0.32465 0.317136
649600 60.4159 172.699 55.8132 0.32475 0.303275
649800 60.4159 172.712 55.8132 0.32485 0.225615
650000 60.4159 172.725 55.8132 0.32495 0.165492
650200 60.4159 172.738 55.8132 0.32505 0.0650744
650400 60.4159 172.751 55.8132 0.32515 -0.0469774
650600 60.4159 172.764 55.8132 0.32525 -0.0997077
650800 60.4159 172.777 55.8132 0.32535 -0.207832
651000 60.4159 172.79 55.8132 0.32545 -0.248883
651200 60.4159 172.803 55.8132 0.32555 -0.287859
651400 60.4159 172.816 55.8132 0.32565 -0.307623
651600 60.4159 172.829 55.8132 0.32575 -0.267611
651800 60.4159 172.842 55.8132 0.32585 -0.212783
652000 60.4159 172.855 55.8132 0.32595 -0.13957
652200 60.4159 172.868 55.8132 0.32605 -0.0442759
652400 60.4159 172.881 55.8132 0.32615 0.0434904
652600 60.4159 172.894 55.8132 0.32625 0.12796
652800 60.4159 172.908 55.8132 0.32635 0.231916
653000 60.4159 172.921 55.8132 0.32645 0.275379
653200 60.4159 172.934 55.8132 0.32655 0.294691
653400 60.4159 172.947 55.8132 0.32665 0.312101
653600 60.4159 172.96 55.8132 0.32675 0.285529
653800 60.4159 172.973 55.8132 0.32685 0.206443
654000 60.4159 172.986 55.8132 0.32695 0.116087
654200 60.4159 172.999 55.8132 0.32705 0.0358533
654400 60.4159 173.012 55.8132 0.32715 -0.0598749
654600 60.4159 173.025 55.8132 0.32725 -0.139421
654800 60.4159 173.038 55.8132 0.32735 -0.201708
655000 60.4159 173.051 55.8132 0.32745 -0.272314
655200 60.4159 173.064 55.8132 0.32755 -0.281037
655400 60.4159 173.077 55.8132 0.32765 -0.288654
655600 60.4159 173.09 55.8132 0.32775 -0.271626
655800 60.4159 173.103 55.8132 0.32785 -0.189451
656000 60.4159 173.116 55.8132 0.32795 -0.105567
656200 60.4159 173.129 55.8132 0.32805 -0.0365586
656400 60.4159 173.142 55.8132 0.32815 0.0828058
656600 60.4159 173.155 55.8132 0.32825 0.167208
656800 60.4159 173.168 55.8132 0.32835 0.219009
657000 60.4159 173.181 55.8132 0.32845 0.301488
657200 60.4159 173.194 55.8132 0.32855 0.288491
657400 60.4159 173.207 55.8132 0.32865 0.288182
657600 60.4159 173.22 55.8132 0.32875 0.251601
657800 60.4159 173.233 55.8132 0.32885 0.183203
658000 60.4159 173.246 55.8132 0.32895 0.0983737
658200 60.4159 173.26 55.8132 0.32905 0.0280443
658400 60.4159 173.273 55.8132 0.32915 -0.0821032
658600 60.4159 173.286 55.8132 0.32925 -0.175987
658800 60.4159 173.299 55.8132 0.32935 -0.231355
659000 60.4159 173.312 55.8132 0.32945 -0.254514
659200 60.4159 173.325 55.8132 0.32955 -0.276896
659400 60.4159 173.338 55.8132 0.32965 -0.270047
659600 60.4159 173.351 55.8132 0.32975 -0.23328
659800 60.4159 173.364 55.8132 0.32985 -0.164759
660000 60.4159 173.377 55.8132 0.32995 -0.0927119
660200 60.4159 173.39 55.8132 0.33005 -0.0039055
660400 60.4159 173.403 55.8132 0.33015 0.0960411
660600 60.4159 173.416 55.8132 0.33025 0.185446
660800 60.4159 173.429 55.8132 0.33035 0.23673
661000 60.4159 173.442 55.8132 0.33045 0.277066
661200 60.4159 173.455 55.8132 0.33055 0.294508
661400 60.4159 173.468 55.8132 0.33065 0.273181
661600 60.4159 173.481 55.8132 0.33075 0.247717
661800 60.4159 173.494 55.8132 0.33085 0.161052
662000 60.4159 173.507 55.8132 0.33095 0.0734171
662200 60.4159 173.52 55.8132 0.33105 -0.0144584
662400 60.4159 173.533 55.8132 0.33115 -0.109522
662600 60.4159 173.546 55.8132 0.33125 -0.179239
662800 60.4159 173.559 55.8132 0.33135 -0.234631
663000 60.4159 173.572 55.8132 0.33145 -0.292013
663200 60.4159 173.585 55.8132 0.33155 -0.264321
663400 60.4159 173.598 55.8132 0.33165 -0.244204
663600 60.4159 173.611 55.8132 0.33175 -0.216243
663800 60.4159 173.625 55.8132 0.33185 -0.142596
664000 60.4159 173.638 55.8132 0.33195 -0.070043
664200 60.4159 173.651 55.8132 0.33205 0.03191
664400 60.4159 173.664 55.8132 0.33215 0.125505
664600 60.4159 173.677 55.8132 0.33225 0.189663
664800 60.4159 173.69 55.8132 0.33235 0.261273
665000 60.4159 173.703 55.8132 0.33245 0.277194
665200 60.4159 173.716 55.8132 0.33255 0.2974
665400 60.4159 173.729 55.8132 0.33265 0.25916
665600 60.4159 173.742 55.8132 0.33275 0.195265
665800 60.4159 173.755 55.8132 0.33285 0.144044
666000 60.4159 173.768 55.8132 0.33295 0.0530206
666200 60.4159 173.781 55.8132 0.33305 -0.0454009
666400 60.4159 173.794 55.8132 0.33315 -0.116668
666600 60.4159 173.807 55.8132 0.33325 -0.201047
666800 60.4159 173.82 55.8132 0.33335 -0.240603
667000 60.4159 173.833 55.8132 0.33345 -0.267132
667200 60.4159 173.846 55.8132 0.33355 -0.273482
667400 60.4159 173.859 55.8132 0.33365 -0.232196
667600 60.4159 173.872 55.8132 0.33375 -0.17715
667800 60.4159 173.885 55.8132 0.33385 -0.117393
668000 60.4159 173.898 55.8132 0.33395 -0.0495679
668200 60.4159 173.911 55.8132 0.33405 0.0469528
668400 60.4159 173.924 55.8132 0.33415 0.142032
668600 60.4159 173.937 55.8132 0.33425 0.198494
668800 60.4159 173.95 55.8132 0.33435 0.247085
669000 60.4159 173.963 55.8132 0.33445 0.284744
669200 60.4159 173.977 55.8132 0.33455 0.263531
669400 60.4159 173.99 55.8132 0.33465 0.253229
669600 60.4159 174.003 55.8132 0.33475 0.206034
669800 60.4159 174.016 55.8132 0.33485 0.113599
670000 60.4159 174.029 55.8132 0.33495 0.0263659
670200 60.4159 174.042 55.8132 0.33505 -0.0673112
670400 60.4159 174.055 55.8132 0.33515 -0.147301
670600 60.4159 174.068 55.8132 0.33525 -0.192347
670800 60.4159 174.081 55.8132 0.33535 -0.250065
671000 60.4159 174.094 55.8132 0.33545 -0.259211
671200 60.4159 174.107 55.8132 0.33555 -0.27953
671400 60.4159 174.12 55.8132 0.33565 -0.21587
671600 60.4159 174.133 55.8132 0.33575 -0.16419
671800 60.4159 174.146 55.8132 0.33585 -0.0757905
672000 60.4159 174.159 55.8132 0.33595 -0.0285258
672200 60.4159 174.172 55.8132 0.33605 0.0761239
672400 60.4159 174.185 55.8132 0.33615 0.161493
672600 60.4159 174.198 55.8132 0.33625 0.220091
672800 60.4159 174.211 55.8132 0.33635 0.257212
673000 60.4159 174.224 55.8132 0.33645 0.267074
673200 60.4159 174.237 55.8132 0.33655 0.269707
673400 60.4159 174.25 55.8132 0.33665 0.222965
673600 60.4159 174.263 55.8132 0.33675 0.170948
673800 60.4159 174.276 55.8132 0.33685 0.0813415
674000 60.4159 174.289 55.8132 0.33695 0.0069434
674200 60.4159 174.302 55.8132 0.33705 -0.0931174
674400 60.4159 174.315 55.8132 0.33715 -0.15474
674600 60.4159 174.328 55.8132 0.33725 -0.192218
674800 60.4159 174.342 55.8132 0.33735 -0.252172
675000 60.4159 174.355 55.8132 0.33745 -0.249097
675200 60.4159 174.368 55.8132 0.33755 -0.273489
675400 60.4159 174.381 55.8132 0.33765 -0.194848
675600 60.4159 174.394 55.8132 0.33775 -0.140122
675800 60.4159 174.407 55.8132 0.33785 -0.0826532
676000 60.4159 174.42 55.8132 0.33795 0.0104309
676200 60.4159 174.433 55.8132 0.33805 0.0927677
676400 60.4159 174.446 55.8132 0.33815 0.165043
676600 60.4159 174.459 55.8132 0.33825 0.214664
676800 60.4159 174.472 55.8132 0.33835 0.280585
677000 60.4159 174.485 55.8132 0.33845 0.261257
677200 60.4159 174.498 55.8132 0.33855 0.253285
677400 60.4159 174.511 55.8132 0.33865 0.214657
677600 60.4159 174.524 55.8132 0.33875 0.151195
677800 60.4159 174.537 55.8132 0.33885 0.0470982
678000 60.4159 174.55 55.8132 0.33895 -0.0117679
678200 60.4159 174.563 55.8132 0.33905 -0.0906109
678400 60.4159 174.576 55.8132 0.33915 -0.186308
678600 60.4159 174.589 55.8132 0.33925 -0.194152
678800 60.4159 174.602 55.8132 0.33935 -0.250048
679000 60.4159 174.615 55.8132 0.33945 -0.263852
679200 60.4159 174.628 55.8132 0.33955 -0.254392
679400 60.4159 174.641 55.8132 0.33965 -0.174907
679600 60.4159 174.654 55.8132 0.33975 -0.147325
679800 60.4159 174.667 55.8132 0.33985 -0.0324994
680000 60.4159 174.68 55.8132 0.33995 0.031634
680200 60.4159 174.694 55.8132 0.34005 0.116737
680400 60.4159 174.707 55.8132 0.34015 0.176115
680600 60.4159 174.72 55.8132 0.34025 0.237664
680800 60.4159 174.733 55.8132 0.34035 0.253569
681000 60.4159 174.746 55.8132 0.34045 0.274142
681200 60.4159 174.759 55.8132 0.34055 0.270259
681400 60.4159 174.772 55.8132 0.34065 0.176485
681600 60.4159 174.785 55.8132 0.34075 0.104753
681800 60.4159 174.798 55.8132 0.34085 0.041253
682000 60.4159 174.811 55.8132 0.34095 -0.0465771
682200 60.4159 174.824 55.8132 0.34105 -0.10676
682400 60.4159 174.837 55.8132 0.34115 -0.173957
682600 60.4159 174.85 55.8132 0.34125 -0.22146
682800 60.4159 174.863 55.8132 0.34135 -0.257394
683000 60.4159 174.876 55.8132 0.34145 -0.257407
683200 60.4159 174.889 55.8132 0.34155 -0.226115
683400 60.4159 174.902 55.8132 0.34165 -0.175709
683600 60.4159 174.915 55.8132 0.34175 -0.112578
683800 60.4159 174.928 55.8132 0.34185 -0.0365917
684000 60.4159 174.941 55.8132 0.34195 0.0508206
684200 60.4159 174.954 55.8132 0.34205 0.141307
684400 60.4159 174.967 55.8132 0.34215 0.197807
684600 60.4159 174.98 55.8132 0.34225 0.219268
684800 60.4159 174.993 55.8132 0.34235 0.290692
685000 60.4159 175.006 55.8132 0.34245 0.242362
685200 60.4159 175.019 55.8132 0.34255 0.232736
685400 60.4159 175.032 55.8132 0.34265 0.190007
685600 60.4159 175.045 55.8132 0.34275 0.109898
685800 60.4159 175.059 55.8132 0.34285 0.0245616
686000 60.4159 175.072 55.8132 0.34295 -0.0548314
686200 60.4159 175.085 55.8132 0.34305 -0.144111
686400 60.4159 175.098 55.8132 0.34315 -0.175473
686600 60.4159 175.111 55.8132 0.34325 -0.240935
686800 60.4159 175.124 55.8132 0.34335 -0.267308
687000 60.4159 175.137 55.8132 0.34345 -0.230196
687200 60.4159 175.15 55.8132 0.34355 -0.234456
687400 60.4159 175.163 55.8132 0.34365 -0.136107
687600 60.4159 175.176 55.8132 0.34375 -0.0786273
687800 60.4159 175.189 55.8132 0.34385 -0.0395166
688000 60.4159 175.202 55.8132 0.34395 0.0597952
688200 60.4159 175.215 55.8132 0.34405 0.140437
688400 60.4159 175.228 55.8132 0.34415 0.21818
688600 60.4159 175.241 55.8132 0.34425 0.24755
688800 60.4159 175.254 55.8132 0.34435 0.274413
689000 60.4159 175.267 55.8132 0.34445 0.251847
689200 60.4159 175.28 55.8132 0.34455 0.213223
689400 60.4159 175.293 55.8132 0.34465 0.147675
689600 60.4159 175.306 55.8132 0.34475 0.0813245
689800 60.4159 175.319 55.8132 0.34485 0.00360546
690000 60.4159 175.332 55.8132 0.34495 -0.0630894
690200 60.4159 175.345 55.8132 0.34505 -0.148445
690400 60.4159 175.358 55.8132 0.34515 -0.199912
690600 60.4159 175.371 55.8132 0.34525 -0.251509
690800 60.4159 175.384 55.8132 0.34535 -0.232495
691000 60.4159 175.397 55.8132 0.34545 -0.234618
691200 60.4159 175.411 55.8132 0.34555 -0.191632
691400 60.4159 175.424 55.8132 0.34565 -0.141918
691600 60.4159 175.437 55.8132 0.34575 -0.0537939
691800 60.4159 175.45 55.8132 0.34585 -0.00294038
692000 60.4159 175.463 55.8132 0.34595 0.085493
692200 60.4159 175.476 55.8132 0.34605 0.150059
692400 60.4159 175.489 55.8132 0.34615 0.232871
692600 60.4159 175.502 55.8132 0.34625 0.235889
692800 60.4159 175.515 55.8132 0.34635 0.274959
693000 60.4159 175.528 55.8132 0.34645 0.224728
693200 60.4159 175.541 55.8132 0.34655 0.188583
693400 60.4159 175.554 55.8132 0.34665 0.120187
693600 60.4159 175.567 55.8132 0.34675 0.0718282
693800 60.4159 175.58 55.8132 0.34685 0.00910677
694000 60.4159 175.593 55.8132 0.34695 -0.0921543
694200 60.4159 175.606 55.8132 0.34705 -0.178792
694400 60.4159 175.619 55.8132 0.34715 -0.203435
694600 60.4159 175.632 55.8132 0.34725 -0.255928
694800 60.4159 175.645 55.8132 0.34735 -0.220439
695000 60.4159 175.658 55.8132 0.34745 -0.224733
695200 60.4159 175.671 55.8132 0.34755 -0.183759
695400 60.4159 175.684 55.8132 0.34765 -0.103027
695600 60.4159 175.697 55.8132 0.34775 -0.0433615
695800 60.4159 175.71 55.8132 0.34785 0.00901389
696000 60.4159 175.723 55.8132 0.34795 0.0977093
696200 60.4159 175.736 55.8132 0.34805 0.193729
696400 60.4159 175.749 55.8132 0.34815 0.211045
696600 60.4159 175.762 55.8132 0.34825 0.249361
696800 60.4159 175.776 55.8132 0.34835 0.256727
697000 60.4159 175.789 55.8132 0.34845 0.232908
697200 60.4159 175.802 55.8132 0.34855 0.169094
697400 60.4159 175.815 55.8132 0.34865 0.11094
697600 60.4159 175.828 55.8132 0.34875 0.0392158
697800 60.4159 175.841 55.8132 0.34885 -0.0314716
698000 60.4159 175.854 55.8132 0.34895 -0.0965776
698200 60.4159 175.867 55.8132 0.34905 -0.197298
698400 60.4159 175.88 55.8132 0.34915 -0.213313
698600 60.4159 175.893 55.8132 0.34925 -0.218991
698800 60.4159 175.906 55.8132 0.34935 -0.246544
699000 60.4159 175.919 55.8132 0.34945 -0.200607
699200 60.4159 175.932 55.8132 0.34955 -0.164765
699400 60.4159 175.945 55.8132 0.34965 -0.102114
699600 60.4159 175.958 55.8132 0.34975 -0.00911573
699800 60.4159 175.971 55.8132 0.34985 0.0662108
700000 60.4159 175.984 55.8132 0.34995 0.123287
700200 60.4159 175.997 55.8132 0.35005 0.161915
700400 60.4159 176.01 55.8132 0.35015 0.229111
700600 60.4159 176.023 55.8132 0.35025 0.262452
700800 60.4159 176.036 55.8132 0.35035 0.228769
701000 60.4159 176.049 55.8132 0.35045 0.224247
701200 60.4159 176.062 55.8132 0.35055 0.156792
701400 60.4159 176.075 55.8132 0.35065 0.0612975
701600 60.4159 176.088 55.8132 0.35075 0.0100847
701800 60.4159 176.101 55.8132 0.35085 -0.0660638
702000 60.4159 176.114 55.8132 0.35095 -0.130103
702200 60.4159 176.128 55.8132 0.35105 -0.168136
702400 60.4159 176.141 55.8132 0.35115 -0.197695
702600 60.4159 176.154 55.8132 0.35125 -0.225059
702800 60.4159 176.167 55.8132 0.35135 -0.253808
703000 60.4159 176.18 55.8132 0.35145 -0.163498
703200 60.4159 176.193 55.8132 0.35155 -0.143036
703400 60.4159 176.206 55.8132 0.35165 -0.0854593
703600 60.4159 176.219 55.8132 0.35175 0.00295015
703800 60.4159 176.232 55.8132 0.35185 0.0894825
704000 60.4159 176.245 55.8132 0.35195 0.151766
704200 60.4159 176.258 55.8132 0.35205 0.195048
704400 60.4159 176.271 55.8132 0.35215 0.200467
704600 60.4159 176.284 55.8132 0.35225 0.248727
704800 60.4159 176.297 55.8132 0.35235 0.22346
705000 60.4159 176.31 55.8132 0.35245 0.174502
705200 60.4159 176.323 55.8132 0.35255 0.143189
705400 60.4159 176.336 55.8132 0.35265 0.0720114
705600 60.4159 176.349 55.8132 0.35275 -0.00952243
705800 60.4159 176.362 55.8132 0.35285 -0.0796168
706000 60.4159 176.375 55.8132 0.35295 -0.159061
706200 60.4159 176.388 55.8132 0.35305 -0.178579
706400 60.4159 176.401 55.8132 0.35315 -0.21909
706600 60.4159 176.414 55.8132 0.35325 -0.20537
706800 60.4159 176.427 55.8132 0.35335 -0.19036
707000 60.4159 176.44 55.8132 0.35345 -0.179319
707200 60.4159 176.453 55.8132 0.35355 -0.135267
707400 60.4159 176.466 55.8132 0.35365 -0.0478558
707600 60.4159 176.479 55.8132 0.35375 0.0359742
707800 60.4159 176.493 55.8132 0.35385 0.0791346
708000 60.4159 176.506 55.8132 0.35395 0.157265
708200 60.4159 176.519 55.8132 0.35405 0.199259
708400 60.4159 176.532 55.8132 0.35415 0.227447
708600 60.4159 176.545 55.8132 0.35425 0.232573
708800 60.4159 176.558 55.8132 0.35435 0.204944
709000 60.4159 176.571 55.8132 0.35445 0.158001
709200 60.4159 176.584 55.8132 0.35455 0.114905
709400 60.4159 176.597 55.8132 0.35465 0.0642401
709600 60.4159 176.61 55.8132 0.35475 -0.0466874
709800 60.4159 176.623 55.8132 0.35485 -0.0744658
710000 60.4159 176.636 55.8132 0.35495 -0.148554
710200 60.4159 176.649 55.8132 0.35505 -0.231568
710400 60.4159 176.662 55.8132 0.35515 -0.198925
710600 60.4159 176.675 55.8132 0.35525 -0.20826
710800 60.4159 176.688 55.8132 0.35535 -0.206764
711000 60.4159 176.701 55.8132 0.35545 -0.13569
711200 60.4159 176.714 55.8132 0.35555 -0.0794116
711400 60.4159 176.727 55.8132 0.35565 -0.0542305
711600 60.4159 176.74 55.8132 0.35575 0.0371412
711800 60.4159 176.753 55.8132 0.35585 0.117726
712000 60.4159 176.766 55.8132 0.35595 0.160607
712200 60.4159 176.779 55.8132 0.35605 0.206802
712400 60.4159 176.792 55.8132 0.35615 0.234354
712600 60.4159 176.805 55.8132 0.35625 0.250229
712800 60.4159 176.818 55.8132 0.35635 0.199707
713000 60.4159 176.831 55.8132 0.35645 0.133758
713200 60.4159 176.845 55.8132 0.35655 0.075495
713400 60.4159 176.858 55.8132 0.35665 0.0154907
713600 60.4159 176.871 55.8132 0.35675 -0.029166
713800 60.4159 176.884 55.8132 0.35685 -0.128921
714000 60.4159 176.897 55.8132 0.35695 -0.16743
714200 60.4159 176.91 55.8132 0.35705 -0.199272
714400 60.4159 176.923 55.8132 0.35715 -0.219191
714600 60.4159 176.936 55.8132 0.35725 -0.19697
714800 60.4159 176.949 55.8132 0.35735 -0.182293
715000 60.4159 176.962 55.8132 0.35745 -0.131994
715200 60.4159 176.975 55.8132 0.35755 -0.0723287
715400 60.4159 176.988 55.8132 0.35765 0.0127
715600 60.4159 177.001 55.8132 0.35775 0.0708023
715800 60.4159 177.014 55.8132 0.35785 0.12987
716000 60.4159 177.027 55.8132 0.35795 0.14435
716200 60.4159 177.04 55.8132 0.35805 0.217764
716400 60.4159 177.053 55.8132 0.35815 0.231975
716600 60.4159 177.066 55.8132 0.35825 0.235679
716800 60.4159 177.079 55.8132 0.35835 0.17437
717000 60.4159 177.092 55.8132 0.35845 0.116285
717200 60.4159 177.105 55.8132 0.35855 0.0527915
717400 60.4159 177.118 55.8132 0.35865 -0.0273606
717600 60.4159 177.131 55.8132 0.35875 -0.0685482
717800 60.4159 177.144 55.8132 0.35885 -0.127755
718000 60.4159 177.157 55.8132 0.35895 -0.159561
718200 60.4159 177.17 55.8132 0.35905 -0.183968
718400 60.4159 177.183 55.8132 0.35915 -0.220602
718600 60.4159 177.196 55.8132 0.35925 -0.186452
718800 60.4159 177.21 55.8132 0.35935 -0.169894
719000 60.4159 177.223 55.8132 0.35945 -0.111035
719200 60.4159 177.236 55.8132 0.35955 -0.0309642
719400 60.4159 177.249 55.8132 0.35965 0.0340182
719600 60.4159 177.262 55.8132 0.35975 0.0751796
719800 60.4159 177.275 55.8132 0.35985 0.158579
720000 60.4159 177.288 55.8132 0.35995 0.168562
720200 60.4159 177.301 55.8132 0.36005 0.191985
720400 60.4159 177.314 55.8132 0.36015 0.195687
720600 60.4159 177.327 55.8132 0.36025 0.21987
720800 60.4159 177.34 55.8132 0.36035 0.168937
721000 60.4159 177.353 55.8132 0.36045 0.112599
721200 60.4159 177.366 55.8132 0.36055 0.020703
721400 60.4159 177.379 55.8132 0.36065 -0.0359556
721600 60.4159 177.392 55.8132 0.36075 -0.0838351
721800 60.4159 177.405 55.8132 0.36085 -0.131442
722000 60.4159 177.418 55.8132 0.36095 -0.16872
722200 60.4159 177.431 55.8132 0.36105 -0.184112
722400 60.4159 177.444 55.8132 0.36115 -0.202166
722600 60.4159 177.457 55.8132 0.36125 -0.183513
722800 60.4159 177.47 55.8132 0.36135 -0.157292
723000 60.4159 177.483 55.8132 0.36145 -0.0966114
723200 60.4159 177.496 55.8132 0.36155 -0.0254019
723400 60.4159 177.509 55.8132 0.36165 0.031794
723600 60.4159 177.522 55.8132 0.36175 0.0946399
723800 60.4159 177.535 55.8132 0.36185 0.160582
724000 60.4159 177.548 55.8132 0.36195 0.170897
724200 60.4159 177.562 55.8132 0.36205 0.220042
724400 60.4159 177.575 55.8132 0.36215 0.213145
724600 60.4159 177.588 55.8132 0.36225 0.166445
724800 60.4159 177.601 55.8132 0.36235 0.175328
725000 60.4159 177.614 55.8132 0.36245 0.0858968
725200 60.4159 177.627 55.8132 0.36255 0.0419759
725400 60.4159 177.64 55.8132 0.36265 -0.045331
725600 60.4159 177.653 55.8132 0.36275 -0.0932199
725800 60.4159 177.666 55.8132 0.36285 -0.160187
726000 60.4159 177.679 55.8132 0.36295 -0.173562
726200 60.4159 177.692 55.8132 0.36305 -0.200285
726400 60.4159 177.705 55.8132 0.36315 -0.196754
726600 60.4159 177.718 55.8132 0.36325 -0.168759
726800 60.4159 177.731 55.8132 0.36335 -0.15164
727000 60.4159 177.744 55.8132 0.36345 -0.085993
727200 60.4159 177.757 55.8132 0.36355 -0.00160777
727400 60.4159 177.77 55.8132 0.36365 0.0390389
727600 60.4159 177.783 55.8132 0.36375 0.124002
727800 60.4159 177.796 55.8132 0.36385 0.177021
728000 60.4159 177.809 55.8132 0.36395 0.215144
728200 60.4159 177.822 55.8132 0.36405 0.182722
728400 60.4159 177.835 55.8132 0.36415 0.214559
728600 60.4159 177.848 55.8132 0.36425 0.170368
728800 60.4159 177.861 55.8132 0.36435 0.150468
729000 60.4159 177.874 55.8132 0.36445 0.0553264
729200 60.4159 177.887 55.8132 0.36455 0.0190903
729400 60.4159 177.9 55.8132 0.36465 -0.0737893
729600 60.4159 177.913 55.8132 0.36475 -0.126389
729800 60.4159 177.927 55.8132 0.36485 -0.161793
730000 60.4159 177.94 55.8132 0.36495 -0.200859
730200 60.4159 177.953 55.8132 0.36505 -0.183159
730400 60.4159 177.966 55.8132 0.36515 -0.203919
730600 60.4159 177.979 55.8132 0.36525 -0.148508
730800 60.4159 177.992 55.8132 0.36535 -0.117182
731000 60.4159 178.005 55.8132 0.36545 -0.0409726
731200 60.4159 178.018 55.8132 0.36555 0.00536837
731400 60.4159 178.031 55.8132 0.36565 0.0713489
731600 60.4159 178.044 55.8132 0.36575 0.119323
731800 60.4159 178.057 55.8132 0.36585 0.183012
732000 60.4159 178.07 55.8132 0.36595 0.205932
732200 60.4159 178.083 55.8132 0.36605 0.207234
732400 60.4159 178.096 55.8132 0.36615 0.210297
732600 60.4159 178.109 55.8132 0.36625 0.154444
732800 60.4159 178.122 55.8132 0.36635 0.0917858
733000 60.4159 178.135 55.8132 0.36645 0.0570811
733200 60.4159 178.148 55.8132 0.36655 -0.0030448
733400 60.4159 178.161 55.8132 0.36665 -0.0765047
733600 60.4159 178.174 55.8132 0.36675 -0.11974
733800 60.4159 178.187 55.8132 0.36685 -0.168919
734000 60.4159 178.2 55.8132 0.36695 -0.208437
734200 60.4159 178.213 55.8132 0.36705 -0.204486
734400 60.4159 178.226 55.8132 0.36715 -0.187622
734600 60.4159 178.239 55.8132 0.36725 -0.132483
734800 60.4159 178.252 55.8132 0.36735 -0.0887279
735000 60.4159 178.265 55.8132 0.36745 -0.0447173
735200 60.4159 178.279 55.8132 0.36755 0.0293027
735400 60.4159 178.292 55.8132 0.36765 0.0823655
735600 60.4159 178.305 55.8132 0.36775 0.150672
735800 60.4159 178.318 55.8132 0.36785 0.174825
736000 60.4159 178.331 55.8132 0.36795 0.203465
736200 60.4159 178.344 55.8132 0.36805 0.207646
736400 60.4159 178.357 55.8132 0.36815 0.182401
736600 60.4159 178.37 55.8132 0.36825 0.156511
736800 60.4159 178.383 55.8132 0.36835 0.0934956
737000 60.4159 178.396 55.8132 0.36845 0.0238296
737200 60.4159 178.409 55.8132 0.36855 -0.0342226
737400 60.4159 178.422 55.8132 0.36865 -0.0832976
737600 60.4159 178.435 55.8132 0.36875 -0.139645
737800 60.4159 178.448 55.8132 0.36885 -0.169864
738000 60.4159 178.461 55.8132 0.36895 -0.200218
738200 60.4159 178.474 55.8132 0.36905 -0.203605
738400 60.4159 178.487 55.8132 0.36915 -0.17349
738600 60.4159 178.5 55.8132 0.36925 -0.1306
738800 60.4159 178.513 55.8132 0.36935 -0.0711103
739000 60.4159 178.526 55.8132 0.36945 -0.0148173
739200 60.4159 178.539 55.8132 0.36955 0.0686086
739400 60.4159 178.552 55.8132 0.36965 0.090258
739600 60.4159 178.565 55.8132 0.36975 0.13594
739800 60.4159 178.578 55.8132 0.36985 0.201945
740000 60.4159 178.591 55.8132 0.36995 0.223003
740200 60.4159 178.604 55.8132 0.37005 0.213904
740400 60.4159 178.617 55.8132 0.37015 0.176381
740600 60.4159 178.63 55.8132 0.37025 0.105497
740800 60.4159 178.644 55.8132 0.37035 0.0603839
741000 60.4159 178.657 55.8132 0.37045 0.00595905
741200 60.4159 178.67 55.8132 0.37055 -0.0516851
741400 60.4159 178.683 55.8132 0.37065 -0.11644
741600 60.4159 178.696 55.8132 0.37075 -0.152122
741800 60.4159 178.709 55.8132 0.37085 -0.172423
742000 60.4159 178.722 55.8132 0.37095 -0.196954
742200 60.4159 178.735 55.8132 0.37105 -0.190593
742400 60.4159 178.748 55.8132 0.37115 -0.145247
742600 60.4159 178.761 55.8132 0.37125 -0.111619
742800 60.4159 178.774 55.8132 0.37135 -0.0509974
743000 60.4159 178.787 55.8132 0.37145 0.00942457
743200 60.4159 178.8 55.8132 0.37155 0.0783453
743400 60.4159 178.813 55.8132 0.37165 0.0894219
743600 60.4159 178.826 55.8132 0.37175 0.155905
743800 60.4159 178.839 55.8132 0.37185 0.198544
744000 60.4159 178.852 55.8132 0.37195 0.19983
744200 60.4159 178.865 55.8132 0.37205 0.194121
744400 60.4159 178.878 55.8132 0.37215 0.179296
744600 60.4159 178.891 55.8132 0.37225 0.100262
744800 60.4159 178.904 55.8132 0.37235 0.0517289
745000 60.4159 178.917 55.8132 0.37245 0.000273773
745200 60.4159 178.93 55.8132 0.37255 -0.0718348
745400 60.4159 178.943 55.8132 0.37265 -0.13458
745600 60.4159 178.956 55.8132 0.37275 -0.137564
745800 60.4159 178.969 55.8132 0.37285 -0.171203
746000 60.4159 178.982 55.8132 0.37295 -0.207816
746200 60.4159 178.995 55.8132 0.37305 -0.181738
746400 60.4159 179.009 55.8132 0.37315 -0.152616
746600 60.4159 179.022 55.8132 0.37325 -0.100331
746800 60.4159 179.035 55.8132 0.37335 -0.0429576
747000 60.4159 179.048 55.8132 0.37345 0.0328158
747200 60.4159 179.061 55.8132 0.37355 0.0892664
747400 60.4159 179.074 55.8132 0.37365 0.136665
747600 60.4159 179.087 55.8132 0.37375 0.172388
747800 60.4159 179.1 55.8132 0.37385 0.178377
748000 60.4159 179.113 55.8132 0.37395 0.193314
748200 60.4159 179.126 55.8132 0.37405 0.179156
748400 60.4159 179.139 55.8132 0.37415 0.18363
748600 60.4159 179.152 55.8132 0.37425 0.0924031
748800 60.4159 179.165 55.8132 0.37435 0.0457032
749000 60.4159 179.178 55.8132 0.37445 -0.0511098
749200 60.4159 179.191 55.8132 0.37455 -0.0816275
749400 60.4159 179.204 55.8132 0.37465 -0.153563
749600 60.4159 179.217 55.8132 0.37475 -0.178279
749800 60.4159 179.23 55.8132 0.37485 -0.178614
750000 60.4159 179.243 55.8132 0.37495 -0.1768
750200 60.4159 179.256 55.8132 0.37505 -0.168263
750400 60.4159 179.269 55.8132 0.37515 -0.129443
750600 60.4159 179.282 55.8132 0.37525 -0.102078
750800 60.4159 179.295 55.8132 0.37535 -0.0332887
751000 60.4159 179.308 55.8132 0.37545 0.0394005
751200 60.4159 179.321 55.8132 0.37555 0.119036
751400 60.4159 179.334 55.8132 0.37565 0.166041
751600 60.4159 179.347 55.8132 0.37575 0.189543
751800 60.4159 179.361 55.8132 0.37585 0.194194
752000 60.4159 179.374 55.8132 0.37595 0.201869
752200 60.4159 179.387 55.8132 0.37605 0.146474
752400 60.4159 179.4 55.8132 0.37615 0.131195
752600 60.4159 179.413 55.8132 0.37625 0.0900775
752800 60.4159 179.426 55.8132 0.37635 0.0372993
753000 60.4159 179.439 55.8132 0.37645 -0.0409944
753200 60.4159 179.452 55.8132 0.37655 -0.0974236
753400 60.4159 179.465 55.8132 0.37665 -0.165453
753600 60.4159 179.478 55.8132 0.37675 -0.183596
753800 60.4159 179.491 55.8132 0.37685 -0.197118
754000 60.4159 179.504 55.8132 0.37695 -0.191825
754200 60.4159 179.517 55.8132 0.37705 -0.11775
754400 60.4159 179.53 55.8132 0.37715 -0.112555
754600 60.4159 179.543 55.8132 0.37725 -0.0576824
754800 60.4159 179.556 55.8132 0.37735 -0.0174383
755000 60.4159 179.569 55.8132 0.37745 0.0443438
755200 60.4159 179.582 55.8132 0.37755 0.115435
755400 60.4159 179.595 55.8132 0.37765 0.141053
755600 60.4159 179.608 55.8132 0.37775 0.212229
755800 60.4159 179.621 55.8132 0.37785 0.208763
756000 60.4159 179.634 55.8132 0.37795 0.205311
756200 60.4159 179.647 55.8132 0.37805 0.133425
756400 60.4159 179.66 55.8132 0.37815 0.0656003
756600 60.4159 179.673 55.8132 0.37825 0.0734226
756800 60.4159 179.686 55.8132 0.37835 0.00614663
757000 60.4159 179.699 55.8132 0.37845 -0.0541065
757200 60.4159 179.712 55.8132 0.37855 -0.0990925
757400 60.4159 179.726 55.8132 0.37865 -0.169184
757600 60.4159 179.739 55.8132 0.37875 -0.187008
757800 60.4159 179.752 55.8132 0.37885 -0.193817
758000 60.4159 179.765 55.8132 0.37895 -0.1605
758200 60.4159 179.778 55.8132 0.37905 -0.12223
758400 60.4159 179.791 55.8132 0.37915 -0.0740712
758600 60.4159 179.804 55.8132 0.37925 -0.0538395
758800 60.4159 179.817 55.8132 0.37935 0.0200711
759000 60.4159 179.83 55.8132 0.37945 0.0562697
759200 60.4159 179.843 55.8132 0.37955 0.116364
759400 60.4159 179.856 55.8132 0.37965 0.157509
759600 60.4159 179.869 55.8132 0.37975 0.206396
759800 60.4159 179.882 55.8132 0.37985 0.195384
760000 60.4159 179.895 55.8132 0.37995 0.176145
760200 60.4159 179.908 55.8132 0.38005 0.129417
760400 60.4159 179.921 55.8132 0.38015 0.0878906
760600 60.4159 179.934 55.8132 0.38025 0.0256659
760800 60.4159 179.947 55.8132 0.38035 -0.0262937
761000 60.4159 179.96 55.8132 0.38045 -0.0525674
761200 60.4159 179.973 55.8132 0.38055 -0.117185
761400 60.4159 179.986 55.8132 0.38065 -0.167864
761600 60.4159 179.999 55.8132 0.38075 -0.170045
761800 60.4159 180.012 55.8132 0.38085 -0.166074
762000 60.4159 180.025 55.8132 0.38095 -0.160291
762200 60.4159 180.038 55.8132 0.38105 -0.129234
762400 60.4159 180.051 55.8132 0.38115 -0.0742208
762600 60.4159 180.064 55.8132 0.38125 -0.0227845
762800 60.4159 180.078 55.8132 0.38135 0.0589701
763000 60.4159 180.091 55.8132 0.38145 0.0705906
763200 60.4159 180.104 55.8132 0.38155 0.105849
763400 60.4159 180.117 55.8132 0.38165 0.176466
763600 60.4159 180.13 55.8132 0.38175 0.181684
763800 60.4159 180.143 55.8132 0.38185 0.178257
764000 60.4159 180.156 55.8132 0.38195 0.151241
764200 60.4159 180.169 55.8132 0.38205 0.142451
764400 60.4159 180.182 55.8132 0.38215 0.046122
764600 60.4159 180.195 55.8132 0.38225 0.00787272
764800 60.4159 180.208 55.8132 0.38235 -0.055201
765000 60.4159 180.221 55.8132 0.38245 -0.0548646
765200 60.4159 180.234 55.8132 0.38255 -0.117568
765400 60.4159 180.247 55.8132 0.38265 -0.146948
765600 60.4159 180.26 55.8132 0.38275 -0.166285
765800 60.4159 180.273 55.8132 0.38285 -0.139819
766000 60.4159 180.286 55.8132 0.38295 -0.160368
766200 60.4159 180.299 55.8132 0.38305 -0.10948
766400 60.4159 180.312 55.8132 0.38315 -0.0643657
766600 60.4159 180.325 55.8132 0.38325 0.00241725
766800 60.4159 180.338 55.8132 0.38335 0.0633804
767000 60.4159 180.351 55.8132 0.38345 0.0983548
767200 60.4159 180.364 55.8132 0.38355 0.131423
767400 60.4159 180.377 55.8132 0.38365 0.116644
767600 60.4159 180.39 55.8132 0.38375 0.179918
767800 60.4159 180.403 55.8132 0.38385 0.176052
768000 60.4159 180.416 55.8132 0.38395 0.129117
768200 60.4159 180.429 55.8132 0.38405 0.121819
768400 60.4159 180.443 55.8132 0.38415 0.071991
768600 60.4159 180.456 55.8132 0.38425 -0.0129103
768800 60.4159 180.469 55.8132 0.38435 -0.0453669
769000 60.4159 180.482 55.8132 0.38445 -0.109896
769200 60.4159 180.495 55.8132 0.38455 -0.129088
769400 60.4159 180.508 55.8132 0.38465 -0.126384
769600 60.4159 180.521 55.8132 0.38475 -0.158501
769800 60.4159 180.534 55.8132 0.38485 -0.134577
770000 60.4159 180.547 55.8132 0.38495 -0.146947
770200 60.4159 180.56 55.8132 0.38505 -0.101612
770400 60.4159 180.573 55.8132 0.38515 -0.0396316
770600 60.4159 180.586 55.8132 0.38525 -0.012588
770800 60.4159 180.599 55.8132 0.38535 0.0741363
771000 60.4159 180.612 55.8132 0.38545 0.116106
771200 60.4159 180.625 55.8132 0.38555 0.121465
771400 60.4159 180.638 55.8132 0.38565 0.172907
771600 60.4159 180.651 55.8132 0.38575 0.146572
771800 60.4159 180.664 55.8132 0.38585 0.157551
772000 60.4159 180.677 55.8132 0.38595 0.136347
772200 60.4159 180.69 55.8132 0.38605 0.109886
772400 60.4159 180.703 55.8132 0.38615 0.042129
772600 60.4159 180.716 55.8132 0.38625 0.000782624
772800 60.4159 180.729 55.8132 0.38635 -0.0824494
773000 60.4159 180.742 55.8132 0.38645 -0.101781
773200 60.4159 180.755 55.8132 0.38655 -0.142382
773400 60.4159 180.768 55.8132 0.38665 -0.142812
773600 60.4159 180.781 55.8132 0.38675 -0.144254
773800 60.4159 180.795 55.8132 0.38685 -0.13113
774000 60.4159 180.808 55.8132 0.38695 -0.122915
774200 60.4159 180.821 55.8132 0.38705 -0.0972033
774400 60.4159 180.834 55.8132 0.38715 -0.0149858
774600 60.4159 180.847 55.8132 0.38725 0.00672517
774800 60.4159 180.86 55.8132 0.38735 0.0731507
775000 60.4159 180.873 55.8132 0.38745 0.113737
775200 60.4159 180.886 55.8132 0.38755 0.171628
775400 60.4159 180.899 55.8132 0.38765 0.140461
775600 60.4159 180.912 55.8132 0.38775 0.162482
775800 60.4159 180.925 55.8132 0.38785 0.171089
776000 60.4159 180.938 55.8132 0.38795 0.1124
776200 60.4159 180.951 55.8132 0.38805 0.071042
776400 60.4159 180.964 55.8132 0.38815 0.00816714
776600 60.4159 180.977 55.8132 0.38825 -0.0273356
776800 60.4159 180.99 55.8132 0.38835 -0.0420531
777000 60.4159 181.003 55.8132 0.38845 -0.119182
777200 60.4159 181.016 55.8132 0.38855 -0.161678
777400 60.4159 181.029 55.8132 0.38865 -0.141977
777600 60.4159 181.042 55.8132 0.38875 -0.156597
777800 60.4159 181.055 55.8132 0.38885 -0.131629
778000 60.4159 181.068 55.8132 0.38895 -0.113303
778200 60.4159 181.081 55.8132 0.38905 -0.0726146
778400 60.4159 181.094 55.8132 0.38915 0.00520984
778600 60.4159 181.107 55.8132 0.38925 0.0414549
778800 60.4159 181.12 55.8132 0.38935 0.0841999
779000 60.4159 181.133 55.8132 0.38945 0.117784
779200 60.4159 181.146 55.8132 0.38955 0.143468
779400 60.4159 181.16 55.8132 0.38965 0.17518
779600 60.4159 181.173 55.8132 0.38975 0.16783
779800 60.4159 181.186 55.8132 0.38985 0.136741
780000 60.4159 181.199 55.8132 0.38995 0.132826
780200 60.4159 181.212 55.8132 0.39005 0.0305173
780400 60.4159 181.225 55.8132 0.39015 0.00749163
780600 60.4159 181.238 55.8132 0.39025 -0.0376369
780800 60.4159 181.251 55.8132 0.39035 -0.0837159
781000 60.4159 181.264 55.8132 0.39045 -0.119412
781200 60.4159 181.277 55.8132 0.39055 -0.135196
781400 60.4159 181.29 55.8132 0.39065 -0.149241
781600 60.4159 181.303 55.8132 0.39075 -0.169429
781800 60.4159 181.316 55.8132 0.39085 -0.112311
782000 60.4159 181.329 55.8132 0.39095 -0.098309
782200 60.4159 181.342 55.8132 0.39105 -0.0452573
782400 60.4159 181.355 55.8132 0.39115 0.0129917
782600 60.4159 181.368 55.8132 0.39125 0.0444047
782800 60.4159 181.381 55.8132 0.39135 0.0911247
783000 60.4159 181.394 55.8132 0.39145 0.124256
783200 60.4159 181.407 55.8132 0.39155 0.143204
783400 60.4159 181.42 55.8132 0.39165 0.172446
783600 60.4159 181.433 55.8132 0.39175 0.145535
783800 60.4159 181.446 55.8132 0.39185 0.130692
784000 60.4159 181.459 55.8132 0.39195 0.0878144
784200 60.4159 181.472 55.8132 0.39205 0.0579691
784400 60.4159 181.485 55.8132 0.39215 -0.0241746
784600 60.4159 181.498 55.8132 0.39225 -0.0286398
784800 60.4159 181.512 55.8132 0.39235 -0.089904
785000 60.4159 181.525 55.8132 0.39245 -0.122122
785200 60.4159 181.538 55.8132 0.39255 -0.14193
785400 60.4159 181.551 55.8132 0.39265 -0.151603
785600 60.4159 181.564 55.8132 0.39275 -0.131216
785800 60.4159 181.577 55.8132 0.39285 -0.121336
786000 60.4159 181.59 55.8132 0.39295 -0.0833055
786200 60.4159 181.603 55.8132 0.39305 -0.0239561
786400 60.4159 181.616 55.8132 0.39315 0.0180758
786600 60.4159 181.629 55.8132 0.39325 0.0468356
786800 60.4159 181.642 55.8132 0.39335 0.113387
787000 60.4159 181.655 55.8132 0.39345 0.123701
787200 60.4159 181.668 55.8132 0.39355 0.145928
787400 60.4159 181.681 55.8132 0.39365 0.144117
787600 60.4159 181.694 55.8132 0.39375 0.164222
787800 60.4159 181.707 55.8132 0.39385 0.116589
788000 60.4159 181.72 55.8132 0.39395 0.0615862
788200 60.4159 181.733 55.8132 0.39405 0.0485144
788400 60.4159 181.746 55.8132 0.39415 -0.0277126
788600 60.4159 181.759 55.8132 0.39425 -0.0574916
788800 60.4159 181.772 55.8132 0.39435 -0.0914066
789000 60.4159 181.785 55.8132 0.39445 -0.12362
789200 60.4159 181.798 55.8132 0.39455 -0.135055
789400 60.4159 181.811 55.8132 0.39465 -0.129538
789600 60.4159 181.824 55.8132 0.39475 -0.130454
789800 60.4159 181.837 55.8132 0.39485 -0.116646
790000 60.4159 181.85 55.8132 0.39495 -0.0767599
790200 60.4159 181.863 55.8132 0.39505 -0.0192219
790400 60.4159 181.877 55.8132 0.39515 0.0330262
790600 60.4159 181.89 55.8132 0.39525 0.0750948
790800 60.4159 181.903 55.8132 0.39535 0.107768
791000 60.4159 181.916 55.8132 0.39545 0.131262
791200 60.4159 181.929 55.8132 0.39555 0.13439
791400 60.4159 181.942 55.8132 0.39565 0.143197
791600 60.4159 181.955 55.8132 0.39575 0.127169
791800 60.4159 181.968 55.8132 0.39585 0.120997
792000 60.4159 181.981 55.8132 0.39595 0.0796143
792200 60.4159 181.994 55.8132 0.39605 0.0243366
792400 60.4159 182.007 55.8132 0.39615 -0.0332074
792600 60.4159 182.02 55.8132 0.39625 -0.0786545
792800 60.4159 182.033 55.8132 0.39635 -0.0884856
793000 60.4159 182.046 55.8132 0.39645 -0.148779
793200 60.4159 182.059 55.8132 0.39655 -0.133678
793400 60.4159 182.072 55.8132 0.39665 -0.120876
793600 60.4159 182.085 55.8132 0.39675 -0.127445
793800 60.4159 182.098 55.8132 0.39685 -0.106916
794000 60.4159 182.111 55.8132 0.39695 -0.0557812
794200 60.4159 182.124 55.8132 0.39705 0.00506616
794400 60.4159 182.137 55.8132 0.39715 0.0433611
794600 60.4159 182.15 55.8132 0.39725 0.0725444
794800 60.4159 182.163 55.8132 0.39735 0.117635
795000 60.4159 182.176 55.8132 0.39745 0.145798
795200 60.4159 182.189 55.8132 0.39755 0.142862
795400 60.4159 182.202 55.8132 0.39765 0.1442
795600 60.4159 182.215 55.8132 0.39775 0.139553
795800 60.4159 182.229 55.8132 0.39785 0.0802101
796000 60.4159 182.242 55.8132 0.39795 0.0604313
796200 60.4159 182.255 55.8132 0.39805 0.00351965
796400 60.4159 182.268 55.8132 0.39815 -0.0379136
796600 60.4159 182.281 55.8132 0.39825 -0.103362
796800 60.4159 182.294 55.8132 0.39835 -0.113657
797000 60.4159 182.307 55.8132 0.39845 -0.133492
797200 60.4159 182.32 55.8132 0.39855 -0.120036
797400 60.4159 182.333 55.8132 0.39865 -0.144857
797600 60.4159 182.346 55.8132 0.39875 -0.101006
797800 60.4159 182.359 55.8132 0.39885 -0.0871218
798000 60.4159 182.372 55.8132 0.39895 -0.0375475
798200 60.4159 182.385 55.8132 0.39905 0.0209599
798400 60.4159 182.398 55.8132 0.39915 0.0490146
798600 60.4159 182.411 55.8132 0.39925 0.0906999
798800 60.4159 182.424 55.8132 0.39935 0.13887
799000 60.4159 182.437 55.8132 0.39945 0.132875
799200 60.4159 182.45 55.8132 0.39955 0.133988
799400 60.4159 182.463 55.8132 0.39965 0.138116
799600 60.4159 182.476 55.8132 0.39975 0.127876
799800 60.4159 182.489 55.8132 0.39985 0.0854289
800000 60.4159 182.502 55.8132 0.39995 0.00704528
800200 60.4159 182.515 55.8132 0.40005 -0.0150721
800400 60.4159 182.528 55.8132 0.40015 -0.0488769
800600 60.4159 182.541 55.8132 0.40025 -0.0859978
800800 60.4159 182.554 55.8132 0.40035 -0.122093
801000 60.4159 182.567 55.8132 0.40045 -0.130459
801200 60.4159 182.58 55.8132 0.40055 -0.127357
801400 60.4159 182.594 55.8132 0.40065 -0.114344
801600 60.4159 182.607 55.8132 0.40075 -0.0869775
801800 60.4159 182.62 55.8132 0.40085 -0.0702106
802000 60.4159 182.633 55.8132 0.40095 -0.04772
802200 60.4159 182.646 55.8132 0.40105 0.029222
802400 60.4159 182.659 55.8132 0.40115 0.085141
802600 60.4159 182.672 55.8132 0.40125 0.0814234
802800 60.4159 182.685 55.8132 0.40135 0.134416
803000 60.4159 182.698 55.8132 0.40145 0.141828
803200 60.4159 182.711 55.8132 0.40155 0.118311
803400 60.4159 182.724 55.8132 0.40165 0.126494
803600 60.4159 182.737 55.8132 0.40175 0.0878413
803800 60.4159 182.75 55.8132 0.40185 0.0806286
804000 60.4159 182.763 55.8132 0.40195 0.0441416
804200 60.4159 182.776 55.8132 0.40205 -0.021431
804400 60.4159 182.789 55.8132 0.40215 -0.061423
804600 60.4159 182.802 55.8132 0.40225 -0.0968942
804800 60.4159 182.815 55.8132 0.40235 -0.131003
805000 60.4159 182.828 55.8132 0.40245 -0.130191
805200 60.4159 182.841 55.8132 0.40255 -0.109772
805400 60.4159 182.854 55.8132 0.40265 -0.103547
805600 60.4159 182.867 55.8132 0.40275 -0.091855
805800 60.4159 182.88 55.8132 0.40285 -0.063763
806000 60.4159 182.893 55.8132 0.40295 -0.0342768
806200 60.4159 182.906 55.8132 0.40305 0.0365044
806400 60.4159 182.919 55.8132 0.40315 0.0762158
806600 60.4159 182.932 55.8132 0.40325 0.10884
806800 60.4159 182.946 55.8132 0.40335 0.140798
807000 60.4159 182.959 55.8132 0.40345 0.134073
807200 60.4159 182.972 55.8132 0.40355 0.132344
807400 60.4159 182.985 55.8132 0.40365 0.106178
807600 60.4159 182.998 55.8132 0.40375 0.0817294
807800 60.4159 183.011 55.8132 0.40385 0.072347
808000 60.4159 183.024 55.8132 0.40395 0.02118
808200 60.4159 183.037 55.8132 0.40405 -0.0652717
808400 60.4159 183.05 55.8132 0.40415 -0.063621
808600 60.4159 183.063 55.8132 0.40425 -0.0928898
808800 60.4159 183.076 55.8132 0.40435 -0.12104
809000 60.4159 183.089 55.8132 0.40445 -0.130666
809200 60.4159 183.102 55.8132 0.40455 -0.108162
809400 60.4159 183.115 55.8132 0.40465 -0.110853
809600 60.4159 183.128 55.8132 0.40475 -0.0520898
809800 60.4159 183.141 55.8132 0.40485 -0.0415327
810000 60.4159 183.154 55.8132 0.40495 0.0099629
810200 60.4159 183.167 55.8132 0.40505 0.0309352
810400 60.4159 183.18 55.8132 0.40515 0.0625908
810600 60.4159 183.193 55.8132 0.40525 0.118818
810800 60.4159 183.206 55.8132 0.40535 0.117187
811000 60.4159 183.219 55.8132 0.40545 0.140685
811200 60.4159 183.232 55.8132 0.40555 0.121546
811400 60.4159 183.245 55.8132 0.40565 0.115316
811600 60.4159 183.258 55.8132 0.40575 0.0599269
811800 60.4159 183.271 55.8132 0.40585 0.00830878
812000 60.4159 183.284 55.8132 0.40595 0.0118691
812200 60.4159 183.297 55.8132 0.40605 -0.0190095
812400 60.4159 183.311 55.8132 0.40615 -0.0688827
812600 60.4159 183.324 55.8132 0.40625 -0.100463
812800 60.4159 183.337 55.8132 0.40635 -0.124835
813000 60.4159 183.35 55.8132 0.40645 -0.131056
813200 60.4159 183.363 55.8132 0.40655 -0.122731
813400 60.4159 183.376 55.8132 0.40665 -0.0904423
813600 60.4159 183.389 55.8132 0.40675 -0.0427737
813800 60.4159 183.402 55.8132 0.40685 -0.0303074
814000 60.4159 183.415 55.8132 0.40695 0.0263075
814200 60.4159 183.428 55.8132 0.40705 0.0430902
814400 60.4159 183.441 55.8132 0.40715 0.067046
814600 60.4159 183.454 55.8132 0.40725 0.11975
814800 60.4159 183.467 55.8132 0.40735 0.11151
815000 60.4159 183.48 55.8132 0.40745 0.156761
815200 60.4159 183.493 55.8132 0.40755 0.13416
815400 60.4159 183.506 55.8132 0.40765 0.0973996
815600 60.4159 183.519 55.8132 0.40775 0.0473601
815800 60.4159 183.532 55.8132 0.40785 0.0202397
816000 60.4159 183.545 55.8132 0.40795 -0.0233192
816200 60.4159 183.558 55.8132 0.40805 -0.0501999
816400 60.4159 183.571 55.8132 0.40815 -0.0982495
816600 60.4159 183.584 55.8132 0.40825 -0.0811757
816800 60.4159 183.597 55.8132 0.40835 -0.133405
817000 60.4159 183.61 55.8132 0.40845 -0.114673
817200 60.4159 183.623 55.8132 0.40855 -0.106442
817400 60.4159 183.636 55.8132 0.40865 -0.0954265
817600 60.4159 183.649 55.8132 0.40875 -0.0534824
817800 60.4159 183.663 55.8132 0.40885 0.00645547
818000 60.4159 183.676 55.8132 0.40895 0.0249713
818200 60.4159 183.689 55.8132 0.40905 0.0638155
818400 60.4159 183.702 55.8132 0.40915 0.0952853
818600 60.4159 183.715 55.8132 0.40925 0.110721
818800 60.4159 183.728 55.8132 0.40935 0.123055
819000 60.4159 183.741 55.8132 0.40945 0.11654
819200 60.4159 183.754 55.8132 0.40955 0.136226
819400 60.4159 183.767 55.8132 0.40965 0.082135
819600 60.4159 183.78 55.8132 0.40975 0.0425093
819800 60.4159 183.793 55.8132 0.40985 0.0310536
820000 60.4159 183.806 55.8132 0.40995 -0.0413359
820200 60.4159 183.819 55.8132 0.41005 -0.0652964
820400 60.4159 183.832 55.8132 0.41015 -0.0877483
820600 60.4159 183.845 55.8132 0.41025 -0.109897
820800 60.4159 183.858 55.8132 0.41035 -0.122861
821000 60.4159 183.871 55.8132 0.41045 -0.099423
821200 60.4159 183.884 55.8132 0.41055 -0.0993419
821400 60.4159 183.897 55.8132 0.41065 -0.0886489
821600 60.4159 183.91 55.8132 0.41075 -0.0248565
821800 60.4159 183.923 55.8132 0.41085 -0.0244243
822000 60.4159 183.936 55.8132 0.41095 0.049351
822200 60.4159 183.949 55.8132 0.41105 0.082202
822400 60.4159 183.962 55.8132 0.41115 0.109984
822600 60.4159 183.975 55.8132 0.41125 0.122241
822800 60.4159 183.988 55.8132 0.41135 0.117378
823000 60.4159 184.001 55.8132 0.41145 0.100674
823200 60.4159 184.014 55.8132 0.41155 0.0943831
823400 60.4159 184.028 55.8132 0.41165 0.0856037
823600 60.4159 184.041 55.8132 0.41175 0.0391188
823800 60.4159 184.054 55.8132 0.41185 -0.0135765
824000 60.4159 184.067 55.8132 0.41195 -0.0428057
824200 60.4159 184.08 55.8132 0.41205 -0.0787625
824400 60.4159 184.093 55.8132 0.41215 -0.0865148
824600 60.4159 184.106 55.8132 0.41225 -0.0983158
824800 60.4159 184.119 55.8132 0.41235 -0.112766
825000 60.4159 184.132 55.8132 0.41245 -0.0945992
825200 60.4159 184.145 55.8132 0.41255 -0.0757851
825400 60.4159 184.158 55.8132 0.41265 -0.0351884
825600 60.4159 184.171 55.8132 0.41275 -0.045296
825800 60.4159 184.184 55.8132 0.41285 0.0206089
826000 60.4159 184.197 55.8132 0.41295 0.0471523
826200 60.4159 184.21 55.8132 0.41305 0.0736835
826400 60.4159 184.223 55.8132 0.41315 0.114101
826600 60.4159 184.236 55.8132 0.41325 0.117017
826800 60.4159 184.249 55.8132 0.41335 0.108519
827000 60.4159 184.262 55.8132 0.41345 0.0889498
827200 60.4159 184.275 55.8132 0.41355 0.0718743
827400 60.4159 184.288 55.8132 0.41365 0.0346557
827600 60.4159 184.301 55.8132 0.41375 0.0479793
827800 60.4159 184.314 55.8132 0.41385 -0.00440227
828000 60.4159 184.327 55.8132 0.41395 -0.0420448
828200 60.4159 184.34 55.8132 0.41405 -0.0779969
828400 60.4159 184.353 55.8132 0.41415 -0.116695
828600 60.4159 184.366 55.8132 0.41425 -0.0940397
828800 60.4159 184.38 55.8132 0.41435 -0.10976
829000 60.4159 184.393 55.8132 0.41445 -0.0751416
829200 60.4159 184.406 55.8132 0.41455 -0.0557175
829400 60.4159 184.419 55.8132 0.41465 -0.0551921
829600 60.4159 184.432 55.8132 0.41475 -0.0231037
829800 60.4159 184.445 55.8132 0.41485 0.0335742
830000 60.4159 184.458 55.8132 0.41495 0.052402
830200 60.4159 184.471 55.8132 0.41505 0.0920623
830400 60.4159 184.484 55.8132 0.41515 0.0936232
830600 60.4159 184.497 55.8132 0.41525 0.138588
830800 60.4159 184.51 55.8132 0.41535 0.123016
831000 60.4159 184.523 55.8132 0.41545 0.0705327
831200 60.4159 184.536 55.8132 0.41555 0.0450978
831400 60.4159 184.549 55.8132 0.41565 0.0541404
831600 60.4159 184.562 55.8132 0.41575 0.0121706
831800 60.4159 184.575 55.8132 0.41585 -0.00901834
832000 60.4159 184.588 55.8132 0.41595 -0.0524692
832200 60.4159 184.601 55.8132 0.41605 -0.095445
832400 60.4159 184.614 55.8132 0.41615 -0.0915044
832600 60.4159 184.627 55.8132 0.41625 -0.114173
832800 60.4159 184.64 55.8132 0.41635 -0.108426
833000 60.4159 184.653 55.8132 0.41645 -0.0677226
833200 60.4159 184.666 55.8132 0.41655 -0.0627729
833400 60.4159 184.679 55.8132 0.41665 -0.029952
833600 60.4159 184.692 55.8132 0.41675 0.0121663
833800 60.4159 184.705 55.8132 0.41685 0.0287048
834000 60.4159 184.718 55.8132 0.41695 0.060974
834200 60.4159 184.731 55.8132 0.41705 0.0818375
834400 60.4159 184.745 55.8132 0.41715 0.120861
834600 60.4159 184.758 55.8132 0.41725 0.139656
834800 60.4159 184.771 55.8132 0.41735 0.108659
835000 60.4159 184.784 55.8132 0.41745 0.0772732
835200 60.4159 184.797 55.8132 0.41755 0.0516177
835400 60.4159 184.81 55.8132 0.41765 0.0155452
835600 60.4159 184.823 55.8132 0.41775 0.0106
835800 60.4159 184.836 55.8132 0.41785 -0.0434507
836000 60.4159 184.849 55.8132 0.41795 -0.0583327
836200 60.4159 184.862 55.8132 0.41805 -0.0710428
836400 60.4159 184.875 55.8132 0.41815 -0.102109
836600 60.4159 184.888 55.8132 0.41825 -0.117153
836800 60.4159 184.901 55.8132 0.41835 -0.0927745
837000 60.4159 184.914 55.8132 0.41845 -0.0894826
837200 60.4159 184.927 55.8132 0.41855 -0.0408196
837400 60.4159 184.94 55.8132 0.41865 -0.0195809
837600 60.4159 184.953 55.8132 0.41875 0.0168079
837800 60.4159 184.966 55.8132 0.41885 0.0611318
838000 60.4159 184.979 55.8132 0.41895 0.045484
838200 60.4159 184.992 55.8132 0.41905 0.107976
838400 60.4159 185.005 55.8132 0.41915 0.0945208
838600 60.4159 185.018 55.8132 0.41925 0.129322
838800 60.4159 185.031 55.8132 0.41935 0.106598
839000 60.4159 185.044 55.8132 0.41945 0.056886
839200 60.4159 185.057 55.8132 0.41955 0.0558222
839400 60.4159 185.07 55.8132 0.41965 0.0340599
839600 60.4159 185.083 55.8132 0.41975 -0.0237114
839800 60.4159 185.097 55.8132 0.41985 -0.0523495
840000 60.4159 185.11 55.8132 0.41995 -0.0610335
840200 60.4159 185.123 55.8132 0.42005 -0.0821296
840400 60.4159 185.136 55.8132 0.42015 -0.102621
840600 60.4159 185.149 55.8132 0.42025 -0.100658
840800 60.4159 185.162 55.8132 0.42035 -0.0842679
841000 60.4159 185.175 55.8132 0.42045 -0.0705617
841200 60.4159 185.188 55.8132 0.42055 -0.0545302
841400 60.4159 185.201 55.8132 0.42065 0.00677886
841600 60.4159 185.214 55.8132 0.42075 0.0250153
841800 60.4159 185.227 55.8132 0.42085 0.0498358
842000 60.4159 185.24 55.8132 0.42095 0.0904849
842200 60.4159 185.253 55.8132 0.42105 0.113531
842400 60.4159 185.266 55.8132 0.42115 0.0906678
842600 60.4159 185.279 55.8132 0.42125 0.0968289
842800 60.4159 185.292 55.8132 0.42135 0.0815802
843000 60.4159 185.305 55.8132 0.42145 0.0786645
843200 60.4159 185.318 55.8132 0.42155 0.0514495
843400 60.4159 185.331 55.8132 0.42165 0.00431019
843600 60.4159 185.344 55.8132 0.42175 -0.0194021
843800 60.4159 185.357 55.8132 0.42185 -0.0603938
844000 60.4159 185.37 55.8132 0.42195 -0.0778875
844200 60.4159 185.383 55.8132 0.42205 -0.0988063
844400 60.4159 185.396 55.8132 0.42215 -0.100027
844600 60.4159 185.409 55.8132 0.42225 -0.09233
844800 60.4159 185.422 55.8132 0.42235 -0.0771732
845000 60.4159 185.435 55.8132 0.42245 -0.0385142
845200 60.4159 185.448 55.8132 0.42255 -0.0326667
845400 60.4159 185.462 55.8132 0.42265 -0.0256725
845600 60.4159 185.475 55.8132 0.42275 0.0482403
845800 60.4159 185.488 55.8132 0.42285 0.0775052
846000 60.4159 185.501 55.8132 0.42295 0.0997161
846200 60.4159 185.514 55.8132 0.42305 0.102435
846400 60.4159 185.527 55.8132 0.42315 0.0926858
846600 60.4159 185.54 55.8132 0.42325 0.109008
846800 60.4159 185.553 55.8132 0.42335 0.0651669
847000 60.4159 185.566 55.8132 0.42345 0.0581036
847200 60.4159 185.579 55.8132 0.42355 0.0165023
847400 60.4159 185.592 55.8132 0.42365 0.00982686
847600 60.4159 185.605 55.8132 0.42375 -0.0330685
847800 60.4159 185.618 55.8132 0.42385 -0.0802902
848000 60.4159 185.631 55.8132 0.42395 -0.0775785
848200 60.4159 185.644 55.8132 0.42405 -0.0894367
848400 60.4159 185.657 55.8132 0.42415 -0.0960396
848600 60.4159 185.67 55.8132 0.42425 -0.0722506
848800 60.4159 185.683 55.8132 0.42435 -0.0756159
849000 60.4159 185.696 55.8132 0.42445 -0.0414534
849200 60.4159 185.709 55.8132 0.42455 0.00156773
849400 60.4159 185.722 55.8132 0.42465 0.0140277
849600 60.4159 185.735 55.8132 0.42475 0.0635354
849800 60.4159 185.748 55.8132 0.42485 0.0325198
850000 60.4159 185.761 55.8132 0.42495 0.100089
850200 60.4159 185.774 55.8132 0.42505 0.104232
850400 60.4159 185.787 55.8132 0.42515 0.0979548
850600 60.4159 185.8 55.8132 0.42525 0.072138
850800 60.4159 185.814 55.8132 0.42535 0.053118
851000 60.4159 185.827 55.8132 0.42545 0.0383942
851200 60.4159 185.84 55.8132 0.42555 0.0273482
851400 60.4159 185.853 55.8132 0.42565 -0.00298407
851600 60.4159 185.866 55.8132 0.42575 -0.0334
851800 60.4159 185.879 55.8132 0.42585 -0.0777233
852000 60.4159 185.892 55.8132 0.42595 -0.0780436
852200 60.4159 185.905 55.8132 0.42605 -0.0811878
852400 60.4159 185.918 55.8132 0.42615 -0.104765
852600 60.4159 185.931 55.8132 0.42625 -0.0624074
852800 60.4159 185.944 55.8132 0.42635 -0.0470033
853000 60.4159 185.957 55.8132 0.42645 -0.0189596
853200 60.4159 185.97 55.8132 0.42655 -0.00671755
853400 60.4159 185.983 55.8132 0.42665 0.0183472
853600 60.4159 185.996 55.8132 0.42675 0.0423447
853800 60.4159 186.009 55.8132 0.42685 0.0764876
854000 60.4159 186.022 55.8132 0.42695 0.0925645
854200 60.4159 186.035 55.8132 0.42705 0.084353
854400 60.4159 186.048 55.8132 0.42715 0.106824
854600 60.4159 186.061 55.8132 0.42725 0.0787743
854800 60.4159 186.074 55.8132 0.42735 0.0571499
855000 60.4159 186.087 55.8132 0.42745 0.0188044
855200 60.4159 186.1 55.8132 0.42755 -0.00236172
855400 60.4159 186.113 55.8132 0.42765 -0.0278231
855600 60.4159 186.126 55.8132 0.42775 -0.0332967
855800 60.4159 186.139 55.8132 0.42785 -0.0547601
856000 60.4159 186.152 55.8132 0.42795 -0.0803495
856200 60.4159 186.165 55.8132 0.42805 -0.0875326
856400 60.4159 186.179 55.8132 0.42815 -0.087865
856600 60.4159 186.192 55.8132 0.42825 -0.0739902
856800 60.4159 186.205 55.8132 0.42835 -0.0409023
857000 60.4159 186.218 55.8132 0.42845 -0.0254808
857200 60.4159 186.231 55.8132 0.42855 0.00721545
857400 60.4159 186.244 55.8132 0.42865 0.039972
857600 60.4159 186.257 55.8132 0.42875 0.0441462
857800 60.4159 186.27 55.8132 0.42885 0.0661662
858000 60.4159 186.283 55.8132 0.42895 0.0750178
858200 60.4159 186.296 55.8132 0.42905 0.102055
858400 60.4159 186.309 55.8132 0.42915 0.098004
858600 60.4159 186.322 55.8132 0.42925 0.0715189
858800 60.4159 186.335 55.8132 0.42935 0.0623867
859000 60.4159 186.348 55.8132 0.42945 0.0224857
859200 60.4159 186.361 55.8132 0.42955 0.00620667
859400 60.4159 186.374 55.8132 0.42965 -0.0355274
859600 60.4159 186.387 55.8132 0.42975 -0.0539447
859800 60.4159 186.4 55.8132 0.42985 -0.0747695
860000 60.4159 186.413 55.8132 0.42995 -0.0639215
860200 60.4159 186.426 55.8132 0.43005 -0.0854984
860400 60.4159 186.439 55.8132 0.43015 -0.0775469
860600 60.4159 186.452 55.8132 0.43025 -0.0566494
860800 60.4159 186.465 55.8132 0.43035 -0.0732745
861000 60.4159 186.478 55.8132 0.43045 -0.00446557
861200 60.4159 186.491 55.8132 0.43055 0.0257058
861400 60.4159 186.504 55.8132 0.43065 0.0232519
861600 60.4159 186.517 55.8132 0.43075 0.0798322
861800 60.4159 186.531 55.8132 0.43085 0.0699311
862000 60.4159 186.544 55.8132 0.43095 0.0802116
862200 60.4159 186.557 55.8132 0.43105 0.0942948
862400 60.4159 186.57 55.8132 0.43115 0.0653299
862600 60.4159 186.583 55.8132 0.43125 0.0637202
862800 60.4159 186.596 55.8132 0.43135 0.0580774
863000 60.4159 186.609 55.8132 0.43145 0.0394934
863200 60.4159 186.622 55.8132 0.43155 0.00320823
863400 60.4159 186.635 55.8132 0.43165 -0.039431
863600 60.4159 186.648 55.8132 0.43175 -0.0922107
863800 60.4159 186.661 55.8132 0.43185 -0.0692949
864000 60.4159 186.674 55.8132 0.43195 -0.0688312
864200 60.4159 186.687 55.8132 0.43205 -0.0763841
864400 60.4159 186.7 55.8132 0.43215 -0.0773592
864600 60.4159 186.713 55.8132 0.43225 -0.0604962
864800 60.4159 186.726 55.8132 0.43235 -0.0337973
865000 60.4159 186.739 55.8132 0.43245 -0.00764918
865200 60.4159 186.752 55.8132 0.43255 0.00173985
865400 60.4159 186.765 55.8132 0.43265 0.0486748
865600 60.4159 186.778 55.8132 0.43275 0.0685961
865800 60.4159 186.791 55.8132 0.43285 0.0941037
866000 60.4159 186.804 55.8132 0.43295 0.0867091
866200 60.4159 186.817 55.8132 0.43305 0.0702946
866400 60.4159 186.83 55.8132 0.43315 0.0908907
866600 60.4159 186.843 55.8132 0.43325 0.0651234
866800 60.4159 186.856 55.8132 0.43335 0.0685024
867000 60.4159 186.869 55.8132 0.43345 -0.0150558
867200 60.4159 186.882 55.8132 0.43355 -0.00941104
867400 60.4159 186.896 55.8132 0.43365 -0.0400504
867600 60.4159 186.909 55.8132 0.43375 -0.069498
867800 60.4159 186.922 55.8132 0.43385 -0.0646455
868000 60.4159 186.935 55.8132 0.43395 -0.0668736
868200 60.4159 186.948 55.8132 0.43405 -0.0929243
868400 60.4159 186.961 55.8132 0.43415 -0.0765349
868600 60.4159 186.974 55.8132 0.43425 -0.0458803
868800 60.4159 186.987 55.8132 0.43435 -0.0226308
869000 60.4159 187 55.8132 0.43445 -0.0227114
869200 60.4159 187.013 55.8132 0.43455 0.0152579
869400 60.4159 187.026 55.8132 0.43465 0.0714898
869600 60.4159 187.039 55.8132 0.43475 0.0587716
869800 60.4159 187.052 55.8132 0.43485 0.0772869
870000 60.4159 187.065 55.8132 0.43495 0.0805188
870200 60.4159 187.078 55.8132 0.43505 0.0992079
870400 60.4159 187.091 55.8132 0.43515 0.0769048
870600 60.4159 187.104 55.8132 0.43525 0.0499841
870800 60.4159 187.117 55.8132 0.43535 0.0238559
871000 60.4159 187.13 55.8132 0.43545 0.00449116
871200 60.4159 187.143 55.8132 0.43555 -0.00416299
871400 60.4159 187.156 55.8132 0.43565 -0.0521064
871600 60.4159 187.169 55.8132 0.43575 -0.0678759
871800 60.4159 187.182 55.8132 0.43585 -0.0619879
872000 60.4159 187.195 55.8132 0.43595 -0.0870535
872200 60.4159 187.208 55.8132 0.43605 -0.0621042
872400 60.4159 187.221 55.8132 0.43615 -0.0647868
872600 60.4159 187.234 55.8132 0.43625 -0.0479735
872800 60.4159 187.248 55.8132 0.43635 -0.00861059
873000 60.4159 187.261 55.8132 0.43645 0.00506116
873200 60.4159 187.274 55.8132 0.43655 0.0361657
873400 60.4159 187.287 55.8132 0.43665 0.0464066
873600 60.4159 187.3 55.8132 0.43675 0.0550732
873800 60.4159 187.313 55.8132 0.43685 0.0775639
874000 60.4159 187.326 55.8132 0.43695 0.0697895
874200 60.4159 187.339 55.8132 0.43705 0.0983522
874400 60.4159 187.352 55.8132 0.43715 0.0536328
874600 60.4159 187.365 55.8132 0.43725 0.0508922
874800 60.4159 187.378 55.8132 0.43735 0.0207714
875000 60.4159 187.391 55.8132 0.43745 0.00907125
875200 60.4159 187.404 55.8132 0.43755 -0.0357605
875400 60.4159 187.417 55.8132 0.43765 -0.0314558
875600 60.4159 187.43 55.8132 0.43775 -0.0625208
875800 60.4159 187.443 55.8132 0.43785 -0.0489187
876000 60.4159 187.456 55.8132 0.43795 -0.0781647
876200 60.4159 187.469 55.8132 0.43805 -0.0725904
876400 60.4159 187.482 55.8132 0.43815 -0.080093
876600 60.4159 187.495 55.8132 0.43825 -0.0310884
876800 60.4159 187.508 55.8132 0.43835 -0.0348633
877000 60.4159 187.521 55.8132 0.43845 0.0109611
877200 60.4159 187.534 55.8132 0.43855 0.053256
877400 60.4159 187.547 55.8132 0.43865 0.0344526
877600 60.4159 187.56 55.8132 0.43875 0.0762427
877800 60.4159 187.573 55.8132 0.43885 0.0782388
878000 60.4159 187.586 55.8132 0.43895 0.0687182
878200 60.4159 187.599 55.8132 0.43905 0.079138
878400 60.4159 187.613 55.8132 0.43915 0.0672959
878600 60.4159 187.626 55.8132 0.43925 0.056472
878800 60.4159 187.639 55.8132 0.43935 0.0345814
879000 60.4159 187.652 55.8132 0.43945 -0.0120244
879200 60.4159 187.665 55.8132 0.43955 -0.0402838
879400 60.4159 187.678 55.8132 0.43965 -0.0541396
879600 60.4159 187.691 55.8132 0.43975 -0.061851
879800 60.4159 187.704 55.8132 0.43985 -0.0528388
880000 60.4159 187.717 55.8132 0.43995 -0.0717133
880200 60.4159 187.73 55.8132 0.44005 -0.0639196
880400 60.4159 187.743 55.8132 0.44015 -0.0496778
880600 60.4159 187.756 55.8132 0.44025 -0.0542497
880800 60.4159 187.769 55.8132 0.44035 -0.0366386
881000 60.4159 187.782 55.8132 0.44045 0.0289765
881200 60.4159 187.795 55.8132 0.44055 0.0416625
881400 60.4159 187.808 55.8132 0.44065 0.0877245
881600 60.4159 187.821 55.8132 0.44075 0.0585312
881800 60.4159 187.834 55.8132 0.44085 0.0686185
882000 60.4159 187.847 55.8132 0.44095 0.0811746
882200 60.4159 187.86 55.8132 0.44105 0.0713978
882400 60.4159 187.873 55.8132 0.44115 0.0577906
882600 60.4159 187.886 55.8132 0.44125 0.0534244
882800 60.4159 187.899 55.8132 0.44135 0.0040532
883000 60.4159 187.912 55.8132 0.44145 0.00996719
883200 60.4159 187.925 55.8132 0.44155 -0.0480273
883400 60.4159 187.938 55.8132 0.44165 -0.064687
883600 60.4159 187.951 55.8132 0.44175 -0.0827795
883800 60.4159 187.965 55.8132 0.44185 -0.0709397
884000 60.4159 187.978 55.8132 0.44195 -0.0674471
884200 60.4159 187.991 55.8132 0.44205 -0.0500666
884400 60.4159 188.004 55.8132 0.44215 -0.0511564
884600 60.4159 188.017 55.8132 0.44225 -0.0326546
884800 60.4159 188.03 55.8132 0.44235 -0.0223417
885000 60.4159 188.043 55.8132 0.44245 0.00215036
885200 60.4159 188.056 55.8132 0.44255 0.0536732
885400 60.4159 188.069 55.8132 0.44265 0.0784986
885600 60.4159 188.082 55.8132 0.44275 0.08982
885800 60.4159 188.095 55.8132 0.44285 0.0878471
886000 60.4159 188.108 55.8132 0.44295 0.0917832
886200 60.4159 188.121 55.8132 0.44305 0.0753476
886400 60.4159 188.134 55.8132 0.44315 0.050283
886600 60.4159 188.147 55.8132 0.44325 0.0144922
886800 60.4159 188.16 55.8132 0.44335 0.0239689
887000 60.4159 188.173 55.8132 0.44345 -0.0103243
887200 60.4159 188.186 55.8132 0.44355 -0.0432398
887400 60.4159 188.199 55.8132 0.44365 -0.0565471
887600 60.4159 188.212 55.8132 0.44375 -0.0798911
887800 60.4159 188.225 55.8132 0.44385 -0.098105
888000 60.4159 188.238 55.8132 0.44395 -0.066713
888200 60.4159 188.251 55.8132 0.44405 -0.0663058
888400 60.4159 188.264 55.8132 0.44415 -0.0589999
888600 60.4159 188.277 55.8132 0.44425 -0.0237787
888800 60.4159 188.29 55.8132 0.44435 -0.00244175
889000 60.4159 188.303 55.8132 0.44445 0.0492759
889200 60.4159 188.316 55.8132 0.44455 0.0303863
889400 60.4159 188.33 55.8132 0.44465 0.0684807
889600 60.4159 188.343 55.8132 0.44475 0.0738534
889800 60.4159 188.356 55.8132 0.44485 0.103234
890000 60.4159 188.369 55.8132 0.44495 0.0890438
890200 60.4159 188.382 55.8132 0.44505 0.0853442
890400 60.4159 188.395 55.8132 0.44515 0.0480869
890600 60.4159 188.408 55.8132 0.44525 0.0303568
890800 60.4159 188.421 55.8132 0.44535 -0.00472171
891000 60.4159 188.434 55.8132 0.44545 -0.0352181
891200 60.4159 188.447 55.8132 0.44555 -0.0319674
891400 60.4159 188.46 55.8132 0.44565 -0.064554
891600 60.4159 188.473 55.8132 0.44575 -0.0634006
891800 60.4159 188.486 55.8132 0.44585 -0.0903118
892000 60.4159 188.499 55.8132 0.44595 -0.0853916
892200 60.4159 188.512 55.8132 0.44605 -0.0634762
892400 60.4159 188.525 55.8132 0.44615 -0.0432773
892600 60.4159 188.538 55.8132 0.44625 -0.0413031
892800 60.4159 188.551 55.8132 0.44635 0.0350684
893000 60.4159 188.564 55.8132 0.44645 0.0276971
893200 60.4159 188.577 55.8132 0.44655 0.0544547
893400 60.4159 188.59 55.8132 0.44665 0.0798208
893600 60.4159 188.603 55.8132 0.44675 0.0680635
893800 60.4159 188.616 55.8132 0.44685 0.0735049
894000 60.4159 188.629 55.8132 0.44695 0.103271
894200 60.4159 188.642 55.8132 0.44705 0.0856522
894400 60.4159 188.655 55.8132 0.44715 0.0556073
894600 60.4159 188.668 55.8132 0.44725 0.00462103
894800 60.4159 188.681 55.8132 0.44735 0.0019096
895000 60.4159 188.695 55.8132 0.44745 -0.0106354
895200 60.4159 188.708 55.8132 0.44755 -0.0725552
895400 60.4159 188.721 55.8132 0.44765 -0.0616202
895600 60.4159 188.734 55.8132 0.44775 -0.0747205
895800 60.4159 188.747 55.8132 0.44785 -0.0887673
896000 60.4159 188.76 55.8132 0.44795 -0.0770886
896200 60.4159 188.773 55.8132 0.44805 -0.0658612
896400 60.4159 188.786 55.8132 0.44815 -0.0330714
896600 60.4159 188.799 55.8132 0.44825 -0.0221556
896800 60.4159 188.812 55.8132 0.44835 0.0166284
897000 60.4159 188.825 55.8132 0.44845 0.0307813
897200 60.4159 188.838 55.8132 0.44855 0.0653687
897400 60.4159 188.851 55.8132 0.44865 0.08167
897600 60.4159 188.864 55.8132 0.44875 0.0883878
897800 60.4159 188.877 55.8132 0.44885 0.0616519
898000 60.4159 188.89 55.8132 0.44895 0.0966969
898200 60.4159 188.903 55.8132 0.44905 0.0652358
898400 60.4159 188.916 55.8132 0.44915 0.0470146
898600 60.4159 188.929 55.8132 0.44925 0.0225233
898800 60.4159 188.942 55.8132 0.44935 -0.00907718
899000 60.4159 188.955 55.8132 0.44945 -0.03921
899200 60.4159 188.968 55.8132 0.44955 -0.0519308
899400 60.4159 188.981 55.8132 0.44965 -0.0625578
899600 60.4159 188.994 55.8132 0.44975 -0.09
899800 60.4159 189.007 55.8132 0.44985 -0.0640029
900000 60.4159 189.02 55.8132 0.44995 -0.0679998
900200 60.4159 189.033 55.8132 0.45005 -0.0553353
900400 60.4159 189.047 55.8132 0.45015 -0.0344798
900600 60.4159 189.06 55.8132 0.45025 0.0001564
900800 60.4159 189.073 55.8132 0.45035 0.0166188
901000 60.4159 189.086 55.8132 0.45045 0.0404179
901200 60.4159 189.099 55.8132 0.45055 0.0640798
901400 60.4159 189.112 55.8132 0.45065 0.0553189
901600 60.4159 189.125 55.8132 0.45075 0.100375
901800 60.4159 189.138 55.8132 0.45085 0.0824099
902000 60.4159 189.151 55.8132 0.45095 0.0742875
902200 60.4159 189.164 55.8132 0.45105 0.0339527
902400 60.4159 189.177 55.8132 0.45115 0.0466743
902600 60.4159 189.19 55.8132 0.45125 0.00970898
902800 60.4159 189.203 55.8132 0.45135 -0.022137
903000 60.4159 189.216 55.8132 0.45145 -0.0278819
903200 60.4159 189.229 55.8132 0.45155 -0.0359536
903400 60.4159 189.242 55.8132 0.45165 -0.0929479
903600 60.4159 189.255 55.8132 0.45175 -0.0532624
903800 60.4159 189.268 55.8132 0.45185 -0.0868757
904000 60.4159 189.281 55.8132 0.45195 -0.0536016
904200 60.4159 189.294 55.8132 0.45205 -0.0390478
904400 60.4159 189.307 55.8132 0.45215 -0.0258549
904600 60.4159 189.32 55.8132 0.45225 -0.0309771
904800 60.4159 189.333 55.8132 0.45235 0.0309516
905000 60.4159 189.346 55.8132 0.45245 0.0512355
905200 60.4159 189.359 55.8132 0.45255 0.0661318
905400 60.4159 189.372 55.8132 0.45265 0.0890884
905600 60.4159 189.385 55.8132 0.45275 0.0691787
905800 60.4159 189.398 55.8132 0.45285 0.0850751
906000 60.4159 189.412 55.8132 0.45295 0.0742334
906200 60.4159 189.425 55.8132 0.45305 0.0413273
906400 60.4159 189.438 55.8132 0.45315 0.0260203
906600 60.4159 189.451 55.8132 0.45325 0.00438231
906800 60.4159 189.464 55.8132 0.45335 -0.0164786
907000 60.4159 189.477 55.8132 0.45345 -0.0401576
907200 60.4159 189.49 55.8132 0.45355 -0.0678237
907400 60.4159 189.503 55.8132 0.45365 -0.0710583
907600 60.4159 189.516 55.8132 0.45375 -0.0630488
907800 60.4159 189.529 55.8132 0.45385 -0.0724707
908000 60.4159 189.542 55.8132 0.45395 -0.0691183
908200 60.4159 189.555 55.8132 0.45405 -0.0398963
908400 60.4159 189.568 55.8132 0.45415 -0.0167759
908600 60.4159 189.581 55.8132 0.45425 0.00315248
908800 60.4159 189.594 55.8132 0.45435 0.0262117
909000 60.4159 189.607 55.8132 0.45445 0.0584444
909200 60.4159 189.62 55.8132 0.45455 0.0727097
909400 60.4159 189.633 55.8132 0.45465 0.0790014
909600 60.4159 189.646 55.8132 0.45475 0.0732909
909800 60.4159 189.659 55.8132 0.45485 0.0903496
910000 60.4159 189.672 55.8132 0.45495 0.057298
910200 60.4159 189.685 55.8132 0.45505 0.0651301
910400 60.4159 189.698 55.8132 0.45515 0.0269518
910600 60.4159 189.711 55.8132 0.45525 -0.0145993
910800 60.4159 189.724 55.8132 0.45535 -0.0541219
911000 60.4159 189.737 55.8132 0.45545 -0.0409141
911200 60.4159 189.75 55.8132 0.45555 -0.0557312
911400 60.4159 189.764 55.8132 0.45565 -0.0861774
911600 60.4159 189.777 55.8132 0.45575 -0.0565914
911800 60.4159 189.79 55.8132 0.45585 -0.0689343
912000 60.4159 189.803 55.8132 0.45595 -0.0662206
912200 60.4159 189.816 55.8132 0.45605 -0.0291134
912400 60.4159 189.829 55.8132 0.45615 -0.013136
912600 60.4159 189.842 55.8132 0.45625 0.0297532
912800 60.4159 189.855 55.8132 0.45635 0.0525998
913000 60.4159 189.868 55.8132 0.45645 0.0505844
913200 60.4159 189.881 55.8132 0.45655 0.0613182
913400 60.4159 189.894 55.8132 0.45665 0.0756931
913600 60.4159 189.907 55.8132 0.45675 0.0890829
913800 60.4159 189.92 55.8132 0.45685 0.0671075
914000 60.4159 189.933 55.8132 0.45695 0.0455989
914200 60.4159 189.946 55.8132 0.45705 0.054017
914400 60.4159 189.959 55.8132 0.45715 0.00740927
914600 60.4159 189.972 55.8132 0.45725 -0.0145613
914800 60.4159 189.985 55.8132 0.45735 -0.0436774
915000 60.4159 189.998 55.8132 0.45745 -0.0559449
915200 60.4159 190.011 55.8132 0.45755 -0.0627873
915400 60.4159 190.024 55.8132 0.45765 -0.0698843
915600 60.4159 190.037 55.8132 0.45775 -0.0688284
915800 60.4159 190.05 55.8132 0.45785 -0.0649418
916000 60.4159 190.063 55.8132 0.45795 -0.0485023
916200 60.4159 190.076 55.8132 0.45805 -0.0145539
916400 60.4159 190.089 55.8132 0.45815 -0.0106853
916600 60.4159 190.102 55.8132 0.45825 0.0183786
916800 60.4159 190.115 55.8132 0.45835 0.062044
917000 60.4159 190.129 55.8132 0.45845 0.0480387
917200 60.4159 190.142 55.8132 0.45855 0.0812826
917400 60.4159 190.155 55.8132 0.45865 0.0798126
917600 60.4159 190.168 55.8132 0.45875 0.0759026
917800 60.4159 190.181 55.8132 0.45885 0.0746432
918000 60.4159 190.194 55.8132 0.45895 0.0420664
918200 60.4159 190.207 55.8132 0.45905 0.0376905
918400 60.4159 190.22 55.8132 0.45915 -0.0106098
918600 60.4159 190.233 55.8132 0.45925 -0.00803385
918800 60.4159 190.246 55.8132 0.45935 -0.0484105
919000 60.4159 190.259 55.8132 0.45945 -0.0612981
919200 60.4159 190.272 55.8132 0.45955 -0.0618271
919400 60.4159 190.285 55.8132 0.45965 -0.0730931
919600 60.4159 190.298 55.8132 0.45975 -0.0478488
919800 60.4159 190.311 55.8132 0.45985 -0.0700786
920000 60.4159 190.324 55.8132 0.45995 -0.0479479
920200 60.4159 190.337 55.8132 0.46005 1.4042e-05
920400 60.4159 190.35 55.8132 0.46015 -0.00321082
920600 60.4159 190.363 55.8132 0.46025 0.0424814
920800 60.4159 190.376 55.8132 0.46035 0.066237
921000 60.4159 190.389 55.8132 0.46045 0.0441105
921200 60.4159 190.402 55.8132 0.46055 0.0620224
921400 60.4159 190.415 55.8132 0.46065 0.0732645
921600 60.4159 190.428 55.8132 0.46075 0.0776186
921800 60.4159 190.441 55.8132 0.46085 0.0588999
922000 60.4159 190.454 55.8132 0.46095 0.0280973
922200 60.4159 190.467 55.8132 0.46105 0.0303328
922400 60.4159 190.481 55.8132 0.46115 -0.00585237
922600 60.4159 190.494 55.8132 0.46125 -0.0276195
922800 60.4159 190.507 55.8132 0.46135 -0.0538198
923000 60.4159 190.52 55.8132 0.46145 -0.0597483
923200 60.4159 190.533 55.8132 0.46155 -0.0488659
923400 60.4159 190.546 55.8132 0.46165 -0.0505064
923600 60.4159 190.559 55.8132 0.46175 -0.0546299
923800 60.4159 190.572 55.8132 0.46185 -0.0592222
924000 60.4159 190.585 55.8132 0.46195 -0.0284651
924200 60.4159 190.598 55.8132 0.46205 -0.00727997
924400 60.4159 190.611 55.8132 0.46215 0.00955368
924600 60.4159 190.624 55.8132 0.46225 0.035826
924800 60.4159 190.637 55.8132 0.46235 0.0612956
925000 60.4159 190.65 55.8132 0.46245 0.0593681
925200 60.4159 190.663 55.8132 0.46255 0.0563435
925400 60.4159 190.676 55.8132 0.46265 0.0464166
925600 60.4159 190.689 55.8132 0.46275 0.0638885
925800 60.4159 190.702 55.8132 0.46285 0.0624881
926000 60.4159 190.715 55.8132 0.46295 0.0407918
926200 60.4159 190.728 55.8132 0.46305 0.0194476
926400 60.4159 190.741 55.8132 0.46315 -0.0242557
926600 60.4159 190.754 55.8132 0.46325 -0.0286347
926800 60.4159 190.767 55.8132 0.46335 -0.0456877
927000 60.4159 190.78 55.8132 0.46345 -0.0576407
927200 60.4159 190.793 55.8132 0.46355 -0.0493088
927400 60.4159 190.806 55.8132 0.46365 -0.0424001
927600 60.4159 190.819 55.8132 0.46375 -0.0458992
927800 60.4159 190.832 55.8132 0.46385 -0.0490027
928000 60.4159 190.846 55.8132 0.46395 -0.0299656
928200 60.4159 190.859 55.8132 0.46405 -0.00972029
928400 60.4159 190.872 55.8132 0.46415 0.0262329
928600 60.4159 190.885 55.8132 0.46425 0.0413382
928800 60.4159 190.898 55.8132 0.46435 0.0636808
929000 60.4159 190.911 55.8132 0.46445 0.0456944
929200 60.4159 190.924 55.8132 0.46455 0.0546531
929400 60.4159 190.937 55.8132 0.46465 0.0606525
929600 60.4159 190.95 55.8132 0.46475 0.0487776
929800 60.4159 190.963 55.8132 0.46485 0.0552903
930000 60.4159 190.976 55.8132 0.46495 0.0361669
930200 60.4159 190.989 55.8132 0.46505 -0.0014052
930400 60.4159 191.002 55.8132 0.46515 -0.0093726
930600 60.4159 191.015 55.8132 0.46525 -0.0213605
930800 60.4159 191.028 55.8132 0.46535 -0.0492382
931000 60.4159 191.041 55.8132 0.46545 -0.0621459
931200 60.4159 191.054 55.8132 0.46555 -0.0658947
931400 60.4159 191.067 55.8132 0.46565 -0.03156
931600 60.4159 191.08 55.8132 0.46575 -0.0548223
931800 60.4159 191.093 55.8132 0.46585 -0.0285672
932000 60.4159 191.106 55.8132 0.46595 -0.0159036
932200 60.4159 191.119 55.8132 0.46605 -0.0189021
932400 60.4159 191.132 55.8132 0.46615 0.0380606
932600 60.4159 191.145 55.8132 0.46625 0.0427933
932800 60.4159 191.158 55.8132 0.46635 0.0541476
933000 60.4159 191.171 55.8132 0.46645 0.051627
933200 60.4159 191.184 55.8132 0.46655 0.0585381
933400 60.4159 191.198 55.8132 0.46665 0.0701677
933600 60.4159 191.211 55.8132 0.46675 0.0302719
933800 60.4159 191.224 55.8132 0.46685 0.0464469
934000 60.4159 191.237 55.8132 0.46695 0.0420972
934200 60.4159 191.25 55.8132 0.46705 0.00137297
934400 60.4159 191.263 55.8132 0.46715 -0.0310665
934600 60.4159 191.276 55.8132 0.46725 -0.0559405
934800 60.4159 191.289 55.8132 0.46735 -0.0361984
935000 60.4159 191.302 55.8132 0.46745 -0.0360961
935200 60.4159 191.315 55.8132 0.46755 -0.0629233
935400 60.4159 191.328 55.8132 0.46765 -0.0546796
935600 60.4159 191.341 55.8132 0.46775 -0.0344207
935800 60.4159 191.354 55.8132 0.46785 -0.0360497
936000 60.4159 191.367 55.8132 0.46795 -0.0143309
936200 60.4159 191.38 55.8132 0.46805 0.0205903
936400 60.4159 191.393 55.8132 0.46815 0.0253114
936600 60.4159 191.406 55.8132 0.46825 0.0462245
936800 60.4159 191.419 55.8132 0.46835 0.0563995
937000 60.4159 191.432 55.8132 0.46845 0.0720275
937200 60.4159 191.445 55.8132 0.46855 0.0492799
937400 60.4159 191.458 55.8132 0.46865 0.0499698
937600 60.4159 191.471 55.8132 0.46875 0.0401762
937800 60.4159 191.484 55.8132 0.46885 0.0395779
938000 60.4159 191.497 55.8132 0.46895 0.0176534
938200 60.4159 191.51 55.8132 0.46905 -0.000566422
938400 60.4159 191.523 55.8132 0.46915 -0.0244557
938600 60.4159 191.536 55.8132 0.46925 -0.0432026
938800 60.4159 191.549 55.8132 0.46935 -0.0681268
939000 60.4159 191.563 55.8132 0.46945 -0.0430435
939200 60.4159 191.576 55.8132 0.46955 -0.0617905
939400 60.4159 191.589 55.8132 0.46965 -0.0289545
939600 60.4159 191.602 55.8132 0.46975 -0.0421081
939800 60.4159 191.615 55.8132 0.46985 -0.0254486
940000 60.4159 191.628 55.8132 0.46995 -0.00649035
940200 60.4159 191.641 55.8132 0.47005 0.0140987
940400 60.4159 191.654 55.8132 0.47015 0.0427361
940600 60.4159 191.667 55.8132 0.47025 0.0368395
940800 60.4159 191.68 55.8132 0.47035 0.0915072
941000 60.4159 191.693 55.8132 0.47045 0.0556712
941200 60.4159 191.706 55.8132 0.47055 0.0559804
941400 60.4159 191.719 55.8132 0.47065 0.0476308
941600 60.4159 191.732 55.8132 0.47075 0.0483827
941800 60.4159 191.745 55.8132 0.47085 0.0132989
942000 60.4159 191.758 55.8132 0.47095 0.0213144
942200 60.4159 191.771 55.8132 0.47105 -0.00316764
942400 60.4159 191.784 55.8132 0.47115 -0.0418677
942600 60.4159 191.797 55.8132 0.47125 -0.0451903
942800 60.4159 191.81 55.8132 0.47135 -0.0619464
943000 60.4159 191.823 55.8132 0.47145 -0.0467662
943200 60.4159 191.836 55.8132 0.47155 -0.0614115
943400 60.4159 191.849 55.8132 0.47165 -0.0524161
943600 60.4159 191.862 55.8132 0.47175 -0.0316029
943800 60.4159 191.875 55.8132 0.47185 -0.0191119
944000 60.4159 191.888 55.8132 0.47195 0.011257
944200 60.4159 191.901 55.8132 0.47205 0.00318485
944400 60.4159 191.915 55.8132 0.47215 0.0398178
944600 60.4159 191.928 55.8132 0.47225 0.0566743
944800 60.4159 191.941 55.8132 0.47235 0.0649092
945000 60.4159 191.954 55.8132 0.47245 0.0621705
945200 60.4159 191.967 55.8132 0.47255 0.0672877
945400 60.4159 191.98 55.8132 0.47265 0.052121
945600 60.4159 191.993 55.8132 0.47275 0.0534264
945800 60.4159 192.006 55.8132 0.47285 0.00408592
946000 60.4159 192.019 55.8132 0.47295 0.00107536
946200 60.4159 192.032 55.8132 0.47305 0.00415999
946400 60.4159 192.045 55.8132 0.47315 -0.040624
946600 60.4159 192.058 55.8132 0.47325 -0.0451754
946800 60.4159 192.071 55.8132 0.47335 -0.0627567
947000 60.4159 192.084 55.8132 0.47345 -0.0498815
947200 60.4159 192.097 55.8132 0.47355 -0.0606115
947400 60.4159 192.11 55.8132 0.47365 -0.0513749
947600 60.4159 192.123 55.8132 0.47375 -0.0174637
947800 60.4159 192.136 55.8132 0.47385 -0.0245428
948000 60.4159 192.149 55.8132 0.47395 0.0127087
948200 60.4159 192.162 55.8132 0.47405 0.0394437
948400 60.4159 192.175 55.8132 0.47415 0.0359465
948600 60.4159 192.188 55.8132 0.47425 0.0436371
948800 60.4159 192.201 55.8132 0.47435 0.0555085
949000 60.4159 192.214 55.8132 0.47445 0.0831686
949200 60.4159 192.227 55.8132 0.47455 0.0633703
949400 60.4159 192.24 55.8132 0.47465 0.055583
949600 60.4159 192.253 55.8132 0.47475 0.0113128
949800 60.4159 192.266 55.8132 0.47485 0.0204002
950000 60.4159 192.28 55.8132 0.47495 -0.0167441
950200 60.4159 192.293 55.8132 0.47505 -0.014911
950400 60.4159 192.306 55.8132 0.47515 -0.0404532
950600 60.4159 192.319 55.8132 0.47525 -0.049169
950800 60.4159 192.332 55.8132 0.47535 -0.0531845
951000 60.4159 192.345 55.8132 0.47545 -0.0471775
951200 60.4159 192.358 55.8132 0.47555 -0.0523789
951400 60.4159 192.371 55.8132 0.47565 -0.0437182
951600 60.4159 192.384 55.8132 0.47575 -0.0120535
951800 60.4159 192.397 55.8132 0.47585 -0.0077975
952000 60.4159 192.41 55.8132 0.47595 0.0270577
952200 60.4159 192.423 55.8132 0.47605 0.0237256
952400 60.4159 192.436 55.8132 0.47615 0.0338836
952600 60.4159 192.449 55.8132 0.47625 0.0646288
952800 60.4159 192.462 55.8132 0.47635 0.0663899
953000 60.4159 192.475 55.8132 0.47645 0.0671494
953200 60.4159 192.488 55.8132 0.47655 0.0335487
953400 60.4159 192.501 55.8132 0.47665 0.0589243
953600 60.4159 192.514 55.8132 0.47675 0.0140815
953800 60.4159 192.527 55.8132 0.47685 0.00383207
954000 60.4159 192.54 55.8132 0.47695 0.00201085
954200 60.4159 192.553 55.8132 0.47705 -0.0408086
954400 60.4159 192.566 55.8132 0.47715 -0.040411
954600 60.4159 192.579 55.8132 0.47725 -0.0369358
954800 60.4159 192.592 55.8132 0.47735 -0.0499402
955000 60.4159 192.605 55.8132 0.47745 -0.0675562
955200 60.4159 192.618 55.8132 0.47755 -0.0430726
955400 60.4159 192.632 55.8132 0.47765 -0.0207156
955600 60.4159 192.645 55.8132 0.47775 -0.0102239
955800 60.4159 192.658 55.8132 0.47785 -0.00255526
956000 60.4159 192.671 55.8132 0.47795 0.0295339
956200 60.4159 192.684 55.8132 0.47805 0.0233506
956400 60.4159 192.697 55.8132 0.47815 0.060546
956600 60.4159 192.71 55.8132 0.47825 0.0339175
956800 60.4159 192.723 55.8132 0.47835 0.062625
957000 60.4159 192.736 55.8132 0.47845 0.0478845
957200 60.4159 192.749 55.8132 0.47855 0.0651208
957400 60.4159 192.762 55.8132 0.47865 0.0226348
957600 60.4159 192.775 55.8132 0.47875 0.0179754
957800 60.4159 192.788 55.8132 0.47885 0.0222426
958000 60.4159 192.801 55.8132 0.47895 -0.0154081
958200 60.4159 192.814 55.8132 0.47905 -0.0305774
958400 60.4159 192.827 55.8132 0.47915 -0.031987
958600 60.4159 192.84 55.8132 0.47925 -0.0600499
958800 60.4159 192.853 55.8132 0.47935 -0.0557539
959000 60.4159 192.866 55.8132 0.47945 -0.0541141
959200 60.4159 192.879 55.8132 0.47955 -0.0272616
959400 60.4159 192.892 55.8132 0.47965 -0.0440693
959600 60.4159 192.905 55.8132 0.47975 0.00425156
959800 60.4159 192.918 55.8132 0.47985 -0.000786274
960000 60.4159 192.931 55.8132 0.47995 0.0321172
960200 60.4159 192.944 55.8132 0.48005 0.0217029
960400 60.4159 192.957 55.8132 0.48015 0.0561347
960600 60.4159 192.97 55.8132 0.48025 0.0758346
960800 60.4159 192.983 55.8132 0.48035 0.0549913
961000 60.4159 192.997 55.8132 0.48045 0.0573726
961200 60.4159 193.01 55.8132 0.48055 0.0525578
961400 60.4159 193.023 55.8132 0.48065 0.0288687
961600 60.4159 193.036 55.8132 0.48075 0.00399539
961800 60.4159 193.049 55.8132 0.48085 -0.0105741
962000 60.4159 193.062 55.8132 0.48095 -0.0131368
962200 60.4159 193.075 55.8132 0.48105 -0.0407691
962400 60.4159 193.088 55.8132 0.48115 -0.0455206
962600 60.4159 193.101 55.8132 0.48125 -0.0632889
962800 60.4159 193.114 55.8132 0.48135 -0.0558056
963000 60.4159 193.127 55.8132 0.48145 -0.0226158
963200 60.4159 193.14 55.8132 0.48155 -0.0548122
963400 60.4159 193.153 55.8132 0.48165 -0.00382144
963600 60.4159 193.166 55.8132 0.48175 -0.00456177
963800 60.4159 193.179 55.8132 0.48185 0.0277745
964000 60.4159 193.192 55.8132 0.48195 0.00857559
964200 60.4159 193.205 55.8132 0.48205 0.0523679
964400 60.4159 193.218 55.8132 0.48215 0.0473115
964600 60.4159 193.231 55.8132 0.48225 0.0684652
964800 60.4159 193.244 55.8132 0.48235 0.0567612
965000 60.4159 193.257 55.8132 0.48245 0.0563408
965200 60.4159 193.27 55.8132 0.48255 0.0314116
965400 60.4159 193.283 55.8132 0.48265 0.0315532
965600 60.4159 193.296 55.8132 0.48275 -0.0137376
965800 60.4159 193.309 55.8132 0.48285 -0.0191212
966000 60.4159 193.322 55.8132 0.48295 -0.0189019
966200 60.4159 193.335 55.8132 0.48305 -0.0449437
966400 60.4159 193.349 55.8132 0.48315 -0.0381569
966600 60.4159 193.362 55.8132 0.48325 -0.0413677
966800 60.4159 193.375 55.8132 0.48335 -0.0471402
967000 60.4159 193.388 55.8132 0.48345 -0.0424123
967200 60.4159 193.401 55.8132 0.48355 -0.0330796
967400 60.4159 193.414 55.8132 0.48365 -0.0123062
967600 60.4159 193.427 55.8132 0.48375 0.00559603
967800 60.4159 193.44 55.8132 0.48385 0.0356682
968000 60.4159 193.453 55.8132 0.48395 0.0359684
968200 60.4159 193.466 55.8132 0.48405 0.0425326
968400 60.4159 193.479 55.8132 0.48415 0.0514333
968600 60.4159 193.492 55.8132 0.48425 0.0574078
968800 60.4159 193.505 55.8132 0.48435 0.061995
969000 60.4159 193.518 55.8132 0.48445 0.0371055
969200 60.4159 193.531 55.8132 0.48455 0.0296013
969400 60.4159 193.544 55.8132 0.48465 0.0295592
969600 60.4159 193.557 55.8132 0.48475 -0.00127038
969800 60.4159 193.57 55.8132 0.48485 -0.0168485
970000 60.4159 193.583 55.8132 0.48495 -0.0516846
970200 60.4159 193.596 55.8132 0.48505 -0.0324653
970400 60.4159 193.609 55.8132 0.48515 -0.0533056
970600 60.4159 193.622 55.8132 0.48525 -0.054221
970800 60.4159 193.635 55.8132 0.48535 -0.0475556
971000 60.4159 193.648 55.8132 0.48545 -0.0344011
971200 60.4159 193.661 55.8132 0.48555 -0.0334659
971400 60.4159 193.674 55.8132 0.48565 0.00606863
971600 60.4159 193.687 55.8132 0.48575 0.00262828
971800 60.4159 193.7 55.8132 0.48585 0.0311105
972000 60.4159 193.714 55.8132 0.48595 0.0411761
972200 60.4159 193.727 55.8132 0.48605 0.0582205
972400 60.4159 193.74 55.8132 0.48615 0.0472681
972600 60.4159 193.753 55.8132 0.48625 0.0685577
972800 60.4159 193.766 55.8132 0.48635 0.0642076
973000 60.4159 193.779 55.8132 0.48645 0.0394401
973200 60.4159 193.792 55.8132 0.48655 0.0202903
973400 60.4159 193.805 55.8132 0.48665 0.0140645
973600 60.4159 193.818 55.8132 0.48675 -0.00423019
973800 60.4159 193.831 55.8132 0.48685 -0.01202
974000 60.4159 193.844 55.8132 0.48695 -0.0434252
974200 60.4159 193.857 55.8132 0.48705 -0.0484901
974400 60.4159 193.87 55.8132 0.48715 -0.0621919
974600 60.4159 193.883 55.8132 0.48725 -0.0387244
974800 60.4159 193.896 55.8132 0.48735 -0.0537684
975000 60.4159 193.909 55.8132 0.48745 -0.0335261
975200 60.4159 193.922 55.8132 0.48755 -0.0264999
975400 60.4159 193.935 55.8132 0.48765 0.00916612
975600 60.4159 193.948 55.8132 0.48775 0.00420792
975800 60.4159 193.961 55.8132 0.48785 0.0391448
976000 60.4159 193.974 55.8132 0.48795 0.0486981
976200 60.4159 193.987 55.8132 0.48805 0.052041
976400 60.4159 194 55.8132 0.48815 0.0659066
976600 60.4159 194.013 55.8132 0.48825 0.0414098
976800 60.4159 194.026 55.8132 0.48835 0.0512551
977000 60.4159 194.039 55.8132 0.48845 0.0535194
977200 60.4159 194.052 55.8132 0.48855 0.0329118
977400 60.4159 194.066 55.8132 0.48865 0.0014904
977600 60.4159 194.079 55.8132 0.48875 -0.00535275
977800 60.4159 194.092 55.8132 0.48885 -0.0319779
978000 60.4159 194.105 55.8132 0.48895 -0.0451603
978200 60.4159 194.118 55.8132 0.48905 -0.0647362
978400 60.4159 194.131 55.8132 0.48915 -0.0529661
978600 60.4159 194.144 55.8132 0.48925 -0.0424174
978800 60.4159 194.157 55.8132 0.48935 -0.0304321
979000 60.4159 194.17 55.8132 0.48945 -0.0437838
979200 60.4159 194.183 55.8132 0.48955 -0.0208841
979400 60.4159 194.196 55.8132 0.48965 0.0101956
979600 60.4159 194.209 55.8132 0.48975 0.0206967
979800 60.4159 194.222 55.8132 0.48985 0.043557
980000 60.4159 194.235 55.8132 0.48995 0.0630232
980200 60.4159 194.248 55.8132 0.49005 0.0777461
980400 60.4159 194.261 55.8132 0.49015 0.0442727
980600 60.4159 194.274 55.8132 0.49025 0.0499181
980800 60.4159 194.287 55.8132 0.49035 0.0668429
981000 60.4159 194.3 55.8132 0.49045 0.00919476
981200 60.4159 194.313 55.8132 0.49055 0.0160176
981400 60.4159 194.326 55.8132 0.49065 -0.00147594
981600 60.4159 194.339 55.8132 0.49075 -0.0174075
981800 60.4159 194.352 55.8132 0.49085 -0.0305238
982000 60.4159 194.365 55.8132 0.49095 -0.055613
982200 60.4159 194.378 55.8132 0.49105 -0.0509794
982400 60.4159 194.391 55.8132 0.49115 -0.0476902
982600 60.4159 194.404 55.8132 0.49125 -0.0467165
982800 60.4159 194.417 55.8132 0.49135 -0.0340723
983000 60.4159 194.431 55.8132 0.49145 -0.0108825
983200 60.4159 194.444 55.8132 0.49155 -0.0117086
983400 60.4159 194.457 55.8132 0.49165 0.0145081
983600 60.4159 194.47 55.8132 0.49175 0.020066
983800 60.4159 194.483 55.8132 0.49185 0.0273408
984000 60.4159 194.496 55.8132 0.49195 0.0603545
984200 60.4159 194.509 55.8132 0.49205 0.0739487
984400 60.4159 194.522 55.8132 0.49215 0.0616617
984600 60.4159 194.535 55.8132 0.49225 0.0613761
984800 60.4159 194.548 55.8132 0.49235 0.0301946
985000 60.4159 194.561 55.8132 0.49245 0.0164198
985200 60.4159 194.574 55.8132 0.49255 0.0152204
985400 60.4159 194.587 55.8132 0.49265 -0.0142776
985600 60.4159 194.6 55.8132 0.49275 -0.0154503
985800 60.4159 194.613 55.8132 0.49285 -0.0307178
986000 60.4159 194.626 55.8132 0.49295 -0.0561741
986200 60.4159 194.639 55.8132 0.49305 -0.0586625
986400 60.4159 194.652 55.8132 0.49315 -0.0613107
986600 60.4159 194.665 55.8132 0.49325 -0.062496
986800 60.4159 194.678 55.8132 0.49335 -0.00777101
987000 60.4159 194.691 55.8132 0.49345 -0.0165556
987200 60.4159 194.704 55.8132 0.49355 0.00464504
987400 60.4159 194.717 55.8132 0.49365 0.0380669
987600 60.4159 194.73 55.8132 0.49375 0.0130632
987800 60.4159 194.743 55.8132 0.49385 0.0594433
988000 60.4159 194.756 55.8132 0.49395 0.0707879
988200 60.4159 194.769 55.8132 0.49405 0.0584136
988400 60.4159 194.783 55.8132 0.49415 0.0479188
988600 60.4159 194.796 55.8132 0.49425 0.0513661
988800 60.4159 194.809 55.8132 0.49435 0.0335171
989000 60.4159 194.822 55.8132 0.49445 0.0176346
989200 60.4159 194.835 55.8132 0.49455 -0.00996367
989400 60.4159 194.848 55.8132 0.49465 -0.033929
989600 60.4159 194.861 55.8132 0.49475 -0.0232911
989800 60.4159 194.874 55.8132 0.49485 -0.0196956
990000 60.4159 194.887 55.8132 0.49495 -0.0449717
990200 60.4159 194.9 55.8132 0.49505 -0.0453915
990400 60.4159 194.913 55.8132 0.49515 -0.0667234
990600 60.4159 194.926 55.8132 0.49525 -0.0432141
990800 60.4159 194.939 55.8132 0.49535 -0.0108801
991000 60.4159 194.952 55.8132 0.49545 -0.0198731
991200 60.4159 194.965 55.8132 0.49555 0.0177269
991400 60.4159 194.978 55.8132 0.49565 0.0320107
991600 60.4159 194.991 55.8132 0.49575 0.0440044
991800 60.4159 195.004 55.8132 0.49585 0.0345458
992000 60.4159 195.017 55.8132 0.49595 0.0564909
992200 60.4159 195.03 55.8132 0.49605 0.0616324
992400 60.4159 195.043 55.8132 0.49615 0.0486064
992600 60.4159 195.056 55.8132 0.49625 0.0563623
992800 60.4159 195.069 55.8132 0.49635 0.0310271
993000 60.4159 195.082 55.8132 0.49645 0.0109999
993200 60.4159 195.095 55.8132 0.49655 -0.0103282
993400 60.4159 195.108 55.8132 0.49665 -0.0173396
993600 60.4159 195.121 55.8132 0.49675 -0.042822
993800 60.4159 195.134 55.8132 0.49685 -0.0426003
994000 60.4159 195.148 55.8132 0.49695 -0.0338981
994200 60.4159 195.161 55.8132 0.49705 -0.056551
994400 60.4159 195.174 55.8132 0.49715 -0.0554153
994600 60.4159 195.187 55.8132 0.49725 -0.0292807
994800 60.4159 195.2 55.8132 0.49735 -0.0216485
995000 60.4159 195.213 55.8132 0.49745 -0.0166637
995200 60.4159 195.226 55.8132 0.49755 0.0103334
995400 60.4159 195.239 55.8132 0.49765 0.0255272
995600 60.4159 195.252 55.8132 0.49775 0.0722056
995800 60.4159 195.265 55.8132 0.49785 0.0560831
996000 60.4159 195.278 55.8132 0.49795 0.0507168
996200 60.4159 195.291 55.8132 0.49805 0.0630232
996400 60.4159 195.304 55.8132 0.49815 0.0547552
996600 60.4159 195.317 55.8132 0.49825 0.0245545
996800 60.4159 195.33 55.8132 0.49835 0.0330349
997000 60.4159 195.343 55.8132 0.49845 0.00599126
997200 60.4159 195.356 55.8132 0.49855 -0.0216149
997400 60.4159 195.369 55.8132 0.49865 -0.026096
997600 60.4159 195.382 55.8132 0.49875 -0.0332459
997800 60.4159 195.395 55.8132 0.49885 -0.0508588
998000 60.4159 195.408 55.8132 0.49895 -0.0501321
998200 60.4159 195.421 55.8132 0.49905 -0.0457206
998400 60.4159 195.434 55.8132 0.49915 -0.0136122
998600 60.4159 195.447 55.8132 0.49925 -0.0478894
998800 60.4159 195.46 55.8132 0.49935 -0.00510998
999000 60.4159 195.473 55.8132 0.49945 -0.00653406
999200 60.4159 195.486 55.8132 0.49955 0.0128087
999400 60.4159 195.5 55.8132 0.49965 0.0285107
999600 60.4159 195.513 55.8132 0.49975 0.0519284
999800 60.4159 195.526 55.8132 0.49985 0.0535333
1000000 60.4159 195.539 55.8132 0.49995 0.0555475
1000200 60.4159 195.552 55.8132 0.50005 0.063363
1000400 60.4159 195.565 55.8132 0.50015 0.0283255
1000600 60.4159 195.578 55.8132 0.50025 0.0369046
1000800 60.4159 195.591 55.8132 0.50035 0.0115344
1001000 60.4159 195.604 55.8132 0.50045 0.0103292
1001200 60.4159 195.617 55.8132 0.50055 -0.0228242
1001400 60.4159 195.63 55.8132 0.50065 -0.021821
1001600 60.4159 195.643 55.8132 0.50075 -0.0324433
1001800 60.4159 195.656 55.8132 0.50085 -0.0753478
1002000 60.4159 195.669 55.8132 0.50095 -0.0270848
1002200 60.4159 195.682 55.8132 0.50105 -0.0329676
1002400 60.4159 195.695 55.8132 0.50115 -0.0290522
1002600 60.4159 195.708 55.8132 0.50125 -0.00676191
1002800 60.4159 195.721 55.8132 0.50135 -0.0126119
1003000 60.4159 195.734 55.8132 0.50145 -0.00236543
1003200 60.4159 195.747 55.8132 0.50155 0.0274031
1003400 60.4159 195.76 55.8132 0.50165 0.0308345
1003600 60.4159 195.773 55.8132 0.50175 0.0509462
1003800 60.4159 195.786 55.8132 0.50185 0.0504372
1004000 60.4159 195.799 55.8132 0.50195 0.0509586
1004200 60.4159 195.812 55.8132 0.50205 0.0361094
1004400 60.4159 195.825 55.8132 0.50215 0.0447514
1004600 60.4159 195.838 55.8132 0.50225 0.0159453
1004800 60.4159 195.851 55.8132 0.50235 -0.00383086
1005000 60.4159 195.865 55.8132 0.50245 0.00326502
1005200 60.4159 195.878 55.8132 0.50255 -0.0134478
1005400 60.4159 195.891 55.8132 0.50265 -0.0266164
1005600 60.4159 195.904 55.8132 0.50275 -0.0355503
1005800 60.4159 195.917 55.8132 0.50285 -0.0382486
1006000 60.4159 195.93 55.8132 0.50295 -0.0305461
1006200 60.4159 195.943 55.8132 0.50305 -0.0499749
1006400 60.4159 195.956 55.8132 0.50315 -0.0187967
1006600 60.4159 195.969 55.8132 0.50325 -0.0115077
1006800 60.4159 195.982 55.8132 0.50335 -0.00298494
1007000 60.4159 195.995 55.8132 0.50345 0.0107883
1007200 60.4159 196.008 55.8132 0.50355 0.0132184
1007400 60.4159 196.021 55.8132 0.50365 0.0340196
1007600 60.4159 196.034 55.8132 0.50375 0.0533626
1007800 60.4159 196.047 55.8132 0.50385 0.0458517
1008000 60.4159 196.06 55.8132 0.50395 0.0525775
1008200 60.4159 196.073 55.8132 0.50405 0.0359282
1008400 60.4159 196.086 55.8132 0.50415 0.0350077
1008600 60.4159 196.099 55.8132 0.50425 0.0290084
1008800 60.4159 196.112 55.8132 0.50435 0.00909114
1009000 60.4159 196.125 55.8132 0.50445 0.0101926
1009200 60.4159 196.138 55.8132 0.50455 -0.0347504
1009400 60.4159 196.151 55.8132 0.50465 -0.0313961
1009600 60.4159 196.164 55.8132 0.50475 -0.0455587
1009800 60.4159 196.177 55.8132 0.50485 -0.0193778
1010000 60.4159 196.19 55.8132 0.50495 -0.0358279
1010200 60.4159 196.203 55.8132 0.50505 -0.0624014
1010400 60.4159 196.217 55.8132 0.50515 -0.0344817
1010600 60.4159 196.23 55.8132 0.50525 0.000236411
1010800 60.4159 196.243 55.8132 0.50535 0.00610033
1011000 60.4159 196.256 55.8132 0.50545 0.00871221
1011200 60.4159 196.269 55.8132 0.50555 0.0293595
1011400 60.4159 196.282 55.8132 0.50565 0.0215006
1011600 60.4159 196.295 55.8132 0.50575 0.0535569
1011800 60.4159 196.308 55.8132 0.50585 0.0597066
1012000 60.4159 196.321 55.8132 0.50595 0.0368335
1012200 60.4159 196.334 55.8132 0.50605 0.0437696
1012400 60.4159 196.347 55.8132 0.50615 0.0375655
1012600 60.4159 196.36 55.8132 0.50625 0.0101332
1012800 60.4159 196.373 55.8132 0.50635 0.00560167
1013000 60.4159 196.386 55.8132 0.50645 -0.0155301
1013200 60.4159 196.399 55.8132 0.50655 -0.00629528
1013400 60.4159 196.412 55.8132 0.50665 -0.0383695
1013600 60.4159 196.425 55.8132 0.50675 -0.0313874
1013800 60.4159 196.438 55.8132 0.50685 -0.0527896
1014000 60.4159 196.451 55.8132 0.50695 -0.0312667
1014200 60.4159 196.464 55.8132 0.50705 -0.0173831
1014400 60.4159 196.477 55.8132 0.50715 -0.0282985
1014600 60.4159 196.49 55.8132 0.50725 -0.0074349
1014800 60.4159 196.503 55.8132 0.50735 2.82281e-05
1015000 60.4159 196.516 55.8132 0.50745 0.0206156
1015200 60.4159 196.529 55.8132 0.50755 0.0276122
1015400 60.4159 196.542 55.8132 0.50765 0.0392125
1015600 60.4159 196.555 55.8132 0.50775 0.0310052
1015800 60.4159 196.568 55.8132 0.50785 0.0511281
1016000 60.4159 196.582 55.8132 0.50795 0.0434398
1016200 60.4159 196.595 55.8132 0.50805 0.0364474
1016400 60.4159 196.608 55.8132 0.50815 0.0236128
1016600 60.4159 196.621 55.8132 0.50825 0.0194441
1016800 60.4159 196.634 55.8132 0.50835 0.00587769
1017000 60.4159 196.647 55.8132 0.50845 -0.0209707
1017200 60.4159 196.66 55.8132 0.50855 0.00244824
1017400 60.4159 196.673 55.8132 0.50865 -0.0406347
1017600 60.4159 196.686 55.8132 0.50875 -0.0473008
1017800 60.4159 196.699 55.8132 0.50885 -0.0281326
1018000 60.4159 196.712 55.8132 0.50895 -0.0403057
1018200 60.4159 196.725 55.8132 0.50905 -0.0275779
1018400 60.4159 196.738 55.8132 0.50915 -0.034336
1018600 60.4159 196.751 55.8132 0.50925 0.001547
1018800 60.4159 196.764 55.8132 0.50935 -0.00598794
1019000 60.4159 196.777 55.8132 0.50945 0.0206136
1019200 60.4159 196.79 55.8132 0.50955 0.0356613
1019400 60.4159 196.803 55.8132 0.50965 0.0538432
1019600 60.4159 196.816 55.8132 0.50975 0.0529535
1019800 60.4159 196.829 55.8132 0.50985 0.0308444
1020000 60.4159 196.842 55.8132 0.50995 0.0440155
1020200 60.4159 196.855 55.8132 0.51005 0.0463381
1020400 60.4159 196.868 55.8132 0.51015 0.0299979
1020600 60.4159 196.881 55.8132 0.51025 0.0249394
1020800 60.4159 196.894 55.8132 0.51035 -0.0262454
1021000 60.4159 196.907 55.8132 0.51045 -0.00593631
1021200 60.4159 196.92 55.8132 0.51055 -0.0334359
1021400 60.4159 196.934 55.8132 0.51065 -0.0336018
1021600 60.4159 196.947 55.8132 0.51075 -0.0454639
1021800 60.4159 196.96 55.8132 0.51085 -0.0267452
1022000 60.4159 196.973 55.8132 0.51095 -0.0416181
1022200 60.4159 196.986 55.8132 0.51105 -0.0368463
1022400 60.4159 196.999 55.8132 0.51115 -0.0173133
1022600 60.4159 197.012 55.8132 0.51125 -0.0107787
1022800 60.4159 197.025 55.8132 0.51135 0.0289523
1023000 60.4159 197.038 55.8132 0.51145 0.0320876
1023200 60.4159 197.051 55.8132 0.51155 0.0198255
1023400 60.4159 197.064 55.8132 0.51165 0.0501046
1023600 60.4159 197.077 55.8132 0.51175 0.0613893
1023800 60.4159 197.09 55.8132 0.51185 0.0480235
1024000 60.4159 197.103 55.8132 0.51195 0.038619
1024200 60.4159 197.116 55.8132 0.51205 0.0160324
1024400 60.4159 197.129 55.8132 0.51215 0.0170337
1024600 60.4159 197.142 55.8132 0.51225 0.00613557
1024800 60.4159 197.155 55.8132 0.51235 -0.0059825
1025000 60.4159 197.168 55.8132 0.51245 -0.0248734
1025200 60.4159 197.181 55.8132 0.51255 -0.0192008
1025400 60.4159 197.194 55.8132 0.51265 -0.0492778
1025600 60.4159 197.207 55.8132 0.51275 -0.0368015
1025800 60.4159 197.22 55.8132 0.51285 -0.0340401
1026000 60.4159 197.233 55.8132 0.51295 -0.0346951
1026200 60.4159 197.246 55.8132 0.51305 -0.00218845
1026400 60.4159 197.259 55.8132 0.51315 -0.00420337
1026600 60.4159 197.272 55.8132 0.51325 -0.000828679
1026800 60.4159 197.285 55.8132 0.51335 0.0158522
1027000 60.4159 197.299 55.8132 0.51345 0.0242901
1027200 60.4159 197.312 55.8132 0.51355 0.0424437
1027400 60.4159 197.325 55.8132 0.51365 0.045728
1027600 60.4159 197.338 55.8132 0.51375 0.0502016
1027800 60.4159 197.351 55.8132 0.51385 0.0457398
1028000 60.4159 197.364 55.8132 0.51395 0.0283853
1028200 60.4159 197.377 55.8132 0.51405 0.0225252
1028400 60.4159 197.39 55.8132 0.51415 0.00687869
1028600 60.4159 197.403 55.8132 0.51425 -0.0172621
1028800 60.4159 197.416 55.8132 0.51435 -0.0206683
1029000 60.4159 197.429 55.8132 0.51445 -0.00556799
1029200 60.4159 197.442 55.8132 0.51455 -0.0238448
1029400 60.4159 197.455 55.8132 0.51465 -0.0352913
1029600 60.4159 197.468 55.8132 0.51475 -0.0541231
1029800 60.4159 197.481 55.8132 0.51485 -0.0221761
1030000 60.4159 197.494 55.8132 0.51495 -0.0134151
1030200 60.4159 197.507 55.8132 0.51505 -0.0212643
1030400 60.4159 197.52 55.8132 0.51515 0.0148872
1030600 60.4159 197.533 55.8132 0.51525 0.0103321
1030800 60.4159 197.546 55.8132 0.51535 0.0270213
1031000 60.4159 197.559 55.8132 0.51545 0.0328385
1031200 60.4159 197.572 55.8132 0.51555 0.0353904
1031400 60.4159 197.585 55.8132 0.51565 0.0364175
1031600 60.4159 197.598 55.8132 0.51575 0.0464974
1031800 60.4159 197.611 55.8132 0.51585 0.0439261
1032000 60.4159 197.624 55.8132 0.51595 0.0211462
1032200 60.4159 197.637 55.8132 0.51605 0.011704
1032400 60.4159 197.651 55.8132 0.51615 -0.0111786
1032600 60.4159 197.664 55.8132 0.51625 -0.00368392
1032800 60.4159 197.677 55.8132 0.51635 -0.0124556
1033000 60.4159 197.69 55.8132 0.51645 -0.0213718
1033200 60.4159 197.703 55.8132 0.51655 -0.0416841
1033400 60.4159 197.716 55.8132 0.51665 -0.0416586
1033600 60.4159 197.729 55.8132 0.51675 -0.0378465
1033800 60.4159 197.742 55.8132 0.51685 -0.0287
1034000 60.4159 197.755 55.8132 0.51695 -0.00551996
1034200 60.4159 197.768 55.8132 0.51705 -0.00792408
1034400 60.4159 197.781 55.8132 0.51715 -0.000169437
1034600 60.4159 197.794 55.8132 0.51725 0.0238679
1034800 60.4159 197.807 55.8132 0.51735 0.0451741
1035000 60.4159 197.82 55.8132 0.51745 0.0319647
1035200 60.4159 197.833 55.8132 0.51755 0.0417127
1035400 60.4159 197.846 55.8132 0.51765 0.0516022
1035600 60.4159 197.859 55.8132 0.51775 0.0445424
1035800 60.4159 197.872 55.8132 0.51785 0.0257915
1036000 60.4159 197.885 55.8132 0.51795 0.0198512
1036200 60.4159 197.898 55.8132 0.51805 0.0059857
1036400 60.4159 197.911 55.8132 0.51815 0.00336368
1036600 60.4159 197.924 55.8132 0.51825 -0.00967484
1036800 60.4159 197.937 55.8132 0.51835 -0.0311199
1037000 60.4159 197.95 55.8132 0.51845 -0.0193965
1037200 60.4159 197.963 55.8132 0.51855 -0.0596362
1037400 60.4159 197.976 55.8132 0.51865 -0.0437421
1037600 60.4159 197.989 55.8132 0.51875 -0.0105349
1037800 60.4159 198.002 55.8132 0.51885 -0.0414864
1038000 60.4159 198.016 55.8132 0.51895 -0.0107896
1038200 60.4159 198.029 55.8132 0.51905 0.0142501
1038400 60.4159 198.042 55.8132 0.51915 -0.00608066
1038600 60.4159 198.055 55.8132 0.51925 0.0320231
1038800 60.4159 198.068 55.8132 0.51935 0.0325026
1039000 60.4159 198.081 55.8132 0.51945 0.0476418
1039200 60.4159 198.094 55.8132 0.51955 0.0514064
1039400 60.4159 198.107 55.8132 0.51965 0.0374882
1039600 60.4159 198.12 55.8132 0.51975 0.0496258
1039800 60.4159 198.133 55.8132 0.51985 0.015753
1040000 60.4159 198.146 55.8132 0.51995 0.0206281
1040200 60.4159 198.159 55.8132 0.52005 -0.00356214
1040400 60.4159 198.172 55.8132 0.52015 0.00922689
1040600 60.4159 198.185 55.8132 0.52025 -0.0233872
1040800 60.4159 198.198 55.8132 0.52035 -0.0510409
1041000 60.4159 198.211 55.8132 0.52045 -0.0182158
1041200 60.4159 198.224 55.8132 0.52055 -0.0296224
1041400 60.4159 198.237 55.8132 0.52065 -0.040009
1041600 60.4159 198.25 55.8132 0.52075 -0.0352403
1041800 60.4159 198.263 55.8132 0.52085 -0.0233358
1042000 60.4159 198.276 55.8132 0.52095 -0.00962162
1042200 60.4159 198.289 55.8132 0.52105 0.0103929
1042400 60.4159 198.302 55.8132 0.52115 0.0364102
1042600 60.4159 198.315 55.8132 0.52125 0.00617274
1042800 60.4159 198.328 55.8132 0.52135 0.0427538
1043000 60.4159 198.341 55.8132 0.52145 0.0448153
1043200 60.4159 198.354 55.8132 0.52155 0.0467616
1043400 60.4159 198.368 55.8132 0.52165 0.0508952
1043600 60.4159 198.381 55.8132 0.52175 0.0470593
1043800 60.4159 198.394 55.8132 0.52185 0.0140908
1044000 60.4159 198.407 55.8132 0.52195 0.0210175
1044200 60.4159 198.42 55.8132 0.52205 -0.00122407
1044400 60.4159 198.433 55.8132 0.52215 -0.0233225
1044600 60.4159 198.446 55.8132 0.52225 -0.030448
1044800 60.4159 198.459 55.8132 0.52235 -0.0282973
1045000 60.4159 198.472 55.8132 0.52245 -0.0449995
1045200 60.4159 198.485 55.8132 0.52255 -0.0335888
1045400 60.4159 198.498 55.8132 0.52265 -0.0533105
1045600 60.4159 198.511 55.8132 0.52275 -0.00470307
1045800 60.4159 198.524 55.8132 0.52285 -0.0186932
1046000 60.4159 198.537 55.8132 0.52295 -0.000745513
1046200 60.4159 198.55 55.8132 0.52305 0.0104951
1046400 60.4159 198.563 55.8132 0.52315 0.0186034
1046600 60.4159 198.576 55.8132 0.52325 0.0346967
1046800 60.4159 198.589 55.8132 0.52335 0.0545641
1047000 60.4159 198.602 55.8132 0.52345 0.0364689
1047200 60.4159 198.615 55.8132 0.52355 0.047589
1047400 60.4159 198.628 55.8132 0.52365 0.0494234
1047600 60.4159 198.641 55.8132 0.52375 0.0323094
1047800 60.4159 198.654 55.8132 0.52385 -0.000172532
1048000 60.4159 198.667 55.8132 0.52395 0.0279956
1048200 60.4159 198.68 55.8132 0.52405 -0.018339
1048400 60.4159 198.693 55.8132 0.52415 -0.00448127
1048600 60.4159 198.706 55.8132 0.52425 -0.0403476
1048800 60.4159 198.719 55.8132 0.52435 -0.0450264
1049000 60.4159 198.733 55.8132 0.52445 -0.0265292
1049200 60.4159 198.746 55.8132 0.52455 -0.0599759
1049400 60.4159 198.759 55.8132 0.52465 -0.0220738
1049600 60.4159 198.772 55.8132 0.52475 -0.00779488
1049800 60.4159 198.785 55.8132 0.52485 -0.0238442
1050000 60.4159 198.798 55.8132 0.52495 0.00596219
1050200 60.4159 198.811 55.8132 0.52505 0.0148816
1050400 60.4159 198.824 55.8132 0.52515 0.0286942
1050600 60.4159 198.837 55.8132 0.52525 0.0539373
1050800 60.4159 198.85 55.8132 0.52535 0.0479119
1051000 60.4159 198.863 55.8132 0.52545 0.0566259
1051200 60.4159 198.876 55.8132 0.52555 0.0283501
1051400 60.4159 198.889 55.8132 0.52565 0.0337527
1051600 60.4159 198.902 55.8132 0.52575 0.0274791
1051800 60.4159 198.915 55.8132 0.52585 0.0143676
1052000 60.4159 198.928 55.8132 0.52595 0.013052
1052200 60.4159 198.941 55.8132 0.52605 -0.0155909
1052400 60.4159 198.954 55.8132 0.52615 -0.0446711
1052600 60.4159 198.967 55.8132 0.52625 -0.0189557
1052800 60.4159 198.98 55.8132 0.52635 -0.042504
1053000 60.4159 198.993 55.8132 0.52645 -0.0405268
1053200 60.4159 199.006 55.8132 0.52655 -0.0433869
1053400 60.4159 199.019 55.8132 0.52665 -0.0141783
1053600 60.4159 199.032 55.8132 0.52675 -0.0176407
1053800 60.4159 199.045 55.8132 0.52685 0.000345963
1054000 60.4159 199.058 55.8132 0.52695 0.00877265
1054200 60.4159 199.071 55.8132 0.52705 0.002315
1054400 60.4159 199.084 55.8132 0.52715 0.0465158
1054600 60.4159 199.098 55.8132 0.52725 0.0554964
1054800 60.4159 199.111 55.8132 0.52735 0.0414344
1055000 60.4159 199.124 55.8132 0.52745 0.0374871
1055200 60.4159 199.137 55.8132 0.52755 0.0375537
1055400 60.4159 199.15 55.8132 0.52765 0.0296428
1055600 60.4159 199.163 55.8132 0.52775 0.035337
1055800 60.4159 199.176 55.8132 0.52785 0.0150992
1056000 60.4159 199.189 55.8132 0.52795 0.00267415
1056200 60.4159 199.202 55.8132 0.52805 -0.0260344
1056400 60.4159 199.215 55.8132 0.52815 -0.0325397
1056600 60.4159 199.228 55.8132 0.52825 -0.0307971
1056800 60.4159 199.241 55.8132 0.52835 -0.0297465
1057000 60.4159 199.254 55.8132 0.52845 -0.0525301
1057200 60.4159 199.267 55.8132 0.52855 -0.0406119
1057400 60.4159 199.28 55.8132 0.52865 -0.0157634
1057600 60.4159 199.293 55.8132 0.52875 -0.0327257
1057800 60.4159 199.306 55.8132 0.52885 -0.00102827
1058000 60.4159 199.319 55.8132 0.52895 0.0324119
1058200 60.4159 199.332 55.8132 0.52905 0.032626
1058400 60.4159 199.345 55.8132 0.52915 0.0403444
1058600 60.4159 199.358 55.8132 0.52925 0.0258063
1058800 60.4159 199.371 55.8132 0.52935 0.039123
1059000 60.4159 199.384 55.8132 0.52945 0.0425776
1059200 60.4159 199.397 55.8132 0.52955 0.0502133
1059400 60.4159 199.41 55.8132 0.52965 0.0285724
1059600 60.4159 199.423 55.8132 0.52975 0.0318379
1059800 60.4159 199.436 55.8132 0.52985 0.0121578
1060000 60.4159 199.45 55.8132 0.52995 -0.0228607
1060200 60.4159 199.463 55.8132 0.53005 -0.00669777
1060400 60.4159 199.476 55.8132 0.53015 -0.0218159
1060600 60.4159 199.489 55.8132 0.53025 -0.0334251
1060800 60.4159 199.502 55.8132 0.53035 -0.0405419
1061000 60.4159 199.515 55.8132 0.53045 -0.0484523
1061200 60.4159 199.528 55.8132 0.53055 -0.0318535
1061400 60.4159 199.541 55.8132 0.53065 -0.0288349
1061600 60.4159 199.554 55.8132 0.53075 -0.010361
1061800 60.4159 199.567 55.8132 0.53085 0.00553972
1062000 60.4159 199.58 55.8132 0.53095 0.0176801
1062200 60.4159 199.593 55.8132 0.53105 0.0145796
1062400 60.4159 199.606 55.8132 0.53115 0.0537352
1062600 60.4159 199.619 55.8132 0.53125 0.0247813
1062800 60.4159 199.632 55.8132 0.53135 0.0566079
1063000 60.4159 199.645 55.8132 0.53145 0.0225753
1063200 60.4159 199.658 55.8132 0.53155 0.0543229
1063400 60.4159 199.671 55.8132 0.53165 0.0426614
1063600 60.4159 199.684 55.8132 0.53175 0.0128682
1063800 60.4159 199.697 55.8132 0.53185 0.00863896
1064000 60.4159 199.71 55.8132 0.53195 0.000332115
1064200 60.4159 199.723 55.8132 0.53205 -0.0237421
1064400 60.4159 199.736 55.8132 0.53215 -0.0338627
1064600 60.4159 199.749 55.8132 0.53225 -0.0352378
1064800 60.4159 199.762 55.8132 0.53235 -0.0421505
1065000 60.4159 199.775 55.8132 0.53245 -0.0474382
1065200 60.4159 199.788 55.8132 0.53255 -0.0293005
1065400 60.4159 199.801 55.8132 0.53265 -0.00870846
1065600 60.4159 199.815 55.8132 0.53275 -0.0120874
1065800 60.4159 199.828 55.8132 0.53285 0.00195918
1066000 60.4159 199.841 55.8132 0.53295 0.0143305
1066200 60.4159 199.854 55.8132 0.53305 0.0212001
1066400 60.4159 199.867 55.8132 0.53315 0.0329999
1066600 60.4159 199.88 55.8132 0.53325 0.0396988
1066800 60.4159 199.893 55.8132 0.53335 0.0793672
1067000 60.4159 199.906 55.8132 0.53345 0.0318814
1067200 60.4159 199.919 55.8132 0.53355 0.040011
1067400 60.4159 199.932 55.8132 0.53365 0.0343758
1067600 60.4159 199.945 55.8132 0.53375 0.000490462
1067800 60.4159 199.958 55.8132 0.53385 0.00597348
1068000 60.4159 199.971 55.8132 0.53395 -0.00321623
1068200 60.4159 199.984 55.8132 0.53405 -0.0297737
1068400 60.4159 199.997 55.8132 0.53415 -0.00350324
1068600 60.4159 200.01 55.8132 0.53425 -0.055022
1068800 60.4159 200.023 55.8132 0.53435 -0.0442759
1069000 60.4159 200.036 55.8132 0.53445 -0.0539878
1069200 60.4159 200.049 55.8132 0.53455 -0.0303055
1069400 60.4159 200.062 55.8132 0.53465 -0.00740732
1069600 60.4159 200.075 55.8132 0.53475 -0.0127185
1069800 60.4159 200.088 55.8132 0.53485 0.00853214
1070000 60.4159 200.101 55.8132 0.53495 0.0241659
1070200 60.4159 200.114 55.8132 0.53505 0.0215162
1070400 60.4159 200.127 55.8132 0.53515 0.0415738
1070600 60.4159 200.14 55.8132 0.53525 0.0462585
1070800 60.4159 200.153 55.8132 0.53535 0.0660462
1071000 60.4159 200.167 55.8132 0.53545 0.0485902
1071200 60.4159 200.18 55.8132 0.53555 0.0395077
1071400 60.4159 200.193 55.8132 0.53565 0.00369498
1071600 60.4159 200.206 55.8132 0.53575 0.0230807
1071800 60.4159 200.219 55.8132 0.53585 -0.00577496
1072000 60.4159 200.232 55.8132 0.53595 -0.0026346
1072200 60.4159 200.245 55.8132 0.53605 -0.0416593
1072400 60.4159 200.258 55.8132 0.53615 -0.0156566
1072600 60.4159 200.271 55.8132 0.53625 -0.0394642
1072800 60.4159 200.284 55.8132 0.53635 -0.0438269
1073000 60.4159 200.297 55.8132 0.53645 -0.0521111
1073200 60.4159 200.31 55.8132 0.53655 -0.0198558
1073400 60.4159 200.323 55.8132 0.53665 -0.0327825
1073600 60.4159 200.336 55.8132 0.53675 0.000898091
1073800 60.4159 200.349 55.8132 0.53685 0.0182482
1074000 60.4159 200.362 55.8132 0.53695 0.0154235
1074200 60.4159 200.375 55.8132 0.53705 0.0398735
1074400 60.4159 200.388 55.8132 0.53715 0.0333851
1074600 60.4159 200.401 55.8132 0.53725 0.0420096
1074800 60.4159 200.414 55.8132 0.53735 0.0792711
1075000 60.4159 200.427 55.8132 0.53745 0.0508648
1075200 60.4159 200.44 55.8132 0.53755 0.0222728
1075400 60.4159 200.453 55.8132 0.53765 0.0199133
1075600 60.4159 200.466 55.8132 0.53775 0.0177169
1075800 60.4159 200.479 55.8132 0.53785 -0.023374
1076000 60.4159 200.492 55.8132 0.53795 -0.00771206
1076200 60.4159 200.505 55.8132 0.53805 -0.0294289
1076400 60.4159 200.518 55.8132 0.53815 -0.0344258
1076600 60.4159 200.532 55.8132 0.53825 -0.0439244
1076800 60.4159 200.545 55.8132 0.53835 -0.052455
1077000 60.4159 200.558 55.8132 0.53845 -0.0280602
1077200 60.4159 200.571 55.8132 0.53855 -0.0115848
1077400 60.4159 200.584 55.8132 0.53865 -0.0213514
1077600 60.4159 200.597 55.8132 0.53875 0.00148669
1077800 60.4159 200.61 55.8132 0.53885 0.00486907
1078000 60.4159 200.623 55.8132 0.53895 0.0197076
1078200 60.4159 200.636 55.8132 0.53905 0.0447433
1078400 60.4159 200.649 55.8132 0.53915 0.0417866
1078600 60.4159 200.662 55.8132 0.53925 0.0552864
1078800 60.4159 200.675 55.8132 0.53935 0.0445195
1079000 60.4159 200.688 55.8132 0.53945 0.0432041
1079200 60.4159 200.701 55.8132 0.53955 0.0346404
1079400 60.4159 200.714 55.8132 0.53965 0.0147996
1079600 60.4159 200.727 55.8132 0.53975 0.00728369
1079800 60.4159 200.74 55.8132 0.53985 -0.00584843
1080000 60.4159 200.753 55.8132 0.53995 -0.0280448
1080200 60.4159 200.766 55.8132 0.54005 -0.0224034
1080400 60.4159 200.779 55.8132 0.54015 -0.0335401
1080600 60.4159 200.792 55.8132 0.54025 -0.0356324
1080800 60.4159 200.805 55.8132 0.54035 -0.0316658
1081000 60.4159 200.818 55.8132 0.54045 -0.0417782
1081200 60.4159 200.831 55.8132 0.54055 -0.018114
1081400 60.4159 200.844 55.8132 0.54065 -0.0274791
1081600 60.4159 200.857 55.8132 0.54075 -0.00730146
1081800 60.4159 200.87 55.8132 0.54085 0.0247181
1082000 60.4159 200.884 55.8132 0.54095 0.0344704
1082200 60.4159 200.897 55.8132 0.54105 0.0428367
1082400 60.4159 200.91 55.8132 0.54115 0.0198193
1082600 60.4159 200.923 55.8132 0.54125 0.0547658
1082800 60.4159 200.936 55.8132 0.54135 0.042375
1083000 60.4159 200.949 55.8132 0.54145 0.0474815
1083200 60.4159 200.962 55.8132 0.54155 0.0334567
1083400 60.4159 200.975 55.8132 0.54165 0.0405334
1083600 60.4159 200.988 55.8132 0.54175 -0.0036019
1083800 60.4159 201.001 55.8132 0.54185 -0.0141667
1084000 60.4159 201.014 55.8132 0.54195 -0.0139565
1084200 60.4159 201.027 55.8132 0.54205 -0.0301301
1084400 60.4159 201.04 55.8132 0.54215 -0.0527804
1084600 60.4159 201.053 55.8132 0.54225 -0.0254865
1084800 60.4159 201.066 55.8132 0.54235 -0.0342888
1085000 60.4159 201.079 55.8132 0.54245 -0.0592476
1085200 60.4159 201.092 55.8132 0.54255 -0.0294537
1085400 60.4159 201.105 55.8132 0.54265 0.0134188
1085600 60.4159 201.118 55.8132 0.54275 -0.00620341
1085800 60.4159 201.131 55.8132 0.54285 0.0152649
1086000 60.4159 201.144 55.8132 0.54295 0.0324112
1086200 60.4159 201.157 55.8132 0.54305 0.02689
1086400 60.4159 201.17 55.8132 0.54315 0.0550689
1086600 60.4159 201.183 55.8132 0.54325 0.0636725
1086800 60.4159 201.196 55.8132 0.54335 0.0373855
1087000 60.4159 201.209 55.8132 0.54345 0.0552122
1087200 60.4159 201.222 55.8132 0.54355 0.0191299
1087400 60.4159 201.235 55.8132 0.54365 0.0105589
1087600 60.4159 201.249 55.8132 0.54375 0.00440134
1087800 60.4159 201.262 55.8132 0.54385 -0.0102622
1088000 60.4159 201.275 55.8132 0.54395 -0.0147505
1088200 60.4159 201.288 55.8132 0.54405 -0.0318263
1088400 60.4159 201.301 55.8132 0.54415 -0.0448151
1088600 60.4159 201.314 55.8132 0.54425 -0.0361439
1088800 60.4159 201.327 55.8132 0.54435 -0.0467858
1089000 60.4159 201.34 55.8132 0.54445 -0.0500729
1089200 60.4159 201.353 55.8132 0.54455 -0.0169604
1089400 60.4159 201.366 55.8132 0.54465 -0.00165011
1089600 60.4159 201.379 55.8132 0.54475 0.0370525
1089800 60.4159 201.392 55.8132 0.54485 0.00553118
1090000 60.4159 201.405 55.8132 0.54495 0.0226397
1090200 60.4159 201.418 55.8132 0.54505 0.0387027
1090400 60.4159 201.431 55.8132 0.54515 0.0464092
1090600 60.4159 201.444 55.8132 0.54525 0.0560333
1090800 60.4159 201.457 55.8132 0.54535 0.0497935
1091000 60.4159 201.47 55.8132 0.54545 0.0514111
1091200 60.4159 201.483 55.8132 0.54555 0.0403024
1091400 60.4159 201.496 55.8132 0.54565 -0.0044277
1091600 60.4159 201.509 55.8132 0.54575 -0.0142599
1091800 60.4159 201.522 55.8132 0.54585 -0.0172149
1092000 60.4159 201.535 55.8132 0.54595 -0.0228176
1092200 60.4159 201.548 55.8132 0.54605 -0.0320205
1092400 60.4159 201.561 55.8132 0.54615 -0.0399216
1092600 60.4159 201.574 55.8132 0.54625 -0.0570305
1092800 60.4159 201.587 55.8132 0.54635 -0.041272
1093000 60.4159 201.601 55.8132 0.54645 -0.0113806
1093200 60.4159 201.614 55.8132 0.54655 -0.0189726
1093400 60.4159 201.627 55.8132 0.54665 -0.0265747
1093600 60.4159 201.64 55.8132 0.54675 0.0178149
1093800 60.4159 201.653 55.8132 0.54685 0.048796
1094000 60.4159 201.666 55.8132 0.54695 0.0249045
1094200 60.4159 201.679 55.8132 0.54705 0.0507611
1094400 60.4159 201.692 55.8132 0.54715 0.0513646
1094600 60.4159 201.705 55.8132 0.54725 0.0454167
1094800 60.4159 201.718 55.8132 0.54735 0.0534381
1095000 60.4159 201.731 55.8132 0.54745 0.0364462
1095200 60.4159 201.744 55.8132 0.54755 0.0177259
1095400 60.4159 201.757 55.8132 0.54765 0.00139542
1095600 60.4159 201.77 55.8132 0.54775 -0.0052182
1095800 60.4159 201.783 55.8132 0.54785 -0.0155468
1096000 60.4159 201.796 55.8132 0.54795 -0.0497093
1096200 60.4159 201.809 55.8132 0.54805 -0.0230794
1096400 60.4159 201.822 55.8132 0.54815 -0.0419923
1096600 60.4159 201.835 55.8132 0.54825 -0.0442978
1096800 60.4159 201.848 55.8132 0.54835 -0.0471693
1097000 60.4159 201.861 55.8132 0.54845 -0.0185196
1097200 60.4159 201.874 55.8132 0.54855 -0.0190804
1097400 60.4159 201.887 55.8132 0.54865 0.00122809
1097600 60.4159 201.9 55.8132 0.54875 0.0209753
1097800 60.4159 201.913 55.8132 0.54885 0.0232416
1098000 60.4159 201.926 55.8132 0.54895 0.0410283
1098200 60.4159 201.939 55.8132 0.54905 0.0718876
1098400 60.4159 201.952 55.8132 0.54915 0.0508326
1098600 60.4159 201.966 55.8132 0.54925 0.0369342
1098800 60.4159 201.979 55.8132 0.54935 0.0511993
1099000 60.4159 201.992 55.8132 0.54945 0.0134304
1099200 60.4159 202.005 55.8132 0.54955 0.0256124
1099400 60.4159 202.018 55.8132 0.54965 0.00255599
1099600 60.4159 202.031 55.8132 0.54975 -0.0065343
1099800 60.4159 202.044 55.8132 0.54985 -0.023336
1100000 60.4159 202.057 55.8132 0.54995 -0.0293813
1100200 60.4159 202.07 55.8132 0.55005 -0.0464001
1100400 60.4159 202.083 55.8132 0.55015 -0.0550039
1100600 60.4159 202.096 55.8132 0.55025 -0.0303563
1100800 60.4159 202.109 55.8132 0.55035 -0.0408568
1101000 60.4159 202.122 55.8132 0.55045 -0.0248436
1101200 60.4159 202.135 55.8132 0.55055 -0.0119646
1101400 60.4159 202.148 55.8132 0.55065 0.00930795
1101600 60.4159 202.161 55.8132 0.55075 0.0296417
1101800 60.4159 202.174 55.8132 0.55085 0.0343382
1102000 60.4159 202.187 55.8132 0.55095 0.0505951
1102200 60.4159 202.2 55.8132 0.55105 0.0459658
1102400 60.4159 202.213 55.8132 0.55115 0.0532795
1102600 60.4159 202.226 55.8132 0.55125 0.0477156
1102800 60.4159 202.239 55.8132 0.55135 0.0334734
1103000 60.4159 202.252 55.8132 0.55145 0.0396267
1103200 60.4159 202.265 55.8132 0.55155 0.0124543
1103400 60.4159 202.278 55.8132 0.55165 -0.0190602
1103600 60.4159 202.291 55.8132 0.55175 0.00478807
1103800 60.4159 202.304 55.8132 0.55185 -0.0375869
1104000 60.4159 202.318 55.8132 0.55195 -0.0251626
1104200 60.4159 202.331 55.8132 0.55205 -0.0551713
1104400 60.4159 202.344 55.8132 0.55215 -0.0433396
1104600 60.4159 202.357 55.8132 0.55225 -0.035046
1104800 60.4159 202.37 55.8132 0.55235 -0.0402975
1105000 60.4159 202.383 55.8132 0.55245 -0.0221769
1105200 60.4159 202.396 55.8132 0.55255 0.01607
1105400 60.4159 202.409 55.8132 0.55265 -0.00327043
1105600 60.4159 202.422 55.8132 0.55275 0.0295822
1105800 60.4159 202.435 55.8132 0.55285 0.0363543
1106000 60.4159 202.448 55.8132 0.55295 0.0566272
1106200 60.4159 202.461 55.8132 0.55305 0.0343035
1106400 60.4159 202.474 55.8132 0.55315 0.044213
1106600 60.4159 202.487 55.8132 0.55325 0.054746
1106800 60.4159 202.5 55.8132 0.55335 0.03722
1107000 60.4159 202.513 55.8132 0.55345 0.0343366
1107200 60.4159 202.526 55.8132 0.55355 0.00298801
1107400 60.4159 202.539 55.8132 0.55365 -0.00587081
1107600 60.4159 202.552 55.8132 0.55375 -0.0321857
1107800 60.4159 202.565 55.8132 0.55385 -0.0319369
1108000 60.4159 202.578 55.8132 0.55395 -0.0331567
1108200 60.4159 202.591 55.8132 0.55405 -0.0340917
1108400 60.4159 202.604 55.8132 0.55415 -0.046101
1108600 60.4159 202.617 55.8132 0.55425 -0.0267587
1108800 60.4159 202.63 55.8132 0.55435 -0.0353202
1109000 60.4159 202.643 55.8132 0.55445 -0.0181482
1109200 60.4159 202.656 55.8132 0.55455 0.00144925
1109400 60.4159 202.669 55.8132 0.55465 0.0193863
1109600 60.4159 202.683 55.8132 0.55475 0.0283144
1109800 60.4159 202.696 55.8132 0.55485 0.0401214
1110000 60.4159 202.709 55.8132 0.55495 0.0555627
1110200 60.4159 202.722 55.8132 0.55505 0.0474075
1110400 60.4159 202.735 55.8132 0.55515 0.0492257
1110600 60.4159 202.748 55.8132 0.55525 0.0435725
1110800 60.4159 202.761 55.8132 0.55535 0.0303539
1111000 60.4159 202.774 55.8132 0.55545 0.0279549
1111200 60.4159 202.787 55.8132 0.55555 0.00327137
1111400 60.4159 202.8 55.8132 0.55565 -0.0194582
1111600 60.4159 202.813 55.8132 0.55575 -0.0204407
1111800 60.4159 202.826 55.8132 0.55585 -0.0396295
1112000 60.4159 202.839 55.8132 0.55595 -0.0525293
1112200 60.4159 202.852 55.8132 0.55605 -0.0450054
1112400 60.4159 202.865 55.8132 0.55615 -0.0291009
1112600 60.4159 202.878 55.8132 0.55625 -0.0274574
1112800 60.4159 202.891 55.8132 0.55635 -0.0248995
1113000 60.4159 202.904 55.8132 0.55645 -0.00911083
1113200 60.4159 202.917 55.8132 0.55655 0.00306984
1113400 60.4159 202.93 55.8132 0.55665 0.0237278
1113600 60.4159 202.943 55.8132 0.55675 0.0391991
1113800 60.4159 202.956 55.8132 0.55685 0.0453996
1114000 60.4159 202.969 55.8132 0.55695 0.0450313
1114200 60.4159 202.982 55.8132 0.55705 0.048497
1114400 60.4159 202.995 55.8132 0.55715 0.0478271
1114600 60.4159 203.008 55.8132 0.55725 0.0278288
1114800 60.4159 203.021 55.8132 0.55735 0.0404535
1115000 60.4159 203.035 55.8132 0.55745 0.00383933
1115200 60.4159 203.048 55.8132 0.55755 0.000352477
1115400 60.4159 203.061 55.8132 0.55765 -0.0225892
1115600 60.4159 203.074 55.8132 0.55775 -0.0305176
1115800 60.4159 203.087 55.8132 0.55785 -0.0315402
1116000 60.4159 203.1 55.8132 0.55795 -0.0367011
1116200 60.4159 203.113 55.8132 0.55805 -0.0235009
1116400 60.4159 203.126 55.8132 0.55815 -0.0484095
1116600 60.4159 203.139 55.8132 0.55825 -0.0319725
1116800 60.4159 203.152 55.8132 0.55835 0.00138604
1117000 60.4159 203.165 55.8132 0.55845 0.00473544
1117200 60.4159 203.178 55.8132 0.55855 -0.00234574
1117400 60.4159 203.191 55.8132 0.55865 0.0242248
1117600 60.4159 203.204 55.8132 0.55875 0.0414383
1117800 60.4159 203.217 55.8132 0.55885 0.0353226
1118000 60.4159 203.23 55.8132 0.55895 0.0495403
1118200 60.4159 203.243 55.8132 0.55905 0.0340197
1118400 60.4159 203.256 55.8132 0.55915 0.0422002
1118600 60.4159 203.269 55.8132 0.55925 0.0254206
1118800 60.4159 203.282 55.8132 0.55935 0.0259765
1119000 60.4159 203.295 55.8132 0.55945 0.00799642
1119200 60.4159 203.308 55.8132 0.55955 -0.0227174
1119400 60.4159 203.321 55.8132 0.55965 -0.0175362
1119600 60.4159 203.334 55.8132 0.55975 -0.00984061
1119800 60.4159 203.347 55.8132 0.55985 -0.0375953
1120000 60.4159 203.36 55.8132 0.55995 -0.0212681
1120200 60.4159 203.373 55.8132 0.56005 -0.0198816
1120400 60.4159 203.386 55.8132 0.56015 -0.0490291
1120600 60.4159 203.4 55.8132 0.56025 -0.00616001
1120800 60.4159 203.413 55.8132 0.56035 -0.017583
1121000 60.4159 203.426 55.8132 0.56045 -0.000372899
1121200 60.4159 203.439 55.8132 0.56055 0.0298828
1121400 60.4159 203.452 55.8132 0.56065 0.00876808
1121600 60.4159 203.465 55.8132 0.56075 0.0355887
1121800 60.4159 203.478 55.8132 0.56085 0.0324278
1122000 60.4159 203.491 55.8132 0.56095 0.0438541
1122200 60.4159 203.504 55.8132 0.56105 0.0384546
1122400 60.4159 203.517 55.8132 0.56115 0.0163019
1122600 60.4159 203.53 55.8132 0.56125 0.023547
1122800 60.4159 203.543 55.8132 0.56135 0.00718426
1123000 60.4159 203.556 55.8132 0.56145 0.00152966
1123200 60.4159 203.569 55.8132 0.56155 0.00496776
1123400 60.4159 203.582 55.8132 0.56165 -0.00827191
1123600 60.4159 203.595 55.8132 0.56175 -0.021452
1123800 60.4159 203.608 55.8132 0.56185 -0.00963047
1124000 60.4159 203.621 55.8132 0.56195 -0.0370555
1124200 60.4159 203.634 55.8132 0.56205 -0.0136393
1124400 60.4159 203.647 55.8132 0.56215 -0.017207
1124600 60.4159 203.66 55.8132 0.56225 -0.0211856
1124800 60.4159 203.673 55.8132 0.56235 -0.000928065
1125000 60.4159 203.686 55.8132 0.56245 -0.00291497
1125200 60.4159 203.699 55.8132 0.56255 0.000294773
1125400 60.4159 203.712 55.8132 0.56265 0.0342057
1125600 60.4159 203.725 55.8132 0.56275 0.0125051
1125800 60.4159 203.738 55.8132 0.56285 0.0367421
1126000 60.4159 203.752 55.8132 0.56295 0.029493
1126200 60.4159 203.765 55.8132 0.56305 0.0320253
1126400 60.4159 203.778 55.8132 0.56315 0.0137456
1126600 60.4159 203.791 55.8132 0.56325 0.0220804
1126800 60.4159 203.804 55.8132 0.56335 0.0123559
1127000 60.4159 203.817 55.8132 0.56345 0.0106155
1127200 60.4159 203.83 55.8132 0.56355 0.0062146
1127400 60.4159 203.843 55.8132 0.56365 -0.0173268
1127600 60.4159 203.856 55.8132 0.56375 -0.0210346
1127800 60.4159 203.869 55.8132 0.56385 -0.00733546
1128000 60.4159 203.882 55.8132 0.56395 -0.0218668
1128200 60.4159 203.895 55.8132 0.56405 -0.0105382
1128400 60.4159 203.908 55.8132 0.56415 -0.00575499
1128600 60.4159 203.921 55.8132 0.56425 -0.00597544
1128800 60.4159 203.934 55.8132 0.56435 -0.0238801
1129000 60.4159 203.947 55.8132 0.56445 0.00619648
1129200 60.4159 203.96 55.8132 0.56455 0.013041
1129400 60.4159 203.973 55.8132 0.56465 0.0103416
1129600 60.4159 203.986 55.8132 0.56475 0.00627695
1129800 60.4159 203.999 55.8132 0.56485 0.0278141
1130000 60.4159 204.012 55.8132 0.56495 0.0327495
1130200 60.4159 204.025 55.8132 0.56505 0.0077406
1130400 60.4159 204.038 55.8132 0.56515 0.0136343
1130600 60.4159 204.051 55.8132 0.56525 0.00753751
1130800 60.4159 204.064 55.8132 0.56535 0.0325892
1131000 60.4159 204.077 55.8132 0.56545 0.00912849
1131200 60.4159 204.09 55.8132 0.56555 0.00520879
1131400 60.4159 204.103 55.8132 0.56565 0.00384209
1131600 60.4159 204.117 55.8132 0.56575 -0.0178316
1131800 60.4159 204.13 55.8132 0.56585 -0.00226395
1132000 60.4159 204.143 55.8132 0.56595 -0.0342144
1132200 60.4159 204.156 55.8132 0.56605 -0.00654799
1132400 60.4159 204.169 55.8132 0.56615 0.00286786
1132600 60.4159 204.182 55.8132 0.56625 -0.00855882
1132800 60.4159 204.195 55.8132 0.56635 0.0109986
1133000 60.4159 204.208 55.8132 0.56645 -0.0300967
1133200 60.4159 204.221 55.8132 0.56655 0.00512893
1133400 60.4159 204.234 55.8132 0.56665 0.00317537
1133600 60.4159 204.247 55.8132 0.56675 0.0124015
1133800 60.4159 204.26 55.8132 0.56685 0.0316439
1134000 60.4159 204.273 55.8132 0.56695 0.0247054
1134200 60.4159 204.286 55.8132 0.56705 0.0187685
1134400 60.4159 204.299 55.8132 0.56715 0.0104628
1134600 60.4159 204.312 55.8132 0.56725 0.0150149
1134800 60.4159 204.325 55.8132 0.56735 0.0116682
1135000 60.4159 204.338 55.8132 0.56745 0.0284582
1135200 60.4159 204.351 55.8132 0.56755 -0.00251265
1135400 60.4159 204.364 55.8132 0.56765 0.00423184
1135600 60.4159 204.377 55.8132 0.56775 -0.00813877
1135800 60.4159 204.39 55.8132 0.56785 -0.00644117
1136000 60.4159 204.403 55.8132 0.56795 -0.0180676
1136200 60.4159 204.416 55.8132 0.56805 -0.0102539
1136400 60.4159 204.429 55.8132 0.56815 -0.0174287
1136600 60.4159 204.442 55.8132 0.56825 -0.0136142
1136800 60.4159 204.455 55.8132 0.56835 -0.0198562
1137000 60.4159 204.469 55.8132 0.56845 0.00523106
1137200 60.4159 204.482 55.8132 0.56855 0.00424052
1137400 60.4159 204.495 55.8132 0.56865 -0.00392837
1137600 60.4159 204.508 55.8132 0.56875 0.0267044
1137800 60.4159 204.521 55.8132 0.56885 0.0516801
1138000 60.4159 204.534 55.8132 0.56895 0.00622957
1138200 60.4159 204.547 55.8132 0.56905 0.0337738
1138400 60.4159 204.56 55.8132 0.56915 0.00769091
1138600 60.4159 204.573 55.8132 0.56925 0.0253571
1138800 60.4159 204.586 55.8132 0.56935 0.021118
1139000 60.4159 204.599 55.8132 0.56945 0.0151772
1139200 60.4159 204.612 55.8132 0.56955 0.00351976
1139400 60.4159 204.625 55.8132 0.56965 -0.0153382
1139600 60.4159 204.638 55.8132 0.56975 -0.0192342
1139800 60.4159 204.651 55.8132 0.56985 -0.0202325
1140000 60.4159 204.664 55.8132 0.56995 -0.0207583
1140200 60.4159 204.677 55.8132 0.57005 -0.0159817
1140400 60.4159 204.69 55.8132 0.57015 -0.0124155
1140600 60.4159 204.703 55.8132 0.57025 -0.0119372
1140800 60.4159 204.716 55.8132 0.57035 -0.0065143
1141000 60.4159 204.729 55.8132 0.57045 -0.00707739
1141200 60.4159 204.742 55.8132 0.57055 0.0141672
1141400 60.4159 204.755 55.8132 0.57065 0.0210136
1141600 60.4159 204.768 55.8132 0.57075 0.0456757
1141800 60.4159 204.781 55.8132 0.57085 0.0136547
1142000 60.4159 204.794 55.8132 0.57095 0.0364223
1142200 60.4159 204.807 55.8132 0.57105 0.0400239
1142400 60.4159 204.82 55.8132 0.57115 0.0248
1142600 60.4159 204.834 55.8132 0.57125 -0.0126701
1142800 60.4159 204.847 55.8132 0.57135 0.0212339
1143000 60.4159 204.86 55.8132 0.57145 0.0126066
1143200 60.4159 204.873 55.8132 0.57155 -0.0036128
1143400 60.4159 204.886 55.8132 0.57165 -0.0305166
1143600 60.4159 204.899 55.8132 0.57175 -0.0381758
1143800 60.4159 204.912 55.8132 0.57185 -0.0164699
1144000 60.4159 204.925 55.8132 0.57195 -0.0109762
1144200 60.4159 204.938 55.8132 0.57205 -0.0339569
1144400 60.4159 204.951 55.8132 0.57215 -0.00732788
1144600 60.4159 204.964 55.8132 0.57225 -0.00245046
1144800 60.4159 204.977 55.8132 0.57235 0.019058
1145000 60.4159 204.99 55.8132 0.57245 -0.00168851
1145200 60.4159 205.003 55.8132 0.57255 0.0197283
1145400 60.4159 205.016 55.8132 0.57265 0.0244679
1145600 60.4159 205.029 55.8132 0.57275 0.0442355
1145800 60.4159 205.042 55.8132 0.57285 0.0161433
1146000 60.4159 205.055 55.8132 0.57295 0.0380983
1146200 60.4159 205.068 55.8132 0.57305 0.0189329
1146400 60.4159 205.081 55.8132 0.57315 0.0203083
1146600 60.4159 205.094 55.8132 0.57325 0.00137959
1146800 60.4159 205.107 55.8132 0.57335 0.00599443
1147000 60.4159 205.12 55.8132 0.57345 -0.0171843
1147200 60.4159 205.133 55.8132 0.57355 -0.0022136
1147400 60.4159 205.146 55.8132 0.57365 -0.0146738
1147600 60.4159 205.159 55.8132 0.57375 -0.0197541
1147800 60.4159 205.172 55.8132 0.57385 -0.0234519
1148000 60.4159 205.186 55.8132 0.57395 -0.0201394
1148200 60.4159 205.199 55.8132 0.57405 -0.0152694
1148400 60.4159 205.212 55.8132 0.57415 -0.00820338
1148600 60.4159 205.225 55.8132 0.57425 0.0141814
1148800 60.4159 205.238 55.8132 0.57435 -0.00211004
1149000 60.4159 205.251 55.8132 0.57445 0.0281139
1149200 60.4159 205.264 55.8132 0.57455 0.0238024
1149400 60.4159 205.277 55.8132 0.57465 0.0225486
1149600 60.4159 205.29 55.8132 0.57475 0.019648
1149800 60.4159 205.303 55.8132 0.57485 0.0229697
1150000 60.4159 205.316 55.8132 0.57495 0.030367
1150200 60.4159 205.329 55.8132 0.57505 0.0256362
1150400 60.4159 205.342 55.8132 0.57515 0.00163788
1150600 60.4159 205.355 55.8132 0.57525 0.00432362
1150800 60.4159 205.368 55.8132 0.57535 -0.0156679
1151000 60.4159 205.381 55.8132 0.57545 0.0063191
1151200 60.4159 205.394 55.8132 0.57555 -0.00583329
1151400 60.4159 205.407 55.8132 0.57565 -0.0220005
1151600 60.4159 205.42 55.8132 0.57575 -0.00352105
1151800 60.4159 205.433 55.8132 0.57585 -0.0276352
1152000 60.4159 205.446 55.8132 0.57595 -0.00798074
1152200 60.4159 205.459 55.8132 0.57605 -0.00471744
1152400 60.4159 205.472 55.8132 0.57615 -0.00796559
1152600 60.4159 205.485 55.8132 0.57625 0.0129228
1152800 60.4159 205.498 55.8132 0.57635 0.000116501
1153000 60.4159 205.511 55.8132 0.57645 0.0148992
1153200 60.4159 205.524 55.8132 0.57655 0.0047872
1153400 60.4159 205.537 55.8132 0.57665 0.0258797
1153600 60.4159 205.551 55.8132 0.57675 -0.00108153
1153800 60.4159 205.564 55.8132 0.57685 0.0301184
1154000 60.4159 205.577 55.8132 0.57695 0.024199
1154200 60.4159 205.59 55.8132 0.57705 0.0350238
1154400 60.4159 205.603 55.8132 0.57715 0.00749437
1154600 60.4159 205.616 55.8132 0.57725 0.00137065
1154800 60.4159 205.629 55.8132 0.57735 -0.00511505
1155000 60.4159 205.642 55.8132 0.57745 0.0112508
1155200 60.4159 205.655 55.8132 0.57755 0.00415718
1155400 60.4159 205.668 55.8132 0.57765 0.00990213
1155600 60.4159 205.681 55.8132 0.57775 -0.0210993
1155800 60.4159 205.694 55.8132 0.57785 -0.0169972
1156000 60.4159 205.707 55.8132 0.57795 -0.0304586
1156200 60.4159 205.72 55.8132 0.57805 -0.00855346
1156400 60.4159 205.733 55.8132 0.57815 0.00476155
1156600 60.4159 205.746 55.8132 0.57825 -0.0028145
1156800 60.4159 205.759 55.8132 0.57835 -0.0034566
1157000 60.4159 205.772 55.8132 0.57845 -1.32914e-05
1157200 60.4159 205.785 55.8132 0.57855 0.0140179
1157400 60.4159 205.798 55.8132 0.57865 0.0124814
1157600 60.4159 205.811 55.8132 0.57875 0.0101766
1157800 60.4159 205.824 55.8132 0.57885 0.0270239
1158000 60.4159 205.837 55.8132 0.57895 0.0396296
1158200 60.4159 205.85 55.8132 0.57905 0.014897
1158400 60.4159 205.863 55.8132 0.57915 -0.00121456
1158600 60.4159 205.876 55.8132 0.57925 0.00906532
1158800 60.4159 205.889 55.8132 0.57935 0.0129143
1159000 60.4159 205.903 55.8132 0.57945 0.0085677
1159200 60.4159 205.916 55.8132 0.57955 -0.000411488
1159400 60.4159 205.929 55.8132 0.57965 0.00277972
1159600 60.4159 205.942 55.8132 0.57975 -0.00644672
1159800 60.4159 205.955 55.8132 0.57985 -0.021538
1160000 60.4159 205.968 55.8132 0.57995 -0.0128884
1160200 60.4159 205.981 55.8132 0.58005 -0.00915217
1160400 60.4159 205.994 55.8132 0.58015 -0.0145742
1160600 60.4159 206.007 55.8132 0.58025 -0.00673694
1160800 60.4159 206.02 55.8132 0.58035 0.00388908
1161000 60.4159 206.033 55.8132 0.58045 0.0140679
1161200 60.4159 206.046 55.8132 0.58055 2.4146e-05
1161400 60.4159 206.059 55.8132 0.58065 0.00801635
1161600 60.4159 206.072 55.8132 0.58075 0.0227344
1161800 60.4159 206.085 55.8132 0.58085 0.0181722
1162000 60.4159 206.098 55.8132 0.58095 0.0318682
1162200 60.4159 206.111 55.8132 0.58105 0.0159717
1162400 60.4159 206.124 55.8132 0.58115 0.00543757
1162600 60.4159 206.137 55.8132 0.58125 0.0328339
1162800 60.4159 206.15 55.8132 0.58135 0.00536783
1163000 60.4159 206.163 55.8132 0.58145 -0.00661627
1163200 60.4159 206.176 55.8132 0.58155 0.010178
1163400 60.4159 206.189 55.8132 0.58165 -0.0165039
1163600 60.4159 206.202 55.8132 0.58175 -0.00396177
1163800 60.4159 206.215 55.8132 0.58185 -0.00986633
1164000 60.4159 206.228 55.8132 0.58195 -0.0209294
1164200 60.4159 206.241 55.8132 0.58205 -0.0137391
1164400 60.4159 206.254 55.8132 0.58215 -0.0191069
1164600 60.4159 206.268 55.8132 0.58225 0.00501883
1164800 60.4159 206.281 55.8132 0.58235 -5.09701e-05
1165000 60.4159 206.294 55.8132 0.58245 0.00337264
1165200 60.4159 206.307 55.8132 0.58255 0.000289423
1165400 60.4159 206.32 55.8132 0.58265 0.0181043
1165600 60.4159 206.333 55.8132 0.58275 0.021567
1165800 60.4159 206.346 55.8132 0.58285 0.0380276
1166000 60.4159 206.359 55.8132 0.58295 0.0339909
1166200 60.4159 206.372 55.8132 0.58305 0.0133478
1166400 60.4159 206.385 55.8132 0.58315 0.00976172
1166600 60.4159 206.398 55.8132 0.58325 0.00522418
1166800 60.4159 206.411 55.8132 0.58335 0.0232858
1167000 60.4159 206.424 55.8132 0.58345 -0.0221935
1167200 60.4159 206.437 55.8132 0.58355 -0.00685384
1167400 60.4159 206.45 55.8132 0.58365 0.00507616
1167600 60.4159 206.463 55.8132 0.58375 0.00620341
1167800 60.4159 206.476 55.8132 0.58385 -0.027694
1168000 60.4159 206.489 55.8132 0.58395 -0.0124692
1168200 60.4159 206.502 55.8132 0.58405 -0.0172751
1168400 60.4159 206.515 55.8132 0.58415 -0.0159654
1168600 60.4159 206.528 55.8132 0.58425 -0.00191133
1168800 60.4159 206.541 55.8132 0.58435 0.0193027
1169000 60.4159 206.554 55.8132 0.58445 0.00317582
1169200 60.4159 206.567 55.8132 0.58455 0.00361242
1169400 60.4159 206.58 55.8132 0.58465 0.01562
1169600 60.4159 206.593 55.8132 0.58475 0.0200653
1169800 60.4159 206.606 55.8132 0.58485 0.0250368
1170000 60.4159 206.62 55.8132 0.58495 0.0187453
1170200 60.4159 206.633 55.8132 0.58505 0.0303432
1170400 60.4159 206.646 55.8132 0.58515 0.00566914
1170600 60.4159 206.659 55.8132 0.58525 0.0131663
1170800 60.4159 206.672 55.8132 0.58535 0.0150852
1171000 60.4159 206.685 55.8132 0.58545 -0.00569835
1171200 60.4159 206.698 55.8132 0.58555 0.0142018
1171400 60.4159 206.711 55.8132 0.58565 -0.0308551
1171600 60.4159 206.724 55.8132 0.58575 -0.0151121
1171800 60.4159 206.737 55.8132 0.58585 -0.0129774
1172000 60.4159 206.75 55.8132 0.58595 -0.0169188
1172200 60.4159 206.763 55.8132 0.58605 -0.00195172
1172400 60.4159 206.776 55.8132 0.58615 -0.00102901
1172600 60.4159 206.789 55.8132 0.58625 0.00496147
1172800 60.4159 206.802 55.8132 0.58635 -0.0299148
1173000 60.4159 206.815 55.8132 0.58645 0.0219057
1173200 60.4159 206.828 55.8132 0.58655 0.00930751
1173400 60.4159 206.841 55.8132 0.58665 0.0180238
1173600 60.4159 206.854 55.8132 0.58675 0.031221
1173800 60.4159 206.867 55.8132 0.58685 0.0272527
1174000 60.4159 206.88 55.8132 0.58695 0.0231705
1174200 60.4159 206.893 55.8132 0.58705 0.0206122
1174400 60.4159 206.906 55.8132 0.58715 -0.00291395
1174600 60.4159 206.919 55.8132 0.58725 0.0051058
1174800 60.4159 206.932 55.8132 0.58735 0.0175108
1175000 60.4159 206.945 55.8132 0.58745 -0.0112716
1175200 60.4159 206.958 55.8132 0.58755 0.00478035
1175400 60.4159 206.971 55.8132 0.58765 -0.00958636
1175600 60.4159 206.985 55.8132 0.58775 -0.0270819
1175800 60.4159 206.998 55.8132 0.58785 -0.0261742
1176000 60.4159 207.011 55.8132 0.58795 -0.000160744
1176200 60.4159 207.024 55.8132 0.58805 -0.00197054
1176400 60.4159 207.037 55.8132 0.58815 0.000595831
1176600 60.4159 207.05 55.8132 0.58825 0.019191
1176800 60.4159 207.063 55.8132 0.58835 0.00397413
1177000 60.4159 207.076 55.8132 0.58845 -0.00430215
1177200 60.4159 207.089 55.8132 0.58855 -0.012515
1177400 60.4159 207.102 55.8132 0.58865 0.0305541
1177600 60.4159 207.115 55.8132 0.58875 0.0275407
1177800 60.4159 207.128 55.8132 0.58885 0.0361008
1178000 60.4159 207.141 55.8132 0.58895 0.0269805
1178200 60.4159 207.154 55.8132 0.58905 0.00800544
1178400 60.4159 207.167 55.8132 0.58915 -0.00719747
1178600 60.4159 207.18 55.8132 0.58925 0.0154515
1178800 60.4159 207.193 55.8132 0.58935 -0.0015742
1179000 60.4159 207.206 55.8132 0.58945 0.00858494
1179200 60.4159 207.219 55.8132 0.58955 0.0106995
1179400 60.4159 207.232 55.8132 0.58965 -0.00883551
1179600 60.4159 207.245 55.8132 0.58975 -0.018059
1179800 60.4159 207.258 55.8132 0.58985 -0.0387525
1180000 60.4159 207.271 55.8132 0.58995 -0.03337
1180200 60.4159 207.284 55.8132 0.59005 0.00531816
1180400 60.4159 207.297 55.8132 0.59015 0.00930273
1180600 60.4159 207.31 55.8132 0.59025 0.00224243
1180800 60.4159 207.323 55.8132 0.59035 0.00944723
1181000 60.4159 207.337 55.8132 0.59045 0.0111309
1181200 60.4159 207.35 55.8132 0.59055 0.000434164
1181400 60.4159 207.363 55.8132 0.59065 0.00118536
1181600 60.4159 207.376 55.8132 0.59075 0.0416605
1181800 60.4159 207.389 55.8132 0.59085 0.0223248
1182000 60.4159 207.402 55.8132 0.59095 0.0404954
1182200 60.4159 207.415 55.8132 0.59105 0.0130823
1182400 60.4159 207.428 55.8132 0.59115 -0.00191062
1182600 60.4159 207.441 55.8132 0.59125 0.00930685
1182800 60.4159 207.454 55.8132 0.59135 0.0113445
1183000 60.4159 207.467 55.8132 0.59145 -0.0048984
1183200 60.4159 207.48 55.8132 0.59155 -0.00497464
1183400 60.4159 207.493 55.8132 0.59165 -0.00983477
1183600 60.4159 207.506 55.8132 0.59175 -0.00914469
1183800 60.4159 207.519 55.8132 0.59185 -0.0155924
1184000 60.4159 207.532 55.8132 0.59195 -0.0147303
1184200 60.4159 207.545 55.8132 0.59205 -0.00374787
1184400 60.4159 207.558 55.8132 0.59215 -0.00416205
1184600 60.4159 207.571 55.8132 0.59225 0.000668508
1184800 60.4159 207.584 55.8132 0.59235 -0.00345954
1185000 60.4159 207.597 55.8132 0.59245 0.0133928
1185200 60.4159 207.61 55.8132 0.59255 0.0138667
1185400 60.4159 207.623 55.8132 0.59265 0.020058
1185600 60.4159 207.636 55.8132 0.59275 0.00881017
1185800 60.4159 207.649 55.8132 0.59285 0.0314195
1186000 60.4159 207.662 55.8132 0.59295 0.0177777
1186200 60.4159 207.675 55.8132 0.59305 0.0146203
1186400 60.4159 207.688 55.8132 0.59315 0.0101424
1186600 60.4159 207.702 55.8132 0.59325 0.00799733
1186800 60.4159 207.715 55.8132 0.59335 0.00211175
1187000 60.4159 207.728 55.8132 0.59345 -0.00580736
1187200 60.4159 207.741 55.8132 0.59355 0.0083044
1187400 60.4159 207.754 55.8132 0.59365 -0.0276986
1187600 60.4159 207.767 55.8132 0.59375 -0.0101456
1187800 60.4159 207.78 55.8132 0.59385 -0.00969042
1188000 60.4159 207.793 55.8132 0.59395 -0.000814803
1188200 60.4159 207.806 55.8132 0.59405 -0.0063966
1188400 60.4159 207.819 55.8132 0.59415 -0.00838163
1188600 60.4159 207.832 55.8132 0.59425 0.00142258
1188800 60.4159 207.845 55.8132 0.59435 0.0155278
1189000 60.4159 207.858 55.8132 0.59445 0.00671119
1189200 60.4159 207.871 55.8132 0.59455 0.0205928
1189400 60.4159 207.884 55.8132 0.59465 0.00991239
1189600 60.4159 207.897 55.8132 0.59475 0.0254438
1189800 60.4159 207.91 55.8132 0.59485 0.0209014
1190000 60.4159 207.923 55.8132 0.59495 0.00773991
1190200 60.4159 207.936 55.8132 0.59505 0.0203798
1190400 60.4159 207.949 55.8132 0.59515 0.00611008
1190600 60.4159 207.962 55.8132 0.59525 -0.00417355
1190800 60.4159 207.975 55.8132 0.59535 0.0109447
1191000 60.4159 207.988 55.8132 0.59545 -0.00623119
1191200 60.4159 208.001 55.8132 0.59555 -0.0107366
1191400 60.4159 208.014 55.8132 0.59565 -0.0227617
1191600 60.4159 208.027 55.8132 0.59575 -0.00925185
1191800 60.4159 208.04 55.8132 0.59585 0.000420613
1192000 60.4159 208.054 55.8132 0.59595 0.00569906
1192200 60.4159 208.067 55.8132 0.59605 -0.00939417
1192400 60.4159 208.08 55.8132 0.59615 -0.00859648
1192600 60.4159 208.093 55.8132 0.59625 0.00788084
1192800 60.4159 208.106 55.8132 0.59635 0.00672302
1193000 60.4159 208.119 55.8132 0.59645 0.030216
1193200 60.4159 208.132 55.8132 0.59655 0.00751895
1193400 60.4159 208.145 55.8132 0.59665 0.0260657
1193600 60.4159 208.158 55.8132 0.59675 0.031858
1193800 60.4159 208.171 55.8132 0.59685 -0.0026563
1194000 60.4159 208.184 55.8132 0.59695 0.0317302
1194200 60.4159 208.197 55.8132 0.59705 0.00459684
1194400 60.4159 208.21 55.8132 0.59715 0.0137098
1194600 60.4159 208.223 55.8132 0.59725 -0.0104615
1194800 60.4159 208.236 55.8132 0.59735 -0.00895715
1195000 60.4159 208.249 55.8132 0.59745 -0.0130787
1195200 60.4159 208.262 55.8132 0.59755 -0.0045932
1195400 60.4159 208.275 55.8132 0.59765 -0.0210934
1195600 60.4159 208.288 55.8132 0.59775 -0.0076933
1195800 60.4159 208.301 55.8132 0.59785 -0.0147246
1196000 60.4159 208.314 55.8132 0.59795 -0.00134651
1196200 60.4159 208.327 55.8132 0.59805 0.000434358
1196400 60.4159 208.34 55.8132 0.59815 -0.00730596
1196600 60.4159 208.353 55.8132 0.59825 0.00892577
1196800 60.4159 208.366 55.8132 0.59835 0.015733
1197000 60.4159 208.379 55.8132 0.59845 0.0233123
1197200 60.4159 208.392 55.8132 0.59855 0.0328218
1197400 60.4159 208.405 55.8132 0.59865 0.0322822
1197600 60.4159 208.419 55.8132 0.59875 0.0180584
1197800 60.4159 208.432 55.8132 0.59885 0.031717
1198000 60.4159 208.445 55.8132 0.59895 0.00385119
1198200 60.4159 208.458 55.8132 0.59905 -0.00953753
1198400 60.4159 208.471 55.8132 0.59915 -0.000421352
1198600 60.4159 208.484 55.8132 0.59925 0.00294947
1198800 60.4159 208.497 55.8132 0.59935 0.00835458
1199000 60.4159 208.51 55.8132 0.59945 -0.0155948
1199200 60.4159 208.523 55.8132 0.59955 -0.0132404
1199400 60.4159 208.536 55.8132 0.59965 -0.0328883
1199600 60.4159 208.549 55.8132 0.59975 -0.0258312
1199800 60.4159 208.562 55.8132 0.59985 -0.00151854
1200000 60.4159 208.575 55.8132 0.59995 0.00919449
1200200 60.4159 208.588 55.8132 0.60005 0.00335387
1200400 60.4159 208.601 55.8132 0.60015 0.0168605
1200600 60.4159 208.614 55.8132 0.60025 -0.00511462
1200800 60.4159 208.627 55.8132 0.60035 0.00273249
1201000 60.4159 208.64 55.8132 0.60045 0.00803328
1201200 60.4159 208.653 55.8132 0.60055 0.0435911
1201400 60.4159 208.666 55.8132 0.60065 0.0308182
1201600 60.4159 208.679 55.8132 0.60075 0.0444568
1201800 60.4159 208.692 55.8132 0.60085 0.0040334
1202000 60.4159 208.705 55.8132 0.60095 -0.00175182
1202200 60.4159 208.718 55.8132 0.60105 0.00878261
1202400 60.4159 208.731 55.8132 0.60115 0.015484
1202600 60.4159 208.744 55.8132 0.60125 -0.00320773
1202800 60.4159 208.757 55.8132 0.60135 -0.0204575
1203000 60.4159 208.77 55.8132 0.60145 0.00261944
1203200 60.4159 208.784 55.8132 0.60155 -0.0119326
1203400 60.4159 208.797 55.8132 0.60165 -0.023762
1203600 60.4159 208.81 55.8132 0.60175 -0.0123706
1203800 60.4159 208.823 55.8132 0.60185 -0.0222903
1204000 60.4159 208.836 55.8132 0.60195 -0.010673
1204200 60.4159 208.849 55.8132 0.60205 0.0189064
1204400 60.4159 208.862 55.8132 0.60215 0.00905927
1204600 60.4159 208.875 55.8132 0.60225 0.0247011
1204800 60.4159 208.888 55.8132 0.60235 0.0182038
1205000 60.4159 208.901 55.8132 0.60245 -0.00540243
1205200 60.4159 208.914 55.8132 0.60255 0.025217
1205400 60.4159 208.927 55.8132 0.60265 0.0271915
1205600 60.4159 208.94 55.8132 0.60275 0.0328756
1205800 60.4159 208.953 55.8132 0.60285 0.0274867
1206000 60.4159 208.966 55.8132 0.60295 0.0184435
1206200 60.4159 208.979 55.8132 0.60305 -0.00156181
1206400 60.4159 208.992 55.8132 0.60315 -0.0092277
1206600 60.4159 209.005 55.8132 0.60325 -0.0106992
1206800 60.4159 209.018 55.8132 0.60335 -0.022912
1207000 60.4159 209.031 55.8132 0.60345 0.00543481
1207200 60.4159 209.044 55.8132 0.60355 -0.0376722
1207400 60.4159 209.057 55.8132 0.60365 -0.00943564
1207600 60.4159 209.07 55.8132 0.60375 -0.0111917
1207800 60.4159 209.083 55.8132 0.60385 -0.0161823
1208000 60.4159 209.096 55.8132 0.60395 0.00929979
1208200 60.4159 209.109 55.8132 0.60405 -0.00574135
1208400 60.4159 209.122 55.8132 0.60415 0.029097
1208600 60.4159 209.136 55.8132 0.60425 0.0249009
1208800 60.4159 209.149 55.8132 0.60435 0.0232005
1209000 60.4159 209.162 55.8132 0.60445 0.0327581
1209200 60.4159 209.175 55.8132 0.60455 0.0250939
1209400 60.4159 209.188 55.8132 0.60465 0.0114988
1209600 60.4159 209.201 55.8132 0.60475 0.0294651
1209800 60.4159 209.214 55.8132 0.60485 0.0150462
1210000 60.4159 209.227 55.8132 0.60495 -0.00188427
1210200 60.4159 209.24 55.8132 0.60505 -0.00682674
1210400 60.4159 209.253 55.8132 0.60515 -0.012372
1210600 60.4159 209.266 55.8132 0.60525 -0.0188185
1210800 60.4159 209.279 55.8132 0.60535 -0.0247635
1211000 60.4159 209.292 55.8132 0.60545 -0.00680426
1211200 60.4159 209.305 55.8132 0.60555 -0.0116497
1211400 60.4159 209.318 55.8132 0.60565 -0.00662168
1211600 60.4159 209.331 55.8132 0.60575 -0.00358987
1211800 60.4159 209.344 55.8132 0.60585 -0.00940198
1212000 60.4159 209.357 55.8132 0.60595 -0.00410524
1212200 60.4159 209.37 55.8132 0.60605 0.0196189
1212400 60.4159 209.383 55.8132 0.60615 0.0163845
1212600 60.4159 209.396 55.8132 0.60625 0.0166339
1212800 60.4159 209.409 55.8132 0.60635 0.0378144
1213000 60.4159 209.422 55.8132 0.60645 0.0214523
1213200 60.4159 209.435 55.8132 0.60655 0.0257228
1213400 60.4159 209.448 55.8132 0.60665 0.019854
1213600 60.4159 209.461 55.8132 0.60675 0.016222
1213800 60.4159 209.474 55.8132 0.60685 -0.00796979
1214000 60.4159 209.487 55.8132 0.60695 0.0164341
1214200 60.4159 209.501 55.8132 0.60705 0.00318589
1214400 60.4159 209.514 55.8132 0.60715 -0.0134936
1214600 60.4159 209.527 55.8132 0.60725 -0.00712519
1214800 60.4159 209.54 55.8132 0.60735 -0.0145956
1215000 60.4159 209.553 55.8132 0.60745 -0.0204045
1215200 60.4159 209.566 55.8132 0.60755 -0.00768869
1215400 60.4159 209.579 55.8132 0.60765 -0.0110922
1215600 60.4159 209.592 55.8132 0.60775 -0.00894633
1215800 60.4159 209.605 55.8132 0.60785 -0.00555695
1216000 60.4159 209.618 55.8132 0.60795 0.0313628
1216200 60.4159 209.631 55.8132 0.60805 -0.0148096
1216400 60.4159 209.644 55.8132 0.60815 0.0134906
1216600 60.4159 209.657 55.8132 0.60825 0.0110461
1216800 60.4159 209.67 55.8132 0.60835 0.0268841
1217000 60.4159 209.683 55.8132 0.60845 0.0350286
1217200 60.4159 209.696 55.8132 0.60855 0.0377242
1217400 60.4159 209.709 55.8132 0.60865 0.0138879
1217600 60.4159 209.722 55.8132 0.60875 -0.0039339
1217800 60.4159 209.735 55.8132 0.60885 0.00474368
1218000 60.4159 209.748 55.8132 0.60895 0.0170634
1218200 60.4159 209.761 55.8132 0.60905 -0.00329594
1218400 60.4159 209.774 55.8132 0.60915 -0.00764555
1218600 60.4159 209.787 55.8132 0.60925 -0.0137584
1218800 60.4159 209.8 55.8132 0.60935 0.00875923
1219000 60.4159 209.813 55.8132 0.60945 -0.038854
1219200 60.4159 209.826 55.8132 0.60955 -0.0259551
1219400 60.4159 209.839 55.8132 0.60965 -0.00629727
1219600 60.4159 209.853 55.8132 0.60975 -0.00983328
1219800 60.4159 209.866 55.8132 0.60985 0.00683217
1220000 60.4159 209.879 55.8132 0.60995 0.0147692
1220200 60.4159 209.892 55.8132 0.61005 0.0178288
1220400 60.4159 209.905 55.8132 0.61015 0.0246108
1220600 60.4159 209.918 55.8132 0.61025 -0.00610483
1220800 60.4159 209.931 55.8132 0.61035 0.0281586
1221000 60.4159 209.944 55.8132 0.61045 0.0303966
1221200 60.4159 209.957 55.8132 0.61055 0.0237995
1221400 60.4159 209.97 55.8132 0.61065 0.0247014
1221600 60.4159 209.983 55.8132 0.61075 0.0298007
1221800 60.4159 209.996 55.8132 0.61085 0.00328688
1222000 60.4159 210.009 55.8132 0.61095 -0.00504177
1222200 60.4159 210.022 55.8132 0.61105 -0.0151178
1222400 60.4159 210.035 55.8132 0.61115 -0.00848399
1222600 60.4159 210.048 55.8132 0.61125 0.00850302
1222800 60.4159 210.061 55.8132 0.61135 -0.0121117
1223000 60.4159 210.074 55.8132 0.61145 -0.0152989
1223200 60.4159 210.087 55.8132 0.61155 -0.0208384
1223400 60.4159 210.1 55.8132 0.61165 -0.0180134
1223600 60.4159 210.113 55.8132 0.61175 -0.0212658
1223800 60.4159 210.126 55.8132 0.61185 0.00624067
1224000 60.4159 210.139 55.8132 0.61195 0.0164122
1224200 60.4159 210.152 55.8132 0.61205 0.0363838
1224400 60.4159 210.165 55.8132 0.61215 0.00565317
1224600 60.4159 210.178 55.8132 0.61225 0.0230209
1224800 60.4159 210.191 55.8132 0.61235 0.0109255
1225000 60.4159 210.204 55.8132 0.61245 0.0159817
1225200 60.4159 210.218 55.8132 0.61255 0.015607
1225400 60.4159 210.231 55.8132 0.61265 0.0284454
1225600 60.4159 210.244 55.8132 0.61275 0.0115383
1225800 60.4159 210.257 55.8132 0.61285 0.0230828
1226000 60.4159 210.27 55.8132 0.61295 -0.00175772
1226200 60.4159 210.283 55.8132 0.61305 -0.0185475
1226400 60.4159 210.296 55.8132 0.61315 -0.0215325
1226600 60.4159 210.309 55.8132 0.61325 -0.00472277
1226800 60.4159 210.322 55.8132 0.61335 -0.00971605
1227000 60.4159 210.335 55.8132 0.61345 -0.00363567
1227200 60.4159 210.348 55.8132 0.61355 -0.00337094
1227400 60.4159 210.361 55.8132 0.61365 -0.022273
1227600 60.4159 210.374 55.8132 0.61375 -0.00617831
1227800 60.4159 210.387 55.8132 0.61385 -0.000602803
1228000 60.4159 210.4 55.8132 0.61395 0.00975023
1228200 60.4159 210.413 55.8132 0.61405 0.025401
1228400 60.4159 210.426 55.8132 0.61415 0.0361169
1228600 60.4159 210.439 55.8132 0.61425 0.0187923
1228800 60.4159 210.452 55.8132 0.61435 0.0246227
1229000 60.4159 210.465 55.8132 0.61445 0.00323858
1229200 60.4159 210.478 55.8132 0.61455 0.00932903
1229400 60.4159 210.491 55.8132 0.61465 0.0318513
1229600 60.4159 210.504 55.8132 0.61475 0.00109683
1229800 60.4159 210.517 55.8132 0.61485 0.00920444
1230000 60.4159 210.53 55.8132 0.61495 -0.000487638
1230200 60.4159 210.543 55.8132 0.61505 0.00159382
1230400 60.4159 210.556 55.8132 0.61515 -0.0339537
1230600 60.4159 210.57 55.8132 0.61525 -0.00309794
1230800 60.4159 210.583 55.8132 0.61535 -0.0139664
1231000 60.4159 210.596 55.8132 0.61545 -0.00678924
1231200 60.4159 210.609 55.8132 0.61555 0.00533283
1231400 60.4159 210.622 55.8132 0.61565 -0.0145489
1231600 60.4159 210.635 55.8132 0.61575 0.00735631
1231800 60.4159 210.648 55.8132 0.61585 0.00930811
1232000 60.4159 210.661 55.8132 0.61595 0.00517418
1232200 60.4159 210.674 55.8132 0.61605 0.0208889
1232400 60.4159 210.687 55.8132 0.61615 0.00940051
1232600 60.4159 210.7 55.8132 0.61625 0.0228721
1232800 60.4159 210.713 55.8132 0.61635 0.0253462
1233000 60.4159 210.726 55.8132 0.61645 0.0167632
1233200 60.4159 210.739 55.8132 0.61655 0.00677773
1233400 60.4159 210.752 55.8132 0.61665 0.0189656
1233600 60.4159 210.765 55.8132 0.61675 0.00438792
1233800 60.4159 210.778 55.8132 0.61685 0.00907769
1234000 60.4159 210.791 55.8132 0.61695 -0.00625506
1234200 60.4159 210.804 55.8132 0.61705 -0.00390233
1234400 60.4159 210.817 55.8132 0.61715 -0.0190263
1234600 60.4159 210.83 55.8132 0.61725 -0.00915688
1234800 60.4159 210.843 55.8132 0.61735 -0.00244489
1235000 60.4159 210.856 55.8132 0.61745 -0.00995809
1235200 60.4159 210.869 55.8132 0.61755 -0.00695085
1235400 60.4159 210.882 55.8132 0.61765 -0.00672374
1235600 60.4159 210.895 55.8132 0.61775 0.00112272
1235800 60.4159 210.908 55.8132 0.61785 -0.000673867
1236000 60.4159 210.921 55.8132 0.61795 0.0253497
1236200 60.4159 210.935 55.8132 0.61805 0.0156981
1236400 60.4159 210.948 55.8132 0.61815 0.00611334
1236600 60.4159 210.961 55.8132 0.61825 0.017793
1236800 60.4159 210.974 55.8132 0.61835 0.0207848
1237000 60.4159 210.987 55.8132 0.61845 0.00209466
1237200 60.4159 211 55.8132 0.61855 0.0310341
1237400 60.4159 211.013 55.8132 0.61865 0.0164397
1237600 60.4159 211.026 55.8132 0.61875 0.0124669
1237800 60.4159 211.039 55.8132 0.61885 -0.00460712
1238000 60.4159 211.052 55.8132 0.61895 0.0127481
1238200 60.4159 211.065 55.8132 0.61905 -0.0267171
1238400 60.4159 211.078 55.8132 0.61915 -0.00362788
1238600 60.4159 211.091 55.8132 0.61925 -0.019716
1238800 60.4159 211.104 55.8132 0.61935 0.0142146
1239000 60.4159 211.117 55.8132 0.61945 -0.00886845
1239200 60.4159 211.13 55.8132 0.61955 -0.00904487
1239400 60.4159 211.143 55.8132 0.61965 -0.0130796
1239600 60.4159 211.156 55.8132 0.61975 -0.00566133
1239800 60.4159 211.169 55.8132 0.61985 0.0224597
1240000 60.4159 211.182 55.8132 0.61995 0.00188697
1240200 60.4159 211.195 55.8132 0.62005 0.0313395
1240400 60.4159 211.208 55.8132 0.62015 0.0175648
1240600 60.4159 211.221 55.8132 0.62025 0.00797698
1240800 60.4159 211.234 55.8132 0.62035 0.0261566
1241000 60.4159 211.247 55.8132 0.62045 -0.00272533
1241200 60.4159 211.26 55.8132 0.62055 0.0097215
1241400 60.4159 211.273 55.8132 0.62065 0.00896638
1241600 60.4159 211.287 55.8132 0.62075 0.027195
1241800 60.4159 211.3 55.8132 0.62085 -0.00457127
1242000 60.4159 211.313 55.8132 0.62095 -0.002923
1242200 60.4159 211.326 55.8132 0.62105 -0.00889162
1242400 60.4159 211.339 55.8132 0.62115 0.0061474
1242600 60.4159 211.352 55.8132 0.62125 -0.0100471
1242800 60.4159 211.365 55.8132 0.62135 0.000798769
1243000 60.4159 211.378 55.8132 0.62145 -0.004552
1243200 60.4159 211.391 55.8132 0.62155 -0.00649314
1243400 60.4159 211.404 55.8132 0.62165 -0.00547295
1243600 60.4159 211.417 55.8132 0.62175 -0.00256355
1243800 60.4159 211.43 55.8132 0.62185 0.0257341
1244000 60.4159 211.443 55.8132 0.62195 -0.00481428
1244200 60.4159 211.456 55.8132 0.62205 0.0117791
1244400 60.4159 211.469 55.8132 0.62215 0.0221029
1244600 60.4159 211.482 55.8132 0.62225 0.0140263
1244800 60.4159 211.495 55.8132 0.62235 -0.00183922
1245000 60.4159 211.508 55.8132 0.62245 0.005627
1245200 60.4159 211.521 55.8132 0.62255 0.0117475
1245400 60.4159 211.534 55.8132 0.62265 0.0148088
1245600 60.4159 211.547 55.8132 0.62275 0.0130743
1245800 60.4159 211.56 55.8132 0.62285 -0.00265785
1246000 60.4159 211.573 55.8132 0.62295 -0.0098003
1246200 60.4159 211.586 55.8132 0.62305 0.00530947
1246400 60.4159 211.599 55.8132 0.62315 -0.0220546
1246600 60.4159 211.612 55.8132 0.62325 -0.000778833
1246800 60.4159 211.625 55.8132 0.62335 0.00974822
1247000 60.4159 211.638 55.8132 0.62345 0.0127003
1247200 60.4159 211.652 55.8132 0.62355 -0.00790256
1247400 60.4159 211.665 55.8132 0.62365 0.00236828
1247600 60.4159 211.678 55.8132 0.62375 0.00508081
1247800 60.4159 211.691 55.8132 0.62385 0.00156062
1248000 60.4159 211.704 55.8132 0.62395 0.00988154
1248200 60.4159 211.717 55.8132 0.62405 0.0159228
1248400 60.4159 211.73 55.8132 0.62415 0.0156625
1248600 60.4159 211.743 55.8132 0.62425 0.0139455
1248800 60.4159 211.756 55.8132 0.62435 0.0102817
1249000 60.4159 211.769 55.8132 0.62445 0.0113471
1249200 60.4159 211.782 55.8132 0.62455 0.00528765
1249400 60.4159 211.795 55.8132 0.62465 -0.00593936
1249600 60.4159 211.808 55.8132 0.62475 -0.00121689
1249800 60.4159 211.821 55.8132 0.62485 0.0130216
1250000 60.4159 211.834 55.8132 0.62495 0.00801266
1250200 60.4159 211.847 55.8132 0.62505 -0.00480418
1250400 60.4159 211.86 55.8132 0.62515 -0.00121986
1250600 60.4159 211.873 55.8132 0.62525 -0.0120208
1250800 60.4159 211.886 55.8132 0.62535 -0.0184775
1251000 60.4159 211.899 55.8132 0.62545 0.00880475
1251200 60.4159 211.912 55.8132 0.62555 0.0176628
1251400 60.4159 211.925 55.8132 0.62565 -0.00204657
1251600 60.4159 211.938 55.8132 0.62575 0.0132523
1251800 60.4159 211.951 55.8132 0.62585 0.00717536
1252000 60.4159 211.964 55.8132 0.62595 -0.00686212
1252200 60.4159 211.977 55.8132 0.62605 0.0198303
1252400 60.4159 211.99 55.8132 0.62615 0.0205818
1252600 60.4159 212.004 55.8132 0.62625 0.0167439
1252800 60.4159 212.017 55.8132 0.62635 -0.00534248
1253000 60.4159 212.03 55.8132 0.62645 0.0154615
1253200 60.4159 212.043 55.8132 0.62655 -0.00771776
1253400 60.4159 212.056 55.8132 0.62665 0.000545512
1253600 60.4159 212.069 55.8132 0.62675 0.00119872
1253800 60.4159 212.082 55.8132 0.62685 0.000367463
1254000 60.4159 212.095 55.8132 0.62695 0.0125877
1254200 60.4159 212.108 55.8132 0.62705 -0.0156019
1254400 60.4159 212.121 55.8132 0.62715 -0.000964173
1254600 60.4159 212.134 55.8132 0.62725 0.00739954
1254800 60.4159 212.147 55.8132 0.62735 -0.00134194
1255000 60.4159 212.16 55.8132 0.62745 0.0116007
1255200 60.4159 212.173 55.8132 0.62755 0.00955486
1255400 60.4159 212.186 55.8132 0.62765 0.017054
1255600 60.4159 212.199 55.8132 0.62775 0.000137119
1255800 60.4159 212.212 55.8132 0.62785 0.00731936
1256000 60.4159 212.225 55.8132 0.62795 -0.00345274
1256200 60.4159 212.238 55.8132 0.62805 0.0110111
1256400 60.4159 212.251 55.8132 0.62815 0.00906933
1256600 60.4159 212.264 55.8132 0.62825 -0.00149509
1256800 60.4159 212.277 55.8132 0.62835 0.0133256
1257000 60.4159 212.29 55.8132 0.62845 0.00764296
1257200 60.4159 212.303 55.8132 0.62855 -0.000357737
1257400 60.4159 212.316 55.8132 0.62865 -0.000345502
1257600 60.4159 212.329 55.8132 0.62875 -0.00264525
1257800 60.4159 212.342 55.8132 0.62885 0.00475198
1258000 60.4159 212.355 55.8132 0.62895 0.0156941
1258200 60.4159 212.369 55.8132 0.62905 -0.00434366
1258400 60.4159 212.382 55.8132 0.62915 0.000547022
1258600 60.4159 212.395 55.8132 0.62925 -0.0130302
1258800 60.4159 212.408 55.8132 0.62935 0.0169177
1259000 60.4159 212.421 55.8132 0.62945 0.00354726
1259200 60.4159 212.434 55.8132 0.62955 0.0112497
1259400 60.4159 212.447 55.8132 0.62965 0.00412937
1259600 60.4159 212.46 55.8132 0.62975 0.00523818
1259800 60.4159 212.473 55.8132 0.62985 0.0118548
1260000 60.4159 212.486 55.8132 0.62995 -0.00672561
1260200 60.4159 212.499 55.8132 0.63005 -0.00274349
1260400 60.4159 212.512 55.8132 0.63015 0.0186535
1260600 60.4159 212.525 55.8132 0.63025 0.0227245
1260800 60.4159 212.538 55.8132 0.63035 0.0190652
1261000 60.4159 212.551 55.8132 0.63045 -0.0215437
1261200 60.4159 212.564 55.8132 0.63055 -0.00400895
1261400 60.4159 212.577 55.8132 0.63065 0.00239685
1261600 60.4159 212.59 55.8132 0.63075 0.0075994
1261800 60.4159 212.603 55.8132 0.63085 0.0105591
1262000 60.4159 212.616 55.8132 0.63095 0.00226261
1262200 60.4159 212.629 55.8132 0.63105 0.0141857
1262400 60.4159 212.642 55.8132 0.63115 -0.0177941
1262600 60.4159 212.655 55.8132 0.63125 -0.00501553
1262800 60.4159 212.668 55.8132 0.63135 0.000123618
1263000 60.4159 212.681 55.8132 0.63145 -0.00139461
1263200 60.4159 212.694 55.8132 0.63155 0.0149334
1263400 60.4159 212.707 55.8132 0.63165 0.0143307
1263600 60.4159 212.721 55.8132 0.63175 -0.00224568
1263800 60.4159 212.734 55.8132 0.63185 0.0112623
1264000 60.4159 212.747 55.8132 0.63195 0.00305018
1264200 60.4159 212.76 55.8132 0.63205 0.00152268
1264400 60.4159 212.773 55.8132 0.63215 0.0116372
1264600 60.4159 212.786 55.8132 0.63225 0.0175612
1264800 60.4159 212.799 55.8132 0.63235 0.0214667
1265000 60.4159 212.812 55.8132 0.63245 0.0240982
1265200 60.4159 212.825 55.8132 0.63255 -0.0214867
1265400 60.4159 212.838 55.8132 0.63265 -0.00731114
1265600 60.4159 212.851 55.8132 0.63275 -0.00610192
1265800 60.4159 212.864 55.8132 0.63285 0.0119364
1266000 60.4159 212.877 55.8132 0.63295 0.00082013
1266200 60.4159 212.89 55.8132 0.63305 0.0191204
1266400 60.4159 212.903 55.8132 0.63315 -0.0169484
1266600 60.4159 212.916 55.8132 0.63325 -0.0066657
1266800 60.4159 212.929 55.8132 0.63335 0.00207117
1267000 60.4159 212.942 55.8132 0.63345 -0.0107921
1267200 60.4159 212.955 55.8132 0.63355 0.0137798
1267400 60.4159 212.968 55.8132 0.63365 0.0128631
1267600 60.4159 212.981 55.8132 0.63375 -0.00514902
1267800 60.4159 212.994 55.8132 0.63385 0.00566897
1268000 60.4159 213.007 55.8132 0.63395 0.0123796
1268200 60.4159 213.02 55.8132 0.63405 0.00661659
1268400 60.4159 213.033 55.8132 0.63415 0.0224459
1268600 60.4159 213.046 55.8132 0.63425 0.0199501
1268800 60.4159 213.059 55.8132 0.63435 0.00080435
1269000 60.4159 213.072 55.8132 0.63445 0.0110498
1269200 60.4159 213.086 55.8132 0.63455 0.0184781
1269400 60.4159 213.099 55.8132 0.63465 -0.00201125
1269600 60.4159 213.112 55.8132 0.63475 -0.0179445
1269800 60.4159 213.125 55.8132 0.63485 -0.00305785
1270000 60.4159 213.138 55.8132 0.63495 0.0102436
1270200 60.4159 213.151 55.8132 0.63505 0.00345414
1270400 60.4159 213.164 55.8132 0.63515 0.00152386
1270600 60.4159 213.177 55.8132 0.63525 -0.0127761
1270800 60.4159 213.19 55.8132 0.63535 -0.0123462
1271000 60.4159 213.203 55.8132 0.63545 0.00458984
1271200 60.4159 213.216 55.8132 0.63555 0.00384753
1271400 60.4159 213.229 55.8132 0.63565 0.0206714
1271600 60.4159 213.242 55.8132 0.63575 0.0100527
1271800 60.4159 213.255 55.8132 0.63585 0.00251996
1272000 60.4159 213.268 55.8132 0.63595 0.025952
1272200 60.4159 213.281 55.8132 0.63605 0.0188746
1272400 60.4159 213.294 55.8132 0.63615 -0.00476675
1272600 60.4159 213.307 55.8132 0.63625 -0.00131267
1272800 60.4159 213.32 55.8132 0.63635 0.0232796
1273000 60.4159 213.333 55.8132 0.63645 0.00702559
1273200 60.4159 213.346 55.8132 0.63655 -0.0142798
1273400 60.4159 213.359 55.8132 0.63665 0.00536535
1273600 60.4159 213.372 55.8132 0.63675 -0.00866438
1273800 60.4159 213.385 55.8132 0.63685 -0.000807553
1274000 60.4159 213.398 55.8132 0.63695 0.00550338
1274200 60.4159 213.411 55.8132 0.63705 -0.00271874
1274400 60.4159 213.424 55.8132 0.63715 0.00566067
1274600 60.4159 213.438 55.8132 0.63725 -0.0112495
1274800 60.4159 213.451 55.8132 0.63735 0.0190664
1275000 60.4159 213.464 55.8132 0.63745 2.69131e-05
1275200 60.4159 213.477 55.8132 0.63755 -0.00836721
1275400 60.4159 213.49 55.8132 0.63765 0.0133263
1275600 60.4159 213.503 55.8132 0.63775 0.0185274
1275800 60.4159 213.516 55.8132 0.63785 0.0175823
1276000 60.4159 213.529 55.8132 0.63795 -0.0139087
1276200 60.4159 213.542 55.8132 0.63805 0.0211651
1276400 60.4159 213.555 55.8132 0.63815 0.0171422
1276600 60.4159 213.568 55.8132 0.63825 0.000537332
1276800 60.4159 213.581 55.8132 0.63835 0.0125889
1277000 60.4159 213.594 55.8132 0.63845 -0.00357241
1277200 60.4159 213.607 55.8132 0.63855 0.00861275
1277400 60.4159 213.62 55.8132 0.63865 0.0110569
1277600 60.4159 213.633 55.8132 0.63875 -0.0139691
1277800 60.4159 213.646 55.8132 0.63885 0.00311749
1278000 60.4159 213.659 55.8132 0.63895 0.00445042
1278200 60.4159 213.672 55.8132 0.63905 0.00400922
1278400 60.4159 213.685 55.8132 0.63915 -0.00962828
1278600 60.4159 213.698 55.8132 0.63925 0.0130249
1278800 60.4159 213.711 55.8132 0.63935 0.0041392
1279000 60.4159 213.724 55.8132 0.63945 4.34205e-06
1279200 60.4159 213.737 55.8132 0.63955 0.0116106
1279400 60.4159 213.75 55.8132 0.63965 -0.0128577
1279600 60.4159 213.763 55.8132 0.63975 -0.00196741
1279800 60.4159 213.776 55.8132 0.63985 0.00982023
1280000 60.4159 213.789 55.8132 0.63995 0.0146399
1280200 60.4159 213.803 55.8132 0.64005 0.01659
1280400 60.4159 213.816 55.8132 0.64015 0.00295148
1280600 60.4159 213.829 55.8132 0.64025 -0.00241981
1280800 60.4159 213.842 55.8132 0.64035 0.00179035
1281000 60.4159 213.855 55.8132 0.64045 0.011488
1281200 60.4159 213.868 55.8132 0.64055 0.00104383
1281400 60.4159 213.881 55.8132 0.64065 0.00857088
1281600 60.4159 213.894 55.8132 0.64075 0.0280602
1281800 60.4159 213.907 55.8132 0.64085 -0.00994698
1282000 60.4159 213.92 55.8132 0.64095 -0.00971392
1282200 60.4159 213.933 55.8132 0.64105 -0.0106673
1282400 60.4159 213.946 55.8132 0.64115 0.00598093
1282600 60.4159 213.959 55.8132 0.64125 0.0140177
1282800 60.4159 213.972 55.8132 0.64135 0.0160556
1283000 60.4159 213.985 55.8132 0.64145 0.0100017
1283200 60.4159 213.998 55.8132 0.64155 0.0122099
1283400 60.4159 214.011 55.8132 0.64165 -0.0144883
1283600 60.4159 214.024 55.8132 0.64175 0.00362307
1283800 60.4159 214.037 55.8132 0.64185 -0.00559277
1284000 60.4159 214.05 55.8132 0.64195 0.023319
1284200 60.4159 214.063 55.8132 0.64205 0.00752762
1284400 60.4159 214.076 55.8132 0.64215 0.0118612
1284600 60.4159 214.089 55.8132 0.64225 0.0147581
1284800 60.4159 214.102 55.8132 0.64235 0.00150998
1285000 60.4159 214.115 55.8132 0.64245 -0.00783646
1285200 60.4159 214.128 55.8132 0.64255 0.00238812
1285400 60.4159 214.141 55.8132 0.64265 -0.00921567
1285600 60.4159 214.155 55.8132 0.64275 0.0177054
1285800 60.4159 214.168 55.8132 0.64285 -0.00283959
1286000 60.4159 214.181 55.8132 0.64295 -0.00796609
1286200 60.4159 214.194 55.8132 0.64305 0.00277132
1286400 60.4159 214.207 55.8132 0.64315 -0.00957999
1286600 60.4159 214.22 55.8132 0.64325 -0.00522469
1286800 60.4159 214.233 55.8132 0.64335 0.0193897
1287000 60.4159 214.246 55.8132 0.64345 0.0168475
1287200 60.4159 214.259 55.8132 0.64355 0.0249458
1287400 60.4159 214.272 55.8132 0.64365 0.010127
1287600 60.4159 214.285 55.8132 0.64375 -0.000254448
1287800 60.4159 214.298 55.8132 0.64385 0.00444596
1288000 60.4159 214.311 55.8132 0.64395 -0.00679484
1288200 60.4159 214.324 55.8132 0.64405 0.0239223
1288400 60.4159 214.337 55.8132 0.64415 0.00937579
1288600 60.4159 214.35 55.8132 0.64425 0.0143922
1288800 60.4159 214.363 55.8132 0.64435 0.00227287
1289000 60.4159 214.376 55.8132 0.64445 -0.0234186
1289200 60.4159 214.389 55.8132 0.64455 -0.00137241
1289400 60.4159 214.402 55.8132 0.64465 0.00172013
1289600 60.4159 214.415 55.8132 0.64475 0.00115335
1289800 60.4159 214.428 55.8132 0.64485 0.00534788
1290000 60.4159 214.441 55.8132 0.64495 0.0257969
1290200 60.4159 214.454 55.8132 0.64505 0.00561752
1290400 60.4159 214.467 55.8132 0.64515 -0.0136356
1290600 60.4159 214.48 55.8132 0.64525 0.0103272
1290800 60.4159 214.493 55.8132 0.64535 0.000157809
1291000 60.4159 214.506 55.8132 0.64545 -0.000583564
1291200 60.4159 214.52 55.8132 0.64555 0.0237437
1291400 60.4159 214.533 55.8132 0.64565 0.014401
1291600 60.4159 214.546 55.8132 0.64575 -0.00284792
1291800 60.4159 214.559 55.8132 0.64585 -0.00198195
1292000 60.4159 214.572 55.8132 0.64595 -0.000176855
1292200 60.4159 214.585 55.8132 0.64605 -9.52039e-06
1292400 60.4159 214.598 55.8132 0.64615 0.0265329
1292600 60.4159 214.611 55.8132 0.64625 0.00276946
1292800 60.4159 214.624 55.8132 0.64635 0.00834223
1293000 60.4159 214.637 55.8132 0.64645 0.00883931
1293200 60.4159 214.65 55.8132 0.64655 -0.0174397
1293400 60.4159 214.663 55.8132 0.64665 -0.00740539
1293600 60.4159 214.676 55.8132 0.64675 0.00878618
1293800 60.4159 214.689 55.8132 0.64685 -0.00182331
1294000 60.4159 214.702 55.8132 0.64695 0.0101052
1294200 60.4159 214.715 55.8132 0.64705 -0.0016409
1294400 60.4159 214.728 55.8132 0.64715 0.0134266
1294600 60.4159 214.741 55.8132 0.64725 -0.00574474
1294800 60.4159 214.754 55.8132 0.64735 0.00587088
1295000 60.4159 214.767 55.8132 0.64745 0.0119368
1295200 60.4159 214.78 55.8132 0.64755 0.0128657
1295400 60.4159 214.793 55.8132 0.64765 0.00788846
1295600 60.4159 214.806 55.8132 0.64775 0.0132033
1295800 60.4159 214.819 55.8132 0.64785 0.0206607
1296000 60.4159 214.832 55.8132 0.64795 0.00723606
1296200 60.4159 214.845 55.8132 0.64805 0.00269476
1296400 60.4159 214.858 55.8132 0.64815 -0.0136321
1296600 60.4159 214.872 55.8132 0.64825 0.0185741
1296800 60.4159 214.885 55.8132 0.64835 0.0066634
1297000 60.4159 214.898 55.8132 0.64845 -0.00298703
1297200 60.4159 214.911 55.8132 0.64855 0.00643706
1297400 60.4159 214.924 55.8132 0.64865 -0.00929485
1297600 60.4159 214.937 55.8132 0.64875 -0.00729531
1297800 60.4159 214.95 55.8132 0.64885 -0.0108725
1298000 60.4159 214.963 55.8132 0.64895 0.00118913
1298200 60.4159 214.976 55.8132 0.64905 0.00869472
1298400 60.4159 214.989 55.8132 0.64915 0.00823986
1298600 60.4159 215.002 55.8132 0.64925 0.00344942
1298800 60.4159 215.015 55.8132 0.64935 0.0226008
1299000 60.4159 215.028 55.8132 0.64945 -0.00488289
1299200 60.4159 215.041 55.8132 0.64955 0.0288313
1299400 60.4159 215.054 55.8132 0.64965 -0.00869732
1299600 60.4159 215.067 55.8132 0.64975 0.0305815
1299800 60.4159 215.08 55.8132 0.64985 0.0179286
1300000 60.4159 215.093 55.8132 0.64995 -0.00694266
1300200 60.4159 215.106 55.8132 0.65005 0.00350783
1300400 60.4159 215.119 55.8132 0.65015 0.0178667
1300600 60.4159 215.132 55.8132 0.65025 -0.0027344
1300800 60.4159 215.145 55.8132 0.65035 0.00495758
1301000 60.4159 215.158 55.8132 0.65045 0.00315809
1301200 60.4159 215.171 55.8132 0.65055 -0.0104311
1301400 60.4159 215.184 55.8132 0.65065 -0.0206639
1301600 60.4159 215.197 55.8132 0.65075 0.00563579
1301800 60.4159 215.21 55.8132 0.65085 -0.0102205
1302000 60.4159 215.223 55.8132 0.65095 -0.00474849
1302200 60.4159 215.237 55.8132 0.65105 0.0131316
1302400 60.4159 215.25 55.8132 0.65115 0.0102605
1302600 60.4159 215.263 55.8132 0.65125 0.00658242
1302800 60.4159 215.276 55.8132 0.65135 0.00413323
1303000 60.4159 215.289 55.8132 0.65145 0.0235865
1303200 60.4159 215.302 55.8132 0.65155 0.0178236
1303400 60.4159 215.315 55.8132 0.65165 0.0309044
1303600 60.4159 215.328 55.8132 0.65175 0.00759332
1303800 60.4159 215.341 55.8132 0.65185 0.0188955
1304000 60.4159 215.354 55.8132 0.65195 -0.00564152
1304200 60.4159 215.367 55.8132 0.65205 0.0110792
1304400 60.4159 215.38 55.8132 0.65215 0.00284139
1304600 60.4159 215.393 55.8132 0.65225 -0.00397369
1304800 60.4159 215.406 55.8132 0.65235 -0.0203865
1305000 60.4159 215.419 55.8132 0.65245 0.00223574
1305200 60.4159 215.432 55.8132 0.65255 -0.00915243
1305400 60.4159 215.445 55.8132 0.65265 -0.00803682
1305600 60.4159 215.458 55.8132 0.65275 0.00111574
1305800 60.4159 215.471 55.8132 0.65285 0.00780353
1306000 60.4159 215.484 55.8132 0.65295 -0.00248057
1306200 60.4159 215.497 55.8132 0.65305 0.000812419
1306400 60.4159 215.51 55.8132 0.65315 0.00664374
1306600 60.4159 215.523 55.8132 0.65325 0.0196866
1306800 60.4159 215.536 55.8132 0.65335 -3.50673e-05
1307000 60.4159 215.549 55.8132 0.65345 0.0259765
1307200 60.4159 215.562 55.8132 0.65355 0.0224146
1307400 60.4159 215.575 55.8132 0.65365 0.00778982
1307600 60.4159 215.589 55.8132 0.65375 0.0242677
1307800 60.4159 215.602 55.8132 0.65385 0.00205426
1308000 60.4159 215.615 55.8132 0.65395 0.00034742
1308200 60.4159 215.628 55.8132 0.65405 0.0166878
1308400 60.4159 215.641 55.8132 0.65415 -0.00777609
1308600 60.4159 215.654 55.8132 0.65425 -0.0141995
1308800 60.4159 215.667 55.8132 0.65435 -0.00422859
1309000 60.4159 215.68 55.8132 0.65445 0.000815096
1309200 60.4159 215.693 55.8132 0.65455 -0.0110999
1309400 60.4159 215.706 55.8132 0.65465 0.00145283
1309600 60.4159 215.719 55.8132 0.65475 0.00163438
1309800 60.4159 215.732 55.8132 0.65485 0.00402398
1310000 60.4159 215.745 55.8132 0.65495 -0.00913928
1310200 60.4159 215.758 55.8132 0.65505 0.0128372
1310400 60.4159 215.771 55.8132 0.65515 0.0230407
1310600 60.4159 215.784 55.8132 0.65525 0.0298104
1310800 60.4159 215.797 55.8132 0.65535 0.00316395
1311000 60.4159 215.81 55.8132 0.65545 0.0138298
1311200 60.4159 215.823 55.8132 0.65555 0.0215703
1311400 60.4159 215.836 55.8132 0.65565 0.00794371
1311600 60.4159 215.849 55.8132 0.65575 0.00319804
1311800 60.4159 215.862 55.8132 0.65585 0.00505649
1312000 60.4159 215.875 55.8132 0.65595 0.0249881
1312200 60.4159 215.888 55.8132 0.65605 -0.011114
1312400 60.4159 215.901 55.8132 0.65615 -0.00611682
1312600 60.4159 215.914 55.8132 0.65625 -0.0240033
1312800 60.4159 215.927 55.8132 0.65635 -0.00922824
1313000 60.4159 215.94 55.8132 0.65645 -0.00518044
1313200 60.4159 215.954 55.8132 0.65655 0.0158033
1313400 60.4159 215.967 55.8132 0.65665 -0.00554841
1313600 60.4159 215.98 55.8132 0.65675 -0.00761693
1313800 60.4159 215.993 55.8132 0.65685 -0.00902064
1314000 60.4159 216.006 55.8132 0.65695 0.00450337
1314200 60.4159 216.019 55.8132 0.65705 0.0221463
1314400 60.4159 216.032 55.8132 0.65715 0.0248838
1314600 60.4159 216.045 55.8132 0.65725 0.0231346
1314800 60.4159 216.058 55.8132 0.65735 0.025342
1315000 60.4159 216.071 55.8132 0.65745 0.00021745
1315200 60.4159 216.084 55.8132 0.65755 0.0204105
1315400 60.4159 216.097 55.8132 0.65765 0.0073326
1315600 60.4159 216.11 55.8132 0.65775 0.0157106
1315800 60.4159 216.123 55.8132 0.65785 0.00846435
1316000 60.4159 216.136 55.8132 0.65795 -0.00218703
1316200 60.4159 216.149 55.8132 0.65805 -0.00997128
1316400 60.4159 216.162 55.8132 0.65815 -0.00821618
1316600 60.4159 216.175 55.8132 0.65825 -0.00977829
1316800 60.4159 216.188 55.8132 0.65835 -0.0171016
1317000 60.4159 216.201 55.8132 0.65845 0.012839
1317200 60.4159 216.214 55.8132 0.65855 -0.0169137
1317400 60.4159 216.227 55.8132 0.65865 0.00511085
1317600 60.4159 216.24 55.8132 0.65875 0.0181291
1317800 60.4159 216.253 55.8132 0.65885 0.00323599
1318000 60.4159 216.266 55.8132 0.65895 -0.00995024
1318200 60.4159 216.279 55.8132 0.65905 0.021
1318400 60.4159 216.292 55.8132 0.65915 0.0158421
1318600 60.4159 216.306 55.8132 0.65925 0.00524931
1318800 60.4159 216.319 55.8132 0.65935 0.0330333
1319000 60.4159 216.332 55.8132 0.65945 0.0113887
1319200 60.4159 216.345 55.8132 0.65955 0.0195496
1319400 60.4159 216.358 55.8132 0.65965 0.006164
1319600 60.4159 216.371 55.8132 0.65975 -0.00958382
1319800 60.4159 216.384 55.8132 0.65985 0.00417536
1320000 60.4159 216.397 55.8132 0.65995 0.0128685
1320200 60.4159 216.41 55.8132 0.66005 0.00776638
1320400 60.4159 216.423 55.8132 0.66015 -0.0233072
1320600 60.4159 216.436 55.8132 0.66025 0.0175235
1320800 60.4159 216.449 55.8132 0.66035 -0.0139935
1321000 60.4159 216.462 55.8132 0.66045 -0.0147031
1321200 60.4159 216.475 55.8132 0.66055 0.00562132
1321400 60.4159 216.488 55.8132 0.66065 0.00331853
1321600 60.4159 216.501 55.8132 0.66075 0.00373457
1321800 60.4159 216.514 55.8132 0.66085 -0.00312535
1322000 60.4159 216.527 55.8132 0.66095 0.0105686
1322200 60.4159 216.54 55.8132 0.66105 0.0165016
1322400 60.4159 216.553 55.8132 0.66115 0.00869391
1322600 60.4159 216.566 55.8132 0.66125 -0.00756871
1322800 60.4159 216.579 55.8132 0.66135 0.0271129
1323000 60.4159 216.592 55.8132 0.66145 0.0157575
1323200 60.4159 216.605 55.8132 0.66155 0.0155425
1323400 60.4159 216.618 55.8132 0.66165 0.01167
1323600 60.4159 216.631 55.8132 0.66175 0.00162925
1323800 60.4159 216.644 55.8132 0.66185 0.00222193
1324000 60.4159 216.657 55.8132 0.66195 0.00463768
1324200 60.4159 216.671 55.8132 0.66205 0.00678366
1324400 60.4159 216.684 55.8132 0.66215 -0.000569647
1324600 60.4159 216.697 55.8132 0.66225 -0.0063227
1324800 60.4159 216.71 55.8132 0.66235 0.00360322
1325000 60.4159 216.723 55.8132 0.66245 -0.00453382
1325200 60.4159 216.736 55.8132 0.66255 -0.00978085
1325400 60.4159 216.749 55.8132 0.66265 0.000409673
1325600 60.4159 216.762 55.8132 0.66275 -0.00238018
1325800 60.4159 216.775 55.8132 0.66285 0.00858895
1326000 60.4159 216.788 55.8132 0.66295 0.0170238
1326200 60.4159 216.801 55.8132 0.66305 0.02058
1326400 60.4159 216.814 55.8132 0.66315 0.00420054
1326600 60.4159 216.827 55.8132 0.66325 0.000694649
1326800 60.4159 216.84 55.8132 0.66335 -0.00138574
1327000 60.4159 216.853 55.8132 0.66345 0.0178314
1327200 60.4159 216.866 55.8132 0.66355 0.0182511
1327400 60.4159 216.879 55.8132 0.66365 0.0162531
1327600 60.4159 216.892 55.8132 0.66375 0.0235537
1327800 60.4159 216.905 55.8132 0.66385 0.00158855
1328000 60.4159 216.918 55.8132 0.66395 -0.0204961
1328200 60.4159 216.931 55.8132 0.66405 -0.0157945
1328400 60.4159 216.944 55.8132 0.66415 -0.00194944
1328600 60.4159 216.957 55.8132 0.66425 0.00966038
1328800 60.4159 216.97 55.8132 0.66435 -0.0014199
1329000 60.4159 216.983 55.8132 0.66445 -0.011552
1329200 60.4159 216.996 55.8132 0.66455 0.00570417
1329400 60.4159 217.009 55.8132 0.66465 -0.00882344
1329600 60.4159 217.023 55.8132 0.66475 0.00784525
1329800 60.4159 217.036 55.8132 0.66485 0.0174638
1330000 60.4159 217.049 55.8132 0.66495 0.0259726
1330200 60.4159 217.062 55.8132 0.66505 0.0247224
1330400 60.4159 217.075 55.8132 0.66515 0.016046
1330600 60.4159 217.088 55.8132 0.66525 0.0151829
1330800 60.4159 217.101 55.8132 0.66535 0.00235833
1331000 60.4159 217.114 55.8132 0.66545 -0.0092415
1331200 60.4159 217.127 55.8132 0.66555 0.0139607
1331400 60.4159 217.14 55.8132 0.66565 0.00973296
1331600 60.4159 217.153 55.8132 0.66575 0.00967847
1331800 60.4159 217.166 55.8132 0.66585 -0.00490826
1332000 60.4159 217.179 55.8132 0.66595 -0.00971474
1332200 60.4159 217.192 55.8132 0.66605 -0.0279886
1332400 60.4159 217.205 55.8132 0.66615 -0.0102423
1332600 60.4159 217.218 55.8132 0.66625 0.0148778
1332800 60.4159 217.231 55.8132 0.66635 -0.0054061
1333000 60.4159 217.244 55.8132 0.66645 0.0100204
1333200 60.4159 217.257 55.8132 0.66655 0.00268152
1333400 60.4159 217.27 55.8132 0.66665 0.00588526
1333600 60.4159 217.283 55.8132 0.66675 -0.0183055
1333800 60.4159 217.296 55.8132 0.66685 0.0253226
1334000 60.4159 217.309 55.8132 0.66695 0.0305739
1334200 60.4159 217.322 55.8132 0.66705 0.0154324
1334400 60.4159 217.335 55.8132 0.66715 0.0302223
1334600 60.4159 217.348 55.8132 0.66725 0.0190917
1334800 60.4159 217.361 55.8132 0.66735 0.00850991
1335000 60.4159 217.374 55.8132 0.66745 -0.00936369
1335200 60.4159 217.388 55.8132 0.66755 0.0074206
1335400 60.4159 217.401 55.8132 0.66765 -0.00122486
1335600 60.4159 217.414 55.8132 0.66775 -0.00252428
1335800 60.4159 217.427 55.8132 0.66785 0.00798503
1336000 60.4159 217.44 55.8132 0.66795 -0.0131866
1336200 60.4159 217.453 55.8132 0.66805 -0.0244374
1336400 60.4159 217.466 55.8132 0.66815 -0.000972541
1336600 60.4159 217.479 55.8132 0.66825 -0.0172834
1336800 60.4159 217.492 55.8132 0.66835 -0.000526727
1337000 60.4159 217.505 55.8132 0.66845 0.00581604
1337200 60.4159 217.518 55.8132 0.66855 0.0202232
1337400 60.4159 217.531 55.8132 0.66865 0.0298928
1337600 60.4159 217.544 55.8132 0.66875 0.0162677
1337800 60.4159 217.557 55.8132 0.66885 -0.00721867
1338000 60.4159 217.57 55.8132 0.66895 0.0172953
1338200 60.4159 217.583 55.8132 0.66905 0.0264466
1338400 60.4159 217.596 55.8132 0.66915 0.0207897
1338600 60.4159 217.609 55.8132 0.66925 0.017874
1338800 60.4159 217.622 55.8132 0.66935 0.0161876
1339000 60.4159 217.635 55.8132 0.66945 -0.00696608
1339200 60.4159 217.648 55.8132 0.66955 -0.0107124
1339400 60.4159 217.661 55.8132 0.66965 -0.0232562
1339600 60.4159 217.674 55.8132 0.66975 -0.0061909
1339800 60.4159 217.687 55.8132 0.66985 0.0166758
1340000 60.4159 217.7 55.8132 0.66995 0.00014436
1340200 60.4159 217.713 55.8132 0.67005 -0.0226241
1340400 60.4159 217.726 55.8132 0.67015 0.00558243
1340600 60.4159 217.74 55.8132 0.67025 -0.0136051
1340800 60.4159 217.753 55.8132 0.67035 -0.0100518
1341000 60.4159 217.766 55.8132 0.67045 0.00637339
1341200 60.4159 217.779 55.8132 0.67055 0.0138174
1341400 60.4159 217.792 55.8132 0.67065 0.0296671
1341600 60.4159 217.805 55.8132 0.67075 0.0155051
1341800 60.4159 217.818 55.8132 0.67085 0.0123996
1342000 60.4159 217.831 55.8132 0.67095 0.00690392
1342200 60.4159 217.844 55.8132 0.67105 0.00608347
1342400 60.4159 217.857 55.8132 0.67115 0.0432418
1342600 60.4159 217.87 55.8132 0.67125 0.0248916
1342800 60.4159 217.883 55.8132 0.67135 0.00254717
1343000 60.4159 217.896 55.8132 0.67145 0.00998146
1343200 60.4159 217.909 55.8132 0.67155 -0.00371555
1343400 60.4159 217.922 55.8132 0.67165 -0.0253746
1343600 60.4159 217.935 55.8132 0.67175 -0.00141343
1343800 60.4159 217.948 55.8132 0.67185 -0.00808404
1344000 60.4159 217.961 55.8132 0.67195 0.00618547
1344200 60.4159 217.974 55.8132 0.67205 -0.0200769
1344400 60.4159 217.987 55.8132 0.67215 -0.0149965
1344600 60.4159 218 55.8132 0.67225 -0.0129133
1344800 60.4159 218.013 55.8132 0.67235 0.00222012
1345000 60.4159 218.026 55.8132 0.67245 0.00448176
1345200 60.4159 218.039 55.8132 0.67255 0.0226012
1345400 60.4159 218.052 55.8132 0.67265 0.0167736
1345600 60.4159 218.065 55.8132 0.67275 0.00980165
1345800 60.4159 218.078 55.8132 0.67285 0.0273902
1346000 60.4159 218.091 55.8132 0.67295 0.0213594
1346200 60.4159 218.105 55.8132 0.67305 0.0276246
1346400 60.4159 218.118 55.8132 0.67315 0.0158977
1346600 60.4159 218.131 55.8132 0.67325 0.00852955
1346800 60.4159 218.144 55.8132 0.67335 -0.000166531
1347000 60.4159 218.157 55.8132 0.67345 0.0181534
1347200 60.4159 218.17 55.8132 0.67355 -0.0111089
1347400 60.4159 218.183 55.8132 0.67365 -0.010418
1347600 60.4159 218.196 55.8132 0.67375 -0.0202433
1347800 60.4159 218.209 55.8132 0.67385 -0.019211
1348000 60.4159 218.222 55.8132 0.67395 -0.00271475
1348200 60.4159 218.235 55.8132 0.67405 -0.0121121
1348400 60.4159 218.248 55.8132 0.67415 -0.0115086
1348600 60.4159 218.261 55.8132 0.67425 0.0096536
1348800 60.4159 218.274 55.8132 0.67435 0.0030148
1349000 60.4159 218.287 55.8132 0.67445 0.013655
1349200 60.4159 218.3 55.8132 0.67455 0.0076121
1349400 60.4159 218.313 55.8132 0.67465 0.027832
1349600 60.4159 218.326 55.8132 0.67475 0.00387706
1349800 60.4159 218.339 55.8132 0.67485 0.0341138
1350000 60.4159 218.352 55.8132 0.67495 0.0242463
1350200 60.4159 218.365 55.8132 0.67505 0.029027
1350400 60.4159 218.378 55.8132 0.67515 0.00398382
1350600 60.4159 218.391 55.8132 0.67525 0.0017481
1350800 60.4159 218.404 55.8132 0.67535 -0.000882207
1351000 60.4159 218.417 55.8132 0.67545 -0.00350833
1351200 60.4159 218.43 55.8132 0.67555 -0.00703497
1351400 60.4159 218.443 55.8132 0.67565 0.000776199
1351600 60.4159 218.456 55.8132 0.67575 -0.00392392
1351800 60.4159 218.47 55.8132 0.67585 -0.00552189
1352000 60.4159 218.483 55.8132 0.67595 -0.0148398
1352200 60.4159 218.496 55.8132 0.67605 -0.0151208
1352400 60.4159 218.509 55.8132 0.67615 -0.00198938
1352600 60.4159 218.522 55.8132 0.67625 0.0240936
1352800 60.4159 218.535 55.8132 0.67635 -0.00067203
1353000 60.4159 218.548 55.8132 0.67645 0.0115325
1353200 60.4159 218.561 55.8132 0.67655 -0.00555651
1353400 60.4159 218.574 55.8132 0.67665 0.0135478
1353600 60.4159 218.587 55.8132 0.67675 0.00672614
1353800 60.4159 218.6 55.8132 0.67685 0.0127182
1354000 60.4159 218.613 55.8132 0.67695 0.0267956
1354200 60.4159 218.626 55.8132 0.67705 0.029421
1354400 60.4159 218.639 55.8132 0.67715 0.0211359
1354600 60.4159 218.652 55.8132 0.67725 -0.00560929
1354800 60.4159 218.665 55.8132 0.67735 -0.0015018
1355000 60.4159 218.678 55.8132 0.67745 0.0133859
1355200 60.4159 218.691 55.8132 0.67755 -0.0140688
1355400 60.4159 218.704 55.8132 0.67765 0.00562938
1355600 60.4159 218.717 55.8132 0.67775 -0.00543123
1355800 60.4159 218.73 55.8132 0.67785 0.00548624
1356000 60.4159 218.743 55.8132 0.67795 -0.029395
1356200 60.4159 218.756 55.8132 0.67805 -0.0116017
1356400 60.4159 218.769 55.8132 0.67815 -0.0047248
1356600 60.4159 218.782 55.8132 0.67825 0.00576464
1356800 60.4159 218.795 55.8132 0.67835 0.00540987
1357000 60.4159 218.808 55.8132 0.67845 0.0187931
1357200 60.4159 218.822 55.8132 0.67855 0.0145319
1357400 60.4159 218.835 55.8132 0.67865 -0.00460366
1357600 60.4159 218.848 55.8132 0.67875 0.0291924
1357800 60.4159 218.861 55.8132 0.67885 0.0181891
1358000 60.4159 218.874 55.8132 0.67895 0.010506
1358200 60.4159 218.887 55.8132 0.67905 0.0348611
1358400 60.4159 218.9 55.8132 0.67915 0.0179014
1358600 60.4159 218.913 55.8132 0.67925 -0.00809894
1358800 60.4159 218.926 55.8132 0.67935 0.0184407
1359000 60.4159 218.939 55.8132 0.67945 -0.0120991
1359200 60.4159 218.952 55.8132 0.67955 -0.00469276
1359400 60.4159 218.965 55.8132 0.67965 -0.0221782
1359600 60.4159 218.978 55.8132 0.67975 -0.0107645
1359800 60.4159 218.991 55.8132 0.67985 0.000635507
1360000 60.4159 219.004 55.8132 0.67995 -0.0113011
1360200 60.4159 219.017 55.8132 0.68005 -0.000700101
1360400 60.4159 219.03 55.8132 0.68015 -0.0237653
1360600 60.4159 219.043 55.8132 0.68025 -0.00628676
1360800 60.4159 219.056 55.8132 0.68035 0.00854026
1361000 60.4159 219.069 55.8132 0.68045 0.0196622
1361200 60.4159 219.082 55.8132 0.68055 0.0194651
1361400 60.4159 219.095 55.8132 0.68065 0.0253861
1361600 60.4159 219.108 55.8132 0.68075 0.0219098
1361800 60.4159 219.121 55.8132 0.68085 0.0248805
1362000 60.4159 219.134 55.8132 0.68095 0.0122031
1362200 60.4159 219.147 55.8132 0.68105 0.0216807
1362400 60.4159 219.16 55.8132 0.68115 0.0131409
1362600 60.4159 219.173 55.8132 0.68125 0.0271173
1362800 60.4159 219.187 55.8132 0.68135 -0.00673769
1363000 60.4159 219.2 55.8132 0.68145 0.00402077
1363200 60.4159 219.213 55.8132 0.68155 -0.0200032
1363400 60.4159 219.226 55.8132 0.68165 -0.0149246
1363600 60.4159 219.239 55.8132 0.68175 -0.0190541
1363800 60.4159 219.252 55.8132 0.68185 -0.0153126
1364000 60.4159 219.265 55.8132 0.68195 -0.0172483
1364200 60.4159 219.278 55.8132 0.68205 0.0101977
1364400 60.4159 219.291 55.8132 0.68215 -0.0114029
1364600 60.4159 219.304 55.8132 0.68225 0.00997727
1364800 60.4159 219.317 55.8132 0.68235 -0.00752468
1365000 60.4159 219.33 55.8132 0.68245 0.00298609
1365200 60.4159 219.343 55.8132 0.68255 0.031512
1365400 60.4159 219.356 55.8132 0.68265 0.0371288
1365600 60.4159 219.369 55.8132 0.68275 0.0301351
1365800 60.4159 219.382 55.8132 0.68285 0.0242037
1366000 60.4159 219.395 55.8132 0.68295 0.0151724
1366200 60.4159 219.408 55.8132 0.68305 0.00585083
1366400 60.4159 219.421 55.8132 0.68315 0.0080397
1366600 60.4159 219.434 55.8132 0.68325 0.0112284
1366800 60.4159 219.447 55.8132 0.68335 0.00530433
1367000 60.4159 219.46 55.8132 0.68345 -0.00250161
1367200 60.4159 219.473 55.8132 0.68355 -0.02883
1367400 60.4159 219.486 55.8132 0.68365 -0.00217222
1367600 60.4159 219.499 55.8132 0.68375 -0.00464471
1367800 60.4159 219.512 55.8132 0.68385 -0.0301363
1368000 60.4159 219.525 55.8132 0.68395 -0.0129186
1368200 60.4159 219.539 55.8132 0.68405 -0.00185201
1368400 60.4159 219.552 55.8132 0.68415 -0.00471384
1368600 60.4159 219.565 55.8132 0.68425 0.0203134
1368800 60.4159 219.578 55.8132 0.68435 0.00694013
1369000 60.4159 219.591 55.8132 0.68445 0.0154935
1369200 60.4159 219.604 55.8132 0.68455 0.0242439
1369400 60.4159 219.617 55.8132 0.68465 0.0342499
1369600 60.4159 219.63 55.8132 0.68475 0.00865395
1369800 60.4159 219.643 55.8132 0.68485 0.022473
1370000 60.4159 219.656 55.8132 0.68495 0.019987
1370200 60.4159 219.669 55.8132 0.68505 0.0365787
1370400 60.4159 219.682 55.8132 0.68515 -0.0077219
1370600 60.4159 219.695 55.8132 0.68525 -0.00958815
1370800 60.4159 219.708 55.8132 0.68535 -0.0120193
1371000 60.4159 219.721 55.8132 0.68545 -0.0144949
1371200 60.4159 219.734 55.8132 0.68555 0.00304421
1371400 60.4159 219.747 55.8132 0.68565 0.00365203
1371600 60.4159 219.76 55.8132 0.68575 -0.0196062
1371800 60.4159 219.773 55.8132 0.68585 -0.0267405
1372000 60.4159 219.786 55.8132 0.68595 -0.0131399
1372200 60.4159 219.799 55.8132 0.68605 0.000919684
1372400 60.4159 219.812 55.8132 0.68615 0.00466868
1372600 60.4159 219.825 55.8132 0.68625 0.00926963
1372800 60.4159 219.838 55.8132 0.68635 0.0320387
1373000 60.4159 219.851 55.8132 0.68645 0.0317288
1373200 60.4159 219.864 55.8132 0.68655 -0.00113474
1373400 60.4159 219.877 55.8132 0.68665 0.0143823
1373600 60.4159 219.89 55.8132 0.68675 0.0286939
1373800 60.4159 219.904 55.8132 0.68685 0.0155199
1374000 60.4159 219.917 55.8132 0.68695 0.00762129
1374200 60.4159 219.93 55.8132 0.68705 0.0228658
1374400 60.4159 219.943 55.8132 0.68715 0.0218409
1374600 60.4159 219.956 55.8132 0.68725 -0.0154092
1374800 60.4159 219.969 55.8132 0.68735 -0.0119526
1375000 60.4159 219.982 55.8132 0.68745 -0.0123157
1375200 60.4159 219.995 55.8132 0.68755 -0.0147309
1375400 60.4159 220.008 55.8132 0.68765 -0.00371487
1375600 60.4159 220.021 55.8132 0.68775 -0.00479949
1375800 60.4159 220.034 55.8132 0.68785 -0.00189447
1376000 60.4159 220.047 55.8132 0.68795 -0.00685509
1376200 60.4159 220.06 55.8132 0.68805 -0.0165487
1376400 60.4159 220.073 55.8132 0.68815 0.00267897
1376600 60.4159 220.086 55.8132 0.68825 0.0121537
1376800 60.4159 220.099 55.8132 0.68835 0.0414318
1377000 60.4159 220.112 55.8132 0.68845 -0.000393237
1377200 60.4159 220.125 55.8132 0.68855 0.0345195
1377400 60.4159 220.138 55.8132 0.68865 0.0320184
1377600 60.4159 220.151 55.8132 0.68875 0.0122178
1377800 60.4159 220.164 55.8132 0.68885 0.000538344
1378000 60.4159 220.177 55.8132 0.68895 0.0199863
1378200 60.4159 220.19 55.8132 0.68905 0.00386945
1378400 60.4159 220.203 55.8132 0.68915 0.0178065
1378600 60.4159 220.216 55.8132 0.68925 0.00238577
1378800 60.4159 220.229 55.8132 0.68935 -0.0320652
1379000 60.4159 220.242 55.8132 0.68945 -0.0198288
1379200 60.4159 220.256 55.8132 0.68955 -0.0111167
1379400 60.4159 220.269 55.8132 0.68965 -0.00142606
1379600 60.4159 220.282 55.8132 0.68975 0.00780229
1379800 60.4159 220.295 55.8132 0.68985 -0.00848706
1380000 60.4159 220.308 55.8132 0.68995 0.0129923
1380200 60.4159 220.321 55.8132 0.69005 -1.24495e-05
1380400 60.4159 220.334 55.8132 0.69015 -0.00849224
1380600 60.4159 220.347 55.8132 0.69025 0.000613151
1380800 60.4159 220.36 55.8132 0.69035 0.0302543
1381000 60.4159 220.373 55.8132 0.69045 0.0297101
1381200 60.4159 220.386 55.8132 0.69055 0.0140877
1381400 60.4159 220.399 55.8132 0.69065 0.0223095
1381600 60.4159 220.412 55.8132 0.69075 0.012035
1381800 60.4159 220.425 55.8132 0.69085 0.00610197
1382000 60.4159 220.438 55.8132 0.69095 -0.00440838
1382200 60.4159 220.451 55.8132 0.69105 0.0180686
1382400 60.4159 220.464 55.8132 0.69115 0.00799504
1382600 60.4159 220.477 55.8132 0.69125 -0.00723515
1382800 60.4159 220.49 55.8132 0.69135 0.00437164
1383000 60.4159 220.503 55.8132 0.69145 -0.0192179
1383200 60.4159 220.516 55.8132 0.69155 -0.00755103
1383400 60.4159 220.529 55.8132 0.69165 -0.0121642
1383600 60.4159 220.542 55.8132 0.69175 -0.0163404
1383800 60.4159 220.555 55.8132 0.69185 0.00223968
1384000 60.4159 220.568 55.8132 0.69195 0.0121081
1384200 60.4159 220.581 55.8132 0.69205 0.0195586
1384400 60.4159 220.594 55.8132 0.69215 -0.000836677
1384600 60.4159 220.607 55.8132 0.69225 0.0141151
1384800 60.4159 220.621 55.8132 0.69235 0.0222257
1385000 60.4159 220.634 55.8132 0.69245 0.0168598
1385200 60.4159 220.647 55.8132 0.69255 0.0215254
1385400 60.4159 220.66 55.8132 0.69265 0.0197816
1385600 60.4159 220.673 55.8132 0.69275 0.0278155
1385800 60.4159 220.686 55.8132 0.69285 -0.00305022
1386000 60.4159 220.699 55.8132 0.69295 -0.0095298
1386200 60.4159 220.712 55.8132 0.69305 0.00042071
1386400 60.4159 220.725 55.8132 0.69315 0.0080211
1386600 60.4159 220.738 55.8132 0.69325 -0.0082735
1386800 60.4159 220.751 55.8132 0.69335 -0.0241498
1387000 60.4159 220.764 55.8132 0.69345 0.00227017
1387200 60.4159 220.777 55.8132 0.69355 -0.0291994
1387400 60.4159 220.79 55.8132 0.69365 -0.00401799
1387600 60.4159 220.803 55.8132 0.69375 0.00301818
1387800 60.4159 220.816 55.8132 0.69385 -0.00198969
1388000 60.4159 220.829 55.8132 0.69395 0.0111796
1388200 60.4159 220.842 55.8132 0.69405 0.0322073
1388400 60.4159 220.855 55.8132 0.69415 0.00573691
1388600 60.4159 220.868 55.8132 0.69425 0.0281479
1388800 60.4159 220.881 55.8132 0.69435 0.0226568
1389000 60.4159 220.894 55.8132 0.69445 0.018042
1389200 60.4159 220.907 55.8132 0.69455 0.0212584
1389400 60.4159 220.92 55.8132 0.69465 0.0133746
1389600 60.4159 220.933 55.8132 0.69475 -0.00184262
1389800 60.4159 220.946 55.8132 0.69485 0.0157911
1390000 60.4159 220.959 55.8132 0.69495 0.000396642
1390200 60.4159 220.973 55.8132 0.69505 -0.00265553
1390400 60.4159 220.986 55.8132 0.69515 -0.0291385
1390600 60.4159 220.999 55.8132 0.69525 -0.00506698
1390800 60.4159 221.012 55.8132 0.69535 -0.00357812
1391000 60.4159 221.025 55.8132 0.69545 -0.00819334
1391200 60.4159 221.038 55.8132 0.69555 -0.0050448
1391400 60.4159 221.051 55.8132 0.69565 -0.00641897
1391600 60.4159 221.064 55.8132 0.69575 -0.00365801
1391800 60.4159 221.077 55.8132 0.69585 0.00227403
1392000 60.4159 221.09 55.8132 0.69595 0.0178427
1392200 60.4159 221.103 55.8132 0.69605 0.0277376
1392400 60.4159 221.116 55.8132 0.69615 0.00696292
1392600 60.4159 221.129 55.8132 0.69625 0.0276745
1392800 60.4159 221.142 55.8132 0.69635 0.0347462
1393000 60.4159 221.155 55.8132 0.69645 0.0152348
1393200 60.4159 221.168 55.8132 0.69655 0.00199507
1393400 60.4159 221.181 55.8132 0.69665 0.00338915
1393600 60.4159 221.194 55.8132 0.69675 0.0207243
1393800 60.4159 221.207 55.8132 0.69685 0.00266239
1394000 60.4159 221.22 55.8132 0.69695 -0.0123766
1394200 60.4159 221.233 55.8132 0.69705 -0.00547654
1394400 60.4159 221.246 55.8132 0.69715 -0.00430032
1394600 60.4159 221.259 55.8132 0.69725 -0.0237469
1394800 60.4159 221.272 55.8132 0.69735 -0.0154454
1395000 60.4159 221.285 55.8132 0.69745 -0.00536573
1395200 60.4159 221.298 55.8132 0.69755 0.000157542
1395400 60.4159 221.311 55.8132 0.69765 0.0132714
1395600 60.4159 221.324 55.8132 0.69775 -0.00528689
1395800 60.4159 221.338 55.8132 0.69785 0.0232672
1396000 60.4159 221.351 55.8132 0.69795 0.00490621
1396200 60.4159 221.364 55.8132 0.69805 0.0176151
1396400 60.4159 221.377 55.8132 0.69815 0.0268047
1396600 60.4159 221.39 55.8132 0.69825 0.0334134
1396800 60.4159 221.403 55.8132 0.69835 0.0261187
1397000 60.4159 221.416 55.8132 0.69845 0.00586344
1397200 60.4159 221.429 55.8132 0.69855 0.016389
1397400 60.4159 221.442 55.8132 0.69865 -0.00174249
1397600 60.4159 221.455 55.8132 0.69875 -0.0019029
1397800 60.4159 221.468 55.8132 0.69885 -0.00457061
1398000 60.4159 221.481 55.8132 0.69895 -0.0028323
1398200 60.4159 221.494 55.8132 0.69905 -0.00759913
1398400 60.4159 221.507 55.8132 0.69915 -0.0111085
1398600 60.4159 221.52 55.8132 0.69925 -0.0278554
1398800 60.4159 221.533 55.8132 0.69935 -0.00609939
1399000 60.4159 221.546 55.8132 0.69945 -0.00899698
1399200 60.4159 221.559 55.8132 0.69955 -0.00749013
1399400 60.4159 221.572 55.8132 0.69965 0.026139
1399600 60.4159 221.585 55.8132 0.69975 0.0134356
1399800 60.4159 221.598 55.8132 0.69985 0.00843174
1400000 60.4159 221.611 55.8132 0.69995 2.7208e-05
1400200 60.4159 221.624 55.8132 0.70005 0.0267628
1400400 60.4159 221.637 55.8132 0.70015 0.0293241
1400600 60.4159 221.65 55.8132 0.70025 0.0274041
1400800 60.4159 221.663 55.8132 0.70035 0.0380298
1401000 60.4159 221.676 55.8132 0.70045 0.00536892
1401200 60.4159 221.69 55.8132 0.70055 0.00144553
1401400 60.4159 221.703 55.8132 0.70065 -0.00637906
1401600 60.4159 221.716 55.8132 0.70075 -0.00665813
1401800 60.4159 221.729 55.8132 0.70085 -0.00257534
1402000 60.4159 221.742 55.8132 0.70095 0.00841664
1402200 60.4159 221.755 55.8132 0.70105 -0.018038
1402400 60.4159 221.768 55.8132 0.70115 -0.0102866
1402600 60.4159 221.781 55.8132 0.70125 -0.0169705
1402800 60.4159 221.794 55.8132 0.70135 0.00944273
1403000 60.4159 221.807 55.8132 0.70145 -0.0288278
1403200 60.4159 221.82 55.8132 0.70155 0.0198919
1403400 60.4159 221.833 55.8132 0.70165 0.0140627
1403600 60.4159 221.846 55.8132 0.70175 0.00969847
1403800 60.4159 221.859 55.8132 0.70185 0.0109499
1404000 60.4159 221.872 55.8132 0.70195 0.0114272
1404200 60.4159 221.885 55.8132 0.70205 0.0280978
1404400 60.4159 221.898 55.8132 0.70215 0.0118936
1404600 60.4159 221.911 55.8132 0.70225 0.0192053
1404800 60.4159 221.924 55.8132 0.70235 0.0194753
1405000 60.4159 221.937 55.8132 0.70245 0.0168739
1405200 60.4159 221.95 55.8132 0.70255 0.0051013
1405400 60.4159 221.963 55.8132 0.70265 -0.00702886
1405600 60.4159 221.976 55.8132 0.70275 -0.0030345
1405800 60.4159 221.989 55.8132 0.70285 -0.00449449
1406000 60.4159 222.002 55.8132 0.70295 0.00702438
1406200 60.4159 222.015 55.8132 0.70305 -0.0191585
1406400 60.4159 222.028 55.8132 0.70315 -0.0113149
1406600 60.4159 222.041 55.8132 0.70325 -0.0190378
1406800 60.4159 222.055 55.8132 0.70335 -0.00647364
1407000 60.4159 222.068 55.8132 0.70345 0.00673364
1407200 60.4159 222.081 55.8132 0.70355 0.00803726
1407400 60.4159 222.094 55.8132 0.70365 0.00884702
1407600 60.4159 222.107 55.8132 0.70375 0.013245
1407800 60.4159 222.12 55.8132 0.70385 0.010799
1408000 60.4159 222.133 55.8132 0.70395 0.0116311
1408200 60.4159 222.146 55.8132 0.70405 0.0313996
1408400 60.4159 222.159 55.8132 0.70415 0.0335641
1408600 60.4159 222.172 55.8132 0.70425 0.0201234
1408800 60.4159 222.185 55.8132 0.70435 0.0165836
1409000 60.4159 222.198 55.8132 0.70445 0.017906
1409200 60.4159 222.211 55.8132 0.70455 -0.0114907
1409400 60.4159 222.224 55.8132 0.70465 0.00850671
1409600 60.4159 222.237 55.8132 0.70475 -0.0162013
1409800 60.4159 222.25 55.8132 0.70485 0.00687999
1410000 60.4159 222.263 55.8132 0.70495 -0.0173347
1410200 60.4159 222.276 55.8132 0.70505 -0.00437009
1410400 60.4159 222.289 55.8132 0.70515 -0.0221604
1410600 60.4159 222.302 55.8132 0.70525 -0.00782403
1410800 60.4159 222.315 55.8132 0.70535 -0.0208897
1411000 60.4159 222.328 55.8132 0.70545 -0.00648089
1411200 60.4159 222.341 55.8132 0.70555 0.0185149
1411400 60.4159 222.354 55.8132 0.70565 0.0103823
1411600 60.4159 222.367 55.8132 0.70575 0.0127381
1411800 60.4159 222.38 55.8132 0.70585 0.0239476
1412000 60.4159 222.393 55.8132 0.70595 0.0325273
1412200 60.4159 222.407 55.8132 0.70605 0.0074501
1412400 60.4159 222.42 55.8132 0.70615 0.0244259
1412600 60.4159 222.433 55.8132 0.70625 0.0166015
1412800 60.4159 222.446 55.8132 0.70635 0.0232588
1413000 60.4159 222.459 55.8132 0.70645 0.0115138
1413200 60.4159 222.472 55.8132 0.70655 -0.00415101
1413400 60.4159 222.485 55.8132 0.70665 -0.00187917
1413600 60.4159 222.498 55.8132 0.70675 -0.000992029
1413800 60.4159 222.511 55.8132 0.70685 -0.0251766
1414000 60.4159 222.524 55.8132 0.70695 0.00967415
1414200 60.4159 222.537 55.8132 0.70705 -0.00879863
1414400 60.4159 222.55 55.8132 0.70715 -0.00948821
1414600 60.4159 222.563 55.8132 0.70725 -0.0155166
1414800 60.4159 222.576 55.8132 0.70735 -0.00263221
1415000 60.4159 222.589 55.8132 0.70745 -0.0120076
1415200 60.4159 222.602 55.8132 0.70755 0.00787906
1415400 60.4159 222.615 55.8132 0.70765 0.0158017
1415600 60.4159 222.628 55.8132 0.70775 0.0231808
1415800 60.4159 222.641 55.8132 0.70785 0.00920605
1416000 60.4159 222.654 55.8132 0.70795 0.0222097
1416200 60.4159 222.667 55.8132 0.70805 0.0253304
1416400 60.4159 222.68 55.8132 0.70815 0.0214045
1416600 60.4159 222.693 55.8132 0.70825 0.0263618
1416800 60.4159 222.706 55.8132 0.70835 0.0146869
1417000 60.4159 222.719 55.8132 0.70845 0.00694202
1417200 60.4159 222.732 55.8132 0.70855 0.0104662
1417400 60.4159 222.745 55.8132 0.70865 -0.0243819
1417600 60.4159 222.758 55.8132 0.70875 -0.00708893
1417800 60.4159 222.772 55.8132 0.70885 0.00398684
1418000 60.4159 222.785 55.8132 0.70895 -0.026816
1418200 60.4159 222.798 55.8132 0.70905 0.000406805
1418400 60.4159 222.811 55.8132 0.70915 -0.0137525
1418600 60.4159 222.824 55.8132 0.70925 -0.0137802
1418800 60.4159 222.837 55.8132 0.70935 -0.00182346
1419000 60.4159 222.85 55.8132 0.70945 0.000691919
1419200 60.4159 222.863 55.8132 0.70955 -0.00240257
1419400 60.4159 222.876 55.8132 0.70965 0.0105591
1419600 60.4159 222.889 55.8132 0.70975 0.0217819
1419800 60.4159 222.902 55.8132 0.70985 0.0299658
1420000 60.4159 222.915 55.8132 0.70995 0.0255438
1420200 60.4159 222.928 55.8132 0.71005 0.0185623
1420400 60.4159 222.941 55.8132 0.71015 0.0341277
1420600 60.4159 222.954 55.8132 0.71025 0.00866009
1420800 60.4159 222.967 55.8132 0.71035 0.0145843
1421000 60.4159 222.98 55.8132 0.71045 0.00700182
1421200 60.4159 222.993 55.8132 0.71055 0.0199288
1421400 60.4159 223.006 55.8132 0.71065 -0.00299671
1421600 60.4159 223.019 55.8132 0.71075 -0.0225618
1421800 60.4159 223.032 55.8132 0.71085 -0.013345
1422000 60.4159 223.045 55.8132 0.71095 -0.0210812
1422200 60.4159 223.058 55.8132 0.71105 -0.0192705
1422400 60.4159 223.071 55.8132 0.71115 -0.010426
1422600 60.4159 223.084 55.8132 0.71125 -0.00398472
1422800 60.4159 223.097 55.8132 0.71135 0.00445694
1423000 60.4159 223.11 55.8132 0.71145 -0.00891718
1423200 60.4159 223.124 55.8132 0.71155 0.0102211
1423400 60.4159 223.137 55.8132 0.71165 0.0158221
1423600 60.4159 223.15 55.8132 0.71175 -0.00118035
1423800 60.4159 223.163 55.8132 0.71185 0.0470454
1424000 60.4159 223.176 55.8132 0.71195 0.0196387
1424200 60.4159 223.189 55.8132 0.71205 0.0442407
1424400 60.4159 223.202 55.8132 0.71215 0.0314704
1424600 60.4159 223.215 55.8132 0.71225 0.0168578
1424800 60.4159 223.228 55.8132 0.71235 -0.00159969
1425000 60.4159 223.241 55.8132 0.71245 0.000998062
1425200 60.4159 223.254 55.8132 0.71255 -0.00203615
1425400 60.4159 223.267 55.8132 0.71265 0.00830974
1425600 60.4159 223.28 55.8132 0.71275 -0.016525
1425800 60.4159 223.293 55.8132 0.71285 -0.0184406
1426000 60.4159 223.306 55.8132 0.71295 -0.00681577
1426200 60.4159 223.319 55.8132 0.71305 -0.0369927
1426400 60.4159 223.332 55.8132 0.71315 -0.0291063
1426600 60.4159 223.345 55.8132 0.71325 -0.00452442
1426800 60.4159 223.358 55.8132 0.71335 0.0143351
1427000 60.4159 223.371 55.8132 0.71345 0.00380816
1427200 60.4159 223.384 55.8132 0.71355 0.0298091
1427400 60.4159 223.397 55.8132 0.71365 0.00853624
1427600 60.4159 223.41 55.8132 0.71375 0.0203892
1427800 60.4159 223.423 55.8132 0.71385 0.0244157
1428000 60.4159 223.436 55.8132 0.71395 0.0153521
1428200 60.4159 223.449 55.8132 0.71405 0.0304562
1428400 60.4159 223.462 55.8132 0.71415 0.0339715
1428600 60.4159 223.475 55.8132 0.71425 0.0353138
1428800 60.4159 223.489 55.8132 0.71435 -0.0114505
1429000 60.4159 223.502 55.8132 0.71445 0.00227899
1429200 60.4159 223.515 55.8132 0.71455 -0.0210045
1429400 60.4159 223.528 55.8132 0.71465 -0.00617445
1429600 60.4159 223.541 55.8132 0.71475 -0.0124384
1429800 60.4159 223.554 55.8132 0.71485 -0.0187768
1430000 60.4159 223.567 55.8132 0.71495 0.00413697
1430200 60.4159 223.58 55.8132 0.71505 -0.0279881
1430400 60.4159 223.593 55.8132 0.71515 -0.0104609
1430600 60.4159 223.606 55.8132 0.71525 -0.0157398
1430800 60.4159 223.619 55.8132 0.71535 0.00947356
1431000 60.4159 223.632 55.8132 0.71545 0.0203742
1431200 60.4159 223.645 55.8132 0.71555 0.0196872
1431400 60.4159 223.658 55.8132 0.71565 0.0235857
1431600 60.4159 223.671 55.8132 0.71575 0.0199572
1431800 60.4159 223.684 55.8132 0.71585 0.031142
1432000 60.4159 223.697 55.8132 0.71595 0.0202719
1432200 60.4159 223.71 55.8132 0.71605 0.0235004
1432400 60.4159 223.723 55.8132 0.71615 0.0122228
1432600 60.4159 223.736 55.8132 0.71625 0.00701115
1432800 60.4159 223.749 55.8132 0.71635 0.0211682
1433000 60.4159 223.762 55.8132 0.71645 -0.00381883
1433200 60.4159 223.775 55.8132 0.71655 -0.0145846
1433400 60.4159 223.788 55.8132 0.71665 -0.0228703
1433600 60.4159 223.801 55.8132 0.71675 -0.00577467
1433800 60.4159 223.814 55.8132 0.71685 -0.0220524
1434000 60.4159 223.827 55.8132 0.71695 -0.0103015
1434200 60.4159 223.841 55.8132 0.71705 -0.00768108
1434400 60.4159 223.854 55.8132 0.71715 -0.00882515
1434600 60.4159 223.867 55.8132 0.71725 -0.0131032
1434800 60.4159 223.88 55.8132 0.71735 -0.00599513
1435000 60.4159 223.893 55.8132 0.71745 0.0176721
1435200 60.4159 223.906 55.8132 0.71755 0.0324363
1435400 60.4159 223.919 55.8132 0.71765 0.0144022
1435600 60.4159 223.932 55.8132 0.71775 0.0426495
1435800 60.4159 223.945 55.8132 0.71785 0.0299663
1436000 60.4159 223.958 55.8132 0.71795 0.0276054
1436200 60.4159 223.971 55.8132 0.71805 0.00463651
1436400 60.4159 223.984 55.8132 0.71815 0.0214607
1436600 60.4159 223.997 55.8132 0.71825 0.0134401
1436800 60.4159 224.01 55.8132 0.71835 0.0145818
1437000 60.4159 224.023 55.8132 0.71845 -1.51258e-05
1437200 60.4159 224.036 55.8132 0.71855 -0.0205205
1437400 60.4159 224.049 55.8132 0.71865 -0.0322565
1437600 60.4159 224.062 55.8132 0.71875 -0.0134691
1437800 60.4159 224.075 55.8132 0.71885 -0.0144047
1438000 60.4159 224.088 55.8132 0.71895 -0.0309223
1438200 60.4159 224.101 55.8132 0.71905 0.00965099
1438400 60.4159 224.114 55.8132 0.71915 -0.0158672
1438600 60.4159 224.127 55.8132 0.71925 -0.00798288
1438800 60.4159 224.14 55.8132 0.71935 0.0253487
1439000 60.4159 224.153 55.8132 0.71945 0.0113829
1439200 60.4159 224.166 55.8132 0.71955 0.0215921
1439400 60.4159 224.179 55.8132 0.71965 0.0271503
1439600 60.4159 224.192 55.8132 0.71975 0.0344599
1439800 60.4159 224.206 55.8132 0.71985 0.0411603
1440000 60.4159 224.219 55.8132 0.71995 0.0301876
1440200 60.4159 224.232 55.8132 0.72005 0.00875802
1440400 60.4159 224.245 55.8132 0.72015 0.0171135
1440600 60.4159 224.258 55.8132 0.72025 0.00264418
1440800 60.4159 224.271 55.8132 0.72035 -0.00491454
1441000 60.4159 224.284 55.8132 0.72045 -0.000329454
1441200 60.4159 224.297 55.8132 0.72055 -0.0338094
1441400 60.4159 224.31 55.8132 0.72065 -0.0245011
1441600 60.4159 224.323 55.8132 0.72075 -0.0188556
1441800 60.4159 224.336 55.8132 0.72085 -0.0283095
1442000 60.4159 224.349 55.8132 0.72095 -0.0226846
1442200 60.4159 224.362 55.8132 0.72105 -0.0124761
1442400 60.4159 224.375 55.8132 0.72115 0.00903659
1442600 60.4159 224.388 55.8132 0.72125 0.0123329
1442800 60.4159 224.401 55.8132 0.72135 0.0280086
1443000 60.4159 224.414 55.8132 0.72145 0.0255762
1443200 60.4159 224.427 55.8132 0.72155 0.0275963
1443400 60.4159 224.44 55.8132 0.72165 0.03199
1443600 60.4159 224.453 55.8132 0.72175 0.0381599
1443800 60.4159 224.466 55.8132 0.72185 0.0225115
1444000 60.4159 224.479 55.8132 0.72195 0.0329401
1444200 60.4159 224.492 55.8132 0.72205 0.00544934
1444400 60.4159 224.505 55.8132 0.72215 0.0114165
1444600 60.4159 224.518 55.8132 0.72225 0.00132675
1444800 60.4159 224.531 55.8132 0.72235 -0.0127751
1445000 60.4159 224.544 55.8132 0.72245 -0.0248773
1445200 60.4159 224.558 55.8132 0.72255 -0.0210814
1445400 60.4159 224.571 55.8132 0.72265 -0.0237483
1445600 60.4159 224.584 55.8132 0.72275 -0.00854678
1445800 60.4159 224.597 55.8132 0.72285 -0.0233525
1446000 60.4159 224.61 55.8132 0.72295 -0.014203
1446200 60.4159 224.623 55.8132 0.72305 -0.0185177
1446400 60.4159 224.636 55.8132 0.72315 -0.00638713
1446600 60.4159 224.649 55.8132 0.72325 0.0287119
1446800 60.4159 224.662 55.8132 0.72335 0.024989
1447000 60.4159 224.675 55.8132 0.72345 0.0387406
1447200 60.4159 224.688 55.8132 0.72355 0.0371946
1447400 60.4159 224.701 55.8132 0.72365 0.0231112
1447600 60.4159 224.714 55.8132 0.72375 0.0340099
1447800 60.4159 224.727 55.8132 0.72385 0.0193631
1448000 60.4159 224.74 55.8132 0.72395 0.0325046
1448200 60.4159 224.753 55.8132 0.72405 0.0154356
1448400 60.4159 224.766 55.8132 0.72415 0.0105474
1448600 60.4159 224.779 55.8132 0.72425 -0.00232354
1448800 60.4159 224.792 55.8132 0.72435 -0.0195947
1449000 60.4159 224.805 55.8132 0.72445 -0.0393676
1449200 60.4159 224.818 55.8132 0.72455 -0.0347898
1449400 60.4159 224.831 55.8132 0.72465 -0.0103443
1449600 60.4159 224.844 55.8132 0.72475 -0.0215561
1449800 60.4159 224.857 55.8132 0.72485 -0.00452848
1450000 60.4159 224.87 55.8132 0.72495 -0.0128202
1450200 60.4159 224.883 55.8132 0.72505 -0.0112853
1450400 60.4159 224.896 55.8132 0.72515 -0.000586971
1450600 60.4159 224.909 55.8132 0.72525 0.0124684
1450800 60.4159 224.923 55.8132 0.72535 0.0360369
1451000 60.4159 224.936 55.8132 0.72545 0.0468221
1451200 60.4159 224.949 55.8132 0.72555 0.0345698
1451400 60.4159 224.962 55.8132 0.72565 0.0325796
1451600 60.4159 224.975 55.8132 0.72575 0.015714
1451800 60.4159 224.988 55.8132 0.72585 0.013249
1452000 60.4159 225.001 55.8132 0.72595 0.0192407
1452200 60.4159 225.014 55.8132 0.72605 0.0191209
1452400 60.4159 225.027 55.8132 0.72615 0.029189
1452600 60.4159 225.04 55.8132 0.72625 -0.0209728
1452800 60.4159 225.053 55.8132 0.72635 -0.0132946
1453000 60.4159 225.066 55.8132 0.72645 -0.0478009
1453200 60.4159 225.079 55.8132 0.72655 -0.0316235
1453400 60.4159 225.092 55.8132 0.72665 -0.0166657
1453600 60.4159 225.105 55.8132 0.72675 -0.00603711
1453800 60.4159 225.118 55.8132 0.72685 -0.00721731
1454000 60.4159 225.131 55.8132 0.72695 -0.00194715
1454200 60.4159 225.144 55.8132 0.72705 -0.00377463
1454400 60.4159 225.157 55.8132 0.72715 0.00710913
1454600 60.4159 225.17 55.8132 0.72725 0.0173773
1454800 60.4159 225.183 55.8132 0.72735 0.0262719
1455000 60.4159 225.196 55.8132 0.72745 0.023935
1455200 60.4159 225.209 55.8132 0.72755 0.0421181
1455400 60.4159 225.222 55.8132 0.72765 0.0441959
1455600 60.4159 225.235 55.8132 0.72775 0.023584
1455800 60.4159 225.248 55.8132 0.72785 0.0104392
1456000 60.4159 225.261 55.8132 0.72795 0.000309848
1456200 60.4159 225.275 55.8132 0.72805 0.0140909
1456400 60.4159 225.288 55.8132 0.72815 -0.00207586
1456600 60.4159 225.301 55.8132 0.72825 -0.00969774
1456800 60.4159 225.314 55.8132 0.72835 -0.00284244
1457000 60.4159 225.327 55.8132 0.72845 -0.0258667
1457200 60.4159 225.34 55.8132 0.72855 -0.0273406
1457400 60.4159 225.353 55.8132 0.72865 -0.0192172
1457600 60.4159 225.366 55.8132 0.72875 -0.0106253
1457800 60.4159 225.379 55.8132 0.72885 -0.0188551
1458000 60.4159 225.392 55.8132 0.72895 0.00561532
1458200 60.4159 225.405 55.8132 0.72905 0.0285604
1458400 60.4159 225.418 55.8132 0.72915 -0.000207763
1458600 60.4159 225.431 55.8132 0.72925 0.0205986
1458800 60.4159 225.444 55.8132 0.72935 0.0100194
1459000 60.4159 225.457 55.8132 0.72945 0.0308188
1459200 60.4159 225.47 55.8132 0.72955 0.035896
1459400 60.4159 225.483 55.8132 0.72965 0.0364733
1459600 60.4159 225.496 55.8132 0.72975 0.0312656
1459800 60.4159 225.509 55.8132 0.72985 0.000784089
1460000 60.4159 225.522 55.8132 0.72995 0.0194646
1460200 60.4159 225.535 55.8132 0.73005 -0.000469359
1460400 60.4159 225.548 55.8132 0.73015 -0.0155104
1460600 60.4159 225.561 55.8132 0.73025 0.000328957
1460800 60.4159 225.574 55.8132 0.73035 -0.0171548
1461000 60.4159 225.587 55.8132 0.73045 -0.0102363
1461200 60.4159 225.6 55.8132 0.73055 -0.0296042
1461400 60.4159 225.613 55.8132 0.73065 -0.0388391
1461600 60.4159 225.626 55.8132 0.73075 -0.0134451
1461800 60.4159 225.64 55.8132 0.73085 -0.0103307
1462000 60.4159 225.653 55.8132 0.73095 0.0155755
1462200 60.4159 225.666 55.8132 0.73105 0.0132402
1462400 60.4159 225.679 55.8132 0.73115 0.0162978
1462600 60.4159 225.692 55.8132 0.73125 0.0219451
1462800 60.4159 225.705 55.8132 0.73135 0.0382392
1463000 60.4159 225.718 55.8132 0.73145 0.0193237
1463200 60.4159 225.731 55.8132 0.73155 0.0357851
1463400 60.4159 225.744 55.8132 0.73165 0.027403
1463600 60.4159 225.757 55.8132 0.73175 0.0276544
1463800 60.4159 225.77 55.8132 0.73185 0.0137536
1464000 60.4159 225.783 55.8132 0.73195 0.010183
1464200 60.4159 225.796 55.8132 0.73205 -0.0155108
1464400 60.4159 225.809 55.8132 0.73215 -0.00326519
1464600 60.4159 225.822 55.8132 0.73225 -0.0171868
1464800 60.4159 225.835 55.8132 0.73235 -0.0032113
1465000 60.4159 225.848 55.8132 0.73245 -0.027071
1465200 60.4159 225.861 55.8132 0.73255 -0.0132949
1465400 60.4159 225.874 55.8132 0.73265 -0.0061793
1465600 60.4159 225.887 55.8132 0.73275 -0.0120336
1465800 60.4159 225.9 55.8132 0.73285 -0.000328352
1466000 60.4159 225.913 55.8132 0.73295 -0.0213929
1466200 60.4159 225.926 55.8132 0.73305 0.0122853
1466400 60.4159 225.939 55.8132 0.73315 0.0131924
1466600 60.4159 225.952 55.8132 0.73325 0.0126251
1466800 60.4159 225.965 55.8132 0.73335 0.0185513
1467000 60.4159 225.978 55.8132 0.73345 0.0450925
1467200 60.4159 225.992 55.8132 0.73355 0.0170598
1467400 60.4159 226.005 55.8132 0.73365 0.0178519
1467600 60.4159 226.018 55.8132 0.73375 0.0309317
1467800 60.4159 226.031 55.8132 0.73385 0.0362544
1468000 60.4159 226.044 55.8132 0.73395 -0.000238669
1468200 60.4159 226.057 55.8132 0.73405 0.00904097
1468400 60.4159 226.07 55.8132 0.73415 0.00191617
1468600 60.4159 226.083 55.8132 0.73425 -0.00387681
1468800 60.4159 226.096 55.8132 0.73435 -0.0214082
1469000 60.4159 226.109 55.8132 0.73445 -0.0126291
1469200 60.4159 226.122 55.8132 0.73455 -0.0298878
1469400 60.4159 226.135 55.8132 0.73465 -0.0177745
1469600 60.4159 226.148 55.8132 0.73475 -0.0132501
1469800 60.4159 226.161 55.8132 0.73485 -0.01033
1470000 60.4159 226.174 55.8132 0.73495 0.010881
1470200 60.4159 226.187 55.8132 0.73505 -0.00368388
1470400 60.4159 226.2 55.8132 0.73515 0.013714
1470600 60.4159 226.213 55.8132 0.73525 0.022612
1470800 60.4159 226.226 55.8132 0.73535 0.0185621
1471000 60.4159 226.239 55.8132 0.73545 0.0279544
1471200 60.4159 226.252 55.8132 0.73555 0.0360406
1471400 60.4159 226.265 55.8132 0.73565 0.0262546
1471600 60.4159 226.278 55.8132 0.73575 0.0253787
1471800 60.4159 226.291 55.8132 0.73585 0.0133072
1472000 60.4159 226.304 55.8132 0.73595 0.00101559
1472200 60.4159 226.317 55.8132 0.73605 0.0090289
1472400 60.4159 226.33 55.8132 0.73615 0.00972789
1472600 60.4159 226.343 55.8132 0.73625 0.00454622
1472800 60.4159 226.357 55.8132 0.73635 -0.0280874
1473000 60.4159 226.37 55.8132 0.73645 -0.0244303
1473200 60.4159 226.383 55.8132 0.73655 -0.0155682
1473400 60.4159 226.396 55.8132 0.73665 -0.0404913
1473600 60.4159 226.409 55.8132 0.73675 -0.0136453
1473800 60.4159 226.422 55.8132 0.73685 -0.00414462
1474000 60.4159 226.435 55.8132 0.73695 0.0111854
1474200 60.4159 226.448 55.8132 0.73705 0.00729844
1474400 60.4159 226.461 55.8132 0.73715 0.00123307
1474600 60.4159 226.474 55.8132 0.73725 0.0255055
1474800 60.4159 226.487 55.8132 0.73735 0.0194109
1475000 60.4159 226.5 55.8132 0.73745 0.0378116
1475200 60.4159 226.513 55.8132 0.73755 0.0349001
1475400 60.4159 226.526 55.8132 0.73765 0.0365168
1475600 60.4159 226.539 55.8132 0.73775 0.0316486
1475800 60.4159 226.552 55.8132 0.73785 0.0186272
1476000 60.4159 226.565 55.8132 0.73795 -0.00038961
1476200 60.4159 226.578 55.8132 0.73805 0.000357648
1476400 60.4159 226.591 55.8132 0.73815 0.00847371
1476600 60.4159 226.604 55.8132 0.73825 -0.00797714
1476800 60.4159 226.617 55.8132 0.73835 -0.0142661
1477000 60.4159 226.63 55.8132 0.73845 -0.0220061
1477200 60.4159 226.643 55.8132 0.73855 -0.0446299
1477400 60.4159 226.656 55.8132 0.73865 -0.00888755
1477600 60.4159 226.669 55.8132 0.73875 -0.0204574
1477800 60.4159 226.682 55.8132 0.73885 -0.00422782
1478000 60.4159 226.695 55.8132 0.73895 -0.00258831
1478200 60.4159 226.709 55.8132 0.73905 0.0301935
1478400 60.4159 226.722 55.8132 0.73915 0.00606572
1478600 60.4159 226.735 55.8132 0.73925 0.00710441
1478800 60.4159 226.748 55.8132 0.73935 0.0183659
1479000 60.4159 226.761 55.8132 0.73945 0.0300586
1479200 60.4159 226.774 55.8132 0.73955 0.036631
1479400 60.4159 226.787 55.8132 0.73965 0.0332626
1479600 60.4159 226.8 55.8132 0.73975 0.0409836
1479800 60.4159 226.813 55.8132 0.73985 0.0056089
1480000 60.4159 226.826 55.8132 0.73995 0.00817645
1480200 60.4159 226.839 55.8132 0.74005 -0.0110634
1480400 60.4159 226.852 55.8132 0.74015 -0.0027703
1480600 60.4159 226.865 55.8132 0.74025 0.00323517
1480800 60.4159 226.878 55.8132 0.74035 -0.0145332
1481000 60.4159 226.891 55.8132 0.74045 -0.00840875
1481200 60.4159 226.904 55.8132 0.74055 -0.0303751
1481400 60.4159 226.917 55.8132 0.74065 -0.0228408
1481600 60.4159 226.93 55.8132 0.74075 -0.0142714
1481800 60.4159 226.943 55.8132 0.74085 -0.0167474
1482000 60.4159 226.956 55.8132 0.74095 -0.00280749
1482200 60.4159 226.969 55.8132 0.74105 -4.46038e-05
1482400 60.4159 226.982 55.8132 0.74115 0.0351305
1482600 60.4159 226.995 55.8132 0.74125 0.0220738
1482800 60.4159 227.008 55.8132 0.74135 0.0193924
1483000 60.4159 227.021 55.8132 0.74145 0.0405993
1483200 60.4159 227.034 55.8132 0.74155 0.0223388
1483400 60.4159 227.047 55.8132 0.74165 0.0398547
1483600 60.4159 227.06 55.8132 0.74175 0.0482183
1483800 60.4159 227.074 55.8132 0.74185 0.015392
1484000 60.4159 227.087 55.8132 0.74195 0.00179533
1484200 60.4159 227.1 55.8132 0.74205 -0.00317007
1484400 60.4159 227.113 55.8132 0.74215 0.00348769
1484600 60.4159 227.126 55.8132 0.74225 -0.0282622
1484800 60.4159 227.139 55.8132 0.74235 -0.0312943
1485000 60.4159 227.152 55.8132 0.74245 -0.0179918
1485200 60.4159 227.165 55.8132 0.74255 -0.020815
1485400 60.4159 227.178 55.8132 0.74265 -0.0206129
1485600 60.4159 227.191 55.8132 0.74275 -0.0224045
1485800 60.4159 227.204 55.8132 0.74285 -0.00262412
1486000 60.4159 227.217 55.8132 0.74295 -0.0169434
1486200 60.4159 227.23 55.8132 0.74305 0.0208544
1486400 60.4159 227.243 55.8132 0.74315 0.0305202
1486600 60.4159 227.256 55.8132 0.74325 0.0253644
1486800 60.4159 227.269 55.8132 0.74335 0.0501742
1487000 60.4159 227.282 55.8132 0.74345 0.0159417
1487200 60.4159 227.295 55.8132 0.74355 0.0328303
1487400 60.4159 227.308 55.8132 0.74365 0.0336933
1487600 60.4159 227.321 55.8132 0.74375 0.0355693
1487800 60.4159 227.334 55.8132 0.74385 0.0298633
1488000 60.4159 227.347 55.8132 0.74395 0.00516296
1488200 60.4159 227.36 55.8132 0.74405 -0.00710884
1488400 60.4159 227.373 55.8132 0.74415 -0.0148345
1488600 60.4159 227.386 55.8132 0.74425 -0.0244981
1488800 60.4159 227.399 55.8132 0.74435 -0.0337355
1489000 60.4159 227.412 55.8132 0.74445 -0.0171657
1489200 60.4159 227.426 55.8132 0.74455 -0.028289
1489400 60.4159 227.439 55.8132 0.74465 -0.0148008
1489600 60.4159 227.452 55.8132 0.74475 -0.0250143
1489800 60.4159 227.465 55.8132 0.74485 -0.010255
1490000 60.4159 227.478 55.8132 0.74495 0.000674407
1490200 60.4159 227.491 55.8132 0.74505 0.0140818
1490400 60.4159 227.504 55.8132 0.74515 0.0285272
1490600 60.4159 227.517 55.8132 0.74525 0.0472543
1490800 60.4159 227.53 55.8132 0.74535 0.0301436
1491000 60.4159 227.543 55.8132 0.74545 0.0508819
1491200 60.4159 227.556 55.8132 0.74555 0.0155855
1491400 60.4159 227.569 55.8132 0.74565 0.0364157
1491600 60.4159 227.582 55.8132 0.74575 0.0215758
1491800 60.4159 227.595 55.8132 0.74585 0.0282984
1492000 60.4159 227.608 55.8132 0.74595 0.0138722
1492200 60.4159 227.621 55.8132 0.74605 -0.0112971
1492400 60.4159 227.634 55.8132 0.74615 -0.0189751
1492600 60.4159 227.647 55.8132 0.74625 -0.0243703
1492800 60.4159 227.66 55.8132 0.74635 -0.0319208
1493000 60.4159 227.673 55.8132 0.74645 -0.0332885
1493200 60.4159 227.686 55.8132 0.74655 -0.00824527
1493400 60.4159 227.699 55.8132 0.74665 -0.0176742
1493600 60.4159 227.712 55.8132 0.74675 -0.018517
1493800 60.4159 227.725 55.8132 0.74685 -0.0139515
1494000 60.4159 227.738 55.8132 0.74695 0.001716
1494200 60.4159 227.751 55.8132 0.74705 0.0144562
1494400 60.4159 227.764 55.8132 0.74715 0.0222792
1494600 60.4159 227.777 55.8132 0.74725 0.0493579
1494800 60.4159 227.791 55.8132 0.74735 0.0227039
1495000 60.4159 227.804 55.8132 0.74745 0.0504468
1495200 60.4159 227.817 55.8132 0.74755 0.0432179
1495400 60.4159 227.83 55.8132 0.74765 0.0184234
1495600 60.4159 227.843 55.8132 0.74775 0.0261806
1495800 60.4159 227.856 55.8132 0.74785 0.0192359
1496000 60.4159 227.869 55.8132 0.74795 0.0187578
1496200 60.4159 227.882 55.8132 0.74805 -0.0168164
1496400 60.4159 227.895 55.8132 0.74815 -0.00505712
1496600 60.4159 227.908 55.8132 0.74825 -0.018962
1496800 60.4159 227.921 55.8132 0.74835 -0.0552959
1497000 60.4159 227.934 55.8132 0.74845 -0.0329701
1497200 60.4159 227.947 55.8132 0.74855 -0.0169465
1497400 60.4159 227.96 55.8132 0.74865 -0.00708379
1497600 60.4159 227.973 55.8132 0.74875 -0.0286124
1497800 60.4159 227.986 55.8132 0.74885 0.00579658
1498000 60.4159 227.999 55.8132 0.74895 0.0143894
1498200 60.4159 228.012 55.8132 0.74905 0.0106536
1498400 60.4159 228.025 55.8132 0.74915 0.0158885
1498600 60.4159 228.038 55.8132 0.74925 0.0332696
1498800 60.4159 228.051 55.8132 0.74935 0.0534208
1499000 60.4159 228.064 55.8132 0.74945 0.0490206
1499200 60.4159 228.077 55.8132 0.74955 0.0262381
1499400 60.4159 228.09 55.8132 0.74965 0.0255603
1499600 60.4159 228.103 55.8132 0.74975 0.0180072
1499800 60.4159 228.116 55.8132 0.74985 0.0148039
1500000 60.4159 228.129 55.8132 0.74995 -0.00604774
1500200 60.4159 228.143 55.8132 0.75005 -0.0150306
1500400 60.4159 228.156 55.8132 0.75015 -0.0104928
1500600 60.4159 228.169 55.8132 0.75025 -0.0118335
1500800 60.4159 228.182 55.8132 0.75035 -0.0303979
1501000 60.4159 228.195 55.8132 0.75045 -0.0269289
1501200 60.4159 228.208 55.8132 0.75055 -0.0311336
1501400 60.4159 228.221 55.8132 0.75065 -0.0176591
1501600 60.4159 228.234 55.8132 0.75075 -0.0117572
1501800 60.4159 228.247 55.8132 0.75085 0.00574669
1502000 60.4159 228.26 55.8132 0.75095 0.0147927
1502200 60.4159 228.273 55.8132 0.75105 0.0289677
1502400 60.4159 228.286 55.8132 0.75115 0.0203806
1502600 60.4159 228.299 55.8132 0.75125 0.0246436
1502800 60.4159 228.312 55.8132 0.75135 0.0440625
1503000 60.4159 228.325 55.8132 0.75145 0.0271127
1503200 60.4159 228.338 55.8132 0.75155 0.0473407
1503400 60.4159 228.351 55.8132 0.75165 0.0283293
1503600 60.4159 228.364 55.8132 0.75175 0.0301059
1503800 60.4159 228.377 55.8132 0.75185 -0.00483528
1504000 60.4159 228.39 55.8132 0.75195 0.00242698
1504200 60.4159 228.403 55.8132 0.75205 -0.0234416
1504400 60.4159 228.416 55.8132 0.75215 -0.0114219
1504600 60.4159 228.429 55.8132 0.75225 -0.0253969
1504800 60.4159 228.442 55.8132 0.75235 -0.0193459
1505000 60.4159 228.455 55.8132 0.75245 -0.0404205
1505200 60.4159 228.468 55.8132 0.75255 -0.0187741
1505400 60.4159 228.481 55.8132 0.75265 -0.0188457
1505600 60.4159 228.494 55.8132 0.75275 -0.00081217
1505800 60.4159 228.508 55.8132 0.75285 -0.00217799
1506000 60.4159 228.521 55.8132 0.75295 0.00991008
1506200 60.4159 228.534 55.8132 0.75305 0.0468588
1506400 60.4159 228.547 55.8132 0.75315 0.0282394
1506600 60.4159 228.56 55.8132 0.75325 0.0260534
1506800 60.4159 228.573 55.8132 0.75335 0.0397807
1507000 60.4159 228.586 55.8132 0.75345 0.0299661
1507200 60.4159 228.599 55.8132 0.75355 0.0268831
1507400 60.4159 228.612 55.8132 0.75365 0.0260794
1507600 60.4159 228.625 55.8132 0.75375 0.021784
1507800 60.4159 228.638 55.8132 0.75385 0.00781847
1508000 60.4159 228.651 55.8132 0.75395 -0.00657132
1508200 60.4159 228.664 55.8132 0.75405 -0.0118777
1508400 60.4159 228.677 55.8132 0.75415 -0.037491
1508600 60.4159 228.69 55.8132 0.75425 -0.0273251
1508800 60.4159 228.703 55.8132 0.75435 -0.0298094
1509000 60.4159 228.716 55.8132 0.75445 -0.0155788
1509200 60.4159 228.729 55.8132 0.75455 -0.008267
1509400 60.4159 228.742 55.8132 0.75465 -0.0139148
1509600 60.4159 228.755 55.8132 0.75475 -0.00301313
1509800 60.4159 228.768 55.8132 0.75485 -0.00605502
1510000 60.4159 228.781 55.8132 0.75495 0.0226203
1510200 60.4159 228.794 55.8132 0.75505 0.0462504
1510400 60.4159 228.807 55.8132 0.75515 0.0288597
1510600 60.4159 228.82 55.8132 0.75525 0.0538998
1510800 60.4159 228.833 55.8132 0.75535 0.0337872
1511000 60.4159 228.846 55.8132 0.75545 0.0210856
1511200 60.4159 228.859 55.8132 0.75555 0.00429235
1511400 60.4159 228.873 55.8132 0.75565 0.0161073
1511600 60.4159 228.886 55.8132 0.75575 0.0212729
1511800 60.4159 228.899 55.8132 0.75585 0.0147317
1512000 60.4159 228.912 55.8132 0.75595 -0.0135646
1512200 60.4159 228.925 55.8132 0.75605 -0.0257237
1512400 60.4159 228.938 55.8132 0.75615 -0.00951307
1512600 60.4159 228.951 55.8132 0.75625 -0.0480914
1512800 60.4159 228.964 55.8132 0.75635 -0.0171509
1513000 60.4159 228.977 55.8132 0.75645 0.0015035
1513200 60.4159 228.99 55.8132 0.75655 -0.0111969
1513400 60.4159 229.003 55.8132 0.75665 -0.0100514
1513600 60.4159 229.016 55.8132 0.75675 0.00354006
1513800 60.4159 229.029 55.8132 0.75685 -0.000827579
1514000 60.4159 229.042 55.8132 0.75695 0.00660427
1514200 60.4159 229.055 55.8132 0.75705 0.0378704
1514400 60.4159 229.068 55.8132 0.75715 0.0276406
1514600 60.4159 229.081 55.8132 0.75725 0.0450935
1514800 60.4159 229.094 55.8132 0.75735 0.0361249
1515000 60.4159 229.107 55.8132 0.75745 0.027619
1515200 60.4159 229.12 55.8132 0.75755 0.0154104
1515400 60.4159 229.133 55.8132 0.75765 0.00243513
1515600 60.4159 229.146 55.8132 0.75775 0.00801147
1515800 60.4159 229.159 55.8132 0.75785 -0.00204427
1516000 60.4159 229.172 55.8132 0.75795 0.00561292
1516200 60.4159 229.185 55.8132 0.75805 -0.0107728
1516400 60.4159 229.198 55.8132 0.75815 -0.00733422
1516600 60.4159 229.211 55.8132 0.75825 -0.0315368
1516800 60.4159 229.225 55.8132 0.75835 -0.0358032
1517000 60.4159 229.238 55.8132 0.75845 -0.00458892
1517200 60.4159 229.251 55.8132 0.75855 -0.0140391
1517400 60.4159 229.264 55.8132 0.75865 0.0190506
1517600 60.4159 229.277 55.8132 0.75875 -0.0142601
1517800 60.4159 229.29 55.8132 0.75885 0.00880122
1518000 60.4159 229.303 55.8132 0.75895 0.00424521
1518200 60.4159 229.316 55.8132 0.75905 0.009101
1518400 60.4159 229.329 55.8132 0.75915 0.0505692
1518600 60.4159 229.342 55.8132 0.75925 0.029738
1518800 60.4159 229.355 55.8132 0.75935 0.0403302
1519000 60.4159 229.368 55.8132 0.75945 0.0209812
1519200 60.4159 229.381 55.8132 0.75955 0.0255272
1519400 60.4159 229.394 55.8132 0.75965 0.00872329
1519600 60.4159 229.407 55.8132 0.75975 0.0120573
1519800 60.4159 229.42 55.8132 0.75985 0.00804087
1520000 60.4159 229.433 55.8132 0.75995 -0.00778843
1520200 60.4159 229.446 55.8132 0.76005 -0.0201106
1520400 60.4159 229.459 55.8132 0.76015 -0.0260468
1520600 60.4159 229.472 55.8132 0.76025 -0.0227693
1520800 60.4159 229.485 55.8132 0.76035 -0.0185996
1521000 60.4159 229.498 55.8132 0.76045 -0.0229853
1521200 60.4159 229.511 55.8132 0.76055 0.00290312
1521400 60.4159 229.524 55.8132 0.76065 -0.0200896
1521600 60.4159 229.537 55.8132 0.76075 0.0149425
1521800 60.4159 229.55 55.8132 0.76085 0.00726944
1522000 60.4159 229.563 55.8132 0.76095 0.0202034
1522200 60.4159 229.576 55.8132 0.76105 0.0235952
1522400 60.4159 229.59 55.8132 0.76115 0.033873
1522600 60.4159 229.603 55.8132 0.76125 0.0382671
1522800 60.4159 229.616 55.8132 0.76135 0.0164845
1523000 60.4159 229.629 55.8132 0.76145 0.0300613
1523200 60.4159 229.642 55.8132 0.76155 0.0331104
1523400 60.4159 229.655 55.8132 0.76165 0.0109695
1523600 60.4159 229.668 55.8132 0.76175 0.0116979
1523800 60.4159 229.681 55.8132 0.76185 -0.00917816
1524000 60.4159 229.694 55.8132 0.76195 -0.00617999
1524200 60.4159 229.707 55.8132 0.76205 -0.00809655
1524400 60.4159 229.72 55.8132 0.76215 -0.006066
1524600 60.4159 229.733 55.8132 0.76225 -0.0284016
1524800 60.4159 229.746 55.8132 0.76235 -0.0228014
1525000 60.4159 229.759 55.8132 0.76245 -0.0182656
1525200 60.4159 229.772 55.8132 0.76255 -0.0154969
1525400 60.4159 229.785 55.8132 0.76265 -0.0116727
1525600 60.4159 229.798 55.8132 0.76275 -0.0113595
1525800 60.4159 229.811 55.8132 0.76285 0.0248468
1526000 60.4159 229.824 55.8132 0.76295 0.0065391
1526200 60.4159 229.837 55.8132 0.76305 0.0390497
1526400 60.4159 229.85 55.8132 0.76315 0.0268935
1526600 60.4159 229.863 55.8132 0.76325 0.0341617
1526800 60.4159 229.876 55.8132 0.76335 0.0408942
1527000 60.4159 229.889 55.8132 0.76345 0.0317368
1527200 60.4159 229.902 55.8132 0.76355 0.0122328
1527400 60.4159 229.915 55.8132 0.76365 0.0192516
1527600 60.4159 229.928 55.8132 0.76375 0.00207283
1527800 60.4159 229.942 55.8132 0.76385 -0.00496656
1528000 60.4159 229.955 55.8132 0.76395 -0.00745617
1528200 60.4159 229.968 55.8132 0.76405 -0.0241637
1528400 60.4159 229.981 55.8132 0.76415 -0.0115651
1528600 60.4159 229.994 55.8132 0.76425 -0.0287324
1528800 60.4159 230.007 55.8132 0.76435 -0.0133712
1529000 60.4159 230.02 55.8132 0.76445 -0.00864224
1529200 60.4159 230.033 55.8132 0.76455 -0.0222496
1529400 60.4159 230.046 55.8132 0.76465 0.00595904
1529600 60.4159 230.059 55.8132 0.76475 0.00884405
1529800 60.4159 230.072 55.8132 0.76485 0.0108356
1530000 60.4159 230.085 55.8132 0.76495 0.0268904
1530200 60.4159 230.098 55.8132 0.76505 0.0220213
1530400 60.4159 230.111 55.8132 0.76515 0.013055
1530600 60.4159 230.124 55.8132 0.76525 0.0346775
1530800 60.4159 230.137 55.8132 0.76535 0.0356636
1531000 60.4159 230.15 55.8132 0.76545 0.0265771
1531200 60.4159 230.163 55.8132 0.76555 0.023902
1531400 60.4159 230.176 55.8132 0.76565 0.029033
1531600 60.4159 230.189 55.8132 0.76575 -0.0144113
1531800 60.4159 230.202 55.8132 0.76585 -0.0135315
1532000 60.4159 230.215 55.8132 0.76595 -0.0102131
1532200 60.4159 230.228 55.8132 0.76605 -0.018569
1532400 60.4159 230.241 55.8132 0.76615 -0.0115082
1532600 60.4159 230.254 55.8132 0.76625 -0.0220583
1532800 60.4159 230.267 55.8132 0.76635 -0.0225376
1533000 60.4159 230.28 55.8132 0.76645 -0.00909508
1533200 60.4159 230.293 55.8132 0.76655 -0.0297647
1533400 60.4159 230.307 55.8132 0.76665 0.0101993
1533600 60.4159 230.32 55.8132 0.76675 0.00813875
1533800 60.4159 230.333 55.8132 0.76685 0.0204239
1534000 60.4159 230.346 55.8132 0.76695 0.0281378
1534200 60.4159 230.359 55.8132 0.76705 0.0417282
1534400 60.4159 230.372 55.8132 0.76715 0.0345817
1534600 60.4159 230.385 55.8132 0.76725 0.0156519
1534800 60.4159 230.398 55.8132 0.76735 0.0306126
1535000 60.4159 230.411 55.8132 0.76745 0.0353314
1535200 60.4159 230.424 55.8132 0.76755 0.0195213
1535400 60.4159 230.437 55.8132 0.76765 0.0278614
1535600 60.4159 230.45 55.8132 0.76775 -0.0187459
1535800 60.4159 230.463 55.8132 0.76785 -0.0129
1536000 60.4159 230.476 55.8132 0.76795 -0.0436288
1536200 60.4159 230.489 55.8132 0.76805 -0.0274662
1536400 60.4159 230.502 55.8132 0.76815 -0.0187053
1536600 60.4159 230.515 55.8132 0.76825 -0.017819
1536800 60.4159 230.528 55.8132 0.76835 -0.00858437
1537000 60.4159 230.541 55.8132 0.76845 -0.000380288
1537200 60.4159 230.554 55.8132 0.76855 -0.0201295
1537400 60.4159 230.567 55.8132 0.76865 -0.0155385
1537600 60.4159 230.58 55.8132 0.76875 0.0344259
1537800 60.4159 230.593 55.8132 0.76885 0.0264714
1538000 60.4159 230.606 55.8132 0.76895 0.0341467
1538200 60.4159 230.619 55.8132 0.76905 0.0558554
1538400 60.4159 230.632 55.8132 0.76915 0.0329452
1538600 60.4159 230.645 55.8132 0.76925 0.0275742
1538800 60.4159 230.659 55.8132 0.76935 0.0323622
1539000 60.4159 230.672 55.8132 0.76945 0.00181755
1539200 60.4159 230.685 55.8132 0.76955 0.0219876
1539400 60.4159 230.698 55.8132 0.76965 -0.00134097
1539600 60.4159 230.711 55.8132 0.76975 -0.00877458
1539800 60.4159 230.724 55.8132 0.76985 -0.0196055
1540000 60.4159 230.737 55.8132 0.76995 -0.0364989
1540200 60.4159 230.75 55.8132 0.77005 -0.0312012
1540400 60.4159 230.763 55.8132 0.77015 -0.0176727
1540600 60.4159 230.776 55.8132 0.77025 -0.0372901
1540800 60.4159 230.789 55.8132 0.77035 0.00340285
1541000 60.4159 230.802 55.8132 0.77045 -0.0104523
1541200 60.4159 230.815 55.8132 0.77055 0.0174177
1541400 60.4159 230.828 55.8132 0.77065 0.0113446
1541600 60.4159 230.841 55.8132 0.77075 0.0210645
1541800 60.4159 230.854 55.8132 0.77085 0.0190474
1542000 60.4159 230.867 55.8132 0.77095 0.0567558
1542200 60.4159 230.88 55.8132 0.77105 0.0478959
1542400 60.4159 230.893 55.8132 0.77115 0.017486
1542600 60.4159 230.906 55.8132 0.77125 0.0246869
1542800 60.4159 230.919 55.8132 0.77135 0.0266273
1543000 60.4159 230.932 55.8132 0.77145 0.00795758
1543200 60.4159 230.945 55.8132 0.77155 -0.00603395
1543400 60.4159 230.958 55.8132 0.77165 -0.000998614
1543600 60.4159 230.971 55.8132 0.77175 -0.0228433
1543800 60.4159 230.984 55.8132 0.77185 -0.00441695
1544000 60.4159 230.997 55.8132 0.77195 -0.0445263
1544200 60.4159 231.01 55.8132 0.77205 -0.0396799
1544400 60.4159 231.024 55.8132 0.77215 -0.010332
1544600 60.4159 231.037 55.8132 0.77225 -0.00782475
1544800 60.4159 231.05 55.8132 0.77235 -0.0174779
1545000 60.4159 231.063 55.8132 0.77245 0.0159554
1545200 60.4159 231.076 55.8132 0.77255 0.0198043
1545400 60.4159 231.089 55.8132 0.77265 0.00496017
1545600 60.4159 231.102 55.8132 0.77275 0.043328
1545800 60.4159 231.115 55.8132 0.77285 0.0250332
1546000 60.4159 231.128 55.8132 0.77295 0.0484055
1546200 60.4159 231.141 55.8132 0.77305 0.030304
1546400 60.4159 231.154 55.8132 0.77315 0.0416486
1546600 60.4159 231.167 55.8132 0.77325 0.015096
1546800 60.4159 231.18 55.8132 0.77335 0.0104582
1547000 60.4159 231.193 55.8132 0.77345 0.000145758
1547200 60.4159 231.206 55.8132 0.77355 -0.0254843
1547400 60.4159 231.219 55.8132 0.77365 -0.00402457
1547600 60.4159 231.232 55.8132 0.77375 -0.0181141
1547800 60.4159 231.245 55.8132 0.77385 -0.0297105
1548000 60.4159 231.258 55.8132 0.77395 -0.0280335
1548200 60.4159 231.271 55.8132 0.77405 -0.0166306
1548400 60.4159 231.284 55.8132 0.77415 -0.0280888
1548600 60.4159 231.297 55.8132 0.77425 -0.00270457
1548800 60.4159 231.31 55.8132 0.77435 0.00418205
1549000 60.4159 231.323 55.8132 0.77445 0.0166894
1549200 60.4159 231.336 55.8132 0.77455 0.0166981
1549400 60.4159 231.349 55.8132 0.77465 0.0124888
1549600 60.4159 231.362 55.8132 0.77475 0.0434833
1549800 60.4159 231.376 55.8132 0.77485 0.0328917
1550000 60.4159 231.389 55.8132 0.77495 0.0399984
1550200 60.4159 231.402 55.8132 0.77505 0.037293
1550400 60.4159 231.415 55.8132 0.77515 0.0201533
1550600 60.4159 231.428 55.8132 0.77525 0.0113449
1550800 60.4159 231.441 55.8132 0.77535 0.00569758
1551000 60.4159 231.454 55.8132 0.77545 -0.00080892
1551200 60.4159 231.467 55.8132 0.77555 -0.00538125
1551400 60.4159 231.48 55.8132 0.77565 -0.0212391
1551600 60.4159 231.493 55.8132 0.77575 -0.0134886
1551800 60.4159 231.506 55.8132 0.77585 -0.0301855
1552000 60.4159 231.519 55.8132 0.77595 -0.0305198
1552200 60.4159 231.532 55.8132 0.77605 0.0029809
1552400 60.4159 231.545 55.8132 0.77615 -0.0154168
1552600 60.4159 231.558 55.8132 0.77625 -0.0208692
1552800 60.4159 231.571 55.8132 0.77635 0.00475162
1553000 60.4159 231.584 55.8132 0.77645 0.0209963
1553200 60.4159 231.597 55.8132 0.77655 0.0215821
1553400 60.4159 231.61 55.8132 0.77665 0.0110152
1553600 60.4159 231.623 55.8132 0.77675 0.0277606
1553800 60.4159 231.636 55.8132 0.77685 0.0359065
1554000 60.4159 231.649 55.8132 0.77695 0.0456136
1554200 60.4159 231.662 55.8132 0.77705 0.0145857
1554400 60.4159 231.675 55.8132 0.77715 0.0272742
1554600 60.4159 231.688 55.8132 0.77725 0.0361464
1554800 60.4159 231.701 55.8132 0.77735 -0.0064648
1555000 60.4159 231.714 55.8132 0.77745 0.00188707
1555200 60.4159 231.727 55.8132 0.77755 -0.0153415
1555400 60.4159 231.741 55.8132 0.77765 -0.0104602
1555600 60.4159 231.754 55.8132 0.77775 -0.0223524
1555800 60.4159 231.767 55.8132 0.77785 -0.0264981
1556000 60.4159 231.78 55.8132 0.77795 -0.0338322
1556200 60.4159 231.793 55.8132 0.77805 -0.0184362
1556400 60.4159 231.806 55.8132 0.77815 0.00240312
1556600 60.4159 231.819 55.8132 0.77825 -0.000197923
1556800 60.4159 231.832 55.8132 0.77835 -0.0188818
1557000 60.4159 231.845 55.8132 0.77845 0.0185463
1557200 60.4159 231.858 55.8132 0.77855 0.0224126
1557400 60.4159 231.871 55.8132 0.77865 0.0162256
1557600 60.4159 231.884 55.8132 0.77875 0.0403304
1557800 60.4159 231.897 55.8132 0.77885 0.0449527
1558000 60.4159 231.91 55.8132 0.77895 0.0274549
1558200 60.4159 231.923 55.8132 0.77905 0.0196602
1558400 60.4159 231.936 55.8132 0.77915 0.0281904
1558600 60.4159 231.949 55.8132 0.77925 0.0154119
1558800 60.4159 231.962 55.8132 0.77935 0.0129742
1559000 60.4159 231.975 55.8132 0.77945 -0.00472091
1559200 60.4159 231.988 55.8132 0.77955 -0.00606705
1559400 60.4159 232.001 55.8132 0.77965 -0.0217457
1559600 60.4159 232.014 55.8132 0.77975 -0.0201153
1559800 60.4159 232.027 55.8132 0.77985 -0.0251762
1560000 60.4159 232.04 55.8132 0.77995 -0.017731
1560200 60.4159 232.053 55.8132 0.78005 -0.0237459
1560400 60.4159 232.066 55.8132 0.78015 -0.00395603
1560600 60.4159 232.079 55.8132 0.78025 -0.0195068
1560800 60.4159 232.093 55.8132 0.78035 0.00917137
1561000 60.4159 232.106 55.8132 0.78045 0.0158323
1561200 60.4159 232.119 55.8132 0.78055 0.0179945
1561400 60.4159 232.132 55.8132 0.78065 0.0451777
1561600 60.4159 232.145 55.8132 0.78075 0.0120665
1561800 60.4159 232.158 55.8132 0.78085 0.0323593
1562000 60.4159 232.171 55.8132 0.78095 0.0325794
1562200 60.4159 232.184 55.8132 0.78105 0.0220239
1562400 60.4159 232.197 55.8132 0.78115 0.0184383
1562600 60.4159 232.21 55.8132 0.78125 0.0263405
1562800 60.4159 232.223 55.8132 0.78135 -0.00558296
1563000 60.4159 232.236 55.8132 0.78145 0.00461508
1563200 60.4159 232.249 55.8132 0.78155 -0.00768202
1563400 60.4159 232.262 55.8132 0.78165 -0.0199205
1563600 60.4159 232.275 55.8132 0.78175 -0.0249443
1563800 60.4159 232.288 55.8132 0.78185 -0.0155268
1564000 60.4159 232.301 55.8132 0.78195 -0.0345235
1564200 60.4159 232.314 55.8132 0.78205 -0.000378245
1564400 60.4159 232.327 55.8132 0.78215 -0.0054614
1564600 60.4159 232.34 55.8132 0.78225 0.00199673
1564800 60.4159 232.353 55.8132 0.78235 -0.0177849
1565000 60.4159 232.366 55.8132 0.78245 0.0216655
1565200 60.4159 232.379 55.8132 0.78255 0.0201415
1565400 60.4159 232.392 55.8132 0.78265 0.0370558
1565600 60.4159 232.405 55.8132 0.78275 0.0262057
1565800 60.4159 232.418 55.8132 0.78285 0.0331038
1566000 60.4159 232.431 55.8132 0.78295 0.0250542
1566200 60.4159 232.444 55.8132 0.78305 0.0141772
1566400 60.4159 232.458 55.8132 0.78315 0.032735
1566600 60.4159 232.471 55.8132 0.78325 0.0107493
1566800 60.4159 232.484 55.8132 0.78335 -0.00371647
1567000 60.4159 232.497 55.8132 0.78345 0.00245298
1567200 60.4159 232.51 55.8132 0.78355 -0.0228948
1567400 60.4159 232.523 55.8132 0.78365 -0.0127389
1567600 60.4159 232.536 55.8132 0.78375 -0.025752
1567800 60.4159 232.549 55.8132 0.78385 -0.0356091
1568000 60.4159 232.562 55.8132 0.78395 -0.0101591
1568200 60.4159 232.575 55.8132 0.78405 -0.00334351
1568400 60.4159 232.588 55.8132 0.78415 -0.00316668
1568600 60.4159 232.601 55.8132 0.78425 -0.00308384
1568800 60.4159 232.614 55.8132 0.78435 0.0109009
1569000 60.4159 232.627 55.8132 0.78445 0.00805614
1569200 60.4159 232.64 55.8132 0.78455 0.017736
1569400 60.4159 232.653 55.8132 0.78465 0.0413567
1569600 60.4159 232.666 55.8132 0.78475 0.0375258
1569800 60.4159 232.679 55.8132 0.78485 0.0337856
1570000 60.4159 232.692 55.8132 0.78495 0.0129924
1570200 60.4159 232.705 55.8132 0.78505 0.0223411
1570400 60.4159 232.718 55.8132 0.78515 0.00951347
1570600 60.4159 232.731 55.8132 0.78525 0.0110231
1570800 60.4159 232.744 55.8132 0.78535 -0.000648789
1571000 60.4159 232.757 55.8132 0.78545 0.0131805
1571200 60.4159 232.77 55.8132 0.78555 -0.00428677
1571400 60.4159 232.783 55.8132 0.78565 -0.0294586
1571600 60.4159 232.796 55.8132 0.78575 -0.0313898
1571800 60.4159 232.81 55.8132 0.78585 -0.0154489
1572000 60.4159 232.823 55.8132 0.78595 -0.0229862
1572200 60.4159 232.836 55.8132 0.78605 -0.008675
1572400 60.4159 232.849 55.8132 0.78615 -0.0121654
1572600 60.4159 232.862 55.8132 0.78625 -0.000363187
1572800 60.4159 232.875 55.8132 0.78635 0.0231108
1573000 60.4159 232.888 55.8132 0.78645 0.012713
1573200 60.4159 232.901 55.8132 0.78655 0.011729
1573400 60.4159 232.914 55.8132 0.78665 0.024109
1573600 60.4159 232.927 55.8132 0.78675 0.0342348
1573800 60.4159 232.94 55.8132 0.78685 0.0258372
1574000 60.4159 232.953 55.8132 0.78695 0.0357862
1574200 60.4159 232.966 55.8132 0.78705 0.0116082
1574400 60.4159 232.979 55.8132 0.78715 0.0212102
1574600 60.4159 232.992 55.8132 0.78725 0.0168147
1574800 60.4159 233.005 55.8132 0.78735 0.00885014
1575000 60.4159 233.018 55.8132 0.78745 -0.0193333
1575200 60.4159 233.031 55.8132 0.78755 -0.0119399
1575400 60.4159 233.044 55.8132 0.78765 -0.00525166
1575600 60.4159 233.057 55.8132 0.78775 -0.0224351
1575800 60.4159 233.07 55.8132 0.78785 -0.00431057
1576000 60.4159 233.083 55.8132 0.78795 -0.0296487
1576200 60.4159 233.096 55.8132 0.78805 -0.0145456
1576400 60.4159 233.109 55.8132 0.78815 -0.00505932
1576600 60.4159 233.122 55.8132 0.78825 -0.0126735
1576800 60.4159 233.135 55.8132 0.78835 0.00959926
1577000 60.4159 233.148 55.8132 0.78845 0.03078
1577200 60.4159 233.161 55.8132 0.78855 0.0238469
1577400 60.4159 233.175 55.8132 0.78865 0.0357387
1577600 60.4159 233.188 55.8132 0.78875 0.0099304
1577800 60.4159 233.201 55.8132 0.78885 0.0281276
1578000 60.4159 233.214 55.8132 0.78895 0.0291111
1578200 60.4159 233.227 55.8132 0.78905 0.00836588
1578400 60.4159 233.24 55.8132 0.78915 0.0100144
1578600 60.4159 233.253 55.8132 0.78925 0.00651823
1578800 60.4159 233.266 55.8132 0.78935 0.0244585
1579000 60.4159 233.279 55.8132 0.78945 -0.0095982
1579200 60.4159 233.292 55.8132 0.78955 -0.0300997
1579400 60.4159 233.305 55.8132 0.78965 -0.00725608
1579600 60.4159 233.318 55.8132 0.78975 -0.0205425
1579800 60.4159 233.331 55.8132 0.78985 -0.016082
1580000 60.4159 233.344 55.8132 0.78995 -0.0145002
1580200 60.4159 233.357 55.8132 0.79005 0.00200795
1580400 60.4159 233.37 55.8132 0.79015 -0.016548
1580600 60.4159 233.383 55.8132 0.79025 -0.000641212
1580800 60.4159 233.396 55.8132 0.79035 0.0247976
1581000 60.4159 233.409 55.8132 0.79045 0.0176472
1581200 60.4159 233.422 55.8132 0.79055 0.00931498
1581400 60.4159 233.435 55.8132 0.79065 0.0331061
1581600 60.4159 233.448 55.8132 0.79075 0.0294751
1581800 60.4159 233.461 55.8132 0.79085 0.0244583
1582000 60.4159 233.474 55.8132 0.79095 0.0256708
1582200 60.4159 233.487 55.8132 0.79105 -0.000978389
1582400 60.4159 233.5 55.8132 0.79115 0.0201798
1582600 60.4159 233.513 55.8132 0.79125 -0.00295598
1582800 60.4159 233.527 55.8132 0.79135 -0.00295395
1583000 60.4159 233.54 55.8132 0.79145 0.0137878
1583200 60.4159 233.553 55.8132 0.79155 -0.015117
1583400 60.4159 233.566 55.8132 0.79165 -0.0154009
1583600 60.4159 233.579 55.8132 0.79175 -0.0139875
1583800 60.4159 233.592 55.8132 0.79185 -0.0146508
1584000 60.4159 233.605 55.8132 0.79195 -0.0172452
1584200 60.4159 233.618 55.8132 0.79205 -0.000773735
1584400 60.4159 233.631 55.8132 0.79215 0.00199186
1584600 60.4159 233.644 55.8132 0.79225 0.00843836
1584800 60.4159 233.657 55.8132 0.79235 0.0162749
1585000 60.4159 233.67 55.8132 0.79245 0.000745889
1585200 60.4159 233.683 55.8132 0.79255 0.0141319
1585400 60.4159 233.696 55.8132 0.79265 0.020158
1585600 60.4159 233.709 55.8132 0.79275 0.0363035
1585800 60.4159 233.722 55.8132 0.79285 0.0148833
1586000 60.4159 233.735 55.8132 0.79295 0.0393919
1586200 60.4159 233.748 55.8132 0.79305 -0.0106917
1586400 60.4159 233.761 55.8132 0.79315 -0.000498038
1586600 60.4159 233.774 55.8132 0.79325 0.0158055
1586800 60.4159 233.787 55.8132 0.79335 -0.00642337
1587000 60.4159 233.8 55.8132 0.79345 0.0155216
1587200 60.4159 233.813 55.8132 0.79355 -0.00532826
1587400 60.4159 233.826 55.8132 0.79365 -0.0193173
1587600 60.4159 233.839 55.8132 0.79375 -0.0170149
1587800 60.4159 233.852 55.8132 0.79385 -0.0162819
1588000 60.4159 233.865 55.8132 0.79395 -0.00754481
1588200 60.4159 233.878 55.8132 0.79405 -0.00186678
1588400 60.4159 233.892 55.8132 0.79415 0.000124165
1588600 60.4159 233.905 55.8132 0.79425 0.00897568
1588800 60.4159 233.918 55.8132 0.79435 0.0131054
1589000 60.4159 233.931 55.8132 0.79445 0.0058379
1589200 60.4159 233.944 55.8132 0.79455 0.0150291
1589400 60.4159 233.957 55.8132 0.79465 0.0298813
1589600 60.4159 233.97 55.8132 0.79475 0.0319512
1589800 60.4159 233.983 55.8132 0.79485 0.0269938
1590000 60.4159 233.996 55.8132 0.79495 0.00473219
1590200 60.4159 234.009 55.8132 0.79505 0.0132668
1590400 60.4159 234.022 55.8132 0.79515 0.000753923
1590600 60.4159 234.035 55.8132 0.79525 -0.0100765
1590800 60.4159 234.048 55.8132 0.79535 0.0119699
1591000 60.4159 234.061 55.8132 0.79545 -0.00699272
1591200 60.4159 234.074 55.8132 0.79555 0.00112718
1591400 60.4159 234.087 55.8132 0.79565 -0.00465768
1591600 60.4159 234.1 55.8132 0.79575 -0.0280796
1591800 60.4159 234.113 55.8132 0.79585 -0.0217696
1592000 60.4159 234.126 55.8132 0.79595 0.0158866
1592200 60.4159 234.139 55.8132 0.79605 -0.0163472
1592400 60.4159 234.152 55.8132 0.79615 0.0121131
1592600 60.4159 234.165 55.8132 0.79625 0.0203805
1592800 60.4159 234.178 55.8132 0.79635 0.00807165
1593000 60.4159 234.191 55.8132 0.79645 0.0255135
1593200 60.4159 234.204 55.8132 0.79655 0.0029148
1593400 60.4159 234.217 55.8132 0.79665 0.0185473
1593600 60.4159 234.23 55.8132 0.79675 0.00796924
1593800 60.4159 234.244 55.8132 0.79685 0.0197831
1594000 60.4159 234.257 55.8132 0.79695 0.0171953
1594200 60.4159 234.27 55.8132 0.79705 0.00796392
1594400 60.4159 234.283 55.8132 0.79715 0.0166991
1594600 60.4159 234.296 55.8132 0.79725 -0.0109275
1594800 60.4159 234.309 55.8132 0.79735 -0.00504199
1595000 60.4159 234.322 55.8132 0.79745 -0.00445651
1595200 60.4159 234.335 55.8132 0.79755 -0.00585508
1595400 60.4159 234.348 55.8132 0.79765 -0.00285291
1595600 60.4159 234.361 55.8132 0.79775 0.0046612
1595800 60.4159 234.374 55.8132 0.79785 -0.00806164
1596000 60.4159 234.387 55.8132 0.79795 -0.0149325
1596200 60.4159 234.4 55.8132 0.79805 -0.0044341
1596400 60.4159 234.413 55.8132 0.79815 0.00975055
1596600 60.4159 234.426 55.8132 0.79825 -0.00222372
1596800 60.4159 234.439 55.8132 0.79835 0.0230001
1597000 60.4159 234.452 55.8132 0.79845 0.0343941
1597200 60.4159 234.465 55.8132 0.79855 0.0168489
1597400 60.4159 234.478 55.8132 0.79865 0.00425973
1597600 60.4159 234.491 55.8132 0.79875 0.00186765
1597800 60.4159 234.504 55.8132 0.79885 0.0312373
1598000 60.4159 234.517 55.8132 0.79895 0.0103128
1598200 60.4159 234.53 55.8132 0.79905 0.00941344
1598400 60.4159 234.543 55.8132 0.79915 0.00850795
1598600 60.4159 234.556 55.8132 0.79925 0.00235211
1598800 60.4159 234.569 55.8132 0.79935 -0.0182497
1599000 60.4159 234.582 55.8132 0.79945 -0.0279726
1599200 60.4159 234.595 55.8132 0.79955 -0.00417508
1599400 60.4159 234.609 55.8132 0.79965 0.014218
1599600 60.4159 234.622 55.8132 0.79975 -0.0077816
1599800 60.4159 234.635 55.8132 0.79985 0.0142194
1600000 60.4159 234.648 55.8132 0.79995 -0.00957855
1600200 60.4159 234.661 55.8132 0.80005 -0.00457881
1600400 60.4159 234.674 55.8132 0.80015 0.00210496
1600600 60.4159 234.687 55.8132 0.80025 0.00736332
1600800 60.4159 234.7 55.8132 0.80035 0.0193268
1601000 60.4159 234.713 55.8132 0.80045 0.0239655
1601200 60.4159 234.726 55.8132 0.80055 0.0167897
1601400 60.4159 234.739 55.8132 0.80065 0.000832794
1601600 60.4159 234.752 55.8132 0.80075 0.0206886
1601800 60.4159 234.765 55.8132 0.80085 0.013347
1602000 60.4159 234.778 55.8132 0.80095 0.01215
1602200 60.4159 234.791 55.8132 0.80105 0.0100493
1602400 60.4159 234.804 55.8132 0.80115 -0.00371763
1602600 60.4159 234.817 55.8132 0.80125 0.00926848
1602800 60.4159 234.83 55.8132 0.80135 -0.0114201
1603000 60.4159 234.843 55.8132 0.80145 -0.0206942
1603200 60.4159 234.856 55.8132 0.80155 6.37017e-05
1603400 60.4159 234.869 55.8132 0.80165 0.0114362
1603600 60.4159 234.882 55.8132 0.80175 -0.0191619
1603800 60.4159 234.895 55.8132 0.80185 -0.00717756
1604000 60.4159 234.908 55.8132 0.80195 0.00139773
1604200 60.4159 234.921 55.8132 0.80205 -0.0105403
1604400 60.4159 234.934 55.8132 0.80215 0.0147881
1604600 60.4159 234.947 55.8132 0.80225 0.0199545
1604800 60.4159 234.961 55.8132 0.80235 0.01698
1605000 60.4159 234.974 55.8132 0.80245 0.0132241
1605200 60.4159 234.987 55.8132 0.80255 0.0167864
1605400 60.4159 235 55.8132 0.80265 0.0185562
1605600 60.4159 235.013 55.8132 0.80275 0.0108295
1605800 60.4159 235.026 55.8132 0.80285 0.0118577
1606000 60.4159 235.039 55.8132 0.80295 0.00984675
1606200 60.4159 235.052 55.8132 0.80305 0.0229005
1606400 60.4159 235.065 55.8132 0.80315 -0.0103538
1606600 60.4159 235.078 55.8132 0.80325 0.00483672
1606800 60.4159 235.091 55.8132 0.80335 -0.00739838
1607000 60.4159 235.104 55.8132 0.80345 -0.00823455
1607200 60.4159 235.117 55.8132 0.80355 0.00217007
1607400 60.4159 235.13 55.8132 0.80365 -0.0138843
1607600 60.4159 235.143 55.8132 0.80375 -0.0125429
1607800 60.4159 235.156 55.8132 0.80385 -0.00371322
1608000 60.4159 235.169 55.8132 0.80395 0.000623812
1608200 60.4159 235.182 55.8132 0.80405 -0.00776569
1608400 60.4159 235.195 55.8132 0.80415 0.0101252
1608600 60.4159 235.208 55.8132 0.80425 0.0151372
1608800 60.4159 235.221 55.8132 0.80435 0.0131326
1609000 60.4159 235.234 55.8132 0.80445 0.022669
1609200 60.4159 235.247 55.8132 0.80455 0.0173782
1609400 60.4159 235.26 55.8132 0.80465 0.00336352
1609600 60.4159 235.273 55.8132 0.80475 0.0253736
1609800 60.4159 235.286 55.8132 0.80485 0.0115367
1610000 60.4159 235.299 55.8132 0.80495 0.0201574
1610200 60.4159 235.312 55.8132 0.80505 0.0169063
1610400 60.4159 235.326 55.8132 0.80515 0.00131532
1610600 60.4159 235.339 55.8132 0.80525 0.00253984
1610800 60.4159 235.352 55.8132 0.80535 -0.0268624
1611000 60.4159 235.365 55.8132 0.80545 -0.0142414
1611200 60.4159 235.378 55.8132 0.80555 -0.00885166
1611400 60.4159 235.391 55.8132 0.80565 -0.00149645
1611600 60.4159 235.404 55.8132 0.80575 -0.00217723
1611800 60.4159 235.417 55.8132 0.80585 -0.00763112
1612000 60.4159 235.43 55.8132 0.80595 -0.00561733
1612200 60.4159 235.443 55.8132 0.80605 -0.00165199
1612400 60.4159 235.456 55.8132 0.80615 0.0118411
1612600 60.4159 235.469 55.8132 0.80625 0.0134594
1612800 60.4159 235.482 55.8132 0.80635 0.0255164
1613000 60.4159 235.495 55.8132 0.80645 0.0238392
1613200 60.4159 235.508 55.8132 0.80655 0.0289101
1613400 60.4159 235.521 55.8132 0.80665 0.00395724
1613600 60.4159 235.534 55.8132 0.80675 0.00982143
1613800 60.4159 235.547 55.8132 0.80685 0.0100077
1614000 60.4159 235.56 55.8132 0.80695 0.00835253
1614200 60.4159 235.573 55.8132 0.80705 0.0117652
1614400 60.4159 235.586 55.8132 0.80715 0.01972
1614600 60.4159 235.599 55.8132 0.80725 -0.0177507
1614800 60.4159 235.612 55.8132 0.80735 -0.0251695
1615000 60.4159 235.625 55.8132 0.80745 -0.0118008
1615200 60.4159 235.638 55.8132 0.80755 -0.0170923
1615400 60.4159 235.651 55.8132 0.80765 -0.00765412
1615600 60.4159 235.664 55.8132 0.80775 0.0061173
1615800 60.4159 235.678 55.8132 0.80785 0.0095683
1616000 60.4159 235.691 55.8132 0.80795 -0.00620537
1616200 60.4159 235.704 55.8132 0.80805 0.00434095
1616400 60.4159 235.717 55.8132 0.80815 0.00900754
1616600 60.4159 235.73 55.8132 0.80825 0.0214535
1616800 60.4159 235.743 55.8132 0.80835 0.0179763
1617000 60.4159 235.756 55.8132 0.80845 0.0392746
1617200 60.4159 235.769 55.8132 0.80855 0.0243954
1617400 60.4159 235.782 55.8132 0.80865 0.008708
1617600 60.4159 235.795 55.8132 0.80875 0.00856289
1617800 60.4159 235.808 55.8132 0.80885 0.00929173
1618000 60.4159 235.821 55.8132 0.80895 -0.00107693
1618200 60.4159 235.834 55.8132 0.80905 7.79213e-05
1618400 60.4159 235.847 55.8132 0.80915 -0.00748541
1618600 60.4159 235.86 55.8132 0.80925 0.00559943
1618800 60.4159 235.873 55.8132 0.80935 -0.0314717
1619000 60.4159 235.886 55.8132 0.80945 -0.0171291
1619200 60.4159 235.899 55.8132 0.80955 -0.0156774
1619400 60.4159 235.912 55.8132 0.80965 0.00345595
1619600 60.4159 235.925 55.8132 0.80975 -0.0015079
1619800 60.4159 235.938 55.8132 0.80985 -0.00439937
1620000 60.4159 235.951 55.8132 0.80995 0.0211647
1620200 60.4159 235.964 55.8132 0.81005 0.0223451
1620400 60.4159 235.977 55.8132 0.81015 0.00643175
1620600 60.4159 235.99 55.8132 0.81025 0.0166868
1620800 60.4159 236.003 55.8132 0.81035 0.0359337
1621000 60.4159 236.016 55.8132 0.81045 0.0280706
1621200 60.4159 236.029 55.8132 0.81055 0.010405
1621400 60.4159 236.043 55.8132 0.81065 0.0101751
1621600 60.4159 236.056 55.8132 0.81075 0.00476309
1621800 60.4159 236.069 55.8132 0.81085 0.00435784
1622000 60.4159 236.082 55.8132 0.81095 -0.00206846
1622200 60.4159 236.095 55.8132 0.81105 -0.0208283
1622400 60.4159 236.108 55.8132 0.81115 -0.00946561
1622600 60.4159 236.121 55.8132 0.81125 -0.0027684
1622800 60.4159 236.134 55.8132 0.81135 -0.0138234
1623000 60.4159 236.147 55.8132 0.81145 -0.0131806
1623200 60.4159 236.16 55.8132 0.81155 0.00618786
1623400 60.4159 236.173 55.8132 0.81165 -0.0141025
1623600 60.4159 236.186 55.8132 0.81175 0.00871413
1623800 60.4159 236.199 55.8132 0.81185 0.00807564
1624000 60.4159 236.212 55.8132 0.81195 0.0219132
1624200 60.4159 236.225 55.8132 0.81205 0.00765603
1624400 60.4159 236.238 55.8132 0.81215 0.034445
1624600 60.4159 236.251 55.8132 0.81225 0.0203883
1624800 60.4159 236.264 55.8132 0.81235 0.0189655
1625000 60.4159 236.277 55.8132 0.81245 0.0114984
1625200 60.4159 236.29 55.8132 0.81255 0.0142309
1625400 60.4159 236.303 55.8132 0.81265 0.0159947
1625600 60.4159 236.316 55.8132 0.81275 -0.00194943
1625800 60.4159 236.329 55.8132 0.81285 -0.00662205
1626000 60.4159 236.342 55.8132 0.81295 0.00718689
1626200 60.4159 236.355 55.8132 0.81305 -0.0113859
1626400 60.4159 236.368 55.8132 0.81315 -0.00365729
1626600 60.4159 236.381 55.8132 0.81325 -0.0307343
1626800 60.4159 236.395 55.8132 0.81335 -0.0148795
1627000 60.4159 236.408 55.8132 0.81345 -0.0211061
1627200 60.4159 236.421 55.8132 0.81355 0.00737595
1627400 60.4159 236.434 55.8132 0.81365 0.00703575
1627600 60.4159 236.447 55.8132 0.81375 0.0026487
1627800 60.4159 236.46 55.8132 0.81385 0.00086562
1628000 60.4159 236.473 55.8132 0.81395 0.0150055
1628200 60.4159 236.486 55.8132 0.81405 0.012412
1628400 60.4159 236.499 55.8132 0.81415 0.0249331
1628600 60.4159 236.512 55.8132 0.81425 0.0295599
1628800 60.4159 236.525 55.8132 0.81435 0.0289213
1629000 60.4159 236.538 55.8132 0.81445 0.0316287
1629200 60.4159 236.551 55.8132 0.81455 0.00725022
1629400 60.4159 236.564 55.8132 0.81465 0.000814002
1629600 60.4159 236.577 55.8132 0.81475 -0.00180979
1629800 60.4159 236.59 55.8132 0.81485 -0.00698218
1630000 60.4159 236.603 55.8132 0.81495 0.00453394
1630200 60.4159 236.616 55.8132 0.81505 -0.00230445
1630400 60.4159 236.629 55.8132 0.81515 0.00148389
1630600 60.4159 236.642 55.8132 0.81525 -0.0261296
1630800 60.4159 236.655 55.8132 0.81535 -0.0237664
1631000 60.4159 236.668 55.8132 0.81545 -0.00531651
1631200 60.4159 236.681 55.8132 0.81555 -0.00681829
1631400 60.4159 236.694 55.8132 0.81565 0.00334092
1631600 60.4159 236.707 55.8132 0.81575 0.0151948
1631800 60.4159 236.72 55.8132 0.81585 0.0169353
1632000 60.4159 236.733 55.8132 0.81595 0.00271941
1632200 60.4159 236.746 55.8132 0.81605 0.00574214
1632400 60.4159 236.76 55.8132 0.81615 0.0213866
1632600 60.4159 236.773 55.8132 0.81625 0.037807
1632800 60.4159 236.786 55.8132 0.81635 0.0288689
1633000 60.4159 236.799 55.8132 0.81645 0.0129768
1633200 60.4159 236.812 55.8132 0.81655 0.0129546
1633400 60.4159 236.825 55.8132 0.81665 -0.0151975
1633600 60.4159 236.838 55.8132 0.81675 0.0161028
1633800 60.4159 236.851 55.8132 0.81685 -0.0129136
1634000 60.4159 236.864 55.8132 0.81695 -0.0224818
1634200 60.4159 236.877 55.8132 0.81705 0.00265998
1634400 60.4159 236.89 55.8132 0.81715 0.00292267
1634600 60.4159 236.903 55.8132 0.81725 -0.00358309
1634800 60.4159 236.916 55.8132 0.81735 -0.0234358
1635000 60.4159 236.929 55.8132 0.81745 -0.0218821
1635200 60.4159 236.942 55.8132 0.81755 0.00370902
1635400 60.4159 236.955 55.8132 0.81765 0.0122785
1635600 60.4159 236.968 55.8132 0.81775 0.00828006
1635800 60.4159 236.981 55.8132 0.81785 0.0315658
1636000 60.4159 236.994 55.8132 0.81795 0.0178578
1636200 60.4159 237.007 55.8132 0.81805 0.015188
1636400 60.4159 237.02 55.8132 0.81815 0.00868074
1636600 60.4159 237.033 55.8132 0.81825 0.0228533
1636800 60.4159 237.046 55.8132 0.81835 0.00994956
1637000 60.4159 237.059 55.8132 0.81845 0.0212743
1637200 60.4159 237.072 55.8132 0.81855 0.0197824
1637400 60.4159 237.085 55.8132 0.81865 -0.00460819
1637600 60.4159 237.098 55.8132 0.81875 -0.00524058
1637800 60.4159 237.112 55.8132 0.81885 -0.0246551
1638000 60.4159 237.125 55.8132 0.81895 -0.0146416
1638200 60.4159 237.138 55.8132 0.81905 0.00357451
1638400 60.4159 237.151 55.8132 0.81915 -0.00604604
1638600 60.4159 237.164 55.8132 0.81925 0.00496955
1638800 60.4159 237.177 55.8132 0.81935 -0.00474618
1639000 60.4159 237.19 55.8132 0.81945 -0.0213808
1639200 60.4159 237.203 55.8132 0.81955 -0.00641946
1639400 60.4159 237.216 55.8132 0.81965 0.0103846
1639600 60.4159 237.229 55.8132 0.81975 0.0212639
1639800 60.4159 237.242 55.8132 0.81985 0.0185881
1640000 60.4159 237.255 55.8132 0.81995 0.0371749
1640200 60.4159 237.268 55.8132 0.82005 0.0214752
1640400 60.4159 237.281 55.8132 0.82015 0.00214651
1640600 60.4159 237.294 55.8132 0.82025 0.00817001
1640800 60.4159 237.307 55.8132 0.82035 0.0046678
1641000 60.4159 237.32 55.8132 0.82045 0.0175243
1641200 60.4159 237.333 55.8132 0.82055 0.014324
1641400 60.4159 237.346 55.8132 0.82065 -0.0124372
1641600 60.4159 237.359 55.8132 0.82075 0.000946772
1641800 60.4159 237.372 55.8132 0.82085 -0.0227027
1642000 60.4159 237.385 55.8132 0.82095 -0.0138716
1642200 60.4159 237.398 55.8132 0.82105 -0.0019874
1642400 60.4159 237.411 55.8132 0.82115 -0.0105461
1642600 60.4159 237.424 55.8132 0.82125 0.0180442
1642800 60.4159 237.437 55.8132 0.82135 -0.00303621
1643000 60.4159 237.45 55.8132 0.82145 0.019895
1643200 60.4159 237.463 55.8132 0.82155 -0.0153281
1643400 60.4159 237.477 55.8132 0.82165 0.00779446
1643600 60.4159 237.49 55.8132 0.82175 0.0177499
1643800 60.4159 237.503 55.8132 0.82185 0.0209778
1644000 60.4159 237.516 55.8132 0.82195 0.0379343
1644200 60.4159 237.529 55.8132 0.82205 -6.10011e-05
1644400 60.4159 237.542 55.8132 0.82215 0.0183068
1644600 60.4159 237.555 55.8132 0.82225 0.00285455
1644800 60.4159 237.568 55.8132 0.82235 0.00199527
1645000 60.4159 237.581 55.8132 0.82245 -0.00515526
1645200 60.4159 237.594 55.8132 0.82255 0.00620357
1645400 60.4159 237.607 55.8132 0.82265 0.00471553
1645600 60.4159 237.62 55.8132 0.82275 -0.00138474
1645800 60.4159 237.633 55.8132 0.82285 -0.0152631
1646000 60.4159 237.646 55.8132 0.82295 -0.0182265
1646200 60.4159 237.659 55.8132 0.82305 -0.0108985
1646400 60.4159 237.672 55.8132 0.82315 -0.00563653
1646600 60.4159 237.685 55.8132 0.82325 0.000568581
1646800 60.4159 237.698 55.8132 0.82335 0.0117196
1647000 60.4159 237.711 55.8132 0.82345 0.0139199
1647200 60.4159 237.724 55.8132 0.82355 0.0141275
1647400 60.4159 237.737 55.8132 0.82365 0.00513798
1647600 60.4159 237.75 55.8132 0.82375 0.00393596
1647800 60.4159 237.763 55.8132 0.82385 0.0143918
1648000 60.4159 237.776 55.8132 0.82395 0.0166651
1648200 60.4159 237.789 55.8132 0.82405 0.0247076
1648400 60.4159 237.802 55.8132 0.82415 0.0118378
1648600 60.4159 237.815 55.8132 0.82425 0.0106509
1648800 60.4159 237.829 55.8132 0.82435 0.00430041
1649000 60.4159 237.842 55.8132 0.82445 0.0067076
1649200 60.4159 237.855 55.8132 0.82455 0.00665957
1649400 60.4159 237.868 55.8132 0.82465 -0.00435711
1649600 60.4159 237.881 55.8132 0.82475 0.0107432
1649800 60.4159 237.894 55.8132 0.82485 -0.00980904
1650000 60.4159 237.907 55.8132 0.82495 -0.011107
1650200 60.4159 237.92 55.8132 0.82505 -0.0143362
1650400 60.4159 237.933 55.8132 0.82515 -0.0230967
1650600 60.4159 237.946 55.8132 0.82525 0.00262976
1650800 60.4159 237.959 55.8132 0.82535 -0.00932002
1651000 60.4159 237.972 55.8132 0.82545 0.00223046
1651200 60.4159 237.985 55.8132 0.82555 0.0211966
1651400 60.4159 237.998 55.8132 0.82565 0.0144061
1651600 60.4159 238.011 55.8132 0.82575 0.0141613
1651800 60.4159 238.024 55.8132 0.82585 -0.00028366
1652000 60.4159 238.037 55.8132 0.82595 0.0137057
1652200 60.4159 238.05 55.8132 0.82605 0.0276954
1652400 60.4159 238.063 55.8132 0.82615 0.017542
1652600 60.4159 238.076 55.8132 0.82625 0.0267058
1652800 60.4159 238.089 55.8132 0.82635 0.0227048
1653000 60.4159 238.102 55.8132 0.82645 -0.00557572
1653200 60.4159 238.115 55.8132 0.82655 0.00207582
1653400 60.4159 238.128 55.8132 0.82665 -0.0319953
1653600 60.4159 238.141 55.8132 0.82675 0.0118794
1653800 60.4159 238.154 55.8132 0.82685 -0.00216157
1654000 60.4159 238.167 55.8132 0.82695 -0.00591807
1654200 60.4159 238.18 55.8132 0.82705 -0.0139584
1654400 60.4159 238.194 55.8132 0.82715 -0.000541594
1654600 60.4159 238.207 55.8132 0.82725 -0.0197735
1654800 60.4159 238.22 55.8132 0.82735 -0.0103401
1655000 60.4159 238.233 55.8132 0.82745 -0.00501832
1655200 60.4159 238.246 55.8132 0.82755 0.0217731
1655400 60.4159 238.259 55.8132 0.82765 0.0074151
1655600 60.4159 238.272 55.8132 0.82775 0.0156097
1655800 60.4159 238.285 55.8132 0.82785 0.0194527
1656000 60.4159 238.298 55.8132 0.82795 0.00768005
1656200 60.4159 238.311 55.8132 0.82805 0.0173803
1656400 60.4159 238.324 55.8132 0.82815 0.00721877
1656600 60.4159 238.337 55.8132 0.82825 0.0289598
1656800 60.4159 238.35 55.8132 0.82835 0.0235103
1657000 60.4159 238.363 55.8132 0.82845 0.00549794
1657200 60.4159 238.376 55.8132 0.82855 -0.00370352
1657400 60.4159 238.389 55.8132 0.82865 0.0133638
1657600 60.4159 238.402 55.8132 0.82875 -0.0129627
1657800 60.4159 238.415 55.8132 0.82885 -0.0146742
1658000 60.4159 238.428 55.8132 0.82895 0.000122682
1658200 60.4159 238.441 55.8132 0.82905 -0.0106141
1658400 60.4159 238.454 55.8132 0.82915 0.00365983
1658600 60.4159 238.467 55.8132 0.82925 -0.00783072
1658800 60.4159 238.48 55.8132 0.82935 -0.00960946
1659000 60.4159 238.493 55.8132 0.82945 -0.0113818
1659200 60.4159 238.506 55.8132 0.82955 0.015292
1659400 60.4159 238.519 55.8132 0.82965 0.0209581
1659600 60.4159 238.532 55.8132 0.82975 0.00520122
1659800 60.4159 238.545 55.8132 0.82985 0.0124869
1660000 60.4159 238.559 55.8132 0.82995 0.0187474
1660200 60.4159 238.572 55.8132 0.83005 0.0185832
1660400 60.4159 238.585 55.8132 0.83015 -0.0127264
1660600 60.4159 238.598 55.8132 0.83025 0.0108566
1660800 60.4159 238.611 55.8132 0.83035 0.0300871
1661000 60.4159 238.624 55.8132 0.83045 0.00651682
1661200 60.4159 238.637 55.8132 0.83055 0.00333374
1661400 60.4159 238.65 55.8132 0.83065 -0.00714917
1661600 60.4159 238.663 55.8132 0.83075 -0.00875006
1661800 60.4159 238.676 55.8132 0.83085 -0.0127924
1662000 60.4159 238.689 55.8132 0.83095 -0.0101835
1662200 60.4159 238.702 55.8132 0.83105 0.00655182
1662400 60.4159 238.715 55.8132 0.83115 -0.00700179
1662600 60.4159 238.728 55.8132 0.83125 0.0154234
1662800 60.4159 238.741 55.8132 0.83135 -0.0201077
1663000 60.4159 238.754 55.8132 0.83145 0.0118016
1663200 60.4159 238.767 55.8132 0.83155 0.00380302
1663400 60.4159 238.78 55.8132 0.83165 0.00676339
1663600 60.4159 238.793 55.8132 0.83175 0.0171059
1663800 60.4159 238.806 55.8132 0.83185 0.0264428
1664000 60.4159 238.819 55.8132 0.83195 0.0189396
1664200 60.4159 238.832 55.8132 0.83205 0.0151232
1664400 60.4159 238.845 55.8132 0.83215 0.0132147
1664600 60.4159 238.858 55.8132 0.83225 -0.00624018
1664800 60.4159 238.871 55.8132 0.83235 0.00771168
1665000 60.4159 238.884 55.8132 0.83245 5.41503e-05
1665200 60.4159 238.897 55.8132 0.83255 0.0118431
1665400 60.4159 238.911 55.8132 0.83265 -0.00359375
1665600 60.4159 238.924 55.8132 0.83275 -0.010461
1665800 60.4159 238.937 55.8132 0.83285 -0.00067469
1666000 60.4159 238.95 55.8132 0.83295 -0.023091
1666200 60.4159 238.963 55.8132 0.83305 -0.00200165
1666400 60.4159 238.976 55.8132 0.83315 -0.00782238
1666600 60.4159 238.989 55.8132 0.83325 -0.00634053
1666800 60.4159 239.002 55.8132 0.83335 0.0195951
1667000 60.4159 239.015 55.8132 0.83345 -0.000823457
1667200 60.4159 239.028 55.8132 0.83355 0.0120794
1667400 60.4159 239.041 55.8132 0.83365 0.00713465
1667600 60.4159 239.054 55.8132 0.83375 0.0265519
1667800 60.4159 239.067 55.8132 0.83385 0.000898074
1668000 60.4159 239.08 55.8132 0.83395 0.0188501
1668200 60.4159 239.093 55.8132 0.83405 0.0183688
1668400 60.4159 239.106 55.8132 0.83415 0.0221929
1668600 60.4159 239.119 55.8132 0.83425 0.00473531
1668800 60.4159 239.132 55.8132 0.83435 0.00615575
1669000 60.4159 239.145 55.8132 0.83445 0.000496134
1669200 60.4159 239.158 55.8132 0.83455 -0.0123302
1669400 60.4159 239.171 55.8132 0.83465 0.000861987
1669600 60.4159 239.184 55.8132 0.83475 -0.010527
1669800 60.4159 239.197 55.8132 0.83485 0.00660346
1670000 60.4159 239.21 55.8132 0.83495 -0.0127181
1670200 60.4159 239.223 55.8132 0.83505 -0.00331082
1670400 60.4159 239.236 55.8132 0.83515 0.00204156
1670600 60.4159 239.249 55.8132 0.83525 -0.0182927
1670800 60.4159 239.262 55.8132 0.83535 -0.00503592
1671000 60.4159 239.276 55.8132 0.83545 0.032751
1671200 60.4159 239.289 55.8132 0.83555 0.00385833
1671400 60.4159 239.302 55.8132 0.83565 0.00534184
1671600 60.4159 239.315 55.8132 0.83575 0.0189011
1671800 60.4159 239.328 55.8132 0.83585 0.0130239
1672000 60.4159 239.341 55.8132 0.83595 0.0117605
1672200 60.4159 239.354 55.8132 0.83605 0.00854799
1672400 60.4159 239.367 55.8132 0.83615 0.0153306
1672600 60.4159 239.38 55.8132 0.83625 0.00698189
1672800 60.4159 239.393 55.8132 0.83635 0.0112786
1673000 60.4159 239.406 55.8132 0.83645 0.00757207
1673200 60.4159 239.419 55.8132 0.83655 -0.0158624
1673400 60.4159 239.432 55.8132 0.83665 -0.00947828
1673600 60.4159 239.445 55.8132 0.83675 -0.0111119
1673800 60.4159 239.458 55.8132 0.83685 -0.000271244
1674000 60.4159 239.471 55.8132 0.83695 -0.00284989
1674200 60.4159 239.484 55.8132 0.83705 -0.00150858
1674400 60.4159 239.497 55.8132 0.83715 -0.0108661
1674600 60.4159 239.51 55.8132 0.83725 -0.0102557
1674800 60.4159 239.523 55.8132 0.83735 -0.000704836
1675000 60.4159 239.536 55.8132 0.83745 0.0184678
1675200 60.4159 239.549 55.8132 0.83755 0.018877
1675400 60.4159 239.562 55.8132 0.83765 0.0237377
1675600 60.4159 239.575 55.8132 0.83775 0.0237224
1675800 60.4159 239.588 55.8132 0.83785 0.00287061
1676000 60.4159 239.601 55.8132 0.83795 0.0238459
1676200 60.4159 239.614 55.8132 0.83805 0.00958721
1676400 60.4159 239.628 55.8132 0.83815 0.00208324
1676600 60.4159 239.641 55.8132 0.83825 0.0148717
1676800 60.4159 239.654 55.8132 0.83835 -0.00371949
1677000 60.4159 239.667 55.8132 0.83845 0.000702572
1677200 60.4159 239.68 55.8132 0.83855 -0.0128598
1677400 60.4159 239.693 55.8132 0.83865 -0.00799895
1677600 60.4159 239.706 55.8132 0.83875 -0.0158901
1677800 60.4159 239.719 55.8132 0.83885 -0.00173022
1678000 60.4159 239.732 55.8132 0.83895 0.00779998
1678200 60.4159 239.745 55.8132 0.83905 -0.0124218
1678400 60.4159 239.758 55.8132 0.83915 0.00526206
1678600 60.4159 239.771 55.8132 0.83925 0.00382431
1678800 60.4159 239.784 55.8132 0.83935 -0.00933124
1679000 60.4159 239.797 55.8132 0.83945 0.027287
1679200 60.4159 239.81 55.8132 0.83955 0.00117214
1679400 60.4159 239.823 55.8132 0.83965 0.01061
1679600 60.4159 239.836 55.8132 0.83975 0.0252185
1679800 60.4159 239.849 55.8132 0.83985 0.0296723
1680000 60.4159 239.862 55.8132 0.83995 -0.00276986
1680200 60.4159 239.875 55.8132 0.84005 0.0117416
1680400 60.4159 239.888 55.8132 0.84015 0.005099
1680600 60.4159 239.901 55.8132 0.84025 -3.56629e-05
1680800 60.4159 239.914 55.8132 0.84035 0.00284687
1681000 60.4159 239.927 55.8132 0.84045 -0.00345665
1681200 60.4159 239.94 55.8132 0.84055 0.00415427
1681400 60.4159 239.953 55.8132 0.84065 -0.0132614
1681600 60.4159 239.966 55.8132 0.84075 -0.00802735
1681800 60.4159 239.979 55.8132 0.84085 -0.00160816
1682000 60.4159 239.993 55.8132 0.84095 -0.00250039
1682200 60.4159 240.006 55.8132 0.84105 0.00809974
1682400 60.4159 240.019 55.8132 0.84115 -0.00119837
1682600 60.4159 240.032 55.8132 0.84125 -0.00514549
1682800 60.4159 240.045 55.8132 0.84135 0.0133357
1683000 60.4159 240.058 55.8132 0.84145 -0.00556516
1683200 60.4159 240.071 55.8132 0.84155 0.0203544
1683400 60.4159 240.084 55.8132 0.84165 0.020517
1683600 60.4159 240.097 55.8132 0.84175 0.0160416
1683800 60.4159 240.11 55.8132 0.84185 0.0111502
1684000 60.4159 240.123 55.8132 0.84195 0.0113348
1684200 60.4159 240.136 55.8132 0.84205 -0.00200041
1684400 60.4159 240.149 55.8132 0.84215 0.00888093
1684600 60.4159 240.162 55.8132 0.84225 0.000970143
1684800 60.4159 240.175 55.8132 0.84235 0.00288582
1685000 60.4159 240.188 55.8132 0.84245 -0.0070157
1685200 60.4159 240.201 55.8132 0.84255 -0.0118936
1685400 60.4159 240.214 55.8132 0.84265 -0.00859856
1685600 60.4159 240.227 55.8132 0.84275 -0.00498167
1685800 60.4159 240.24 55.8132 0.84285 0.00819291
1686000 60.4159 240.253 55.8132 0.84295 0.00381067
1686200 60.4159 240.266 55.8132 0.84305 -0.00734001
1686400 60.4159 240.279 55.8132 0.84315 0.0294412
1686600 60.4159 240.292 55.8132 0.84325 0.00654841
1686800 60.4159 240.305 55.8132 0.84335 0.000559632
1687000 60.4159 240.318 55.8132 0.84345 0.0105898
1687200 60.4159 240.331 55.8132 0.84355 0.0231939
1687400 60.4159 240.345 55.8132 0.84365 0.006486
1687600 60.4159 240.358 55.8132 0.84375 0.0192148
1687800 60.4159 240.371 55.8132 0.84385 1.55891e-05
1688000 60.4159 240.384 55.8132 0.84395 -0.00239383
1688200 60.4159 240.397 55.8132 0.84405 0.00107524
1688400 60.4159 240.41 55.8132 0.84415 -0.0107937
1688600 60.4159 240.423 55.8132 0.84425 0.00215367
1688800 60.4159 240.436 55.8132 0.84435 0.00544188
1689000 60.4159 240.449 55.8132 0.84445 -0.0162932
1689200 60.4159 240.462 55.8132 0.84455 -0.00765672
1689400 60.4159 240.475 55.8132 0.84465 -0.0016708
1689600 60.4159 240.488 55.8132 0.84475 0.00186774
1689800 60.4159 240.501 55.8132 0.84485 0.00644902
1690000 60.4159 240.514 55.8132 0.84495 0.00367975
1690200 60.4159 240.527 55.8132 0.84505 0.00130096
1690400 60.4159 240.54 55.8132 0.84515 0.00861353
1690600 60.4159 240.553 55.8132 0.84525 0.0230297
1690800 60.4159 240.566 55.8132 0.84535 0.0219058
1691000 60.4159 240.579 55.8132 0.84545 0.00122242
1691200 60.4159 240.592 55.8132 0.84555 0.0229871
1691400 60.4159 240.605 55.8132 0.84565 0.0108749
1691600 60.4159 240.618 55.8132 0.84575 0.00787319
1691800 60.4159 240.631 55.8132 0.84585 0.00883182
1692000 60.4159 240.644 55.8132 0.84595 0.00206035
1692200 60.4159 240.657 55.8132 0.84605 0.00737999
1692400 60.4159 240.67 55.8132 0.84615 -0.000917571
1692600 60.4159 240.683 55.8132 0.84625 0.00436855
1692800 60.4159 240.696 55.8132 0.84635 -0.029885
1693000 60.4159 240.71 55.8132 0.84645 -0.0280181
1693200 60.4159 240.723 55.8132 0.84655 -0.00605786
1693400 60.4159 240.736 55.8132 0.84665 -0.0073843
1693600 60.4159 240.749 55.8132 0.84675 0.00663713
1693800 60.4159 240.762 55.8132 0.84685 -0.00273467
1694000 60.4159 240.775 55.8132 0.84695 0.00316643
1694200 60.4159 240.788 55.8132 0.84705 0.0309373
1694400 60.4159 240.801 55.8132 0.84715 0.00321708
1694600 60.4159 240.814 55.8132 0.84725 0.0182743
1694800 60.4159 240.827 55.8132 0.84735 0.0173098
1695000 60.4159 240.84 55.8132 0.84745 0.0212044
1695200 60.4159 240.853 55.8132 0.84755 0.0329432
1695400 60.4159 240.866 55.8132 0.84765 0.0111514
1695600 60.4159 240.879 55.8132 0.84775 0.00206632
1695800 60.4159 240.892 55.8132 0.84785 -0.00523486
1696000 60.4159 240.905 55.8132 0.84795 0.00132464
1696200 60.4159 240.918 55.8132 0.84805 -0.00860136
1696400 60.4159 240.931 55.8132 0.84815 -0.00312734
1696600 60.4159 240.944 55.8132 0.84825 0.000440547
1696800 60.4159 240.957 55.8132 0.84835 -0.019497
1697000 60.4159 240.97 55.8132 0.84845 -0.0140673
1697200 60.4159 240.983 55.8132 0.84855 0.000418746
1697400 60.4159 240.996 55.8132 0.84865 -0.0156514
1697600 60.4159 241.009 55.8132 0.84875 0.0071917
1697800 60.4159 241.022 55.8132 0.84885 -0.00577777
1698000 60.4159 241.035 55.8132 0.84895 0.0200181
1698200 60.4159 241.048 55.8132 0.84905 0.020312
1698400 60.4159 241.062 55.8132 0.84915 0.00980405
1698600 60.4159 241.075 55.8132 0.84925 0.0140665
1698800 60.4159 241.088 55.8132 0.84935 0.0191425
1699000 60.4159 241.101 55.8132 0.84945 0.0177686
1699200 60.4159 241.114 55.8132 0.84955 0.0077806
1699400 60.4159 241.127 55.8132 0.84965 0.0193033
1699600 60.4159 241.14 55.8132 0.84975 -0.00855894
1699800 60.4159 241.153 55.8132 0.84985 0.0225593
1700000 60.4159 241.166 55.8132 0.84995 0.0102256
1700200 60.4159 241.179 55.8132 0.85005 -0.00810751
1700400 60.4159 241.192 55.8132 0.85015 -0.0162355
1700600 60.4159 241.205 55.8132 0.85025 -0.0155318
1700800 60.4159 241.218 55.8132 0.85035 -0.00767454
1701000 60.4159 241.231 55.8132 0.85045 -0.0130697
1701200 60.4159 241.244 55.8132 0.85055 0.00374106
1701400 60.4159 241.257 55.8132 0.85065 -0.00500378
1701600 60.4159 241.27 55.8132 0.85075 0.00726688
1701800 60.4159 241.283 55.8132 0.85085 -0.00860807
1702000 60.4159 241.296 55.8132 0.85095 0.00402026
1702200 60.4159 241.309 55.8132 0.85105 0.0132517
1702400 60.4159 241.322 55.8132 0.85115 0.00648099
1702600 60.4159 241.335 55.8132 0.85125 0.00851155
1702800 60.4159 241.348 55.8132 0.85135 0.0215181
1703000 60.4159 241.361 55.8132 0.85145 0.0289446
1703200 60.4159 241.374 55.8132 0.85155 0.0188177
1703400 60.4159 241.387 55.8132 0.85165 0.00888647
1703600 60.4159 241.4 55.8132 0.85175 0.00219794
1703800 60.4159 241.413 55.8132 0.85185 0.0293717
1704000 60.4159 241.427 55.8132 0.85195 -0.011429
1704200 60.4159 241.44 55.8132 0.85205 0.00666113
1704400 60.4159 241.453 55.8132 0.85215 -0.0114258
1704600 60.4159 241.466 55.8132 0.85225 0.00312465
1704800 60.4159 241.479 55.8132 0.85235 -0.00819641
1705000 60.4159 241.492 55.8132 0.85245 -0.0237197
1705200 60.4159 241.505 55.8132 0.85255 -0.0044745
1705400 60.4159 241.518 55.8132 0.85265 -0.00833255
1705600 60.4159 241.531 55.8132 0.85275 -0.00399001
1705800 60.4159 241.544 55.8132 0.85285 -0.00593687
1706000 60.4159 241.557 55.8132 0.85295 0.0156294
1706200 60.4159 241.57 55.8132 0.85305 0.00496402
1706400 60.4159 241.583 55.8132 0.85315 -0.00184174
1706600 60.4159 241.596 55.8132 0.85325 0.0212321
1706800 60.4159 241.609 55.8132 0.85335 0.0115736
1707000 60.4159 241.622 55.8132 0.85345 0.024085
1707200 60.4159 241.635 55.8132 0.85355 0.0248663
1707400 60.4159 241.648 55.8132 0.85365 0.0133778
1707600 60.4159 241.661 55.8132 0.85375 0.00937118
1707800 60.4159 241.674 55.8132 0.85385 0.00639276
1708000 60.4159 241.687 55.8132 0.85395 0.000571071
1708200 60.4159 241.7 55.8132 0.85405 -0.00291573
1708400 60.4159 241.713 55.8132 0.85415 0.00877927
1708600 60.4159 241.726 55.8132 0.85425 -0.0116543
1708800 60.4159 241.739 55.8132 0.85435 -0.00249994
1709000 60.4159 241.752 55.8132 0.85445 -0.0201718
1709200 60.4159 241.765 55.8132 0.85455 -0.0169242
1709400 60.4159 241.779 55.8132 0.85465 -0.0206828
1709600 60.4159 241.792 55.8132 0.85475 0.00787272
1709800 60.4159 241.805 55.8132 0.85485 0.00681818
1710000 60.4159 241.818 55.8132 0.85495 0.013642
1710200 60.4159 241.831 55.8132 0.85505 0.0153567
1710400 60.4159 241.844 55.8132 0.85515 -0.00480404
1710600 60.4159 241.857 55.8132 0.85525 0.00367671
1710800 60.4159 241.87 55.8132 0.85535 0.0272839
1711000 60.4159 241.883 55.8132 0.85545 0.0203311
1711200 60.4159 241.896 55.8132 0.85555 0.0304973
1711400 60.4159 241.909 55.8132 0.85565 0.0288205
1711600 60.4159 241.922 55.8132 0.85575 0.0198385
1711800 60.4159 241.935 55.8132 0.85585 -0.00365645
1712000 60.4159 241.948 55.8132 0.85595 -0.0103049
1712200 60.4159 241.961 55.8132 0.85605 -0.0018149
1712400 60.4159 241.974 55.8132 0.85615 0.00857079
1712600 60.4159 241.987 55.8132 0.85625 -0.0012075
1712800 60.4159 242 55.8132 0.85635 -0.00875332
1713000 60.4159 242.013 55.8132 0.85645 -0.0352474
1713200 60.4159 242.026 55.8132 0.85655 -0.0209825
1713400 60.4159 242.039 55.8132 0.85665 -0.0190799
1713600 60.4159 242.052 55.8132 0.85675 -0.00849419
1713800 60.4159 242.065 55.8132 0.85685 0.0127293
1714000 60.4159 242.078 55.8132 0.85695 0.00951108
1714200 60.4159 242.091 55.8132 0.85705 0.0122367
1714400 60.4159 242.104 55.8132 0.85715 0.0137807
1714600 60.4159 242.117 55.8132 0.85725 -0.00495927
1714800 60.4159 242.13 55.8132 0.85735 0.0320073
1715000 60.4159 242.144 55.8132 0.85745 0.0275908
1715200 60.4159 242.157 55.8132 0.85755 0.0308145
1715400 60.4159 242.17 55.8132 0.85765 0.039235
1715600 60.4159 242.183 55.8132 0.85775 0.0204279
1715800 60.4159 242.196 55.8132 0.85785 -0.000267121
1716000 60.4159 242.209 55.8132 0.85795 -0.0184257
1716200 60.4159 242.222 55.8132 0.85805 -0.0047331
1716400 60.4159 242.235 55.8132 0.85815 0.0029731
1716600 60.4159 242.248 55.8132 0.85825 -0.00282921
1716800 60.4159 242.261 55.8132 0.85835 -0.0134206
1717000 60.4159 242.274 55.8132 0.85845 -0.00640492
1717200 60.4159 242.287 55.8132 0.85855 -0.0429187
1717400 60.4159 242.3 55.8132 0.85865 -0.0237555
1717600 60.4159 242.313 55.8132 0.85875 -0.0134886
1717800 60.4159 242.326 55.8132 0.85885 -0.00128539
1718000 60.4159 242.339 55.8132 0.85895 0.029442
1718200 60.4159 242.352 55.8132 0.85905 0.0267791
1718400 60.4159 242.365 55.8132 0.85915 0.0192021
1718600 60.4159 242.378 55.8132 0.85925 0.00857128
1718800 60.4159 242.391 55.8132 0.85935 0.0192199
1719000 60.4159 242.404 55.8132 0.85945 0.0291155
1719200 60.4159 242.417 55.8132 0.85955 0.0183756
1719400 60.4159 242.43 55.8132 0.85965 0.014392
1719600 60.4159 242.443 55.8132 0.85975 0.0338879
1719800 60.4159 242.456 55.8132 0.85985 0.001437
1720000 60.4159 242.469 55.8132 0.85995 -0.00360384
1720200 60.4159 242.482 55.8132 0.86005 -0.028163
1720400 60.4159 242.496 55.8132 0.86015 -0.00791323
1720600 60.4159 242.509 55.8132 0.86025 -0.00779118
1720800 60.4159 242.522 55.8132 0.86035 -0.00265613
1721000 60.4159 242.535 55.8132 0.86045 -0.0181106
1721200 60.4159 242.548 55.8132 0.86055 -0.00679
1721400 60.4159 242.561 55.8132 0.86065 -0.00749871
1721600 60.4159 242.574 55.8132 0.86075 -0.0044717
1721800 60.4159 242.587 55.8132 0.86085 -0.0163126
1722000 60.4159 242.6 55.8132 0.86095 0.0118825
1722200 60.4159 242.613 55.8132 0.86105 0.0320142
1722400 60.4159 242.626 55.8132 0.86115 0.0366339
1722600 60.4159 242.639 55.8132 0.86125 0.0224963
1722800 60.4159 242.652 55.8132 0.86135 0.00782357
1723000 60.4159 242.665 55.8132 0.86145 0.0183706
1723200 60.4159 242.678 55.8132 0.86155 0.00100888
1723400 60.4159 242.691 55.8132 0.86165 0.0118186
1723600 60.4159 242.704 55.8132 0.86175 0.0185155
1723800 60.4159 242.717 55.8132 0.86185 0.0205235
1724000 60.4159 242.73 55.8132 0.86195 -0.0103943
1724200 60.4159 242.743 55.8132 0.86205 -0.00777266
1724400 60.4159 242.756 55.8132 0.86215 -0.0135187
1724600 60.4159 242.769 55.8132 0.86225 -0.0226517
1724800 60.4159 242.782 55.8132 0.86235 -0.0245966
1725000 60.4159 242.795 55.8132 0.86245 0.00381157
1725200 60.4159 242.808 55.8132 0.86255 -0.009936
1725400 60.4159 242.821 55.8132 0.86265 0.0114045
1725600 60.4159 242.834 55.8132 0.86275 -0.00334947
1725800 60.4159 242.847 55.8132 0.86285 -0.00279784
1726000 60.4159 242.861 55.8132 0.86295 0.00484476
1726200 60.4159 242.874 55.8132 0.86305 0.0226378
1726400 60.4159 242.887 55.8132 0.86315 0.0342453
1726600 60.4159 242.9 55.8132 0.86325 0.015258
1726800 60.4159 242.913 55.8132 0.86335 0.0100639
1727000 60.4159 242.926 55.8132 0.86345 0.0383631
1727200 60.4159 242.939 55.8132 0.86355 0.00694204
1727400 60.4159 242.952 55.8132 0.86365 0.0142837
1727600 60.4159 242.965 55.8132 0.86375 0.00276562
1727800 60.4159 242.978 55.8132 0.86385 0.0067133
1728000 60.4159 242.991 55.8132 0.86395 0.00497764
1728200 60.4159 243.004 55.8132 0.86405 -0.00973768
1728400 60.4159 243.017 55.8132 0.86415 -0.0246694
1728600 60.4159 243.03 55.8132 0.86425 -0.0290149
1728800 60.4159 243.043 55.8132 0.86435 -0.0174996
1729000 60.4159 243.056 55.8132 0.86445 -0.0214331
1729200 60.4159 243.069 55.8132 0.86455 0.00179562
1729400 60.4159 243.082 55.8132 0.86465 0.0109086
1729600 60.4159 243.095 55.8132 0.86475 0.000243356
1729800 60.4159 243.108 55.8132 0.86485 0.0136669
1730000 60.4159 243.121 55.8132 0.86495 0.0116543
1730200 60.4159 243.134 55.8132 0.86505 0.011038
1730400 60.4159 243.147 55.8132 0.86515 0.0204621
1730600 60.4159 243.16 55.8132 0.86525 0.0374903
1730800 60.4159 243.173 55.8132 0.86535 0.0315559
1731000 60.4159 243.186 55.8132 0.86545 0.0314739
1731200 60.4159 243.199 55.8132 0.86555 0.00386149
1731400 60.4159 243.213 55.8132 0.86565 -0.00659349
1731600 60.4159 243.226 55.8132 0.86575 -0.0110712
1731800 60.4159 243.239 55.8132 0.86585 0.0140579
1732000 60.4159 243.252 55.8132 0.86595 0.0126142
1732200 60.4159 243.265 55.8132 0.86605 -0.00801098
1732400 60.4159 243.278 55.8132 0.86615 -0.0128247
1732600 60.4159 243.291 55.8132 0.86625 -0.0216076
1732800 60.4159 243.304 55.8132 0.86635 -0.0316237
1733000 60.4159 243.317 55.8132 0.86645 -0.0164218
1733200 60.4159 243.33 55.8132 0.86655 -0.0056162
1733400 60.4159 243.343 55.8132 0.86665 0.00084802
1733600 60.4159 243.356 55.8132 0.86675 0.0202042
1733800 60.4159 243.369 55.8132 0.86685 0.011363
1734000 60.4159 243.382 55.8132 0.86695 0.0112984
1734200 60.4159 243.395 55.8132 0.86705 0.00364288
1734400 60.4159 243.408 55.8132 0.86715 0.0177444
1734600 60.4159 243.421 55.8132 0.86725 0.0259737
1734800 60.4159 243.434 55.8132 0.86735 0.0322479
1735000 60.4159 243.447 55.8132 0.86745 0.0433594
1735200 60.4159 243.46 55.8132 0.86755 0.0142666
1735400 60.4159 243.473 55.8132 0.86765 0.000485355
1735600 60.4159 243.486 55.8132 0.86775 -0.00307553
1735800 60.4159 243.499 55.8132 0.86785 -0.0156809
1736000 60.4159 243.512 55.8132 0.86795 -0.00948617
1736200 60.4159 243.525 55.8132 0.86805 0.00213394
1736400 60.4159 243.538 55.8132 0.86815 -0.00639459
1736600 60.4159 243.551 55.8132 0.86825 -0.00529897
1736800 60.4159 243.564 55.8132 0.86835 -0.0206123
1737000 60.4159 243.578 55.8132 0.86845 -0.0342995
1737200 60.4159 243.591 55.8132 0.86855 -0.0186867
1737400 60.4159 243.604 55.8132 0.86865 0.00519034
1737600 60.4159 243.617 55.8132 0.86875 0.0247924
1737800 60.4159 243.63 55.8132 0.86885 0.0242824
1738000 60.4159 243.643 55.8132 0.86895 0.0194565
1738200 60.4159 243.656 55.8132 0.86905 0.0139877
1738400 60.4159 243.669 55.8132 0.86915 0.0217596
1738600 60.4159 243.682 55.8132 0.86925 0.00966851
1738800 60.4159 243.695 55.8132 0.86935 0.0181624
1739000 60.4159 243.708 55.8132 0.86945 0.0272968
1739200 60.4159 243.721 55.8132 0.86955 0.0251191
1739400 60.4159 243.734 55.8132 0.86965 0.00680479
1739600 60.4159 243.747 55.8132 0.86975 -0.00494116
1739800 60.4159 243.76 55.8132 0.86985 -0.00558371
1740000 60.4159 243.773 55.8132 0.86995 -0.0104641
1740200 60.4159 243.786 55.8132 0.87005 -0.0241297
1740400 60.4159 243.799 55.8132 0.87015 -0.0197476
1740600 60.4159 243.812 55.8132 0.87025 0.00493689
1740800 60.4159 243.825 55.8132 0.87035 -0.00828502
1741000 60.4159 243.838 55.8132 0.87045 -0.00177795
1741200 60.4159 243.851 55.8132 0.87055 -0.0137868
1741400 60.4159 243.864 55.8132 0.87065 -0.0217681
1741600 60.4159 243.877 55.8132 0.87075 0.00670564
1741800 60.4159 243.89 55.8132 0.87085 0.0341933
1742000 60.4159 243.903 55.8132 0.87095 0.0248699
1742200 60.4159 243.916 55.8132 0.87105 0.0281984
1742400 60.4159 243.93 55.8132 0.87115 0.0301066
1742600 60.4159 243.943 55.8132 0.87125 0.00357327
1742800 60.4159 243.956 55.8132 0.87135 0.0102174
1743000 60.4159 243.969 55.8132 0.87145 0.0147158
1743200 60.4159 243.982 55.8132 0.87155 0.00741155
1743400 60.4159 243.995 55.8132 0.87165 0.0258135
1743600 60.4159 244.008 55.8132 0.87175 -0.0109573
1743800 60.4159 244.021 55.8132 0.87185 0.00149488
1744000 60.4159 244.034 55.8132 0.87195 -0.0256005
1744200 60.4159 244.047 55.8132 0.87205 -0.0160571
1744400 60.4159 244.06 55.8132 0.87215 -0.0233578
1744600 60.4159 244.073 55.8132 0.87225 -0.015583
1744800 60.4159 244.086 55.8132 0.87235 0.00687569
1745000 60.4159 244.099 55.8132 0.87245 0.0200115
1745200 60.4159 244.112 55.8132 0.87255 -0.0102689
1745400 60.4159 244.125 55.8132 0.87265 0.00778511
1745600 60.4159 244.138 55.8132 0.87275 -0.000191529
1745800 60.4159 244.151 55.8132 0.87285 0.0307438
1746000 60.4159 244.164 55.8132 0.87295 0.0132188
1746200 60.4159 244.177 55.8132 0.87305 0.0326239
1746400 60.4159 244.19 55.8132 0.87315 0.0295228
1746600 60.4159 244.203 55.8132 0.87325 0.0166647
1746800 60.4159 244.216 55.8132 0.87335 -0.000292048
1747000 60.4159 244.229 55.8132 0.87345 0.00422774
1747200 60.4159 244.242 55.8132 0.87355 0.00530813
1747400 60.4159 244.255 55.8132 0.87365 -0.00390035
1747600 60.4159 244.268 55.8132 0.87375 -0.00418005
1747800 60.4159 244.281 55.8132 0.87385 0.0011744
1748000 60.4159 244.295 55.8132 0.87395 -0.0171783
1748200 60.4159 244.308 55.8132 0.87405 0.00139087
1748400 60.4159 244.321 55.8132 0.87415 -0.0197447
1748600 60.4159 244.334 55.8132 0.87425 -0.0193583
1748800 60.4159 244.347 55.8132 0.87435 -0.0104568
1749000 60.4159 244.36 55.8132 0.87445 -0.00512381
1749200 60.4159 244.373 55.8132 0.87455 0.0200115
1749400 60.4159 244.386 55.8132 0.87465 0.00732821
1749600 60.4159 244.399 55.8132 0.87475 0.00814798
1749800 60.4159 244.412 55.8132 0.87485 0.013345
1750000 60.4159 244.425 55.8132 0.87495 0.034709
1750200 60.4159 244.438 55.8132 0.87505 0.0128281
1750400 60.4159 244.451 55.8132 0.87515 0.0180891
1750600 60.4159 244.464 55.8132 0.87525 0.0240197
1750800 60.4159 244.477 55.8132 0.87535 0.0235616
1751000 60.4159 244.49 55.8132 0.87545 0.00916983
1751200 60.4159 244.503 55.8132 0.87555 0.00396505
1751400 60.4159 244.516 55.8132 0.87565 -0.0029174
1751600 60.4159 244.529 55.8132 0.87575 -0.017395
1751800 60.4159 244.542 55.8132 0.87585 -0.00951594
1752000 60.4159 244.555 55.8132 0.87595 -0.00961629
1752200 60.4159 244.568 55.8132 0.87605 0.00526439
1752400 60.4159 244.581 55.8132 0.87615 -0.00543107
1752600 60.4159 244.594 55.8132 0.87625 -0.0344429
1752800 60.4159 244.607 55.8132 0.87635 -0.0012369
1753000 60.4159 244.62 55.8132 0.87645 -0.00901954
1753200 60.4159 244.633 55.8132 0.87655 0.00132188
1753400 60.4159 244.647 55.8132 0.87665 0.023535
1753600 60.4159 244.66 55.8132 0.87675 0.023241
1753800 60.4159 244.673 55.8132 0.87685 0.00775176
1754000 60.4159 244.686 55.8132 0.87695 0.0375304
1754200 60.4159 244.699 55.8132 0.87705 0.00858872
1754400 60.4159 244.712 55.8132 0.87715 0.00403924
1754600 60.4159 244.725 55.8132 0.87725 0.0298199
1754800 60.4159 244.738 55.8132 0.87735 0.0260856
1755000 60.4159 244.751 55.8132 0.87745 0.0158286
1755200 60.4159 244.764 55.8132 0.87755 -0.00239788
1755400 60.4159 244.777 55.8132 0.87765 -0.0181409
1755600 60.4159 244.79 55.8132 0.87775 -0.0140063
1755800 60.4159 244.803 55.8132 0.87785 -0.0199934
1756000 60.4159 244.816 55.8132 0.87795 -0.0154435
1756200 60.4159 244.829 55.8132 0.87805 0.00149781
1756400 60.4159 244.842 55.8132 0.87815 0.00094067
1756600 60.4159 244.855 55.8132 0.87825 -0.00950976
1756800 60.4159 244.868 55.8132 0.87835 -0.0135509
1757000 60.4159 244.881 55.8132 0.87845 -0.00541719
1757200 60.4159 244.894 55.8132 0.87855 -0.00271451
1757400 60.4159 244.907 55.8132 0.87865 0.0194998
1757600 60.4159 244.92 55.8132 0.87875 0.0461776
1757800 60.4159 244.933 55.8132 0.87885 0.0303523
1758000 60.4159 244.946 55.8132 0.87895 0.00940951
1758200 60.4159 244.959 55.8132 0.87905 0.0178162
1758400 60.4159 244.972 55.8132 0.87915 0.0160981
1758600 60.4159 244.985 55.8132 0.87925 0.00798135
1758800 60.4159 244.998 55.8132 0.87935 0.0358181
1759000 60.4159 245.012 55.8132 0.87945 0.00598008
1759200 60.4159 245.025 55.8132 0.87955 0.00114328
1759400 60.4159 245.038 55.8132 0.87965 0.00175445
1759600 60.4159 245.051 55.8132 0.87975 -0.0317344
1759800 60.4159 245.064 55.8132 0.87985 -0.020652
1760000 60.4159 245.077 55.8132 0.87995 -0.0169264
1760200 60.4159 245.09 55.8132 0.88005 -0.0167132
1760400 60.4159 245.103 55.8132 0.88015 -0.0107724
1760600 60.4159 245.116 55.8132 0.88025 -0.0132174
1760800 60.4159 245.129 55.8132 0.88035 0.0113168
1761000 60.4159 245.142 55.8132 0.88045 -0.0240696
1761200 60.4159 245.155 55.8132 0.88055 0.00578199
1761400 60.4159 245.168 55.8132 0.88065 0.0213151
1761600 60.4159 245.181 55.8132 0.88075 0.0352498
1761800 60.4159 245.194 55.8132 0.88085 0.0336696
1762000 60.4159 245.207 55.8132 0.88095 0.0305727
1762200 60.4159 245.22 55.8132 0.88105 0.0288063
1762400 60.4159 245.233 55.8132 0.88115 0.0248315
1762600 60.4159 245.246 55.8132 0.88125 0.00983375
1762800 60.4159 245.259 55.8132 0.88135 0.00178724
1763000 60.4159 245.272 55.8132 0.88145 0.0111959
1763200 60.4159 245.285 55.8132 0.88155 -0.00139002
1763400 60.4159 245.298 55.8132 0.88165 0.00393079
1763600 60.4159 245.311 55.8132 0.88175 -0.032251
1763800 60.4159 245.324 55.8132 0.88185 -0.012961
1764000 60.4159 245.337 55.8132 0.88195 -0.0452451
1764200 60.4159 245.35 55.8132 0.88205 -0.0117636
1764400 60.4159 245.364 55.8132 0.88215 -0.0157191
1764600 60.4159 245.377 55.8132 0.88225 0.00815349
1764800 60.4159 245.39 55.8132 0.88235 0.00408685
1765000 60.4159 245.403 55.8132 0.88245 -0.000924
1765200 60.4159 245.416 55.8132 0.88255 0.0125289
1765400 60.4159 245.429 55.8132 0.88265 0.0223299
1765600 60.4159 245.442 55.8132 0.88275 0.0236936
1765800 60.4159 245.455 55.8132 0.88285 0.0286612
1766000 60.4159 245.468 55.8132 0.88295 0.02803
1766200 60.4159 245.481 55.8132 0.88305 0.0334897
1766400 60.4159 245.494 55.8132 0.88315 0.0294068
1766600 60.4159 245.507 55.8132 0.88325 0.0080802
1766800 60.4159 245.52 55.8132 0.88335 0.00343294
1767000 60.4159 245.533 55.8132 0.88345 -0.00563502
1767200 60.4159 245.546 55.8132 0.88355 -0.0128914
1767400 60.4159 245.559 55.8132 0.88365 -0.0177347
1767600 60.4159 245.572 55.8132 0.88375 -0.0128546
1767800 60.4159 245.585 55.8132 0.88385 -0.0106999
1768000 60.4159 245.598 55.8132 0.88395 -0.0249055
1768200 60.4159 245.611 55.8132 0.88405 -0.0202666
1768400 60.4159 245.624 55.8132 0.88415 -0.0163686
1768600 60.4159 245.637 55.8132 0.88425 -0.0063159
1768800 60.4159 245.65 55.8132 0.88435 0.00533295
1769000 60.4159 245.663 55.8132 0.88445 0.0104226
1769200 60.4159 245.676 55.8132 0.88455 0.0316043
1769400 60.4159 245.689 55.8132 0.88465 0.0183075
1769600 60.4159 245.702 55.8132 0.88475 0.0266968
1769800 60.4159 245.715 55.8132 0.88485 0.026795
1770000 60.4159 245.729 55.8132 0.88495 0.0232055
1770200 60.4159 245.742 55.8132 0.88505 0.0335228
1770400 60.4159 245.755 55.8132 0.88515 0.0412914
1770600 60.4159 245.768 55.8132 0.88525 0.0181365
1770800 60.4159 245.781 55.8132 0.88535 -0.0142954
1771000 60.4159 245.794 55.8132 0.88545 -0.000829346
1771200 60.4159 245.807 55.8132 0.88555 -0.0223047
1771400 60.4159 245.82 55.8132 0.88565 -0.0176906
1771600 60.4159 245.833 55.8132 0.88575 -0.0171871
1771800 60.4159 245.846 55.8132 0.88585 -0.0197957
1772000 60.4159 245.859 55.8132 0.88595 -0.0117325
1772200 60.4159 245.872 55.8132 0.88605 -0.0293499
1772400 60.4159 245.885 55.8132 0.88615 -0.0241866
1772600 60.4159 245.898 55.8132 0.88625 -0.00908711
1772800 60.4159 245.911 55.8132 0.88635 0.00509018
1773000 60.4159 245.924 55.8132 0.88645 0.0350826
1773200 60.4159 245.937 55.8132 0.88655 0.0195664
1773400 60.4159 245.95 55.8132 0.88665 0.035024
1773600 60.4159 245.963 55.8132 0.88675 0.0172862
1773800 60.4159 245.976 55.8132 0.88685 0.0185824
1774000 60.4159 245.989 55.8132 0.88695 0.0429182
1774200 60.4159 246.002 55.8132 0.88705 0.0243737
1774400 60.4159 246.015 55.8132 0.88715 0.0241644
1774600 60.4159 246.028 55.8132 0.88725 0.00857153
1774800 60.4159 246.041 55.8132 0.88735 0.0137776
1775000 60.4159 246.054 55.8132 0.88745 -0.0130181
1775200 60.4159 246.067 55.8132 0.88755 -0.00290149
1775400 60.4159 246.081 55.8132 0.88765 -0.0283814
1775600 60.4159 246.094 55.8132 0.88775 -0.0264212
1775800 60.4159 246.107 55.8132 0.88785 -0.0258074
1776000 60.4159 246.12 55.8132 0.88795 -0.00691958
1776200 60.4159 246.133 55.8132 0.88805 -0.0276977
1776400 60.4159 246.146 55.8132 0.88815 -0.0170077
1776600 60.4159 246.159 55.8132 0.88825 -0.0144183
1776800 60.4159 246.172 55.8132 0.88835 -3.42285e-05
1777000 60.4159 246.185 55.8132 0.88845 0.0280678
1777200 60.4159 246.198 55.8132 0.88855 0.012936
1777400 60.4159 246.211 55.8132 0.88865 0.0475008
1777600 60.4159 246.224 55.8132 0.88875 0.0208488
1777800 60.4159 246.237 55.8132 0.88885 0.0354915
1778000 60.4159 246.25 55.8132 0.88895 0.0268623
1778200 60.4159 246.263 55.8132 0.88905 0.0293275
1778400 60.4159 246.276 55.8132 0.88915 0.0222329
1778600 60.4159 246.289 55.8132 0.88925 0.00954963
1778800 60.4159 246.302 55.8132 0.88935 0.0197511
1779000 60.4159 246.315 55.8132 0.88945 -0.0179096
1779200 60.4159 246.328 55.8132 0.88955 -0.0246855
1779400 60.4159 246.341 55.8132 0.88965 -0.00204402
1779600 60.4159 246.354 55.8132 0.88975 -0.0275517
1779800 60.4159 246.367 55.8132 0.88985 -0.0367201
1780000 60.4159 246.38 55.8132 0.88995 -0.0308875
1780200 60.4159 246.393 55.8132 0.89005 -0.00967818
1780400 60.4159 246.406 55.8132 0.89015 -0.00845966
1780600 60.4159 246.419 55.8132 0.89025 -0.0129783
1780800 60.4159 246.432 55.8132 0.89035 0.00273873
1781000 60.4159 246.446 55.8132 0.89045 0.00588722
1781200 60.4159 246.459 55.8132 0.89055 0.047218
1781400 60.4159 246.472 55.8132 0.89065 0.0173242
1781600 60.4159 246.485 55.8132 0.89075 0.0507572
1781800 60.4159 246.498 55.8132 0.89085 0.0318318
1782000 60.4159 246.511 55.8132 0.89095 0.0346732
1782200 60.4159 246.524 55.8132 0.89105 0.0208185
1782400 60.4159 246.537 55.8132 0.89115 0.0196432
1782600 60.4159 246.55 55.8132 0.89125 -0.000163188
1782800 60.4159 246.563 55.8132 0.89135 0.0121227
1783000 60.4159 246.576 55.8132 0.89145 0.00105343
1783200 60.4159 246.589 55.8132 0.89155 -0.0247407
1783400 60.4159 246.602 55.8132 0.89165 -0.0280544
1783600 60.4159 246.615 55.8132 0.89175 -0.0314548
1783800 60.4159 246.628 55.8132 0.89185 -0.0297194
1784000 60.4159 246.641 55.8132 0.89195 -0.0278886
1784200 60.4159 246.654 55.8132 0.89205 -0.0179882
1784400 60.4159 246.667 55.8132 0.89215 -0.00967444
1784600 60.4159 246.68 55.8132 0.89225 0.00013241
1784800 60.4159 246.693 55.8132 0.89235 0.00695792
1785000 60.4159 246.706 55.8132 0.89245 0.0116367
1785200 60.4159 246.719 55.8132 0.89255 0.0244768
1785400 60.4159 246.732 55.8132 0.89265 0.0455219
1785600 60.4159 246.745 55.8132 0.89275 0.0284256
1785800 60.4159 246.758 55.8132 0.89285 0.044688
1786000 60.4159 246.771 55.8132 0.89295 0.0336022
1786200 60.4159 246.784 55.8132 0.89305 0.0258634
1786400 60.4159 246.798 55.8132 0.89315 0.0302407
1786600 60.4159 246.811 55.8132 0.89325 -0.00101426
1786800 60.4159 246.824 55.8132 0.89335 0.0054607
1787000 60.4159 246.837 55.8132 0.89345 -0.0153197
1787200 60.4159 246.85 55.8132 0.89355 -0.0230968
1787400 60.4159 246.863 55.8132 0.89365 -0.0212961
1787600 60.4159 246.876 55.8132 0.89375 -0.0344733
1787800 60.4159 246.889 55.8132 0.89385 -0.0236119
1788000 60.4159 246.902 55.8132 0.89395 -0.0295651
1788200 60.4159 246.915 55.8132 0.89405 -0.0214312
1788400 60.4159 246.928 55.8132 0.89415 -0.0161169
1788600 60.4159 246.941 55.8132 0.89425 0.0030021
1788800 60.4159 246.954 55.8132 0.89435 0.0108021
1789000 60.4159 246.967 55.8132 0.89445 0.0258476
1789200 60.4159 246.98 55.8132 0.89455 0.0262319
1789400 60.4159 246.993 55.8132 0.89465 0.027118
1789600 60.4159 247.006 55.8132 0.89475 0.0402569
1789800 60.4159 247.019 55.8132 0.89485 0.0368996
1790000 60.4159 247.032 55.8132 0.89495 0.037302
1790200 60.4159 247.045 55.8132 0.89505 0.019374
1790400 60.4159 247.058 55.8132 0.89515 0.0202778
1790600 60.4159 247.071 55.8132 0.89525 0.012182
1790800 60.4159 247.084 55.8132 0.89535 -0.00988059
1791000 60.4159 247.097 55.8132 0.89545 -0.0122942
1791200 60.4159 247.11 55.8132 0.89555 -0.0227794
1791400 60.4159 247.123 55.8132 0.89565 -0.0266434
1791600 60.4159 247.136 55.8132 0.89575 -0.0347279
1791800 60.4159 247.149 55.8132 0.89585 -0.0270199
1792000 60.4159 247.163 55.8132 0.89595 -0.0206392
1792200 60.4159 247.176 55.8132 0.89605 -0.0173073
1792400 60.4159 247.189 55.8132 0.89615 -0.0120789
1792600 60.4159 247.202 55.8132 0.89625 0.00921822
1792800 60.4159 247.215 55.8132 0.89635 0.0138397
1793000 60.4159 247.228 55.8132 0.89645 0.0224707
1793200 60.4159 247.241 55.8132 0.89655 0.0342093
1793400 60.4159 247.254 55.8132 0.89665 0.0386546
1793600 60.4159 247.267 55.8132 0.89675 0.042656
1793800 60.4159 247.28 55.8132 0.89685 0.0357186
1794000 60.4159 247.293 55.8132 0.89695 0.00853331
1794200 60.4159 247.306 55.8132 0.89705 0.0264207
1794400 60.4159 247.319 55.8132 0.89715 0.00820584
1794600 60.4159 247.332 55.8132 0.89725 0.0135643
1794800 60.4159 247.345 55.8132 0.89735 -0.0163006
1795000 60.4159 247.358 55.8132 0.89745 -0.0194219
1795200 60.4159 247.371 55.8132 0.89755 -0.0191106
1795400 60.4159 247.384 55.8132 0.89765 -0.0189993
1795600 60.4159 247.397 55.8132 0.89775 -0.0471392
1795800 60.4159 247.41 55.8132 0.89785 -0.0230479
1796000 60.4159 247.423 55.8132 0.89795 -0.0257004
1796200 60.4159 247.436 55.8132 0.89805 0.00286752
1796400 60.4159 247.449 55.8132 0.89815 -0.0191482
1796600 60.4159 247.462 55.8132 0.89825 0.0228226
1796800 60.4159 247.475 55.8132 0.89835 0.0249458
1797000 60.4159 247.488 55.8132 0.89845 0.00814469
1797200 60.4159 247.501 55.8132 0.89855 0.0417157
1797400 60.4159 247.515 55.8132 0.89865 0.0392729
1797600 60.4159 247.528 55.8132 0.89875 0.0473118
1797800 60.4159 247.541 55.8132 0.89885 0.019492
1798000 60.4159 247.554 55.8132 0.89895 0.0227828
1798200 60.4159 247.567 55.8132 0.89905 0.027725
1798400 60.4159 247.58 55.8132 0.89915 0.0105714
1798600 60.4159 247.593 55.8132 0.89925 0.00876997
1798800 60.4159 247.606 55.8132 0.89935 -0.0158363
1799000 60.4159 247.619 55.8132 0.89945 -0.0344581
1799200 60.4159 247.632 55.8132 0.89955 -0.0420905
1799400 60.4159 247.645 55.8132 0.89965 -0.0252336
1799600 60.4159 247.658 55.8132 0.89975 -0.0323123
1799800 60.4159 247.671 55.8132 0.89985 -0.029497
1800000 60.4159 247.684 55.8132 0.89995 -0.00324336
1800200 60.4159 247.697 55.8132 0.90005 -0.0246322
1800400 60.4159 247.71 55.8132 0.90015 0.0126199
1800600 60.4159 247.723 55.8132 0.90025 0.012422
1800800 60.4159 247.736 55.8132 0.90035 0.016693
1801000 60.4159 247.749 55.8132 0.90045 0.036642
1801200 60.4159 247.762 55.8132 0.90055 0.0424856
1801400 60.4159 247.775 55.8132 0.90065 0.0432159
1801600 60.4159 247.788 55.8132 0.90075 0.041114
1801800 60.4159 247.801 55.8132 0.90085 0.0281701
1802000 60.4159 247.814 55.8132 0.90095 0.0189887
1802200 60.4159 247.827 55.8132 0.90105 0.0113932
1802400 60.4159 247.84 55.8132 0.90115 0.00208619
1802600 60.4159 247.853 55.8132 0.90125 -0.0112732
1802800 60.4159 247.866 55.8132 0.90135 -0.00971572
1803000 60.4159 247.88 55.8132 0.90145 -0.0217622
1803200 60.4159 247.893 55.8132 0.90155 -0.0400302
1803400 60.4159 247.906 55.8132 0.90165 -0.0368597
1803600 60.4159 247.919 55.8132 0.90175 -0.034769
1803800 60.4159 247.932 55.8132 0.90185 -0.0190553
1804000 60.4159 247.945 55.8132 0.90195 -0.0186549
1804200 60.4159 247.958 55.8132 0.90205 -0.00273765
1804400 60.4159 247.971 55.8132 0.90215 0.0218831
1804600 60.4159 247.984 55.8132 0.90225 0.0178003
1804800 60.4159 247.997 55.8132 0.90235 0.0131392
1805000 60.4159 248.01 55.8132 0.90245 0.0278031
1805200 60.4159 248.023 55.8132 0.90255 0.0539814
1805400 60.4159 248.036 55.8132 0.90265 0.0478785
1805600 60.4159 248.049 55.8132 0.90275 0.041104
1805800 60.4159 248.062 55.8132 0.90285 0.0340004
1806000 60.4159 248.075 55.8132 0.90295 0.00615678
1806200 60.4159 248.088 55.8132 0.90305 0.0109858
1806400 60.4159 248.101 55.8132 0.90315 0.00069712
1806600 60.4159 248.114 55.8132 0.90325 -0.0284674
1806800 60.4159 248.127 55.8132 0.90335 -0.0111454
1807000 60.4159 248.14 55.8132 0.90345 -0.0255659
1807200 60.4159 248.153 55.8132 0.90355 -0.0341239
1807400 60.4159 248.166 55.8132 0.90365 -0.0368008
1807600 60.4159 248.179 55.8132 0.90375 -0.042869
1807800 60.4159 248.192 55.8132 0.90385 -0.0226445
1808000 60.4159 248.205 55.8132 0.90395 -0.013616
1808200 60.4159 248.218 55.8132 0.90405 0.00382672
1808400 60.4159 248.232 55.8132 0.90415 0.00190234
1808600 60.4159 248.245 55.8132 0.90425 0.0501869
1808800 60.4159 248.258 55.8132 0.90435 0.0320616
1809000 60.4159 248.271 55.8132 0.90445 0.0414765
1809200 60.4159 248.284 55.8132 0.90455 0.0223097
1809400 60.4159 248.297 55.8132 0.90465 0.0444189
1809600 60.4159 248.31 55.8132 0.90475 0.0350527
1809800 60.4159 248.323 55.8132 0.90485 0.0361728
1810000 60.4159 248.336 55.8132 0.90495 0.0337165
1810200 60.4159 248.349 55.8132 0.90505 -0.0059464
1810400 60.4159 248.362 55.8132 0.90515 -0.0069368
1810600 60.4159 248.375 55.8132 0.90525 -0.0174571
1810800 60.4159 248.388 55.8132 0.90535 -0.032544
1811000 60.4159 248.401 55.8132 0.90545 -0.033783
1811200 60.4159 248.414 55.8132 0.90555 -0.0322063
1811400 60.4159 248.427 55.8132 0.90565 -0.035994
1811600 60.4159 248.44 55.8132 0.90575 -0.0313369
1811800 60.4159 248.453 55.8132 0.90585 -0.0312282
1812000 60.4159 248.466 55.8132 0.90595 -0.0152601
1812200 60.4159 248.479 55.8132 0.90605 0.0078693
1812400 60.4159 248.492 55.8132 0.90615 0.0284208
1812600 60.4159 248.505 55.8132 0.90625 0.0402756
1812800 60.4159 248.518 55.8132 0.90635 0.0223308
1813000 60.4159 248.531 55.8132 0.90645 0.0388289
1813200 60.4159 248.544 55.8132 0.90655 0.0542839
1813400 60.4159 248.557 55.8132 0.90665 0.0312428
1813600 60.4159 248.57 55.8132 0.90675 0.0253809
1813800 60.4159 248.583 55.8132 0.90685 0.0269522
1814000 60.4159 248.597 55.8132 0.90695 0.0397301
1814200 60.4159 248.61 55.8132 0.90705 -0.0138334
1814400 60.4159 248.623 55.8132 0.90715 -0.0208389
1814600 60.4159 248.636 55.8132 0.90725 -0.0189524
1814800 60.4159 248.649 55.8132 0.90735 -0.0374409
1815000 60.4159 248.662 55.8132 0.90745 -0.0326897
1815200 60.4159 248.675 55.8132 0.90755 -0.0353474
1815400 60.4159 248.688 55.8132 0.90765 -0.0199272
1815600 60.4159 248.701 55.8132 0.90775 -0.0229876
1815800 60.4159 248.714 55.8132 0.90785 -0.0098381
1816000 60.4159 248.727 55.8132 0.90795 -0.00212786
1816200 60.4159 248.74 55.8132 0.90805 -0.0116975
1816400 60.4159 248.753 55.8132 0.90815 0.0230911
1816600 60.4159 248.766 55.8132 0.90825 0.0425327
1816800 60.4159 248.779 55.8132 0.90835 0.0336908
1817000 60.4159 248.792 55.8132 0.90845 0.0347752
1817200 60.4159 248.805 55.8132 0.90855 0.0425565
1817400 60.4159 248.818 55.8132 0.90865 0.0270623
1817600 60.4159 248.831 55.8132 0.90875 0.0223237
1817800 60.4159 248.844 55.8132 0.90885 0.0167645
1818000 60.4159 248.857 55.8132 0.90895 0.0229079
1818200 60.4159 248.87 55.8132 0.90905 -0.00378656
1818400 60.4159 248.883 55.8132 0.90915 -0.0133561
1818600 60.4159 248.896 55.8132 0.90925 -0.0221878
1818800 60.4159 248.909 55.8132 0.90935 -0.0153596
1819000 60.4159 248.922 55.8132 0.90945 -0.0342341
1819200 60.4159 248.935 55.8132 0.90955 -0.0253583
1819400 60.4159 248.948 55.8132 0.90965 -0.035019
1819600 60.4159 248.962 55.8132 0.90975 -0.0127366
1819800 60.4159 248.975 55.8132 0.90985 -0.0235922
1820000 60.4159 248.988 55.8132 0.90995 -0.000235791
1820200 60.4159 249.001 55.8132 0.91005 -0.00134544
1820400 60.4159 249.014 55.8132 0.91015 0.0270816
1820600 60.4159 249.027 55.8132 0.91025 0.0174429
1820800 60.4159 249.04 55.8132 0.91035 0.0464958
1821000 60.4159 249.053 55.8132 0.91045 0.0396639
1821200 60.4159 249.066 55.8132 0.91055 0.0282178
1821400 60.4159 249.079 55.8132 0.91065 0.0259553
1821600 60.4159 249.092 55.8132 0.91075 0.0297541
1821800 60.4159 249.105 55.8132 0.91085 0.0130093
1822000 60.4159 249.118 55.8132 0.91095 0.0190325
1822200 60.4159 249.131 55.8132 0.91105 -0.00426289
1822400 60.4159 249.144 55.8132 0.91115 -0.00342905
1822600 60.4159 249.157 55.8132 0.91125 -0.0170782
1822800 60.4159 249.17 55.8132 0.91135 -0.0295068
1823000 60.4159 249.183 55.8132 0.91145 -0.0287904
1823200 60.4159 249.196 55.8132 0.91155 -0.0146107
1823400 60.4159 249.209 55.8132 0.91165 -0.0165828
1823600 60.4159 249.222 55.8132 0.91175 -0.0275884
1823800 60.4159 249.235 55.8132 0.91185 -0.0233612
1824000 60.4159 249.248 55.8132 0.91195 -0.0159571
1824200 60.4159 249.261 55.8132 0.91205 0.00878992
1824400 60.4159 249.274 55.8132 0.91215 0.0255081
1824600 60.4159 249.287 55.8132 0.91225 0.0182635
1824800 60.4159 249.3 55.8132 0.91235 0.0327279
1825000 60.4159 249.314 55.8132 0.91245 0.0257812
1825200 60.4159 249.327 55.8132 0.91255 0.0227079
1825400 60.4159 249.34 55.8132 0.91265 0.0444646
1825600 60.4159 249.353 55.8132 0.91275 0.0228312
1825800 60.4159 249.366 55.8132 0.91285 0.028116
1826000 60.4159 249.379 55.8132 0.91295 0.0182919
1826200 60.4159 249.392 55.8132 0.91305 0.00154714
1826400 60.4159 249.405 55.8132 0.91315 -0.0176581
1826600 60.4159 249.418 55.8132 0.91325 -0.010719
1826800 60.4159 249.431 55.8132 0.91335 -0.0205815
1827000 60.4159 249.444 55.8132 0.91345 -0.0147533
1827200 60.4159 249.457 55.8132 0.91355 -0.0287841
1827400 60.4159 249.47 55.8132 0.91365 -0.029698
1827600 60.4159 249.483 55.8132 0.91375 -0.0403924
1827800 60.4159 249.496 55.8132 0.91385 -0.00190605
1828000 60.4159 249.509 55.8132 0.91395 -0.00217848
1828200 60.4159 249.522 55.8132 0.91405 0.00218246
1828400 60.4159 249.535 55.8132 0.91415 0.0155647
1828600 60.4159 249.548 55.8132 0.91425 0.0252198
1828800 60.4159 249.561 55.8132 0.91435 0.0266497
1829000 60.4159 249.574 55.8132 0.91445 0.0267277
1829200 60.4159 249.587 55.8132 0.91455 0.0283213
1829400 60.4159 249.6 55.8132 0.91465 0.0432403
1829600 60.4159 249.613 55.8132 0.91475 0.0259907
1829800 60.4159 249.626 55.8132 0.91485 0.0209377
1830000 60.4159 249.639 55.8132 0.91495 0.0153733
1830200 60.4159 249.652 55.8132 0.91505 -0.00861328
1830400 60.4159 249.665 55.8132 0.91515 -0.0124561
1830600 60.4159 249.679 55.8132 0.91525 -0.0119639
1830800 60.4159 249.692 55.8132 0.91535 -0.022283
1831000 60.4159 249.705 55.8132 0.91545 -0.0295914
1831200 60.4159 249.718 55.8132 0.91555 -0.0201892
1831400 60.4159 249.731 55.8132 0.91565 -0.011685
1831600 60.4159 249.744 55.8132 0.91575 -0.0282022
1831800 60.4159 249.757 55.8132 0.91585 -0.0152421
1832000 60.4159 249.77 55.8132 0.91595 -0.00664711
1832200 60.4159 249.783 55.8132 0.91605 0.00718574
1832400 60.4159 249.796 55.8132 0.91615 0.02154
1832600 60.4159 249.809 55.8132 0.91625 0.0329344
1832800 60.4159 249.822 55.8132 0.91635 0.0224714
1833000 60.4159 249.835 55.8132 0.91645 0.0315751
1833200 60.4159 249.848 55.8132 0.91655 0.0298158
1833400 60.4159 249.861 55.8132 0.91665 0.0179279
1833600 60.4159 249.874 55.8132 0.91675 0.0223405
1833800 60.4159 249.887 55.8132 0.91685 0.0244549
1834000 60.4159 249.9 55.8132 0.91695 0.00285324
1834200 60.4159 249.913 55.8132 0.91705 -0.00596615
1834400 60.4159 249.926 55.8132 0.91715 0.00156502
1834600 60.4159 249.939 55.8132 0.91725 -0.0311357
1834800 60.4159 249.952 55.8132 0.91735 -0.0220439
1835000 60.4159 249.965 55.8132 0.91745 -0.0196467
1835200 60.4159 249.978 55.8132 0.91755 -0.0104178
1835400 60.4159 249.991 55.8132 0.91765 -0.0200056
1835600 60.4159 250.004 55.8132 0.91775 -0.0110929
1835800 60.4159 250.017 55.8132 0.91785 -0.00910106
1836000 60.4159 250.031 55.8132 0.91795 -0.0100087
1836200 60.4159 250.044 55.8132 0.91805 0.0167416
1836400 60.4159 250.057 55.8132 0.91815 0.0106538
1836600 60.4159 250.07 55.8132 0.91825 0.023238
1836800 60.4159 250.083 55.8132 0.91835 0.0290772
1837000 60.4159 250.096 55.8132 0.91845 0.0284608
1837200 60.4159 250.109 55.8132 0.91855 0.0379402
1837400 60.4159 250.122 55.8132 0.91865 0.00533058
1837600 60.4159 250.135 55.8132 0.91875 0.034008
1837800 60.4159 250.148 55.8132 0.91885 0.0106168
1838000 60.4159 250.161 55.8132 0.91895 0.00648086
1838200 60.4159 250.174 55.8132 0.91905 -0.0101562
1838400 60.4159 250.187 55.8132 0.91915 -0.0140525
1838600 60.4159 250.2 55.8132 0.91925 -0.00932758
1838800 60.4159 250.213 55.8132 0.91935 -0.02252
1839000 60.4159 250.226 55.8132 0.91945 -0.021309
1839200 60.4159 250.239 55.8132 0.91955 -0.0207374
1839400 60.4159 250.252 55.8132 0.91965 -0.0231937
1839600 60.4159 250.265 55.8132 0.91975 -0.00159948
1839800 60.4159 250.278 55.8132 0.91985 0.00381019
1840000 60.4159 250.291 55.8132 0.91995 -0.0104673
1840200 60.4159 250.304 55.8132 0.92005 0.00703596
1840400 60.4159 250.317 55.8132 0.92015 0.0353389
1840600 60.4159 250.33 55.8132 0.92025 0.0279701
1840800 60.4159 250.343 55.8132 0.92035 0.0158465
1841000 60.4159 250.356 55.8132 0.92045 0.0301167
1841200 60.4159 250.369 55.8132 0.92055 0.0267593
1841400 60.4159 250.382 55.8132 0.92065 0.0105859
1841600 60.4159 250.396 55.8132 0.92075 0.016687
1841800 60.4159 250.409 55.8132 0.92085 0.0034474
1842000 60.4159 250.422 55.8132 0.92095 0.0161343
1842200 60.4159 250.435 55.8132 0.92105 -0.0179002
1842400 60.4159 250.448 55.8132 0.92115 -0.00802193
1842600 60.4159 250.461 55.8132 0.92125 -0.0334716
1842800 60.4159 250.474 55.8132 0.92135 -0.0240415
1843000 60.4159 250.487 55.8132 0.92145 -0.0163861
1843200 60.4159 250.5 55.8132 0.92155 -0.0093074
1843400 60.4159 250.513 55.8132 0.92165 -0.0131737
1843600 60.4159 250.526 55.8132 0.92175 -0.00744429
1843800 60.4159 250.539 55.8132 0.92185 0.00389869
1844000 60.4159 250.552 55.8132 0.92195 0.0153247
1844200 60.4159 250.565 55.8132 0.92205 0.0102903
1844400 60.4159 250.578 55.8132 0.92215 0.0185398
1844600 60.4159 250.591 55.8132 0.92225 0.0274188
1844800 60.4159 250.604 55.8132 0.92235 0.0397483
1845000 60.4159 250.617 55.8132 0.92245 0.0253913
1845200 60.4159 250.63 55.8132 0.92255 0.0158729
1845400 60.4159 250.643 55.8132 0.92265 0.0221149
1845600 60.4159 250.656 55.8132 0.92275 0.0131811
1845800 60.4159 250.669 55.8132 0.92285 0.00291002
1846000 60.4159 250.682 55.8132 0.92295 -0.00881347
1846200 60.4159 250.695 55.8132 0.92305 -0.017253
1846400 60.4159 250.708 55.8132 0.92315 -0.00885854
1846600 60.4159 250.721 55.8132 0.92325 -0.0221051
1846800 60.4159 250.734 55.8132 0.92335 -0.0197911
1847000 60.4159 250.748 55.8132 0.92345 -0.0344292
1847200 60.4159 250.761 55.8132 0.92355 -0.0166397
1847400 60.4159 250.774 55.8132 0.92365 -0.00532106
1847600 60.4159 250.787 55.8132 0.92375 0.00260927
1847800 60.4159 250.8 55.8132 0.92385 0.000101294
1848000 60.4159 250.813 55.8132 0.92395 0.024381
1848200 60.4159 250.826 55.8132 0.92405 0.0104381
1848400 60.4159 250.839 55.8132 0.92415 0.0226046
1848600 60.4159 250.852 55.8132 0.92425 0.0217502
1848800 60.4159 250.865 55.8132 0.92435 0.0271973
1849000 60.4159 250.878 55.8132 0.92445 0.0331338
1849200 60.4159 250.891 55.8132 0.92455 0.0226663
1849400 60.4159 250.904 55.8132 0.92465 0.0169285
1849600 60.4159 250.917 55.8132 0.92475 0.0148143
1849800 60.4159 250.93 55.8132 0.92485 -0.0109997
1850000 60.4159 250.943 55.8132 0.92495 -0.00585035
1850200 60.4159 250.956 55.8132 0.92505 -0.012212
1850400 60.4159 250.969 55.8132 0.92515 -0.0169492
1850600 60.4159 250.982 55.8132 0.92525 -0.0264156
1850800 60.4159 250.995 55.8132 0.92535 -0.0213506
1851000 60.4159 251.008 55.8132 0.92545 -0.0243746
1851200 60.4159 251.021 55.8132 0.92555 -0.0152608
1851400 60.4159 251.034 55.8132 0.92565 -0.00214729
1851600 60.4159 251.047 55.8132 0.92575 -0.00030267
1851800 60.4159 251.06 55.8132 0.92585 0.0267744
1852000 60.4159 251.073 55.8132 0.92595 -0.00307667
1852200 60.4159 251.086 55.8132 0.92605 0.0224026
1852400 60.4159 251.099 55.8132 0.92615 0.036387
1852600 60.4159 251.113 55.8132 0.92625 0.0368934
1852800 60.4159 251.126 55.8132 0.92635 0.0100786
1853000 60.4159 251.139 55.8132 0.92645 0.0327284
1853200 60.4159 251.152 55.8132 0.92655 0.0161725
1853400 60.4159 251.165 55.8132 0.92665 -0.00181637
1853600 60.4159 251.178 55.8132 0.92675 0.022716
1853800 60.4159 251.191 55.8132 0.92685 0.00428106
1854000 60.4159 251.204 55.8132 0.92695 -0.0119346
1854200 60.4159 251.217 55.8132 0.92705 -0.0188768
1854400 60.4159 251.23 55.8132 0.92715 -0.0300304
1854600 60.4159 251.243 55.8132 0.92725 -0.0293379
1854800 60.4159 251.256 55.8132 0.92735 -0.0205904
1855000 60.4159 251.269 55.8132 0.92745 -0.0181516
1855200 60.4159 251.282 55.8132 0.92755 -0.0110154
1855400 60.4159 251.295 55.8132 0.92765 -0.0113558
1855600 60.4159 251.308 55.8132 0.92775 0.0128672
1855800 60.4159 251.321 55.8132 0.92785 0.00668316
1856000 60.4159 251.334 55.8132 0.92795 0.0173523
1856200 60.4159 251.347 55.8132 0.92805 0.0105553
1856400 60.4159 251.36 55.8132 0.92815 0.0413734
1856600 60.4159 251.373 55.8132 0.92825 0.0203029
1856800 60.4159 251.386 55.8132 0.92835 0.0296018
1857000 60.4159 251.399 55.8132 0.92845 0.0273379
1857200 60.4159 251.412 55.8132 0.92855 0.0217225
1857400 60.4159 251.425 55.8132 0.92865 0.0171946
1857600 60.4159 251.438 55.8132 0.92875 -0.00136275
1857800 60.4159 251.451 55.8132 0.92885 0.00145043
1858000 60.4159 251.465 55.8132 0.92895 0.0052095
1858200 60.4159 251.478 55.8132 0.92905 -0.0367708
1858400 60.4159 251.491 55.8132 0.92915 -0.0183959
1858600 60.4159 251.504 55.8132 0.92925 -0.0294343
1858800 60.4159 251.517 55.8132 0.92935 -0.0213932
1859000 60.4159 251.53 55.8132 0.92945 -0.00518684
1859200 60.4159 251.543 55.8132 0.92955 -0.028125
1859400 60.4159 251.556 55.8132 0.92965 -0.00288113
1859600 60.4159 251.569 55.8132 0.92975 0.00727908
1859800 60.4159 251.582 55.8132 0.92985 0.00191464
1860000 60.4159 251.595 55.8132 0.92995 0.0236594
1860200 60.4159 251.608 55.8132 0.93005 0.0235277
1860400 60.4159 251.621 55.8132 0.93015 0.0230241
1860600 60.4159 251.634 55.8132 0.93025 0.0406664
1860800 60.4159 251.647 55.8132 0.93035 0.0231613
1861000 60.4159 251.66 55.8132 0.93045 0.0326489
1861200 60.4159 251.673 55.8132 0.93055 0.0152928
1861400 60.4159 251.686 55.8132 0.93065 0.0158941
1861600 60.4159 251.699 55.8132 0.93075 -0.00591317
1861800 60.4159 251.712 55.8132 0.93085 -0.00213287
1862000 60.4159 251.725 55.8132 0.93095 -0.0108169
1862200 60.4159 251.738 55.8132 0.93105 -0.0259972
1862400 60.4159 251.751 55.8132 0.93115 -0.0325662
1862600 60.4159 251.764 55.8132 0.93125 -0.0173861
1862800 60.4159 251.777 55.8132 0.93135 -0.0113003
1863000 60.4159 251.79 55.8132 0.93145 -0.00193092
1863200 60.4159 251.803 55.8132 0.93155 -0.0307402
1863400 60.4159 251.816 55.8132 0.93165 -0.00706472
1863600 60.4159 251.83 55.8132 0.93175 -0.00197129
1863800 60.4159 251.843 55.8132 0.93185 0.0171727
1864000 60.4159 251.856 55.8132 0.93195 0.00832483
1864200 60.4159 251.869 55.8132 0.93205 0.0495244
1864400 60.4159 251.882 55.8132 0.93215 0.0260717
1864600 60.4159 251.895 55.8132 0.93225 0.0270317
1864800 60.4159 251.908 55.8132 0.93235 0.0155469
1865000 60.4159 251.921 55.8132 0.93245 0.0129647
1865200 60.4159 251.934 55.8132 0.93255 0.0387389
1865400 60.4159 251.947 55.8132 0.93265 0.0169985
1865600 60.4159 251.96 55.8132 0.93275 0.0123862
1865800 60.4159 251.973 55.8132 0.93285 -0.00354916
1866000 60.4159 251.986 55.8132 0.93295 -0.0187253
1866200 60.4159 251.999 55.8132 0.93305 -0.0271495
1866400 60.4159 252.012 55.8132 0.93315 -0.0339739
1866600 60.4159 252.025 55.8132 0.93325 -0.0255646
1866800 60.4159 252.038 55.8132 0.93335 -0.016455
1867000 60.4159 252.051 55.8132 0.93345 -0.0257659
1867200 60.4159 252.064 55.8132 0.93355 -0.00449299
1867400 60.4159 252.077 55.8132 0.93365 -0.00828161
1867600 60.4159 252.09 55.8132 0.93375 0.00042606
1867800 60.4159 252.103 55.8132 0.93385 -0.00505381
1868000 60.4159 252.116 55.8132 0.93395 0.018332
1868200 60.4159 252.129 55.8132 0.93405 0.0527719
1868400 60.4159 252.142 55.8132 0.93415 0.0386543
1868600 60.4159 252.155 55.8132 0.93425 0.0253078
1868800 60.4159 252.168 55.8132 0.93435 0.0303254
1869000 60.4159 252.182 55.8132 0.93445 0.0255233
1869200 60.4159 252.195 55.8132 0.93455 0.020314
1869400 60.4159 252.208 55.8132 0.93465 0.00923147
1869600 60.4159 252.221 55.8132 0.93475 -0.00358691
1869800 60.4159 252.234 55.8132 0.93485 0.00279212
1870000 60.4159 252.247 55.8132 0.93495 -0.0130665
1870200 60.4159 252.26 55.8132 0.93505 -0.0243045
1870400 60.4159 252.273 55.8132 0.93515 -0.0271098
1870600 60.4159 252.286 55.8132 0.93525 -0.0446213
1870800 60.4159 252.299 55.8132 0.93535 -0.0244306
1871000 60.4159 252.312 55.8132 0.93545 -0.00212357
1871200 60.4159 252.325 55.8132 0.93555 -0.0115274
1871400 60.4159 252.338 55.8132 0.93565 0.00224615
1871600 60.4159 252.351 55.8132 0.93575 -0.00626397
1871800 60.4159 252.364 55.8132 0.93585 0.0163309
1872000 60.4159 252.377 55.8132 0.93595 0.0176226
1872200 60.4159 252.39 55.8132 0.93605 0.0314664
1872400 60.4159 252.403 55.8132 0.93615 0.0407163
1872600 60.4159 252.416 55.8132 0.93625 0.0392503
1872800 60.4159 252.429 55.8132 0.93635 0.0271172
1873000 60.4159 252.442 55.8132 0.93645 0.027808
1873200 60.4159 252.455 55.8132 0.93655 -0.00385452
1873400 60.4159 252.468 55.8132 0.93665 0.012313
1873600 60.4159 252.481 55.8132 0.93675 0.00515881
1873800 60.4159 252.494 55.8132 0.93685 -0.00859379
1874000 60.4159 252.507 55.8132 0.93695 -0.0303766
1874200 60.4159 252.52 55.8132 0.93705 -0.0134968
1874400 60.4159 252.533 55.8132 0.93715 -0.0338604
1874600 60.4159 252.547 55.8132 0.93725 -0.0401086
1874800 60.4159 252.56 55.8132 0.93735 -0.0167517
1875000 60.4159 252.573 55.8132 0.93745 -0.0207079
1875200 60.4159 252.586 55.8132 0.93755 0.00726105
1875400 60.4159 252.599 55.8132 0.93765 0.00115759
1875600 60.4159 252.612 55.8132 0.93775 0.0203791
1875800 60.4159 252.625 55.8132 0.93785 0.0100075
1876000 60.4159 252.638 55.8132 0.93795 0.0149166
1876200 60.4159 252.651 55.8132 0.93805 0.0316923
1876400 60.4159 252.664 55.8132 0.93815 0.0377569
1876600 60.4159 252.677 55.8132 0.93825 0.0456786
1876800 60.4159 252.69 55.8132 0.93835 0.0257202
1877000 60.4159 252.703 55.8132 0.93845 0.0240001
1877200 60.4159 252.716 55.8132 0.93855 0.00311351
1877400 60.4159 252.729 55.8132 0.93865 -0.00413951
1877600 60.4159 252.742 55.8132 0.93875 0.00341997
1877800 60.4159 252.755 55.8132 0.93885 -0.020698
1878000 60.4159 252.768 55.8132 0.93895 -0.0232462
1878200 60.4159 252.781 55.8132 0.93905 -0.0159798
1878400 60.4159 252.794 55.8132 0.93915 -0.0294774
1878600 60.4159 252.807 55.8132 0.93925 -0.0237677
1878800 60.4159 252.82 55.8132 0.93935 -0.038195
1879000 60.4159 252.833 55.8132 0.93945 -0.0138422
1879200 60.4159 252.846 55.8132 0.93955 -0.0060888
1879400 60.4159 252.859 55.8132 0.93965 0.0123602
1879600 60.4159 252.872 55.8132 0.93975 0.0240758
1879800 60.4159 252.885 55.8132 0.93985 0.0165002
1880000 60.4159 252.899 55.8132 0.93995 0.0212005
1880200 60.4159 252.912 55.8132 0.94005 0.0174921
1880400 60.4159 252.925 55.8132 0.94015 0.0572966
1880600 60.4159 252.938 55.8132 0.94025 0.0263809
1880800 60.4159 252.951 55.8132 0.94035 0.0473943
1881000 60.4159 252.964 55.8132 0.94045 0.0200998
1881200 60.4159 252.977 55.8132 0.94055 -0.00281242
1881400 60.4159 252.99 55.8132 0.94065 -0.0070888
1881600 60.4159 253.003 55.8132 0.94075 -0.00818451
1881800 60.4159 253.016 55.8132 0.94085 -0.012283
1882000 60.4159 253.029 55.8132 0.94095 -0.0217627
1882200 60.4159 253.042 55.8132 0.94105 -0.0278248
1882400 60.4159 253.055 55.8132 0.94115 -0.0241205
1882600 60.4159 253.068 55.8132 0.94125 -0.0265595
1882800 60.4159 253.081 55.8132 0.94135 -0.0275699
1883000 60.4159 253.094 55.8132 0.94145 -0.0236494
1883200 60.4159 253.107 55.8132 0.94155 -0.000794418
1883400 60.4159 253.12 55.8132 0.94165 0.00219766
1883600 60.4159 253.133 55.8132 0.94175 0.0325873
1883800 60.4159 253.146 55.8132 0.94185 0.0264771
1884000 60.4159 253.159 55.8132 0.94195 0.0251833
1884200 60.4159 253.172 55.8132 0.94205 0.0276055
1884400 60.4159 253.185 55.8132 0.94215 0.0314752
1884600 60.4159 253.198 55.8132 0.94225 0.0279316
1884800 60.4159 253.211 55.8132 0.94235 0.0326501
1885000 60.4159 253.224 55.8132 0.94245 0.0274792
1885200 60.4159 253.237 55.8132 0.94255 0.0108937
1885400 60.4159 253.25 55.8132 0.94265 -0.00429662
1885600 60.4159 253.264 55.8132 0.94275 -0.0148211
1885800 60.4159 253.277 55.8132 0.94285 -0.0158474
1886000 60.4159 253.29 55.8132 0.94295 -0.0214105
1886200 60.4159 253.303 55.8132 0.94305 -0.0245049
1886400 60.4159 253.316 55.8132 0.94315 -0.0338245
1886600 60.4159 253.329 55.8132 0.94325 -0.0217381
1886800 60.4159 253.342 55.8132 0.94335 -0.0261576
1887000 60.4159 253.355 55.8132 0.94345 -0.00350893
1887200 60.4159 253.368 55.8132 0.94355 -0.011118
1887400 60.4159 253.381 55.8132 0.94365 0.00231547
1887600 60.4159 253.394 55.8132 0.94375 0.00862596
1887800 60.4159 253.407 55.8132 0.94385 0.0314796
1888000 60.4159 253.42 55.8132 0.94395 0.0432767
1888200 60.4159 253.433 55.8132 0.94405 0.0220741
1888400 60.4159 253.446 55.8132 0.94415 0.0410995
1888600 60.4159 253.459 55.8132 0.94425 0.0321286
1888800 60.4159 253.472 55.8132 0.94435 0.0263402
1889000 60.4159 253.485 55.8132 0.94445 0.0179071
1889200 60.4159 253.498 55.8132 0.94455 0.00503022
1889400 60.4159 253.511 55.8132 0.94465 -0.000898156
1889600 60.4159 253.524 55.8132 0.94475 -0.00833679
1889800 60.4159 253.537 55.8132 0.94485 -0.0183845
1890000 60.4159 253.55 55.8132 0.94495 -0.033372
1890200 60.4159 253.563 55.8132 0.94505 -0.0168202
1890400 60.4159 253.576 55.8132 0.94515 -0.0451661
1890600 60.4159 253.589 55.8132 0.94525 -0.0200333
1890800 60.4159 253.602 55.8132 0.94535 -0.00899392
1891000 60.4159 253.616 55.8132 0.94545 -0.0144621
1891200 60.4159 253.629 55.8132 0.94555 -0.00314081
1891400 60.4159 253.642 55.8132 0.94565 -0.00337727
1891600 60.4159 253.655 55.8132 0.94575 0.0122279
1891800 60.4159 253.668 55.8132 0.94585 0.035203
1892000 60.4159 253.681 55.8132 0.94595 0.0437127
1892200 60.4159 253.694 55.8132 0.94605 0.0366266
1892400 60.4159 253.707 55.8132 0.94615 0.0384023
1892600 60.4159 253.72 55.8132 0.94625 0.0253113
1892800 60.4159 253.733 55.8132 0.94635 0.0205154
1893000 60.4159 253.746 55.8132 0.94645 0.0085896
1893200 60.4159 253.759 55.8132 0.94655 -0.00625026
1893400 60.4159 253.772 55.8132 0.94665 0.00317585
1893600 60.4159 253.785 55.8132 0.94675 -0.00301793
1893800 60.4159 253.798 55.8132 0.94685 -0.017836
1894000 60.4159 253.811 55.8132 0.94695 -0.0484919
1894200 60.4159 253.824 55.8132 0.94705 -0.0179334
1894400 60.4159 253.837 55.8132 0.94715 -0.029462
1894600 60.4159 253.85 55.8132 0.94725 -0.0142797
1894800 60.4159 253.863 55.8132 0.94735 -0.0108669
1895000 60.4159 253.876 55.8132 0.94745 -0.0218744
1895200 60.4159 253.889 55.8132 0.94755 0.00828164
1895400 60.4159 253.902 55.8132 0.94765 0.00888979
1895600 60.4159 253.915 55.8132 0.94775 0.0243264
1895800 60.4159 253.928 55.8132 0.94785 0.025339
1896000 60.4159 253.941 55.8132 0.94795 0.0286803
1896200 60.4159 253.954 55.8132 0.94805 0.041327
1896400 60.4159 253.967 55.8132 0.94815 0.0387412
1896600 60.4159 253.981 55.8132 0.94825 0.0174562
1896800 60.4159 253.994 55.8132 0.94835 0.0246372
1897000 60.4159 254.007 55.8132 0.94845 0.00516123
1897200 60.4159 254.02 55.8132 0.94855 0.00722661
1897400 60.4159 254.033 55.8132 0.94865 -0.0141614
1897600 60.4159 254.046 55.8132 0.94875 -0.0204602
1897800 60.4159 254.059 55.8132 0.94885 -0.0310469
1898000 60.4159 254.072 55.8132 0.94895 -0.0181164
1898200 60.4159 254.085 55.8132 0.94905 -0.0125882
1898400 60.4159 254.098 55.8132 0.94915 -0.0244716
1898600 60.4159 254.111 55.8132 0.94925 -0.0254098
1898800 60.4159 254.124 55.8132 0.94935 -0.0184927
1899000 60.4159 254.137 55.8132 0.94945 0.00141169
1899200 60.4159 254.15 55.8132 0.94955 0.0169565
1899400 60.4159 254.163 55.8132 0.94965 -0.0113409
1899600 60.4159 254.176 55.8132 0.94975 0.0325143
1899800 60.4159 254.189 55.8132 0.94985 0.0496008
1900000 60.4159 254.202 55.8132 0.94995 0.0155423
1900200 60.4159 254.215 55.8132 0.95005 0.0339838
1900400 60.4159 254.228 55.8132 0.95015 0.0433705
1900600 60.4159 254.241 55.8132 0.95025 0.0167528
1900800 60.4159 254.254 55.8132 0.95035 0.0127173
1901000 60.4159 254.267 55.8132 0.95045 0.0127494
1901200 60.4159 254.28 55.8132 0.95055 -0.00450413
1901400 60.4159 254.293 55.8132 0.95065 -0.0270987
1901600 60.4159 254.306 55.8132 0.95075 -0.0170533
1901800 60.4159 254.319 55.8132 0.95085 -0.0221288
1902000 60.4159 254.333 55.8132 0.95095 -0.0335963
1902200 60.4159 254.346 55.8132 0.95105 -0.0335305
1902400 60.4159 254.359 55.8132 0.95115 -0.0244605
1902600 60.4159 254.372 55.8132 0.95125 -0.0232751
1902800 60.4159 254.385 55.8132 0.95135 0.00122021
1903000 60.4159 254.398 55.8132 0.95145 0.00237412
1903200 60.4159 254.411 55.8132 0.95155 0.0181766
1903400 60.4159 254.424 55.8132 0.95165 0.0243864
1903600 60.4159 254.437 55.8132 0.95175 0.0222683
1903800 60.4159 254.45 55.8132 0.95185 0.038372
1904000 60.4159 254.463 55.8132 0.95195 0.0418182
1904200 60.4159 254.476 55.8132 0.95205 0.0297376
1904400 60.4159 254.489 55.8132 0.95215 0.0426632
1904600 60.4159 254.502 55.8132 0.95225 0.0251391
1904800 60.4159 254.515 55.8132 0.95235 -0.00145408
1905000 60.4159 254.528 55.8132 0.95245 -0.00265187
1905200 60.4159 254.541 55.8132 0.95255 0.00368553
1905400 60.4159 254.554 55.8132 0.95265 -0.0196242
1905600 60.4159 254.567 55.8132 0.95275 -0.0348985
1905800 60.4159 254.58 55.8132 0.95285 -0.035068
1906000 60.4159 254.593 55.8132 0.95295 -0.0367023
1906200 60.4159 254.606 55.8132 0.95305 -0.025131
1906400 60.4159 254.619 55.8132 0.95315 -0.0372158
1906600 60.4159 254.632 55.8132 0.95325 -0.00677391
1906800 60.4159 254.645 55.8132 0.95335 -0.00456403
1907000 60.4159 254.658 55.8132 0.95345 0.00475582
1907200 60.4159 254.671 55.8132 0.95355 0.00960064
1907400 60.4159 254.684 55.8132 0.95365 0.0257775
1907600 60.4159 254.698 55.8132 0.95375 0.0440866
1907800 60.4159 254.711 55.8132 0.95385 0.0437084
1908000 60.4159 254.724 55.8132 0.95395 0.0440919
1908200 60.4159 254.737 55.8132 0.95405 0.0393769
1908400 60.4159 254.75 55.8132 0.95415 0.0301583
1908600 60.4159 254.763 55.8132 0.95425 0.0189346
1908800 60.4159 254.776 55.8132 0.95435 -0.0021241
1909000 60.4159 254.789 55.8132 0.95445 -0.0134138
1909200 60.4159 254.802 55.8132 0.95455 -0.00679327
1909400 60.4159 254.815 55.8132 0.95465 -0.00722121
1909600 60.4159 254.828 55.8132 0.95475 -0.0364372
1909800 60.4159 254.841 55.8132 0.95485 -0.0373911
1910000 60.4159 254.854 55.8132 0.95495 -0.0448964
1910200 60.4159 254.867 55.8132 0.95505 -0.0294597
1910400 60.4159 254.88 55.8132 0.95515 -0.0321534
1910600 60.4159 254.893 55.8132 0.95525 -0.00745753
1910800 60.4159 254.906 55.8132 0.95535 0.0216485
1911000 60.4159 254.919 55.8132 0.95545 0.00252828
1911200 60.4159 254.932 55.8132 0.95555 0.0270247
1911400 60.4159 254.945 55.8132 0.95565 0.019311
1911600 60.4159 254.958 55.8132 0.95575 0.0338863
1911800 60.4159 254.971 55.8132 0.95585 0.0459471
1912000 60.4159 254.984 55.8132 0.95595 0.053407
1912200 60.4159 254.997 55.8132 0.95605 0.0197077
1912400 60.4159 255.01 55.8132 0.95615 0.0311852
1912600 60.4159 255.023 55.8132 0.95625 0.0177085
1912800 60.4159 255.036 55.8132 0.95635 -0.000769267
1913000 60.4159 255.05 55.8132 0.95645 -0.00782563
1913200 60.4159 255.063 55.8132 0.95655 -0.0229622
1913400 60.4159 255.076 55.8132 0.95665 -0.0378176
1913600 60.4159 255.089 55.8132 0.95675 -0.0165812
1913800 60.4159 255.102 55.8132 0.95685 -0.0327749
1914000 60.4159 255.115 55.8132 0.95695 -0.0377375
1914200 60.4159 255.128 55.8132 0.95705 -0.038249
1914400 60.4159 255.141 55.8132 0.95715 -0.00974932
1914600 60.4159 255.154 55.8132 0.95725 -0.0150343
1914800 60.4159 255.167 55.8132 0.95735 -0.00205846
1915000 60.4159 255.18 55.8132 0.95745 0.0318367
1915200 60.4159 255.193 55.8132 0.95755 0.0310395
1915400 60.4159 255.206 55.8132 0.95765 0.0452326
1915600 60.4159 255.219 55.8132 0.95775 0.0209214
1915800 60.4159 255.232 55.8132 0.95785 0.0250663
1916000 60.4159 255.245 55.8132 0.95795 0.0284936
1916200 60.4159 255.258 55.8132 0.95805 0.0473974
1916400 60.4159 255.271 55.8132 0.95815 0.028556
1916600 60.4159 255.284 55.8132 0.95825 0.0210265
1916800 60.4159 255.297 55.8132 0.95835 -0.00986781
1917000 60.4159 255.31 55.8132 0.95845 -0.00955063
1917200 60.4159 255.323 55.8132 0.95855 -0.0281963
1917400 60.4159 255.336 55.8132 0.95865 -0.0323073
1917600 60.4159 255.349 55.8132 0.95875 -0.0229057
1917800 60.4159 255.362 55.8132 0.95885 -0.0209136
1918000 60.4159 255.375 55.8132 0.95895 -0.0143254
1918200 60.4159 255.388 55.8132 0.95905 -0.0279463
1918400 60.4159 255.401 55.8132 0.95915 -0.0336394
1918600 60.4159 255.415 55.8132 0.95925 -0.0180054
1918800 60.4159 255.428 55.8132 0.95935 0.00914766
1919000 60.4159 255.441 55.8132 0.95945 0.00977768
1919200 60.4159 255.454 55.8132 0.95955 0.0432002
1919400 60.4159 255.467 55.8132 0.95965 0.0312878
1919600 60.4159 255.48 55.8132 0.95975 0.0345876
1919800 60.4159 255.493 55.8132 0.95985 0.0441934
1920000 60.4159 255.506 55.8132 0.95995 0.0198924
1920200 60.4159 255.519 55.8132 0.96005 0.0320014
1920400 60.4159 255.532 55.8132 0.96015 0.0224571
1920600 60.4159 255.545 55.8132 0.96025 0.0190886
1920800 60.4159 255.558 55.8132 0.96035 -0.012494
1921000 60.4159 255.571 55.8132 0.96045 -0.0249762
1921200 60.4159 255.584 55.8132 0.96055 -0.0247744
1921400 60.4159 255.597 55.8132 0.96065 -0.0237678
1921600 60.4159 255.61 55.8132 0.96075 -0.0296513
1921800 60.4159 255.623 55.8132 0.96085 -0.0268722
1922000 60.4159 255.636 55.8132 0.96095 -0.0262064
1922200 60.4159 255.649 55.8132 0.96105 -0.0252086
1922400 60.4159 255.662 55.8132 0.96115 -0.00129753
1922600 60.4159 255.675 55.8132 0.96125 -0.00634507
1922800 60.4159 255.688 55.8132 0.96135 0.00410371
1923000 60.4159 255.701 55.8132 0.96145 0.0296415
1923200 60.4159 255.714 55.8132 0.96155 0.0369546
1923400 60.4159 255.727 55.8132 0.96165 0.0309349
1923600 60.4159 255.74 55.8132 0.96175 0.0316718
1923800 60.4159 255.753 55.8132 0.96185 0.0389654
1924000 60.4159 255.767 55.8132 0.96195 0.0250811
1924200 60.4159 255.78 55.8132 0.96205 0.0190519
1924400 60.4159 255.793 55.8132 0.96215 0.00603333
1924600 60.4159 255.806 55.8132 0.96225 0.0134867
1924800 60.4159 255.819 55.8132 0.96235 -0.00600098
1925000 60.4159 255.832 55.8132 0.96245 -0.0205157
1925200 60.4159 255.845 55.8132 0.96255 -0.0223172
1925400 60.4159 255.858 55.8132 0.96265 -0.018541
1925600 60.4159 255.871 55.8132 0.96275 -0.0328145
1925800 60.4159 255.884 55.8132 0.96285 -0.0256128
1926000 60.4159 255.897 55.8132 0.96295 -0.0245251
1926200 60.4159 255.91 55.8132 0.96305 -0.0210153
1926400 60.4159 255.923 55.8132 0.96315 -0.00596229
1926600 60.4159 255.936 55.8132 0.96325 -0.0075368
1926800 60.4159 255.949 55.8132 0.96335 0.0162855
1927000 60.4159 255.962 55.8132 0.96345 0.0200158
1927200 60.4159 255.975 55.8132 0.96355 0.028555
1927400 60.4159 255.988 55.8132 0.96365 0.038221
1927600 60.4159 256.001 55.8132 0.96375 0.0157626
1927800 60.4159 256.014 55.8132 0.96385 0.0592012
1928000 60.4159 256.027 55.8132 0.96395 0.0241475
1928200 60.4159 256.04 55.8132 0.96405 0.025702
1928400 60.4159 256.053 55.8132 0.96415 -0.00411761
1928600 60.4159 256.066 55.8132 0.96425 -0.0054613
1928800 60.4159 256.079 55.8132 0.96435 0.0117996
1929000 60.4159 256.092 55.8132 0.96445 -0.0150274
1929200 60.4159 256.105 55.8132 0.96455 -0.036925
1929400 60.4159 256.118 55.8132 0.96465 -0.0152
1929600 60.4159 256.132 55.8132 0.96475 -0.0301039
1929800 60.4159 256.145 55.8132 0.96485 -0.0364486
1930000 60.4159 256.158 55.8132 0.96495 -0.0233322
1930200 60.4159 256.171 55.8132 0.96505 -0.00552353
1930400 60.4159 256.184 55.8132 0.96515 -0.0158753
1930600 60.4159 256.197 55.8132 0.96525 0.00445466
1930800 60.4159 256.21 55.8132 0.96535 0.0166456
1931000 60.4159 256.223 55.8132 0.96545 0.0164821
1931200 60.4159 256.236 55.8132 0.96555 0.0326093
1931400 60.4159 256.249 55.8132 0.96565 0.0283998
1931600 60.4159 256.262 55.8132 0.96575 0.0404173
1931800 60.4159 256.275 55.8132 0.96585 0.0496761
1932000 60.4159 256.288 55.8132 0.96595 0.0317368
1932200 60.4159 256.301 55.8132 0.96605 0.0163988
1932400 60.4159 256.314 55.8132 0.96615 0.0125466
1932600 60.4159 256.327 55.8132 0.96625 -0.00508491
1932800 60.4159 256.34 55.8132 0.96635 -0.0164575
1933000 60.4159 256.353 55.8132 0.96645 -0.0280644
1933200 60.4159 256.366 55.8132 0.96655 -0.0263524
1933400 60.4159 256.379 55.8132 0.96665 -0.0260827
1933600 60.4159 256.392 55.8132 0.96675 -0.0194491
1933800 60.4159 256.405 55.8132 0.96685 -0.0277242
1934000 60.4159 256.418 55.8132 0.96695 -0.0155525
1934200 60.4159 256.431 55.8132 0.96705 -0.0250638
1934400 60.4159 256.444 55.8132 0.96715 -0.0120601
1934600 60.4159 256.457 55.8132 0.96725 0.0191928
1934800 60.4159 256.47 55.8132 0.96735 0.0151323
1935000 60.4159 256.484 55.8132 0.96745 0.0278333
1935200 60.4159 256.497 55.8132 0.96755 0.0312271
1935400 60.4159 256.51 55.8132 0.96765 0.0311331
1935600 60.4159 256.523 55.8132 0.96775 0.0353949
1935800 60.4159 256.536 55.8132 0.96785 0.0255502
1936000 60.4159 256.549 55.8132 0.96795 0.033268
1936200 60.4159 256.562 55.8132 0.96805 0.00247856
1936400 60.4159 256.575 55.8132 0.96815 0.0152665
1936600 60.4159 256.588 55.8132 0.96825 -0.00583372
1936800 60.4159 256.601 55.8132 0.96835 -0.0101966
1937000 60.4159 256.614 55.8132 0.96845 -0.0282529
1937200 60.4159 256.627 55.8132 0.96855 -0.024636
1937400 60.4159 256.64 55.8132 0.96865 -0.028256
1937600 60.4159 256.653 55.8132 0.96875 -0.029372
1937800 60.4159 256.666 55.8132 0.96885 -0.0177802
1938000 60.4159 256.679 55.8132 0.96895 -0.0205999
1938200 60.4159 256.692 55.8132 0.96905 -0.00485702
1938400 60.4159 256.705 55.8132 0.96915 0.00223883
1938600 60.4159 256.718 55.8132 0.96925 0.0026519
1938800 60.4159 256.731 55.8132 0.96935 0.0188059
1939000 60.4159 256.744 55.8132 0.96945 0.0415421
1939200 60.4159 256.757 55.8132 0.96955 0.0322733
1939400 60.4159 256.77 55.8132 0.96965 0.0282655
1939600 60.4159 256.783 55.8132 0.96975 0.0321045
1939800 60.4159 256.796 55.8132 0.96985 0.0272337
1940000 60.4159 256.809 55.8132 0.96995 0.0122819
1940200 60.4159 256.822 55.8132 0.97005 0.0101329
1940400 60.4159 256.835 55.8132 0.97015 0.0108036
1940600 60.4159 256.849 55.8132 0.97025 -0.0104004
1940800 60.4159 256.862 55.8132 0.97035 -0.0151991
1941000 60.4159 256.875 55.8132 0.97045 -0.014945
1941200 60.4159 256.888 55.8132 0.97055 -0.0322625
1941400 60.4159 256.901 55.8132 0.97065 -0.0358226
1941600 60.4159 256.914 55.8132 0.97075 -0.0115088
1941800 60.4159 256.927 55.8132 0.97085 -0.0196486
1942000 60.4159 256.94 55.8132 0.97095 -0.0187641
1942200 60.4159 256.953 55.8132 0.97105 -0.0178668
1942400 60.4159 256.966 55.8132 0.97115 0.00237145
1942600 60.4159 256.979 55.8132 0.97125 0.00730171
1942800 60.4159 256.992 55.8132 0.97135 0.0307043
1943000 60.4159 257.005 55.8132 0.97145 0.0305386
1943200 60.4159 257.018 55.8132 0.97155 0.0275987
1943400 60.4159 257.031 55.8132 0.97165 0.0363296
1943600 60.4159 257.044 55.8132 0.97175 0.0278573
1943800 60.4159 257.057 55.8132 0.97185 0.0315209
1944000 60.4159 257.07 55.8132 0.97195 0.030854
1944200 60.4159 257.083 55.8132 0.97205 0.0102986
1944400 60.4159 257.096 55.8132 0.97215 0.00541049
1944600 60.4159 257.109 55.8132 0.97225 -0.014474
1944800 60.4159 257.122 55.8132 0.97235 -0.0285706
1945000 60.4159 257.135 55.8132 0.97245 -0.0184772
1945200 60.4159 257.148 55.8132 0.97255 -0.0337058
1945400 60.4159 257.161 55.8132 0.97265 -0.0222947
1945600 60.4159 257.174 55.8132 0.97275 -0.0266969
1945800 60.4159 257.187 55.8132 0.97285 -0.0308762
1946000 60.4159 257.201 55.8132 0.97295 -0.00142423
1946200 60.4159 257.214 55.8132 0.97305 -0.00381483
1946400 60.4159 257.227 55.8132 0.97315 0.00855364
1946600 60.4159 257.24 55.8132 0.97325 -0.000954975
1946800 60.4159 257.253 55.8132 0.97335 0.0341559
1947000 60.4159 257.266 55.8132 0.97345 0.0148725
1947200 60.4159 257.279 55.8132 0.97355 0.037275
1947400 60.4159 257.292 55.8132 0.97365 0.0390124
1947600 60.4159 257.305 55.8132 0.97375 0.0266986
1947800 60.4159 257.318 55.8132 0.97385 0.0277354
1948000 60.4159 257.331 55.8132 0.97395 0.00907333
1948200 60.4159 257.344 55.8132 0.97405 0.0202904
1948400 60.4159 257.357 55.8132 0.97415 -0.0127365
1948600 60.4159 257.37 55.8132 0.97425 -0.00300392
1948800 60.4159 257.383 55.8132 0.97435 -0.00872863
1949000 60.4159 257.396 55.8132 0.97445 -0.00863668
1949200 60.4159 257.409 55.8132 0.97455 -0.0187779
1949400 60.4159 257.422 55.8132 0.97465 -0.04415
1949600 60.4159 257.435 55.8132 0.97475 -0.0270073
1949800 60.4159 257.448 55.8132 0.97485 -0.0201333
1950000 60.4159 257.461 55.8132 0.97495 -0.0145384
1950200 60.4159 257.474 55.8132 0.97505 0.00876033
1950400 60.4159 257.487 55.8132 0.97515 0.00221205
1950600 60.4159 257.5 55.8132 0.97525 -0.00793212
1950800 60.4159 257.513 55.8132 0.97535 0.0194018
1951000 60.4159 257.526 55.8132 0.97545 0.0302854
1951200 60.4159 257.539 55.8132 0.97555 0.0316268
1951400 60.4159 257.552 55.8132 0.97565 0.0345866
1951600 60.4159 257.566 55.8132 0.97575 0.0407762
1951800 60.4159 257.579 55.8132 0.97585 0.0252428
1952000 60.4159 257.592 55.8132 0.97595 0.0142254
1952200 60.4159 257.605 55.8132 0.97605 0.00414813
1952400 60.4159 257.618 55.8132 0.97615 0.0076616
1952600 60.4159 257.631 55.8132 0.97625 -0.00667929
1952800 60.4159 257.644 55.8132 0.97635 -0.0142587
1953000 60.4159 257.657 55.8132 0.97645 -0.0198144
1953200 60.4159 257.67 55.8132 0.97655 -0.0229287
1953400 60.4159 257.683 55.8132 0.97665 -0.0392946
1953600 60.4159 257.696 55.8132 0.97675 -0.0278426
1953800 60.4159 257.709 55.8132 0.97685 -0.0178101
1954000 60.4159 257.722 55.8132 0.97695 -0.00831883
1954200 60.4159 257.735 55.8132 0.97705 -0.0032818
1954400 60.4159 257.748 55.8132 0.97715 0.00426939
1954600 60.4159 257.761 55.8132 0.97725 0.011103
1954800 60.4159 257.774 55.8132 0.97735 0.00277289
1955000 60.4159 257.787 55.8132 0.97745 0.0316483
1955200 60.4159 257.8 55.8132 0.97755 0.0370485
1955400 60.4159 257.813 55.8132 0.97765 0.0413713
1955600 60.4159 257.826 55.8132 0.97775 0.0277737
1955800 60.4159 257.839 55.8132 0.97785 0.00987963
1956000 60.4159 257.852 55.8132 0.97795 0.025281
1956200 60.4159 257.865 55.8132 0.97805 0.0115156
1956400 60.4159 257.878 55.8132 0.97815 -0.00307461
1956600 60.4159 257.891 55.8132 0.97825 -0.00451487
1956800 60.4159 257.904 55.8132 0.97835 -0.0143063
1957000 60.4159 257.918 55.8132 0.97845 -0.0220468
1957200 60.4159 257.931 55.8132 0.97855 -0.0133869
1957400 60.4159 257.944 55.8132 0.97865 -0.0290532
1957600 60.4159 257.957 55.8132 0.97875 -0.017773
1957800 60.4159 257.97 55.8132 0.97885 -0.0238018
1958000 60.4159 257.983 55.8132 0.97895 -0.00857443
1958200 60.4159 257.996 55.8132 0.97905 -0.000317261
1958400 60.4159 258.009 55.8132 0.97915 0.00730498
1958600 60.4159 258.022 55.8132 0.97925 0.00514992
1958800 60.4159 258.035 55.8132 0.97935 0.0147257
1959000 60.4159 258.048 55.8132 0.97945 0.0230353
1959200 60.4159 258.061 55.8132 0.97955 0.0206679
1959400 60.4159 258.074 55.8132 0.97965 0.0277414
1959600 60.4159 258.087 55.8132 0.97975 0.0280632
1959800 60.4159 258.1 55.8132 0.97985 0.0281009
1960000 60.4159 258.113 55.8132 0.97995 0.00973773
1960200 60.4159 258.126 55.8132 0.98005 0.0100234
1960400 60.4159 258.139 55.8132 0.98015 0.00586715
1960600 60.4159 258.152 55.8132 0.98025 -0.0146341
1960800 60.4159 258.165 55.8132 0.98035 -0.00785749
1961000 60.4159 258.178 55.8132 0.98045 -0.0127067
1961200 60.4159 258.191 55.8132 0.98055 -0.0136305
1961400 60.4159 258.204 55.8132 0.98065 -0.0338996
1961600 60.4159 258.217 55.8132 0.98075 -0.0142885
1961800 60.4159 258.23 55.8132 0.98085 -0.00937664
1962000 60.4159 258.243 55.8132 0.98095 -0.0207607
1962200 60.4159 258.256 55.8132 0.98105 0.00445897
1962400 60.4159 258.269 55.8132 0.98115 -0.00893349
1962600 60.4159 258.283 55.8132 0.98125 0.0110067
1962800 60.4159 258.296 55.8132 0.98135 0.0213152
1963000 60.4159 258.309 55.8132 0.98145 0.0308458
1963200 60.4159 258.322 55.8132 0.98155 0.0110076
1963400 60.4159 258.335 55.8132 0.98165 0.027048
1963600 60.4159 258.348 55.8132 0.98175 0.0237995
1963800 60.4159 258.361 55.8132 0.98185 0.0195772
1964000 60.4159 258.374 55.8132 0.98195 0.0260968
1964200 60.4159 258.387 55.8132 0.98205 -0.00616082
1964400 60.4159 258.4 55.8132 0.98215 0.0113029
1964600 60.4159 258.413 55.8132 0.98225 0.00660913
1964800 60.4159 258.426 55.8132 0.98235 -0.00834063
1965000 60.4159 258.439 55.8132 0.98245 -0.0321751
1965200 60.4159 258.452 55.8132 0.98255 -0.0180001
1965400 60.4159 258.465 55.8132 0.98265 -0.0165731
1965600 60.4159 258.478 55.8132 0.98275 -0.0059477
1965800 60.4159 258.491 55.8132 0.98285 -0.0317286
1966000 60.4159 258.504 55.8132 0.98295 -0.00202052
1966200 60.4159 258.517 55.8132 0.98305 -0.00743753
1966400 60.4159 258.53 55.8132 0.98315 0.00423115
1966600 60.4159 258.543 55.8132 0.98325 -0.00441985
1966800 60.4159 258.556 55.8132 0.98335 0.0145901
1967000 60.4159 258.569 55.8132 0.98345 0.0335568
1967200 60.4159 258.582 55.8132 0.98355 0.0382195
1967400 60.4159 258.595 55.8132 0.98365 0.0170864
1967600 60.4159 258.608 55.8132 0.98375 0.0244426
1967800 60.4159 258.621 55.8132 0.98385 0.0204577
1968000 60.4159 258.634 55.8132 0.98395 0.00386047
1968200 60.4159 258.648 55.8132 0.98405 0.0157184
1968400 60.4159 258.661 55.8132 0.98415 -0.00145954
1968600 60.4159 258.674 55.8132 0.98425 -0.000740372
1968800 60.4159 258.687 55.8132 0.98435 -0.0160701
1969000 60.4159 258.7 55.8132 0.98445 -0.0127471
1969200 60.4159 258.713 55.8132 0.98455 -0.0326175
1969400 60.4159 258.726 55.8132 0.98465 -0.0249049
1969600 60.4159 258.739 55.8132 0.98475 -0.00455869
1969800 60.4159 258.752 55.8132 0.98485 0.00202412
1970000 60.4159 258.765 55.8132 0.98495 -0.0132056
1970200 60.4159 258.778 55.8132 0.98505 -0.00414737
1970400 60.4159 258.791 55.8132 0.98515 -0.0104483
1970600 60.4159 258.804 55.8132 0.98525 0.0130342
1970800 60.4159 258.817 55.8132 0.98535 0.0108588
1971000 60.4159 258.83 55.8132 0.98545 0.0398126
1971200 60.4159 258.843 55.8132 0.98555 0.0337861
1971400 60.4159 258.856 55.8132 0.98565 0.0132393
1971600 60.4159 258.869 55.8132 0.98575 0.0171745
1971800 60.4159 258.882 55.8132 0.98585 0.00974044
1972000 60.4159 258.895 55.8132 0.98595 0.0223018
1972200 60.4159 258.908 55.8132 0.98605 -0.00364326
1972400 60.4159 258.921 55.8132 0.98615 0.000733812
1972600 60.4159 258.934 55.8132 0.98625 -0.00268852
1972800 60.4159 258.947 55.8132 0.98635 -0.00112098
1973000 60.4159 258.96 55.8132 0.98645 -0.0219154
1973200 60.4159 258.973 55.8132 0.98655 -0.0230328
1973400 60.4159 258.986 55.8132 0.98665 -0.0322488
1973600 60.4159 259 55.8132 0.98675 -0.0030923
1973800 60.4159 259.013 55.8132 0.98685 0.00451289
1974000 60.4159 259.026 55.8132 0.98695 -0.0165875
1974200 60.4159 259.039 55.8132 0.98705 -0.000949589
1974400 60.4159 259.052 55.8132 0.98715 0.00899426
1974600 60.4159 259.065 55.8132 0.98725 0.0135802
1974800 60.4159 259.078 55.8132 0.98735 0.00811643
1975000 60.4159 259.091 55.8132 0.98745 0.0132663
1975200 60.4159 259.104 55.8132 0.98755 0.0411747
1975400 60.4159 259.117 55.8132 0.98765 0.0270321
1975600 60.4159 259.13 55.8132 0.98775 0.0267742
1975800 60.4159 259.143 55.8132 0.98785 0.0144902
1976000 60.4159 259.156 55.8132 0.98795 -0.0100547
1976200 60.4159 259.169 55.8132 0.98805 -0.00221021
1976400 60.4159 259.182 55.8132 0.98815 0.00479619
1976600 60.4159 259.195 55.8132 0.98825 0.00126746
1976800 60.4159 259.208 55.8132 0.98835 -0.0120636
1977000 60.4159 259.221 55.8132 0.98845 -0.0259003
1977200 60.4159 259.234 55.8132 0.98855 -0.0151831
1977400 60.4159 259.247 55.8132 0.98865 -0.0201791
1977600 60.4159 259.26 55.8132 0.98875 -0.0165748
1977800 60.4159 259.273 55.8132 0.98885 -0.0190945
1978000 60.4159 259.286 55.8132 0.98895 0.00533393
1978200 60.4159 259.299 55.8132 0.98905 0.013341
1978400 60.4159 259.312 55.8132 0.98915 -0.00617668
1978600 60.4159 259.325 55.8132 0.98925 0.00593024
1978800 60.4159 259.338 55.8132 0.98935 0.0315906
1979000 60.4159 259.351 55.8132 0.98945 0.00451432
1979200 60.4159 259.365 55.8132 0.98955 0.0412787
1979400 60.4159 259.378 55.8132 0.98965 0.0317903
1979600 60.4159 259.391 55.8132 0.98975 0.0228235
1979800 60.4159 259.404 55.8132 0.98985 0.0227787
1980000 60.4159 259.417 55.8132 0.98995 9.0178e-05
1980200 60.4159 259.43 55.8132 0.99005 -0.0136169
1980400 60.4159 259.443 55.8132 0.99015 0.0057308
1980600 60.4159 259.456 55.8132 0.99025 -0.0150805
1980800 60.4159 259.469 55.8132 0.99035 -0.00846933
1981000 60.4159 259.482 55.8132 0.99045 -0.0158456
1981200 60.4159 259.495 55.8132 0.99055 -0.0343536
1981400 60.4159 259.508 55.8132 0.99065 -0.0185713
1981600 60.4159 259.521 55.8132 0.99075 -0.018521
1981800 60.4159 259.534 55.8132 0.99085 -6.38562e-05
1982000 60.4159 259.547 55.8132 0.99095 -0.0135675
1982200 60.4159 259.56 55.8132 0.99105 -0.00068709
1982400 60.4159 259.573 55.8132 0.99115 0.0228033
1982600 60.4159 259.586 55.8132 0.99125 0.0176534
1982800 60.4159 259.599 55.8132 0.99135 0.0324225
1983000 60.4159 259.612 55.8132 0.99145 0.00503046
1983200 60.4159 259.625 55.8132 0.99155 0.0348524
1983400 60.4159 259.638 55.8132 0.99165 0.0316488
1983600 60.4159 259.651 55.8132 0.99175 0.0203332
1983800 60.4159 259.664 55.8132 0.99185 0.0316859
1984000 60.4159 259.677 55.8132 0.99195 -0.00558594
1984200 60.4159 259.69 55.8132 0.99205 -0.00198032
1984400 60.4159 259.703 55.8132 0.99215 -0.0120464
1984600 60.4159 259.717 55.8132 0.99225 -0.0222643
1984800 60.4159 259.73 55.8132 0.99235 -0.00267943
1985000 60.4159 259.743 55.8132 0.99245 -0.0301822
1985200 60.4159 259.756 55.8132 0.99255 -0.0191754
1985400 60.4159 259.769 55.8132 0.99265 -0.0283834
1985600 60.4159 259.782 55.8132 0.99275 -0.0124772
1985800 60.4159 259.795 55.8132 0.99285 -0.00961452
1986000 60.4159 259.808 55.8132 0.99295 0.000486711
1986200 60.4159 259.821 55.8132 0.99305 0.0167633
1986400 60.4159 259.834 55.8132 0.99315 0.0280841
1986600 60.4159 259.847 55.8132 0.99325 0.0115189
1986800 60.4159 259.86 55.8132 0.99335 0.0219495
1987000 60.4159 259.873 55.8132 0.99345 0.0274603
1987200 60.4159 259.886 55.8132 0.99355 0.0214053
1987400 60.4159 259.899 55.8132 0.99365 0.0223428
1987600 60.4159 259.912 55.8132 0.99375 0.0148327
1987800 60.4159 259.925 55.8132 0.99385 -0.000123108
1988000 60.4159 259.938 55.8132 0.99395 0.0130993
1988200 60.4159 259.951 55.8132 0.99405 -0.0069697
1988400 60.4159 259.964 55.8132 0.99415 -0.0112735
1988600 60.4159 259.977 55.8132 0.99425 -0.0190993
1988800 60.4159 259.99 55.8132 0.99435 -0.0225501
1989000 60.4159 260.003 55.8132 0.99445 -0.0137452
1989200 60.4159 260.016 55.8132 0.99455 -0.0218073
1989400 60.4159 260.029 55.8132 0.99465 -0.0231411
1989600 60.4159 260.042 55.8132 0.99475 -0.0135925
1989800 60.4159 260.055 55.8132 0.99485 0.006162
1990000 60.4159 260.068 55.8132 0.99495 0.00273403
1990200 60.4159 260.082 55.8132 0.99505 0.0153275
1990400 60.4159 260.095 55.8132 0.99515 0.0224351
1990600 60.4159 260.108 55.8132 0.99525 0.0267601
1990800 60.4159 260.121 55.8132 0.99535 0.0334742
1991000 60.4159 260.134 55.8132 0.99545 0.00978091
1991200 60.4159 260.147 55.8132 0.99555 0.0232657
1991400 60.4159 260.16 55.8132 0.99565 0.0206369
1991600 60.4159 260.173 55.8132 0.99575 0.0138619
1991800 60.4159 260.186 55.8132 0.99585 0.00523811
1992000 60.4159 260.199 55.8132 0.99595 -0.00992081
1992200 60.4159 260.212 55.8132 0.99605 -0.00743044
1992400 60.4159 260.225 55.8132 0.99615 -0.0177235
1992600 60.4159 260.238 55.8132 0.99625 -0.00796188
1992800 60.4159 260.251 55.8132 0.99635 -0.0217141
1993000 60.4159 260.264 55.8132 0.99645 -0.0275006
1993200 60.4159 260.277 55.8132 0.99655 -0.0283062
1993400 60.4159 260.29 55.8132 0.99665 -0.000316021
1993600 60.4159 260.303 55.8132 0.99675 -0.0142206
1993800 60.4159 260.316 55.8132 0.99685 0.0096824
1994000 60.4159 260.329 55.8132 0.99695 0.0128942
1994200 60.4159 260.342 55.8132 0.99705 0.012064
1994400 60.4159 260.355 55.8132 0.99715 0.0277839
1994600 60.4159 260.368 55.8132 0.99725 0.0238484
1994800 60.4159 260.381 55.8132 0.99735 0.0199615
1995000 60.4159 260.394 55.8132 0.99745 0.0354088
1995200 60.4159 260.407 55.8132 0.99755 0.015524
1995400 60.4159 260.42 55.8132 0.99765 0.0152341
1995600 60.4159 260.434 55.8132 0.99775 0.00736652
1995800 60.4159 260.447 55.8132 0.99785 -0.0113554
1996000 60.4159 260.46 55.8132 0.99795 0.000285515
1996200 60.4159 260.473 55.8132 0.99805 -0.0202961
1996400 60.4159 260.486 55.8132 0.99815 -0.00876339
1996600 60.4159 260.499 55.8132 0.99825 -0.0271506
1996800 60.4159 260.512 55.8132 0.99835 -0.0122951
1997000 60.4159 260.525 55.8132 0.99845 -0.0262345
1997200 60.4159 260.538 55.8132 0.99855 -0.0126809
1997400 60.4159 260.551 55.8132 0.99865 -0.00623577
1997600 60.4159 260.564 55.8132 0.99875 0.00640393
1997800 60.4159 260.577 55.8132 0.99885 0.015057
1998000 60.4159 260.59 55.8132 0.99895 0.0108965
1998200 60.4159 260.603 55.8132 0.99905 0.0125474
1998400 60.4159 260.616 55.8132 0.99915 0.0172684
1998600 60.4159 260.629 55.8132 0.99925 0.0325805
1998800 60.4159 260.642 55.8132 0.99935 0.0138486
1999000 60.4159 260.655 55.8132 0.99945 0.0270504
1999200 60.4159 260.668 55.8132 0.99955 0.0160842
1999400 60.4159 260.681 55.8132 0.99965 0.00334012
1999600 60.4159 260.694 55.8132 0.99975 -0.000305139
1999800 60.4159 260.707 55.8132 0.99985 0.000909123
2000000 60.4159 260.72 55.8132 0.99995 0.0110109
